9 0 1 0 0 0 1 0 0 0 1 0.4689999 24.69 15.19 3 12.5 0.5
9 0 1 0 0 0 1 0 0 0 1 -0.03100014 -5.809999 9.189999 6.5 1 1.5
9 0 1 0 0 0 1 0 0 0 1 -0.5310001 32.69 16.19 2 9.5 0.5
9 0 1 0 0 0 1 0 0 0 1 -0.03100014 -8.309999 5.189999 7.5 0.5 1.5
9 0 1 0 0 0 1 0 0 0 1 -0.03100014 -9.309999 2.189999 7.5 0.5 1.5
9 0 1 0 0 0 1 0 0 0 1 -0.03100014 -5.809999 -8.810001 3.5 1 1.5
9 0 1 0 0 0 1 0 0 0 1 -0.03100014 13.19 16.69 4.5 1 1
9 0 1 0 0 0 1 0 0 0 1 -1.031 43.69 17.19 1.5 5.5 0.5
9 0 1 0 0 0 1 0 0 0 1 -0.03100014 -1.309999 -14.81 5.5 0.5 1.5
9 0 1 0 0 0 1 0 0 0 1 -0.03100014 -10.31 -0.8100014 5.5 0.5 1.5
9 0 1 0 0 0 1 0 0 0 1 -0.03100014 -11.31 -3.310001 3.5 0.5 2
9 0 1 0 0 0 1 0 0 0 1 0.4689999 -7.309999 7.689999 7 0.5 1
9 0 1 0 0 0 1 0 0 0 1 8.469 -5.809999 1.689999 1 1 3
9 0 1 0 0 0 1 0 0 0 1 -8.031 -6.309999 2.689999 0.5 1.5 4
9 0 1 0 0 0 1 0 0 0 1 -1.031 49.19 18.19 1.5 3 0.5
9 0 1 0 0 0 1 0 0 0 1 1.969 31.19 16.19 0.5 8 0.5
9 0 1 0 0 0 1 0 0 0 1 -3.031 20.19 15.19 0.5 8 0.5
9 0 1 0 0 0 1 0 0 0 1 -0.5310001 -4.809999 12.19 4 1 0.5
9 0 1 0 0 0 1 0 0 0 1 -0.03100014 -3.309999 13.19 2.5 1.5 0.5
9 0 1 0 0 0 1 0 0 0 1 -0.03100014 13.69 18.69 3.5 0.5 1
9 0 1 0 0 0 1 0 0 0 1 -0.03100014 -2.309999 -13.31 3.5 0.5 1
9 0 1 0 0 0 1 0 0 0 1 -0.03100014 -7.309999 -8.310001 3.5 0.5 1
9 0 1 0 0 0 1 0 0 0 1 3.969 13.69 14.19 0.5 6.5 0.5
9 0 1 0 0 0 1 0 0 0 1 -0.03100014 -0.3099995 -13.81 6.5 0.5 0.5
9 0 1 0 0 0 1 0 0 0 1 7.469 -6.309999 5.689999 1 1.5 1
9 0 1 0 0 0 1 0 0 0 1 5.969 12.69 15.69 1.5 0.5 2
9 0 1 0 0 0 1 0 0 0 1 -0.03100014 44.19 16.19 1.5 2 0.5
9 0 1 0 0 0 1 0 0 0 1 -4.531 12.19 14.19 1 3 0.5
9 0 1 0 0 0 1 0 0 0 1 -7.031 -6.309999 5.689999 0.5 1.5 2
9 0 1 0 0 0 1 0 0 0 1 -0.03100014 -5.309999 11.19 5.5 0.5 0.5
9 0 1 0 0 0 1 0 0 0 1 6.969 11.69 14.69 2.5 0.5 1
9 0 1 0 0 0 1 0 0 0 1 -0.03100014 33.19 17.19 0.5 5 0.5
9 0 1 0 0 0 1 0 0 0 1 -9.031 -5.809999 1.189999 0.5 1 2.5
9 0 1 0 0 0 1 0 0 0 1 5.969 -9.309999 5.189999 1.5 0.5 1.5
9 0 1 0 0 0 1 0 0 0 1 4.969 -10.31 2.189999 1.5 0.5 1.5
9 0 1 0 0 0 1 0 0 0 1 -0.03100014 38.69 15.19 1.5 1.5 0.5
9 0 1 0 0 0 1 0 0 0 1 -5.031 -10.31 2.189999 1.5 0.5 1.5
9 0 1 0 0 0 1 0 0 0 1 -6.031 12.69 16.19 1.5 0.5 1.5
9 0 1 0 0 0 1 0 0 0 1 -6.031 -9.309999 5.189999 1.5 0.5 1.5
9 0 1 0 0 0 1 0 0 0 1 7.969 -7.809999 2.689999 0.5 1 2
9 0 1 0 0 0 1 0 0 0 1 5.469 -5.809999 -7.310001 1 1 1
9 0 1 0 0 0 1 0 0 0 1 5.469 -5.809999 7.189999 2 1 0.5
9 0 1 0 0 0 1 0 0 0 1 -0.5310001 44.19 18.19 1 2 0.5
9 0 1 0 0 0 1 0 0 0 1 -4.531 -5.809999 -8.310001 1 1 1
9 0 1 0 0 0 1 0 0 0 1 -5.531 -0.8099995 -12.81 2 1 0.5
9 0 1 0 0 0 1 0 0 0 1 -0.03100014 -3.309999 -12.81 3.5 0.5 0.5
9 0 1 0 0 0 1 0 0 0 1 -0.03100014 -4.309999 -11.81 3.5 0.5 0.5
9 0 1 0 0 0 1 0 0 0 1 -0.03100014 -5.309999 -10.81 3.5 0.5 0.5
9 0 1 0 0 0 1 0 0 0 1 9.969 10.69 12.69 1.5 0.5 1
9 0 1 0 0 0 1 0 0 0 1 7.969 -1.309999 -12.31 1.5 0.5 1
9 0 1 0 0 0 1 0 0 0 1 4.469 -11.31 0.1899986 1 0.5 1.5
9 0 1 0 0 0 1 0 0 0 1 0.9689999 48.69 18.69 0.5 1.5 1
9 0 1 0 0 0 1 0 0 0 1 1.469 46.69 17.19 1 1.5 0.5
9 0 1 0 0 0 1 0 0 0 1 -0.03100014 22.19 16.19 1.5 1 0.5
9 0 1 0 0 0 1 0 0 0 1 0.4689999 -8.309999 -7.810001 3 0.5 0.5
9 0 1 0 0 0 1 0 0 0 1 -4.531 -11.31 0.1899986 1 0.5 1.5
9 0 1 0 0 0 1 0 0 0 1 -5.031 -5.809999 7.189999 1.5 1 0.5
9 0 1 0 0 0 1 0 0 0 1 -6.531 -5.309999 -6.810001 1 0.5 1.5
9 0 1 0 0 0 1 0 0 0 1 -8.031 11.69 14.69 1.5 0.5 1
9 0 1 0 0 0 1 0 0 0 1 4.969 19.69 14.19 0.5 2.5 0.5
9 0 1 0 0 0 1 0 0 0 1 -1.031 35.69 17.19 0.5 2.5 0.5
9 0 1 0 0 0 1 0 0 0 1 13.969 8.190001 5.189999 0.5 2 0.5
9 0 1 0 0 0 1 0 0 0 1 8.469 -5.309999 -2.310001 1 0.5 1
9 0 1 0 0 0 1 0 0 0 1 6.969 -5.309999 -6.310001 0.5 0.5 2
9 0 1 0 0 0 1 0 0 0 1 5.469 -0.8099995 -12.81 1 1 0.5
9 0 1 0 0 0 1 0 0 0 1 5.469 -8.309999 7.689999 1 0.5 1
9 0 1 0 0 0 1 0 0 0 1 3.969 14.19 15.19 0.5 2 0.5
9 0 1 0 0 0 1 0 0 0 1 4.469 -5.309999 -9.310001 1 0.5 1
9 0 1 0 0 0 1 0 0 0 1 4.469 -7.309999 9.189999 2 0.5 0.5
9 0 1 0 0 0 1 0 0 0 1 3.469 -3.309999 -11.81 2 0.5 0.5
9 0 1 0 0 0 1 0 0 0 1 1.469 30.19 17.19 1 1 0.5
9 0 1 0 0 0 1 0 0 0 1 -0.03100014 48.19 19.19 0.5 2 0.5
9 0 1 0 0 0 1 0 0 0 1 -0.5310001 47.19 16.19 1 1 0.5
9 0 1 0 0 0 1 0 0 0 1 -1.531 50.19 17.19 1 1 0.5
9 0 1 0 0 0 1 0 0 0 1 -3.531 -3.309999 -11.81 2 0.5 0.5
9 0 1 0 0 0 1 0 0 0 1 -5.531 -8.309999 7.689999 1 0.5 1
9 0 1 0 0 0 1 0 0 0 1 -7.031 -5.809999 -4.310001 0.5 1 1
9 0 1 0 0 0 1 0 0 0 1 -8.031 -5.309999 -3.310001 0.5 0.5 2
9 0 1 0 0 0 1 0 0 0 1 -8.031 -8.309999 2.689999 0.5 0.5 2
9 0 1 0 0 0 1 0 0 0 1 -8.531 11.19 13.19 1 1 0.5
9 0 1 0 0 0 1 0 0 0 1 -8.531 -1.309999 -12.31 1 0.5 1
9 0 1 0 0 0 1 0 0 0 1 -14.031 7.190001 5.689999 0.5 1 1
9 0 1 0 0 0 1 0 0 0 1 12.969 8.690001 8.189999 0.5 0.5 1.5
9 0 1 0 0 0 1 0 0 0 1 11.969 9.690001 10.19 0.5 0.5 1.5
9 0 1 0 0 0 1 0 0 0 1 6.969 -6.309999 4.189999 0.5 1.5 0.5
9 0 1 0 0 0 1 0 0 0 1 5.969 -6.309999 6.189999 0.5 1.5 0.5
9 0 1 0 0 0 1 0 0 0 1 4.969 13.69 15.19 0.5 0.5 1.5
9 0 1 0 0 0 1 0 0 0 1 4.969 9.690001 14.19 0.5 1.5 0.5
9 0 1 0 0 0 1 0 0 0 1 3.969 28.69 15.19 0.5 1.5 0.5
9 0 1 0 0 0 1 0 0 0 1 3.969 -6.309999 -7.810001 0.5 1.5 0.5
9 0 1 0 0 0 1 0 0 0 1 3.969 -11.31 -2.810001 0.5 0.5 1.5
9 0 1 0 0 0 1 0 0 0 1 2.969 29.69 16.19 0.5 1.5 0.5
9 0 1 0 0 0 1 0 0 0 1 0.9689999 43.69 17.19 0.5 1.5 0.5
9 0 1 0 0 0 1 0 0 0 1 0.9689999 37.69 17.19 0.5 1.5 0.5
9 0 1 0 0 0 1 0 0 0 1 -0.03100014 41.69 15.19 0.5 1.5 0.5
9 0 1 0 0 0 1 0 0 0 1 -0.03100014 10.69 15.19 0.5 1.5 0.5
9 0 1 0 0 0 1 0 0 0 1 0.9689999 -1.309999 -16.81 1.5 0.5 0.5
9 0 1 0 0 0 1 0 0 0 1 -0.03100014 -6.309999 -10.81 1.5 0.5 0.5
9 0 1 0 0 0 1 0 0 0 1 -0.03100014 -7.309999 -9.810001 1.5 0.5 0.5
9 0 1 0 0 0 1 0 0 0 1 -5.031 -6.309999 -6.810001 0.5 1.5 0.5
9 0 1 0 0 0 1 0 0 0 1 -6.031 -6.309999 -6.810001 0.5 0.5 1.5
9 0 1 0 0 0 1 0 0 0 1 -6.031 -6.309999 6.189999 0.5 1.5 0.5
9 0 1 0 0 0 1 0 0 0 1 -5.031 -7.309999 9.189999 1.5 0.5 0.5
9 0 1 0 0 0 1 0 0 0 1 -6.031 -10.31 4.189999 1.5 0.5 0.5
9 0 1 0 0 0 1 0 0 0 1 -10.031 10.69 12.19 1.5 0.5 0.5
9 0 1 0 0 0 1 0 0 0 1 -12.031 9.690001 10.19 0.5 0.5 1.5
