9 0 1 0 0 0 1 0 0 0 1 24.073 2.216999 19.423 1 3.5 0.5
9 0 1 0 0 0 1 0 0 0 1 28.073 -1.283001 20.423 1 3 0.5
9 0 1 0 0 0 1 0 0 0 1 -20.927 3.716999 18.423 1 3 0.5
9 0 1 0 0 0 1 0 0 0 1 -23.927 2.716999 19.423 1 3 0.5
9 0 1 0 0 0 1 0 0 0 1 -30.927 -1.283001 21.423 1 3 0.5
9 0 1 0 0 0 1 0 0 0 1 31.073 -1.783001 21.423 1 2.5 0.5
9 0 1 0 0 0 1 0 0 0 1 22.073 0.2169991 18.423 1 2.5 0.5
9 0 1 0 0 0 1 0 0 0 1 19.073 1.216999 17.423 1 2.5 0.5
9 0 1 0 0 0 1 0 0 0 1 -17.927 4.216999 17.423 1 2.5 0.5
9 0 1 0 0 0 1 0 0 0 1 -26.927 2.216999 20.423 1 2.5 0.5
9 0 1 0 0 0 1 0 0 0 1 -25.427 -0.2830009 19.423 0.5 4 0.5
9 0 1 0 0 0 1 0 0 0 1 29.573 2.216999 21.423 0.5 3.5 0.5
9 0 1 0 0 0 1 0 0 0 1 14.573 7.216999 16.423 0.5 3.5 0.5
9 0 1 0 0 0 1 0 0 0 1 -22.427 0.2169991 18.423 0.5 3.5 0.5
9 0 1 0 0 0 1 0 0 0 1 34.073 -2.783001 22.423 1 1.5 0.5
9 0 1 0 0 0 1 0 0 0 1 33.073 0.2169991 22.423 1 1.5 0.5
9 0 1 0 0 0 1 0 0 0 1 27.073 3.216999 20.423 1 1.5 0.5
9 0 1 0 0 0 1 0 0 0 1 25.573 -1.283001 19.423 0.5 3 0.5
9 0 1 0 0 0 1 0 0 0 1 21.073 4.216999 18.423 1 1.5 0.5
9 0 1 0 0 0 1 0 0 0 1 17.573 5.716999 17.423 0.5 3 0.5
9 0 1 0 0 0 1 0 0 0 1 -14.427 7.716999 16.423 0.5 3 0.5
9 0 1 0 0 0 1 0 0 0 1 -15.427 3.716999 16.423 0.5 3 0.5
9 0 1 0 0 0 1 0 0 0 1 -27.927 -1.783001 20.423 1 1.5 0.5
9 0 1 0 0 0 1 0 0 0 1 -29.427 2.716999 21.423 0.5 3 0.5
9 0 1 0 0 0 1 0 0 0 1 -32.927 0.2169991 22.423 1 1.5 0.5
9 0 1 0 0 0 1 0 0 0 1 -33.927 -2.783001 22.423 1 1.5 0.5
9 0 1 0 0 0 1 0 0 0 1 15.573 3.216999 16.423 0.5 2.5 0.5
9 0 1 0 0 0 1 0 0 0 1 13.073 11.717 15.423 1 1 0.5
9 0 1 0 0 0 1 0 0 0 1 11.573 7.716999 15.423 0.5 2 0.5
9 0 1 0 0 0 1 0 0 0 1 6.572998 5.716999 12.423 0.5 2 0.5
9 0 1 0 0 0 1 0 0 0 1 5.572998 7.716999 12.423 0.5 2 0.5
9 0 1 0 0 0 1 0 0 0 1 -6.427002 5.716999 12.423 0.5 2 0.5
9 0 1 0 0 0 1 0 0 0 1 -17.427 8.716999 17.423 0.5 2 0.5
9 0 1 0 0 0 1 0 0 0 1 -18.927 0.7169991 17.423 1 1 0.5
9 0 1 0 0 0 1 0 0 0 1 -36.427 -1.283001 23.423 0.5 2 0.5
9 0 1 0 0 0 1 0 0 0 1 36.573 -1.783001 23.423 0.5 1.5 0.5
9 0 1 0 0 0 1 0 0 0 1 26.573 6.216999 20.423 0.5 1.5 0.5
9 0 1 0 0 0 1 0 0 0 1 20.573 7.216999 18.423 0.5 1.5 0.5
9 0 1 0 0 0 1 0 0 0 1 -4.427002 10.217 12.423 0.5 1.5 0.5
9 0 1 0 0 0 1 0 0 0 1 -9.427002 11.217 14.423 0.5 1.5 0.5
9 0 1 0 0 0 1 0 0 0 1 -12.427 4.216999 15.423 0.5 1.5 0.5
9 0 1 0 0 0 1 0 0 0 1 -13.427 12.217 15.423 0.5 1.5 0.5
9 0 1 0 0 0 1 0 0 0 1 -16.427 1.216999 16.423 0.5 1.5 0.5
9 0 1 0 0 0 1 0 0 0 1 -17.427 13.217 16.423 0.5 1.5 0.5
9 0 1 0 0 0 1 0 0 0 1 -26.427 6.216999 20.423 0.5 1.5 0.5
9 0 1 0 0 0 1 0 0 0 1 -26.427 -2.783001 19.423 0.5 1.5 0.5
9 0 1 0 0 0 1 0 0 0 1 -30.427 3.216999 21.423 0.5 1.5 0.5
9 0 1 0 0 0 1 0 0 0 1 -32.427 -3.783001 21.423 0.5 1.5 0.5
