9 0 1 0 0 0 1 0 0 0 1 0.2000008 -34 2.799999 3 1.5 4.5
9 0 1 0 0 0 1 0 0 0 1 0.2000008 -36 0.2999992 3 0.5 3
9 0 1 0 0 0 1 0 0 0 1 6.200001 -52 2.299999 2 0.5 3
9 0 1 0 0 0 1 0 0 0 1 -0.2999992 -34.5 -2.200001 4.5 1 0.5
9 0 1 0 0 0 1 0 0 0 1 -6.299999 -52 2.299999 1.5 0.5 3
9 0 1 0 0 0 1 0 0 0 1 0.2000008 -34.5 7.799999 4 1 0.5
9 0 1 0 0 0 1 0 0 0 1 5.700001 -43 8.799999 1.5 2.5 0.5
9 0 1 0 0 0 1 0 0 0 1 -6.299999 -43 8.799999 1.5 2.5 0.5
9 0 1 0 0 0 1 0 0 0 1 4.700001 -45 -2.700001 0.5 3.5 1
9 0 1 0 0 0 1 0 0 0 1 -3.299999 -33 -0.7000008 0.5 3.5 1
9 0 1 0 0 0 1 0 0 0 1 -5.299999 -44.5 -2.200001 0.5 5 0.5
9 0 1 0 0 0 1 0 0 0 1 4.700001 -46 7.799999 0.5 4.5 0.5
9 0 1 0 0 0 1 0 0 0 1 -0.2999992 -37 -2.200001 4.5 0.5 0.5
9 0 1 0 0 0 1 0 0 0 1 6.200001 -53 2.299999 2 0.5 1
9 0 1 0 0 0 1 0 0 0 1 2.700001 -32 2.299999 0.5 0.5 4
9 0 1 0 0 0 1 0 0 0 1 -6.799999 -53 2.299999 2 0.5 1
9 0 1 0 0 0 1 0 0 0 1 6.200001 -48 -2.200001 1 1.5 0.5
9 0 1 0 0 0 1 0 0 0 1 -2.299999 -32 2.799999 0.5 0.5 2.5
9 0 1 0 0 0 1 0 0 0 1 -8.299999 -52 2.299999 0.5 0.5 2
9 0 1 0 0 0 1 0 0 0 1 5.700001 -45 -2.200001 0.5 1.5 0.5
9 0 1 0 0 0 1 0 0 0 1 4.700001 -40 -2.200001 0.5 1.5 0.5
9 0 1 0 0 0 1 0 0 0 1 4.700001 -47 8.799999 0.5 1.5 0.5
9 0 1 0 0 0 1 0 0 0 1 -3.299999 -34 6.799999 0.5 1.5 0.5
9 0 1 0 0 0 1 0 0 0 1 -5.299999 -47 -3.200001 0.5 1.5 0.5
9 0 1 0 0 0 1 0 0 0 1 -6.299999 -48 -2.200001 0.5 1.5 0.5
