9 0 1 0 0 0 1 0 0 0 1 0.2000008 -29.5 3.7 9.5 6 3.5
9 0 1 0 0 0 1 0 0 0 1 -6.299999 -42.5 3.2 2 7 4
9 0 1 0 0 0 1 0 0 0 1 6.700001 -42 3.2 2 6.5 4
9 0 1 0 0 0 1 0 0 0 1 5.700001 -29.5 -0.8000002 3 6 1
9 0 1 0 0 0 1 0 0 0 1 -10.3 -29.5 3.2 1 6 3
9 0 1 0 0 0 1 0 0 0 1 10.7 -30 3.2 1 5.5 3
9 0 1 0 0 0 1 0 0 0 1 -5.799999 -28 -0.8000002 2.5 5.5 1
9 0 1 0 0 0 1 0 0 0 1 5.700001 -35 8.2 1 12.5 1
9 0 1 0 0 0 1 0 0 0 1 -5.299999 -36.5 8.2 1 12 1
9 0 1 0 0 0 1 0 0 0 1 6.200001 -50.5 2.7 1.5 2 3.5
9 0 1 0 0 0 1 0 0 0 1 -9.299999 -40.5 3.2 1 5 2
9 0 1 0 0 0 1 0 0 0 1 -6.299999 -51 3.2 2 1.5 3
9 0 1 0 0 0 1 0 0 0 1 9.200001 -41 3.2 0.5 5.5 3
9 0 1 0 0 0 1 0 0 0 1 -5.299999 -41.5 -1.8 1 8 1
9 0 1 0 0 0 1 0 0 0 1 5.700001 -35.5 -2.3 1 13 0.5
9 0 1 0 0 0 1 0 0 0 1 7.700001 -34 7.7 1 11.5 0.5
9 0 1 0 0 0 1 0 0 0 1 -7.299999 -34 7.7 1 11.5 0.5
9 0 1 0 0 0 1 0 0 0 1 6.200001 -43 -1.3 1.5 7.5 0.5
9 0 1 0 0 0 1 0 0 0 1 -11.8 -28.5 4.2 0.5 5 2
9 0 1 0 0 0 1 0 0 0 1 3.200001 -29.5 7.7 1.5 6 0.5
9 0 1 0 0 0 1 0 0 0 1 -2.799999 -30 7.7 1.5 5.5 0.5
9 0 1 0 0 0 1 0 0 0 1 -0.2999992 -33 -0.3000002 3 2.5 0.5
9 0 1 0 0 0 1 0 0 0 1 -7.299999 -40.5 -1.3 1 7 0.5
9 0 1 0 0 0 1 0 0 0 1 12.2 -26.5 4.2 0.5 3 2
9 0 1 0 0 0 1 0 0 0 1 9.700001 -29.5 -0.3000002 1 6 0.5
9 0 1 0 0 0 1 0 0 0 1 -5.799999 -26.5 -2.3 1.5 4 0.5
9 0 1 0 0 0 1 0 0 0 1 -9.299999 -29.5 -0.3000002 1 6 0.5
9 0 1 0 0 0 1 0 0 0 1 6.200001 -23 0.1999998 2.5 0.5 2
9 0 1 0 0 0 1 0 0 0 1 -8.799999 -40.5 6.2 0.5 5 1
9 0 1 0 0 0 1 0 0 0 1 -8.799999 -47.5 2.7 0.5 2 2.5
9 0 1 0 0 0 1 0 0 0 1 8.200001 -50 3.2 0.5 1.5 3
9 0 1 0 0 0 1 0 0 0 1 10.2 -37.5 3.2 0.5 2 2
9 0 1 0 0 0 1 0 0 0 1 -7.299999 -26.5 8.7 1 4 0.5
9 0 1 0 0 0 1 0 0 0 1 -8.799999 -39.5 0.1999998 0.5 4 1
9 0 1 0 0 0 1 0 0 0 1 -9.299999 -23 4.2 1 0.5 4
9 0 1 0 0 0 1 0 0 0 1 10.7 -24 3.7 1 0.5 3.5
9 0 1 0 0 0 1 0 0 0 1 9.700001 -23 3.7 1 0.5 3.5
9 0 1 0 0 0 1 0 0 0 1 7.700001 -26 8.7 1 3.5 0.5
9 0 1 0 0 0 1 0 0 0 1 -0.7999992 -34.5 -1.3 3.5 1 0.5
9 0 1 0 0 0 1 0 0 0 1 -10.3 -27 6.7 1 3.5 0.5
9 0 1 0 0 0 1 0 0 0 1 4.200001 -29 8.7 0.5 6.5 0.5
9 0 1 0 0 0 1 0 0 0 1 10.7 -27.5 6.7 1 3 0.5
9 0 1 0 0 0 1 0 0 0 1 9.200001 -48 3.2 0.5 1.5 2
9 0 1 0 0 0 1 0 0 0 1 6.700001 -53 2.7 2 0.5 1.5
9 0 1 0 0 0 1 0 0 0 1 0.2000008 -33.5 7.7 1.5 2 0.5
9 0 1 0 0 0 1 0 0 0 1 -5.299999 -23.5 8.7 1 1 1.5
9 0 1 0 0 0 1 0 0 0 1 -5.799999 -50.5 -0.8000002 1.5 1 1
9 0 1 0 0 0 1 0 0 0 1 -6.299999 -53 2.7 2 0.5 1.5
9 0 1 0 0 0 1 0 0 0 1 -5.799999 -23 1.2 2.5 0.5 1
9 0 1 0 0 0 1 0 0 0 1 -5.799999 -34.5 -0.3000002 2.5 1 0.5
9 0 1 0 0 0 1 0 0 0 1 -7.299999 -43 8.7 1 2.5 0.5
9 0 1 0 0 0 1 0 0 0 1 6.200001 -50 6.7 1.5 1.5 0.5
9 0 1 0 0 0 1 0 0 0 1 12.2 -31.5 4.2 0.5 2 1
9 0 1 0 0 0 1 0 0 0 1 10.2 -41.5 3.2 0.5 2 1
9 0 1 0 0 0 1 0 0 0 1 4.200001 -36 1.2 0.5 0.5 4
9 0 1 0 0 0 1 0 0 0 1 3.700001 -23 5.2 1 0.5 2
9 0 1 0 0 0 1 0 0 0 1 -8.799999 -27.5 7.7 0.5 4 0.5
9 0 1 0 0 0 1 0 0 0 1 -11.8 -26.5 1.2 0.5 2 1
9 0 1 0 0 0 1 0 0 0 1 7.200001 -26 -2.3 0.5 3.5 0.5
9 0 1 0 0 0 1 0 0 0 1 -2.799999 -27 -0.3000002 0.5 3.5 0.5
9 0 1 0 0 0 1 0 0 0 1 -8.799999 -26 -1.3 0.5 3.5 0.5
9 0 1 0 0 0 1 0 0 0 1 -10.8 -27 -0.3000002 0.5 3.5 0.5
9 0 1 0 0 0 1 0 0 0 1 9.200001 -25.5 7.7 0.5 3 0.5
9 0 1 0 0 0 1 0 0 0 1 5.700001 -24 9.7 1 1.5 0.5
9 0 1 0 0 0 1 0 0 0 1 5.700001 -49 7.7 1 1.5 0.5
9 0 1 0 0 0 1 0 0 0 1 2.200001 -27.5 -0.3000002 0.5 3 0.5
9 0 1 0 0 0 1 0 0 0 1 -3.799999 -23 5.2 0.5 0.5 3
9 0 1 0 0 0 1 0 0 0 1 -5.299999 -32 -2.3 1 1.5 0.5
9 0 1 0 0 0 1 0 0 0 1 -6.799999 -33.5 8.7 0.5 3 0.5
9 0 1 0 0 0 1 0 0 0 1 -5.799999 -50.5 6.7 1.5 1 0.5
9 0 1 0 0 0 1 0 0 0 1 -8.799999 -50.5 2.7 0.5 1 1.5
9 0 1 0 0 0 1 0 0 0 1 -9.799999 -38.5 5.7 0.5 3 0.5
9 0 1 0 0 0 1 0 0 0 1 11.2 -26 -0.3000002 0.5 2.5 0.5
9 0 1 0 0 0 1 0 0 0 1 9.200001 -38 6.7 0.5 2.5 0.5
9 0 1 0 0 0 1 0 0 0 1 7.200001 -43 8.7 0.5 2.5 0.5
9 0 1 0 0 0 1 0 0 0 1 4.200001 -33 -2.3 0.5 2.5 0.5
9 0 1 0 0 0 1 0 0 0 1 -2.799999 -31 -1.3 0.5 2.5 0.5
9 0 1 0 0 0 1 0 0 0 1 -3.799999 -26 8.7 0.5 2.5 0.5
9 0 1 0 0 0 1 0 0 0 1 -3.799999 -36 -0.3000002 0.5 0.5 2.5
9 0 1 0 0 0 1 0 0 0 1 -8.799999 -43 7.7 0.5 2.5 0.5
9 0 1 0 0 0 1 0 0 0 1 -10.8 -23 3.7 0.5 0.5 2.5
9 0 1 0 0 0 1 0 0 0 1 12.2 -26.5 1.7 0.5 2 0.5
9 0 1 0 0 0 1 0 0 0 1 9.200001 -37.5 -0.3000002 0.5 2 0.5
9 0 1 0 0 0 1 0 0 0 1 8.200001 -52 3.2 0.5 0.5 2
9 0 1 0 0 0 1 0 0 0 1 4.200001 -25.5 -2.3 0.5 2 0.5
9 0 1 0 0 0 1 0 0 0 1 -5.299999 -49.5 7.7 1 1 0.5
9 0 1 0 0 0 1 0 0 0 1 -6.799999 -47.5 7.7 0.5 2 0.5
9 0 1 0 0 0 1 0 0 0 1 -9.799999 -32.5 6.7 0.5 2 0.5
9 0 1 0 0 0 1 0 0 0 1 -9.799999 -37.5 0.6999998 0.5 2 0.5
9 0 1 0 0 0 1 0 0 0 1 -9.799999 -46.5 3.2 0.5 1 1
9 0 1 0 0 0 1 0 0 0 1 -11.8 -34 3.2 0.5 0.5 2
9 0 1 0 0 0 1 0 0 0 1 9.200001 -50 2.7 0.5 0.5 1.5
9 0 1 0 0 0 1 0 0 0 1 7.200001 -31 8.7 0.5 1.5 0.5
9 0 1 0 0 0 1 0 0 0 1 7.200001 -47 7.7 0.5 1.5 0.5
9 0 1 0 0 0 1 0 0 0 1 3.200001 -25 8.7 0.5 1.5 0.5
9 0 1 0 0 0 1 0 0 0 1 0.2000008 -25 7.7 1.5 0.5 0.5
9 0 1 0 0 0 1 0 0 0 1 -2.799999 -24 7.7 1.5 0.5 0.5
9 0 1 0 0 0 1 0 0 0 1 -6.799999 -24 9.7 0.5 1.5 0.5
9 0 1 0 0 0 1 0 0 0 1 -5.799999 -52 -0.3000002 1.5 0.5 0.5
9 0 1 0 0 0 1 0 0 0 1 -8.799999 -47 5.7 0.5 1.5 0.5
9 0 1 0 0 0 1 0 0 0 1 -11.8 -25 6.7 0.5 1.5 0.5
