9 0 1 0 0 0 1 0 0 0 1 0 16 8 38.5 14.5 0.5
9 0 1 0 0 0 1 0 0 0 1 0 24 -8 38.5 6.5 0.5
9 0 1 0 0 0 1 0 0 0 1 0 3 5.5 38.5 0.5 2
9 0 1 0 0 0 1 0 0 0 1 38 21 0.5 0.5 9.5 7
9 0 1 0 0 0 1 0 0 0 1 -38 21 0.5 0.5 9.5 7
9 0 1 0 0 0 1 0 0 0 1 0 14 -7 38.5 0.5 0.5
9 0 1 0 0 0 1 0 0 0 1 38 8.5 3 0.5 3 4.5
9 0 1 0 0 0 1 0 0 0 1 -38 8.5 3 0.5 3 4.5
9 0 1 0 0 0 1 0 0 0 1 38 22.5 -7 0.5 8 0.5
9 0 1 0 0 0 1 0 0 0 1 -38 22.5 -7 0.5 8 0.5
9 0 1 0 0 0 1 0 0 0 1 38 4.5 4.5 0.5 1 3
9 0 1 0 0 0 1 0 0 0 1 -38 4.5 4.5 0.5 1 3
9 0 1 0 0 0 1 0 0 0 1 38 10 -3 0.5 1.5 1.5
9 0 1 0 0 0 1 0 0 0 1 -38 10 -3 0.5 1.5 1.5
9 0 1 0 0 0 1 0 0 0 1 25.5 4 2 4 0.5 0.5
9 0 1 0 0 0 1 0 0 0 1 -9.5 4 2 4 0.5 0.5
9 0 1 0 0 0 1 0 0 0 1 9 12 -6 3.5 0.5 0.5
9 0 1 0 0 0 1 0 0 0 1 8 4 2 3.5 0.5 0.5
9 0 1 0 0 0 1 0 0 0 1 -26 4 2 3.5 0.5 0.5
9 0 1 0 0 0 1 0 0 0 1 7.5 2 7 3 0.5 0.5
9 0 1 0 0 0 1 0 0 0 1 -7.5 17 -8 3 0.5 0.5
9 0 1 0 0 0 1 0 0 0 1 23 17 -8 2.5 0.5 0.5
9 0 1 0 0 0 1 0 0 0 1 23 2 7 2.5 0.5 0.5
9 0 1 0 0 0 1 0 0 0 1 7 17 -8 2.5 0.5 0.5
9 0 1 0 0 0 1 0 0 0 1 -7 2 7 2.5 0.5 0.5
9 0 1 0 0 0 1 0 0 0 1 -23 17 -8 2.5 0.5 0.5
9 0 1 0 0 0 1 0 0 0 1 -23 2 7 2.5 0.5 0.5
9 0 1 0 0 0 1 0 0 0 1 27.5 12 -6 2 0.5 0.5
9 0 1 0 0 0 1 0 0 0 1 -9.5 12 -6 2 0.5 0.5
9 0 1 0 0 0 1 0 0 0 1 37 17 -8 1.5 0.5 0.5
9 0 1 0 0 0 1 0 0 0 1 37 2 7 1.5 0.5 0.5
9 0 1 0 0 0 1 0 0 0 1 28 5 0 1.5 0.5 0.5
9 0 1 0 0 0 1 0 0 0 1 18 10 -5 1.5 0.5 0.5
9 0 1 0 0 0 1 0 0 0 1 2 10 -5 1.5 0.5 0.5
9 0 1 0 0 0 1 0 0 0 1 -2 5 0 1.5 0.5 0.5
9 0 1 0 0 0 1 0 0 0 1 -18 5 0 1.5 0.5 0.5
9 0 1 0 0 0 1 0 0 0 1 -23 12 -6 1.5 0.5 0.5
9 0 1 0 0 0 1 0 0 0 1 -28 10 -5 1.5 0.5 0.5
9 0 1 0 0 0 1 0 0 0 1 -37 17 -8 1.5 0.5 0.5
9 0 1 0 0 0 1 0 0 0 1 -37 2 7 1.5 0.5 0.5
