9 0 1 0 0 0 1 0 0 0 1 -12.8 -17 -0.3000011 4 9.5 10
9 0 1 0 0 0 1 0 0 0 1 0.7000008 -16.5 12.2 9.5 9 3.5
9 0 1 0 0 0 1 0 0 0 1 13.2 -20.5 0.1999989 4 7 8.5
9 0 1 0 0 0 1 0 0 0 1 -0.2999992 -20 -13.3 8.5 6.5 4
9 0 1 0 0 0 1 0 0 0 1 -18.3 -16 -0.3000011 1.5 7.5 7
9 0 1 0 0 0 1 0 0 0 1 13.2 -10 2.199999 4 3.5 5.5
9 0 1 0 0 0 1 0 0 0 1 0.2000008 -16 17.2 8 5.5 1.5
9 0 1 0 0 0 1 0 0 0 1 11.7 -19 -11.3 3.5 5.5 3
9 0 1 0 0 0 1 0 0 0 1 -3.299999 -9 -14.3 4.5 2.5 5
9 0 1 0 0 0 1 0 0 0 1 -11.8 -16 -12.8 3 7.5 2.5
9 0 1 0 0 0 1 0 0 0 1 18.7 -18.5 0.1999989 1.5 5 6.5
9 0 1 0 0 0 1 0 0 0 1 -11.3 -29 0.1999989 2.5 2.5 7.5
9 0 1 0 0 0 1 0 0 0 1 -0.2999992 -15.5 -18.8 7.5 4 1.5
9 0 1 0 0 0 1 0 0 0 1 6.700001 -11 -12.8 5.5 2.5 3.5
9 0 1 0 0 0 1 0 0 0 1 -11.3 -16.5 12.2 2.5 7 2.5
9 0 1 0 0 0 1 0 0 0 1 0.2000008 -28.5 -12.3 7 2 3
9 0 1 0 0 0 1 0 0 0 1 12.7 -16 11.2 2.5 6.5 2.5
9 0 1 0 0 0 1 0 0 0 1 0.7000008 -27.5 10.7 9.5 2 2
9 0 1 0 0 0 1 0 0 0 1 -12.3 -6 -0.3000011 3.5 1.5 7
9 0 1 0 0 0 1 0 0 0 1 11.2 -9.5 -6.300001 3 4 3
9 0 1 0 0 0 1 0 0 0 1 11.7 -29.5 1.199999 2.5 2 6.5
9 0 1 0 0 0 1 0 0 0 1 -0.2999992 -5.5 10.7 7.5 2 2
9 0 1 0 0 0 1 0 0 0 1 -0.2999992 -34 3.199999 9.5 0.5 4.5
9 0 1 0 0 0 1 0 0 0 1 -3.799999 -12.5 -13.3 5 1 4
9 0 1 0 0 0 1 0 0 0 1 -20.8 -16.5 0.6999989 1 4 5
9 0 1 0 0 0 1 0 0 0 1 18.7 -11.5 0.1999989 1.5 2 6.5
9 0 1 0 0 0 1 0 0 0 1 8.200001 -19.5 7.199999 1 13 1.5
9 0 1 0 0 0 1 0 0 0 1 -5.799999 -19.5 -8.800001 3 13 0.5
9 0 1 0 0 0 1 0 0 0 1 5.700001 -18.5 -8.800001 2.5 15 0.5
9 0 1 0 0 0 1 0 0 0 1 1.200001 -5 -12.3 4 1.5 3
9 0 1 0 0 0 1 0 0 0 1 12.2 -5.5 2.199999 3 1 5.5
9 0 1 0 0 0 1 0 0 0 1 13.2 -33.5 4.699999 4 2 2
9 0 1 0 0 0 1 0 0 0 1 -6.799999 -18 8.199999 2 15.5 0.5
9 0 1 0 0 0 1 0 0 0 1 10.7 -17.5 -15.8 2.5 4 1.5
9 0 1 0 0 0 1 0 0 0 1 0.2000008 -12 -25.3 2 1.5 5
9 0 1 0 0 0 1 0 0 0 1 0.2000008 -22 -18.3 6 2.5 1
9 0 1 0 0 0 1 0 0 0 1 -7.799999 -18.5 -7.300001 1 15 1
9 0 1 0 0 0 1 0 0 0 1 21.2 -16.5 0.1999989 1 4 3.5
9 0 1 0 0 0 1 0 0 0 1 -13.3 -33.5 4.699999 3.5 2 2
9 0 1 0 0 0 1 0 0 0 1 -11.3 -16 -16.3 2.5 5.5 1
9 0 1 0 0 0 1 0 0 0 1 16.7 -18 -10.3 1.5 4.5 2
9 0 1 0 0 0 1 0 0 0 1 15.7 -10.5 -6.300001 1.5 3 3
9 0 1 0 0 0 1 0 0 0 1 -15.3 -28 0.6999989 1.5 1.5 6
9 0 1 0 0 0 1 0 0 0 1 -1.299999 -9 -21.8 3.5 1.5 2.5
9 0 1 0 0 0 1 0 0 0 1 10.7 -26.5 -10.8 2.5 2 2.5
9 0 1 0 0 0 1 0 0 0 1 8.700001 -23.5 -5.800001 0.5 10 2.5
9 0 1 0 0 0 1 0 0 0 1 -0.2999992 -31 10.2 5.5 1.5 1.5
9 0 1 0 0 0 1 0 0 0 1 -15.3 -16 11.2 1.5 5.5 1.5
9 0 1 0 0 0 1 0 0 0 1 5.200001 -7.5 -12.3 4 1 3
9 0 1 0 0 0 1 0 0 0 1 -8.299999 -18 6.199999 0.5 15.5 1.5
9 0 1 0 0 0 1 0 0 0 1 3.700001 -8.5 -17.8 2.5 3 1.5
9 0 1 0 0 0 1 0 0 0 1 -0.2999992 -16.5 19.2 4.5 5 0.5
9 0 1 0 0 0 1 0 0 0 1 -0.2999992 -26.5 14.2 7.5 1 1.5
9 0 1 0 0 0 1 0 0 0 1 -17.8 -16 -9.800001 1 4.5 2.5
9 0 1 0 0 0 1 0 0 0 1 0.2000008 -35 2.199999 6 0.5 3.5
9 0 1 0 0 0 1 0 0 0 1 0.2000008 -31.5 -10.8 7 1 1.5
9 0 1 0 0 0 1 0 0 0 1 -6.299999 -5.5 -11.3 3.5 1 3
9 0 1 0 0 0 1 0 0 0 1 -10.3 -3.5 0.6999989 1.5 1 7
9 0 1 0 0 0 1 0 0 0 1 -15.8 -16.5 -12.3 1 5 2
9 0 1 0 0 0 1 0 0 0 1 -17.8 -16.5 8.699999 1 5 2
9 0 1 0 0 0 1 0 0 0 1 16.7 -16 9.699999 1.5 6.5 1
9 0 1 0 0 0 1 0 0 0 1 -0.2999992 -23 16.7 6.5 1.5 1
9 0 1 0 0 0 1 0 0 0 1 14.2 -12 -12.3 2 1.5 3
9 0 1 0 0 0 1 0 0 0 1 11.2 -3.5 0.1999989 2 1 4.5
9 0 1 0 0 0 1 0 0 0 1 9.200001 -14 -18.3 2 4.5 1
9 0 1 0 0 0 1 0 0 0 1 0.2000008 -6.5 14.2 6 1 1.5
9 0 1 0 0 0 1 0 0 0 1 -10.3 -15.5 15.7 1.5 6 1
9 0 1 0 0 0 1 0 0 0 1 -17.8 -25 1.199999 1 1.5 5.5
9 0 1 0 0 0 1 0 0 0 1 -10.8 -25.5 -12.3 2 2 2
9 0 1 0 0 0 1 0 0 0 1 8.700001 -18 4.699999 0.5 15.5 1
9 0 1 0 0 0 1 0 0 0 1 -8.299999 -18 -5.300001 0.5 15.5 1
9 0 1 0 0 0 1 0 0 0 1 15.7 -28.5 1.699999 1.5 1 5
9 0 1 0 0 0 1 0 0 0 1 7.700001 -18.5 -7.300001 0.5 15 1
9 0 1 0 0 0 1 0 0 0 1 -9.299999 -14.5 -18.3 1.5 5 1
9 0 1 0 0 0 1 0 0 0 1 6.700001 -19 7.699999 0.5 14.5 1
9 0 1 0 0 0 1 0 0 0 1 19.2 -16 -8.300001 1 3.5 2
9 0 1 0 0 0 1 0 0 0 1 12.2 -16 14.7 2 3.5 1
9 0 1 0 0 0 1 0 0 0 1 0.2000008 -9.5 16.7 7 1 1
9 0 1 0 0 0 1 0 0 0 1 18.2 -25 1.199999 1 1.5 4.5
9 0 1 0 0 0 1 0 0 0 1 12.7 -25 9.699999 2.5 2.5 1
9 0 1 0 0 0 1 0 0 0 1 12.7 -10 8.199999 3.5 3.5 0.5
9 0 1 0 0 0 1 0 0 0 1 4.200001 -11 -22.3 2 1.5 2
9 0 1 0 0 0 1 0 0 0 1 -10.8 -6 8.699999 2 1.5 2
9 0 1 0 0 0 1 0 0 0 1 -10.8 -25.5 11.2 2 2 1.5
9 0 1 0 0 0 1 0 0 0 1 -11.3 -28 -8.800001 2.5 1.5 1.5
9 0 1 0 0 0 1 0 0 0 1 18.2 -18 7.699999 1 5.5 1
9 0 1 0 0 0 1 0 0 0 1 9.700001 -17 16.7 1.5 3.5 1
9 0 1 0 0 0 1 0 0 0 1 -3.299999 -11.5 -23.8 1.5 1 3.5
9 0 1 0 0 0 1 0 0 0 1 -13.3 -37 4.699999 3.5 1.5 1
9 0 1 0 0 0 1 0 0 0 1 11.2 -29.5 -7.800001 2 1 2.5
9 0 1 0 0 0 1 0 0 0 1 9.700001 -6.5 10.7 2.5 1 2
9 0 1 0 0 0 1 0 0 0 1 7.200001 -5.5 -11.8 2 1 2.5
9 0 1 0 0 0 1 0 0 0 1 -1.299999 -5.5 -17.3 2.5 1 2
9 0 1 0 0 0 1 0 0 0 1 -8.299999 -9 -13.3 0.5 2.5 4
9 0 1 0 0 0 1 0 0 0 1 -7.799999 -28.5 -11.8 1 2 2.5
9 0 1 0 0 0 1 0 0 0 1 18.7 -8.5 -1.300001 1.5 1 3
9 0 1 0 0 0 1 0 0 0 1 14.2 -9 -10.8 2 1.5 1.5
9 0 1 0 0 0 1 0 0 0 1 13.2 -37 4.699999 3 1.5 1
9 0 1 0 0 0 1 0 0 0 1 10.7 -7.5 -12.3 1.5 1 3
9 0 1 0 0 0 1 0 0 0 1 -0.2999992 -15.5 -20.8 4.5 2 0.5
9 0 1 0 0 0 1 0 0 0 1 -0.2999992 -27.5 -16.3 4.5 1 1
9 0 1 0 0 0 1 0 0 0 1 -0.2999992 -28.5 13.7 4.5 1 1
9 0 1 0 0 0 1 0 0 0 1 0.2000008 -3 10.2 6 0.5 1.5
9 0 1 0 0 0 1 0 0 0 1 -10.3 -32.5 -0.3000011 1.5 1 3
9 0 1 0 0 0 1 0 0 0 1 -11.3 -6 -9.300001 1.5 1.5 2
9 0 1 0 0 0 1 0 0 0 1 -16.8 -6.5 0.1999989 1 1 4.5
9 0 1 0 0 0 1 0 0 0 1 -20.3 -10.5 -0.8000011 0.5 2 4.5
9 0 1 0 0 0 1 0 0 0 1 11.7 -5 -5.800001 3.5 0.5 2.5
9 0 1 0 0 0 1 0 0 0 1 17.7 -17.5 -7.300001 0.5 8 1
9 0 1 0 0 0 1 0 0 0 1 16.2 -16.5 11.7 1 4 1
9 0 1 0 0 0 1 0 0 0 1 12.2 -8.5 10.7 2 1 2
9 0 1 0 0 0 1 0 0 0 1 11.2 -32 -1.300001 2 0.5 4
9 0 1 0 0 0 1 0 0 0 1 -10.8 -28.5 8.699999 2 2 1
9 0 1 0 0 0 1 0 0 0 1 6.700001 -18 -7.800001 0.5 15.5 0.5
9 0 1 0 0 0 1 0 0 0 1 5.700001 -18 8.199999 0.5 15.5 0.5
9 0 1 0 0 0 1 0 0 0 1 -6.299999 -18 -7.800001 0.5 15.5 0.5
9 0 1 0 0 0 1 0 0 0 1 20.7 -15.5 -5.800001 0.5 3 2.5
9 0 1 0 0 0 1 0 0 0 1 9.200001 -11 -16.8 3 2.5 0.5
9 0 1 0 0 0 1 0 0 0 1 -0.2999992 -6.5 -20.8 2.5 1 1.5
9 0 1 0 0 0 1 0 0 0 1 -11.3 -8.5 11.2 2.5 1 1.5
9 0 1 0 0 0 1 0 0 0 1 -13.3 -4 0.6999989 1.5 0.5 5
9 0 1 0 0 0 1 0 0 0 1 -20.3 -22 0.6999989 0.5 1.5 5
9 0 1 0 0 0 1 0 0 0 1 16.2 -17 -13.3 1 3.5 1
9 0 1 0 0 0 1 0 0 0 1 14.2 -17 -15.3 1 3.5 1
9 0 1 0 0 0 1 0 0 0 1 -0.2999992 -3 -11.3 3.5 0.5 2
9 0 1 0 0 0 1 0 0 0 1 -17.8 -8 -0.3000011 1 0.5 7
9 0 1 0 0 0 1 0 0 0 1 -20.3 -16 -6.300001 0.5 3.5 2
9 0 1 0 0 0 1 0 0 0 1 11.7 -24 12.2 1.5 1.5 1.5
9 0 1 0 0 0 1 0 0 0 1 9.700001 -23 -15.8 1.5 1.5 1.5
9 0 1 0 0 0 1 0 0 0 1 -0.2999992 -21 -19.8 4.5 1.5 0.5
9 0 1 0 0 0 1 0 0 0 1 -8.299999 -16 17.2 0.5 4.5 1.5
9 0 1 0 0 0 1 0 0 0 1 -0.2999992 -31 -13.3 6.5 0.5 1
9 0 1 0 0 0 1 0 0 0 1 -5.299999 -4 -10.8 2.5 0.5 2.5
9 0 1 0 0 0 1 0 0 0 1 -7.299999 -21 7.199999 0.5 12.5 0.5
9 0 1 0 0 0 1 0 0 0 1 -22.3 -16 -0.8000011 0.5 2.5 2.5
9 0 1 0 0 0 1 0 0 0 1 20.7 -11 0.6999989 0.5 1.5 4
9 0 1 0 0 0 1 0 0 0 1 16.2 -5.5 -0.3000011 1 1 3
9 0 1 0 0 0 1 0 0 0 1 4.200001 -6.5 -15.8 3 2 0.5
9 0 1 0 0 0 1 0 0 0 1 0.2000008 -14 -24.3 2 0.5 3
9 0 1 0 0 0 1 0 0 0 1 0.2000008 -26 16.2 4 1.5 0.5
9 0 1 0 0 0 1 0 0 0 1 0.2000008 -25.5 -17.8 6 1 0.5
9 0 1 0 0 0 1 0 0 0 1 -10.3 -7.5 -13.3 1.5 1 2
9 0 1 0 0 0 1 0 0 0 1 -14.3 -30.5 1.699999 0.5 1 6
9 0 1 0 0 0 1 0 0 0 1 -14.8 -16.5 13.7 1 3 1
9 0 1 0 0 0 1 0 0 0 1 20.7 -17 5.199999 0.5 3.5 1.5
9 0 1 0 0 0 1 0 0 0 1 -19.3 -17 -8.800001 0.5 3.5 1.5
9 0 1 0 0 0 1 0 0 0 1 20.7 -21.5 0.6999989 0.5 1 5
9 0 1 0 0 0 1 0 0 0 1 15.2 -30 2.699999 1 0.5 5
9 0 1 0 0 0 1 0 0 0 1 10.2 -4 -6.800001 2 0.5 2.5
9 0 1 0 0 0 1 0 0 0 1 5.700001 -34 -3.300001 2.5 0.5 2
9 0 1 0 0 0 1 0 0 0 1 3.200001 -11 -25.3 1 2.5 1
9 0 1 0 0 0 1 0 0 0 1 3.700001 -8 -20.8 1.5 1.5 1.5
9 0 1 0 0 0 1 0 0 0 1 -1.299999 -9.5 -25.3 2.5 1 1
9 0 1 0 0 0 1 0 0 0 1 0.2000008 -5 13.7 5 0.5 1
9 0 1 0 0 0 1 0 0 0 1 0.2000008 -7.5 16.2 5 1 0.5
9 0 1 0 0 0 1 0 0 0 1 0.2000008 -30.5 12.2 5 1 0.5
9 0 1 0 0 0 1 0 0 0 1 0.2000008 -33 -10.3 5 0.5 1
9 0 1 0 0 0 1 0 0 0 1 -5.799999 -34 -3.800001 2 0.5 2.5
9 0 1 0 0 0 1 0 0 0 1 -12.8 -15.5 15.2 1 5 0.5
9 0 1 0 0 0 1 0 0 0 1 -17.3 -27.5 0.6999989 0.5 1 5
9 0 1 0 0 0 1 0 0 0 1 -19.3 -16.5 7.699999 0.5 5 1
9 0 1 0 0 0 1 0 0 0 1 17.2 -12 -10.8 1 1.5 1.5
9 0 1 0 0 0 1 0 0 0 1 14.7 -25.5 -9.800001 1.5 1 1.5
9 0 1 0 0 0 1 0 0 0 1 11.7 -29 8.699999 1.5 1.5 1
9 0 1 0 0 0 1 0 0 0 1 12.2 -28 -6.800001 3 0.5 1.5
9 0 1 0 0 0 1 0 0 0 1 12.2 -33 7.199999 3 1.5 0.5
9 0 1 0 0 0 1 0 0 0 1 9.700001 -26 -14.3 1.5 1.5 1
9 0 1 0 0 0 1 0 0 0 1 8.700001 -3.5 7.199999 1.5 1 1.5
9 0 1 0 0 0 1 0 0 0 1 8.200001 -13 -19.8 1 4.5 0.5
9 0 1 0 0 0 1 0 0 0 1 8.700001 -29.5 -11.8 1.5 1 1.5
9 0 1 0 0 0 1 0 0 0 1 -0.2999992 -33 9.699999 4.5 0.5 1
9 0 1 0 0 0 1 0 0 0 1 -9.799999 -16 17.2 1 4.5 0.5
9 0 1 0 0 0 1 0 0 0 1 -10.3 -28.5 -11.8 1.5 1 1.5
9 0 1 0 0 0 1 0 0 0 1 -10.3 -30.5 -8.800001 1.5 1 1.5
9 0 1 0 0 0 1 0 0 0 1 -11.8 -15 -17.8 1 4.5 0.5
9 0 1 0 0 0 1 0 0 0 1 -13.8 -25 -11.8 1 1.5 1.5
9 0 1 0 0 0 1 0 0 0 1 -17.8 -34 4.199999 1 1.5 1.5
9 0 1 0 0 0 1 0 0 0 1 -19.3 -24.5 1.199999 0.5 1 4.5
9 0 1 0 0 0 1 0 0 0 1 -1.299999 -11 -19.8 8.5 0.5 0.5
9 0 1 0 0 0 1 0 0 0 1 18.2 -8.5 3.699999 1 1 2
9 0 1 0 0 0 1 0 0 0 1 17.7 -27.5 1.699999 0.5 1 4
9 0 1 0 0 0 1 0 0 0 1 16.2 -7 -5.300001 2 0.5 2
9 0 1 0 0 0 1 0 0 0 1 14.2 -4 -0.3000011 1 0.5 4
9 0 1 0 0 0 1 0 0 0 1 11.2 -21.5 14.7 1 2 1
9 0 1 0 0 0 1 0 0 0 1 9.200001 -5 9.699999 2 0.5 2
9 0 1 0 0 0 1 0 0 0 1 8.200001 -21.5 -17.8 2 2 0.5
9 0 1 0 0 0 1 0 0 0 1 7.200001 -30.5 9.699999 2 1 1
9 0 1 0 0 0 1 0 0 0 1 0.2000008 -22.5 18.2 4 1 0.5
9 0 1 0 0 0 1 0 0 0 1 -5.799999 -10.5 -21.3 1 2 1
9 0 1 0 0 0 1 0 0 0 1 -7.799999 -21.5 -17.8 2 2 0.5
9 0 1 0 0 0 1 0 0 0 1 -9.799999 -6.5 11.7 2 1 1
9 0 1 0 0 0 1 0 0 0 1 -10.8 -9.5 -16.3 2 1 1
9 0 1 0 0 0 1 0 0 0 1 -14.8 -23.5 10.7 1 2 1
9 0 1 0 0 0 1 0 0 0 1 -14.8 -27.5 -7.300001 1 1 2
9 0 1 0 0 0 1 0 0 0 1 -15.8 -30.5 4.699999 1 1 2
9 0 1 0 0 0 1 0 0 0 1 -17.8 -21.5 -9.300001 1 1 2
9 0 1 0 0 0 1 0 0 0 1 -12.3 -33 7.199999 2.5 1.5 0.5
9 0 1 0 0 0 1 0 0 0 1 19.7 -16 7.699999 0.5 3.5 1
9 0 1 0 0 0 1 0 0 0 1 19.7 -24.5 1.199999 0.5 1 3.5
9 0 1 0 0 0 1 0 0 0 1 18.7 -16 -11.3 0.5 3.5 1
9 0 1 0 0 0 1 0 0 0 1 18.7 -17 9.699999 0.5 3.5 1
9 0 1 0 0 0 1 0 0 0 1 10.2 -33 -0.8000011 1 0.5 3.5
9 0 1 0 0 0 1 0 0 0 1 -14.8 -15 -15.8 1 3.5 0.5
9 0 1 0 0 0 1 0 0 0 1 -15.8 -15 -14.8 1 3.5 0.5
9 0 1 0 0 0 1 0 0 0 1 -20.3 -17 6.699999 0.5 3.5 1
9 0 1 0 0 0 1 0 0 0 1 18.7 -21.5 -7.800001 0.5 2 1.5
9 0 1 0 0 0 1 0 0 0 1 18.2 -7 -0.3000011 1 0.5 3
9 0 1 0 0 0 1 0 0 0 1 18.2 -8.5 -5.800001 1 1 1.5
9 0 1 0 0 0 1 0 0 0 1 18.2 -11 7.699999 1 1.5 1
9 0 1 0 0 0 1 0 0 0 1 18.2 -24.5 -4.800001 1 1 1.5
9 0 1 0 0 0 1 0 0 0 1 18.2 -34.5 4.199999 1 3 0.5
9 0 1 0 0 0 1 0 0 0 1 16.7 -23.5 -9.300001 1.5 1 1
9 0 1 0 0 0 1 0 0 0 1 15.7 -31 4.699999 1.5 0.5 2
9 0 1 0 0 0 1 0 0 0 1 13.7 -9.5 -13.3 1.5 1 1
9 0 1 0 0 0 1 0 0 0 1 13.2 -12 -16.3 1 1.5 1
9 0 1 0 0 0 1 0 0 0 1 12.2 -14.5 -17.8 1 3 0.5
9 0 1 0 0 0 1 0 0 0 1 12.2 -16.5 16.2 1 3 0.5
9 0 1 0 0 0 1 0 0 0 1 12.2 -11 14.2 2 1.5 0.5
9 0 1 0 0 0 1 0 0 0 1 10.2 -2 0.6999989 1 0.5 3
9 0 1 0 0 0 1 0 0 0 1 10.7 -5 -10.3 1.5 0.5 2
9 0 1 0 0 0 1 0 0 0 1 11.2 -6 -10.8 2 0.5 1.5
9 0 1 0 0 0 1 0 0 0 1 11.2 -31 -6.800001 2 0.5 1.5
9 0 1 0 0 0 1 0 0 0 1 10.2 -12 16.2 2 1.5 0.5
9 0 1 0 0 0 1 0 0 0 1 7.700001 -27.5 -12.3 0.5 1 3
9 0 1 0 0 0 1 0 0 0 1 7.700001 -6.5 13.7 1.5 1 1
9 0 1 0 0 0 1 0 0 0 1 7.700001 -8.5 -18.3 1.5 1 1
9 0 1 0 0 0 1 0 0 0 1 7.200001 -4 -10.8 2 0.5 1.5
9 0 1 0 0 0 1 0 0 0 1 3.700001 -13 -22.3 1.5 0.5 2
9 0 1 0 0 0 1 0 0 0 1 -2.799999 -13 -23.3 1 0.5 3
9 0 1 0 0 0 1 0 0 0 1 -4.799999 -5.5 -15.8 1 1 1.5
9 0 1 0 0 0 1 0 0 0 1 0.2000008 -29 -15.8 6 0.5 0.5
9 0 1 0 0 0 1 0 0 0 1 -6.299999 -12.5 7.199999 0.5 6 0.5
9 0 1 0 0 0 1 0 0 0 1 -7.299999 -14.5 6.199999 0.5 6 0.5
9 0 1 0 0 0 1 0 0 0 1 -6.799999 -30.5 10.2 1 1 1.5
9 0 1 0 0 0 1 0 0 0 1 -7.299999 -6.5 13.7 1.5 1 1
9 0 1 0 0 0 1 0 0 0 1 -7.799999 -35 4.199999 2 0.5 1.5
9 0 1 0 0 0 1 0 0 0 1 -9.799999 -2 0.6999989 1 0.5 3
9 0 1 0 0 0 1 0 0 0 1 -9.799999 -23 -16.3 1 1.5 1
9 0 1 0 0 0 1 0 0 0 1 -9.799999 -25 13.7 1 1.5 1
9 0 1 0 0 0 1 0 0 0 1 -9.799999 -32 -6.300001 1 0.5 3
9 0 1 0 0 0 1 0 0 0 1 -10.3 -8.5 13.7 1.5 1 1
9 0 1 0 0 0 1 0 0 0 1 -10.3 -28.5 10.7 1.5 1 1
9 0 1 0 0 0 1 0 0 0 1 -12.8 -3 0.6999989 1 0.5 3
9 0 1 0 0 0 1 0 0 0 1 -13.8 -6.5 -8.800001 1 1 1.5
9 0 1 0 0 0 1 0 0 0 1 -13.8 -6.5 8.199999 1 1 1.5
9 0 1 0 0 0 1 0 0 0 1 -15.3 -23.5 -11.8 0.5 2 1.5
9 0 1 0 0 0 1 0 0 0 1 -15.8 -10 -11.3 1 1.5 1
9 0 1 0 0 0 1 0 0 0 1 -17.3 -15.5 -13.3 0.5 3 1
9 0 1 0 0 0 1 0 0 0 1 -17.3 -25 -6.300001 0.5 1.5 2
9 0 1 0 0 0 1 0 0 0 1 -17.8 -10 -8.300001 1 1.5 1
9 0 1 0 0 0 1 0 0 0 1 -17.8 -10 7.699999 1 1.5 1
9 0 1 0 0 0 1 0 0 0 1 -21.3 -11.5 -0.3000011 0.5 1 3
9 0 1 0 0 0 1 0 0 0 1 -21.3 -15.5 -5.800001 0.5 2 1.5
9 0 1 0 0 0 1 0 0 0 1 -0.2999992 -10 18.2 5.5 0.5 0.5
9 0 1 0 0 0 1 0 0 0 1 -0.2999992 -34 8.199999 5.5 0.5 0.5
9 0 1 0 0 0 1 0 0 0 1 -17.3 -16 11.2 0.5 5.5 0.5
9 0 1 0 0 0 1 0 0 0 1 21.7 -16 -4.300001 0.5 2.5 1
9 0 1 0 0 0 1 0 0 0 1 15.7 -16 13.7 0.5 2.5 1
9 0 1 0 0 0 1 0 0 0 1 15.2 -6 -5.800001 1 0.5 2.5
9 0 1 0 0 0 1 0 0 0 1 6.700001 -21.5 -6.800001 0.5 5 0.5
9 0 1 0 0 0 1 0 0 0 1 5.700001 -3 -9.300001 2.5 0.5 1
9 0 1 0 0 0 1 0 0 0 1 3.700001 -12.5 -16.8 2.5 1 0.5
9 0 1 0 0 0 1 0 0 0 1 -0.2999992 -4 -16.3 2.5 0.5 1
9 0 1 0 0 0 1 0 0 0 1 -0.2999992 -15.5 20.2 2.5 1 0.5
9 0 1 0 0 0 1 0 0 0 1 0.2000008 -2 9.199999 5 0.5 0.5
9 0 1 0 0 0 1 0 0 0 1 0.2000008 -35 6.199999 5 0.5 0.5
9 0 1 0 0 0 1 0 0 0 1 -6.299999 -28.5 7.199999 0.5 5 0.5
9 0 1 0 0 0 1 0 0 0 1 -9.299999 -32.5 5.199999 0.5 1 2.5
9 0 1 0 0 0 1 0 0 0 1 -13.3 -36.5 6.199999 2.5 1 0.5
9 0 1 0 0 0 1 0 0 0 1 -13.3 -39.5 4.199999 2.5 1 0.5
9 0 1 0 0 0 1 0 0 0 1 -16.3 -5 -0.3000011 0.5 0.5 5
9 0 1 0 0 0 1 0 0 0 1 18.7 -11 -7.800001 0.5 1.5 1.5
9 0 1 0 0 0 1 0 0 0 1 14.7 -16 14.2 0.5 4.5 0.5
9 0 1 0 0 0 1 0 0 0 1 13.7 -7 -10.8 1.5 0.5 1.5
9 0 1 0 0 0 1 0 0 0 1 11.7 -4 6.199999 1.5 0.5 1.5
9 0 1 0 0 0 1 0 0 0 1 9.700001 -3 -5.800001 1.5 0.5 1.5
9 0 1 0 0 0 1 0 0 0 1 7.700001 -23 16.2 1.5 1.5 0.5
9 0 1 0 0 0 1 0 0 0 1 7.700001 -35 4.199999 1.5 0.5 1.5
9 0 1 0 0 0 1 0 0 0 1 5.700001 -16 19.2 1.5 1.5 0.5
9 0 1 0 0 0 1 0 0 0 1 -0.2999992 -10 -27.8 1.5 0.5 1.5
9 0 1 0 0 0 1 0 0 0 1 -0.2999992 -28 15.2 4.5 0.5 0.5
9 0 1 0 0 0 1 0 0 0 1 -0.2999992 -30 13.2 4.5 0.5 0.5
9 0 1 0 0 0 1 0 0 0 1 -5.299999 -3 -9.800001 1.5 0.5 1.5
9 0 1 0 0 0 1 0 0 0 1 -6.299999 -9 -19.8 1.5 1.5 0.5
9 0 1 0 0 0 1 0 0 0 1 -7.299999 -29 6.199999 0.5 4.5 0.5
9 0 1 0 0 0 1 0 0 0 1 -8.299999 -3 -7.800001 1.5 0.5 1.5
9 0 1 0 0 0 1 0 0 0 1 -10.3 -4 -7.800001 1.5 0.5 1.5
9 0 1 0 0 0 1 0 0 0 1 -10.3 -26 -14.8 1.5 1.5 0.5
9 0 1 0 0 0 1 0 0 0 1 -13.3 -25 11.2 0.5 1.5 1.5
9 0 1 0 0 0 1 0 0 0 1 -17.3 -23 8.199999 0.5 1.5 1.5
9 0 1 0 0 0 1 0 0 0 1 -18.3 -7 0.1999989 0.5 0.5 4.5
9 0 1 0 0 0 1 0 0 0 1 -19.3 -8 -0.8000011 0.5 0.5 4.5
9 0 1 0 0 0 1 0 0 0 1 21.7 -16.5 4.699999 0.5 2 1
9 0 1 0 0 0 1 0 0 0 1 17.7 -16.5 11.2 0.5 4 0.5
9 0 1 0 0 0 1 0 0 0 1 16.2 -15.5 -14.8 1 2 0.5
9 0 1 0 0 0 1 0 0 0 1 16.2 -23.5 9.699999 1 1 1
9 0 1 0 0 0 1 0 0 0 1 15.2 -8.5 9.699999 1 1 1
9 0 1 0 0 0 1 0 0 0 1 15.2 -28.5 -4.300001 1 1 1
9 0 1 0 0 0 1 0 0 0 1 14.2 -23.5 11.7 1 1 1
9 0 1 0 0 0 1 0 0 0 1 14.2 -27.5 -9.300001 1 1 1
9 0 1 0 0 0 1 0 0 0 1 13.2 -6.5 9.699999 1 1 1
9 0 1 0 0 0 1 0 0 0 1 12.2 -22.5 -15.3 1 1 1
9 0 1 0 0 0 1 0 0 0 1 13.2 -36.5 6.199999 2 1 0.5
9 0 1 0 0 0 1 0 0 0 1 13.2 -39 4.699999 2 0.5 1
9 0 1 0 0 0 1 0 0 0 1 11.2 -26.5 11.7 1 1 1
9 0 1 0 0 0 1 0 0 0 1 8.200001 -5.5 6.699999 1 1 1
9 0 1 0 0 0 1 0 0 0 1 9.200001 -7.5 -15.8 2 1 0.5
9 0 1 0 0 0 1 0 0 0 1 9.200001 -26 13.7 2 0.5 1
9 0 1 0 0 0 1 0 0 0 1 6.700001 -6.5 -6.800001 0.5 4 0.5
9 0 1 0 0 0 1 0 0 0 1 7.200001 -10.5 -20.8 1 2 0.5
9 0 1 0 0 0 1 0 0 0 1 4.700001 -9.5 8.199999 0.5 4 0.5
9 0 1 0 0 0 1 0 0 0 1 4.700001 -25.5 8.199999 0.5 4 0.5
9 0 1 0 0 0 1 0 0 0 1 3.200001 -8.5 -23.3 1 1 1
9 0 1 0 0 0 1 0 0 0 1 0.2000008 -7 -23.3 2 0.5 1
9 0 1 0 0 0 1 0 0 0 1 0.2000008 -8 -25.3 2 0.5 1
9 0 1 0 0 0 1 0 0 0 1 0.2000008 -15 -22.3 2 0.5 1
9 0 1 0 0 0 1 0 0 0 1 0.2000008 -18.5 -20.8 2 1 0.5
9 0 1 0 0 0 1 0 0 0 1 0.2000008 -25 -18.8 4 0.5 0.5
9 0 1 0 0 0 1 0 0 0 1 0.2000008 -25 17.2 4 0.5 0.5
9 0 1 0 0 0 1 0 0 0 1 0.2000008 -32 -12.8 4 0.5 0.5
9 0 1 0 0 0 1 0 0 0 1 0.2000008 -34 -8.800001 4 0.5 0.5
9 0 1 0 0 0 1 0 0 0 1 -5.799999 -16.5 19.2 1 2 0.5
9 0 1 0 0 0 1 0 0 0 1 -8.299999 -5.5 9.699999 0.5 2 1
9 0 1 0 0 0 1 0 0 0 1 -8.799999 -13.5 -19.8 1 2 0.5
9 0 1 0 0 0 1 0 0 0 1 -12.3 -16.5 16.2 0.5 4 0.5
9 0 1 0 0 0 1 0 0 0 1 -12.3 -32 -1.300001 0.5 0.5 4
9 0 1 0 0 0 1 0 0 0 1 -12.8 -7.5 -12.3 1 1 1
9 0 1 0 0 0 1 0 0 0 1 -13.8 -27.5 8.699999 1 1 1
9 0 1 0 0 0 1 0 0 0 1 -14.8 -9.5 10.7 1 1 1
9 0 1 0 0 0 1 0 0 0 1 -14.8 -11.5 13.2 1 2 0.5
9 0 1 0 0 0 1 0 0 0 1 -12.8 -8 -10.8 4 0.5 0.5
9 0 1 0 0 0 1 0 0 0 1 -17.3 -30.5 4.699999 0.5 2 1
9 0 1 0 0 0 1 0 0 0 1 17.7 -17 -12.8 0.5 3.5 0.5
9 0 1 0 0 0 1 0 0 0 1 10.7 -6 8.199999 3.5 0.5 0.5
9 0 1 0 0 0 1 0 0 0 1 -0.2999992 -11 19.2 3.5 0.5 0.5
9 0 1 0 0 0 1 0 0 0 1 -7.299999 -5 7.199999 0.5 3.5 0.5
9 0 1 0 0 0 1 0 0 0 1 -18.3 -27 1.199999 0.5 0.5 3.5
9 0 1 0 0 0 1 0 0 0 1 -21.3 -21 0.1999989 0.5 0.5 3.5
9 0 1 0 0 0 1 0 0 0 1 20.7 -19.5 -4.800001 0.5 1 1.5
9 0 1 0 0 0 1 0 0 0 1 20.7 -23 0.6999989 0.5 0.5 3
9 0 1 0 0 0 1 0 0 0 1 17.7 -6 -0.3000011 0.5 0.5 3
9 0 1 0 0 0 1 0 0 0 1 17.7 -24.5 7.199999 0.5 1 1.5
9 0 1 0 0 0 1 0 0 0 1 16.2 -6 4.199999 1 0.5 1.5
9 0 1 0 0 0 1 0 0 0 1 16.2 -11 11.2 1 1.5 0.5
9 0 1 0 0 0 1 0 0 0 1 15.7 -23.5 -11.8 0.5 1 1.5
9 0 1 0 0 0 1 0 0 0 1 14.2 -15 -16.8 1 1.5 0.5
9 0 1 0 0 0 1 0 0 0 1 14.2 -29 -6.800001 1 0.5 1.5
9 0 1 0 0 0 1 0 0 0 1 13.2 -21 14.2 1 1.5 0.5
9 0 1 0 0 0 1 0 0 0 1 11.7 -8.5 13.2 1.5 1 0.5
9 0 1 0 0 0 1 0 0 0 1 11.7 -11.5 15.2 1.5 1 0.5
9 0 1 0 0 0 1 0 0 0 1 11.7 -29 -11.3 1.5 0.5 1
9 0 1 0 0 0 1 0 0 0 1 10.7 -32 -6.300001 1.5 0.5 1
9 0 1 0 0 0 1 0 0 0 1 10.7 -31.5 8.199999 1.5 1 0.5
9 0 1 0 0 0 1 0 0 0 1 9.200001 -12 17.2 1 1.5 0.5
9 0 1 0 0 0 1 0 0 0 1 9.200001 -16 18.2 1 1.5 0.5
9 0 1 0 0 0 1 0 0 0 1 9.700001 -31 -9.300001 1.5 0.5 1
9 0 1 0 0 0 1 0 0 0 1 8.700001 -4 9.699999 1.5 0.5 1
9 0 1 0 0 0 1 0 0 0 1 8.700001 -9.5 16.2 1.5 1 0.5
9 0 1 0 0 0 1 0 0 0 1 8.700001 -19 -18.3 1.5 0.5 1
9 0 1 0 0 0 1 0 0 0 1 7.200001 -7 -16.8 1 1.5 0.5
9 0 1 0 0 0 1 0 0 0 1 6.700001 -5.5 -14.8 1.5 1 0.5
9 0 1 0 0 0 1 0 0 0 1 5.700001 -8.5 -20.8 0.5 1 1.5
9 0 1 0 0 0 1 0 0 0 1 5.700001 -27 -16.3 1.5 0.5 1
9 0 1 0 0 0 1 0 0 0 1 5.700001 -28 13.7 1.5 0.5 1
9 0 1 0 0 0 1 0 0 0 1 4.700001 -34 -6.300001 1.5 0.5 1
9 0 1 0 0 0 1 0 0 0 1 4.200001 -35 -2.800001 1 0.5 1.5
9 0 1 0 0 0 1 0 0 0 1 2.700001 -11.5 -27.8 0.5 1 1.5
9 0 1 0 0 0 1 0 0 0 1 2.200001 -5 -17.8 1 0.5 1.5
9 0 1 0 0 0 1 0 0 0 1 1.700001 -9.5 -25.8 0.5 1 1.5
9 0 1 0 0 0 1 0 0 0 1 0.2000008 -2 -9.800001 3 0.5 0.5
9 0 1 0 0 0 1 0 0 0 1 0.2000008 -4 13.2 3 0.5 0.5
9 0 1 0 0 0 1 0 0 0 1 0.2000008 -8 17.2 3 0.5 0.5
9 0 1 0 0 0 1 0 0 0 1 -2.299999 -12 -28.3 0.5 1.5 1
9 0 1 0 0 0 1 0 0 0 1 0.2000008 -27 -17.8 3 0.5 0.5
9 0 1 0 0 0 1 0 0 0 1 -2.799999 -14 -22.8 1 0.5 1.5
9 0 1 0 0 0 1 0 0 0 1 -3.799999 -7 -20.8 1 0.5 1.5
9 0 1 0 0 0 1 0 0 0 1 -5.299999 -11 -23.3 0.5 1.5 1
9 0 1 0 0 0 1 0 0 0 1 -6.799999 -6 -15.8 1 0.5 1.5
9 0 1 0 0 0 1 0 0 0 1 -6.799999 -21 -18.8 1 1.5 0.5
9 0 1 0 0 0 1 0 0 0 1 -6.299999 -27.5 -15.8 1.5 1 0.5
9 0 1 0 0 0 1 0 0 0 1 -6.299999 -28.5 13.2 1.5 1 0.5
9 0 1 0 0 0 1 0 0 0 1 -7.799999 -23 16.2 1 1.5 0.5
9 0 1 0 0 0 1 0 0 0 1 -7.799999 -31 -10.8 1 0.5 1.5
9 0 1 0 0 0 1 0 0 0 1 -9.799999 -4 9.199999 1 0.5 1.5
9 0 1 0 0 0 1 0 0 0 1 -9.799999 -8 -16.8 1 0.5 1.5
9 0 1 0 0 0 1 0 0 0 1 -9.799999 -23 15.2 1 1.5 0.5
9 0 1 0 0 0 1 0 0 0 1 -10.3 -31.5 8.199999 1.5 1 0.5
9 0 1 0 0 0 1 0 0 0 1 -12.8 -4 -5.800001 1 0.5 1.5
9 0 1 0 0 0 1 0 0 0 1 -14.3 -14.5 -16.8 0.5 3 0.5
9 0 1 0 0 0 1 0 0 0 1 -14.8 -28 7.199999 1 1.5 0.5
9 0 1 0 0 0 1 0 0 0 1 -15.3 -30 -0.3000011 0.5 0.5 3
9 0 1 0 0 0 1 0 0 0 1 -16.3 -6.5 -5.800001 0.5 1 1.5
9 0 1 0 0 0 1 0 0 0 1 -16.3 -16.5 13.2 0.5 3 0.5
9 0 1 0 0 0 1 0 0 0 1 -16.3 -22.5 -11.8 0.5 1 1.5
9 0 1 0 0 0 1 0 0 0 1 -17.3 -10.5 -10.8 0.5 1 1.5
9 0 1 0 0 0 1 0 0 0 1 -18.3 -24.5 -5.800001 0.5 1 1.5
9 0 1 0 0 0 1 0 0 0 1 -17.8 -37 4.199999 1 1.5 0.5
9 0 1 0 0 0 1 0 0 0 1 -19.3 -12 -8.300001 0.5 1.5 1
9 0 1 0 0 0 1 0 0 0 1 -19.3 -16.5 9.199999 0.5 3 0.5
9 0 1 0 0 0 1 0 0 0 1 -20.3 -11 4.699999 0.5 1.5 1
9 0 1 0 0 0 1 0 0 0 1 -20.3 -20.5 -5.800001 0.5 1 1.5
9 0 1 0 0 0 1 0 0 0 1 -20.3 -24 0.6999989 0.5 0.5 3
9 0 1 0 0 0 1 0 0 0 1 21.7 -12 -0.8000011 0.5 0.5 2.5
9 0 1 0 0 0 1 0 0 0 1 20.7 -9 -0.8000011 0.5 0.5 2.5
9 0 1 0 0 0 1 0 0 0 1 18.7 -27 2.199999 0.5 0.5 2.5
9 0 1 0 0 0 1 0 0 0 1 17.7 -11 -8.800001 0.5 2.5 0.5
9 0 1 0 0 0 1 0 0 0 1 16.7 -11 8.199999 0.5 2.5 0.5
9 0 1 0 0 0 1 0 0 0 1 15.7 -15 -15.8 0.5 2.5 0.5
9 0 1 0 0 0 1 0 0 0 1 14.7 -31 0.1999989 0.5 0.5 2.5
9 0 1 0 0 0 1 0 0 0 1 11.7 -16 17.2 0.5 2.5 0.5
9 0 1 0 0 0 1 0 0 0 1 7.700001 -30 11.2 2.5 0.5 0.5
9 0 1 0 0 0 1 0 0 0 1 4.700001 -10 -19.8 2.5 0.5 0.5
9 0 1 0 0 0 1 0 0 0 1 -0.2999992 -23 -19.8 2.5 0.5 0.5
9 0 1 0 0 0 1 0 0 0 1 -5.299999 -33 -8.800001 2.5 0.5 0.5
9 0 1 0 0 0 1 0 0 0 1 -9.299999 -16 18.2 0.5 2.5 0.5
9 0 1 0 0 0 1 0 0 0 1 -11.3 -14 -18.8 0.5 2.5 0.5
9 0 1 0 0 0 1 0 0 0 1 -11.3 -16 17.2 0.5 2.5 0.5
9 0 1 0 0 0 1 0 0 0 1 -11.3 -24 -14.8 2.5 0.5 0.5
9 0 1 0 0 0 1 0 0 0 1 -17.3 -16 12.2 0.5 2.5 0.5
9 0 1 0 0 0 1 0 0 0 1 -18.3 -16 -12.8 0.5 2.5 0.5
9 0 1 0 0 0 1 0 0 0 1 -19.3 -16 -10.8 0.5 2.5 0.5
9 0 1 0 0 0 1 0 0 0 1 -20.3 -16 -8.800001 0.5 2.5 0.5
9 0 1 0 0 0 1 0 0 0 1 20.7 -12 -5.300001 0.5 0.5 2
9 0 1 0 0 0 1 0 0 0 1 20.7 -16.5 7.199999 0.5 2 0.5
9 0 1 0 0 0 1 0 0 0 1 19.7 -9 3.699999 0.5 0.5 2
9 0 1 0 0 0 1 0 0 0 1 19.7 -11.5 -7.300001 0.5 1 1
9 0 1 0 0 0 1 0 0 0 1 19.7 -16.5 9.199999 0.5 2 0.5
9 0 1 0 0 0 1 0 0 0 1 19.7 -20.5 -7.300001 0.5 1 1
9 0 1 0 0 0 1 0 0 0 1 18.2 -9 6.699999 1 0.5 1
9 0 1 0 0 0 1 0 0 0 1 17.7 -26 -5.300001 0.5 0.5 2
9 0 1 0 0 0 1 0 0 0 1 18.2 -34.5 3.199999 1 1 0.5
9 0 1 0 0 0 1 0 0 0 1 18.2 -34.5 5.199999 1 1 0.5
9 0 1 0 0 0 1 0 0 0 1 17.2 -9.5 -9.800001 1 1 0.5
9 0 1 0 0 0 1 0 0 0 1 17.2 -12.5 -12.8 1 1 0.5
9 0 1 0 0 0 1 0 0 0 1 16.7 -36 4.699999 0.5 0.5 2
9 0 1 0 0 0 1 0 0 0 1 16.2 -21.5 -12.8 1 1 0.5
9 0 1 0 0 0 1 0 0 0 1 16.2 -21.5 11.2 1 1 0.5
9 0 1 0 0 0 1 0 0 0 1 15.2 -7 -8.300001 1 0.5 1
9 0 1 0 0 0 1 0 0 0 1 15.2 -28 7.699999 1 0.5 1
9 0 1 0 0 0 1 0 0 0 1 14.2 -21.5 -14.8 1 1 0.5
9 0 1 0 0 0 1 0 0 0 1 14.2 -25 -12.3 1 0.5 1
9 0 1 0 0 0 1 0 0 0 1 13.2 -4 -5.300001 1 0.5 1
9 0 1 0 0 0 1 0 0 0 1 13.2 -7.5 -12.8 1 1 0.5
9 0 1 0 0 0 1 0 0 0 1 13.2 -9.5 -14.8 1 1 0.5
9 0 1 0 0 0 1 0 0 0 1 12.2 -5 8.699999 1 0.5 1
9 0 1 0 0 0 1 0 0 0 1 12.2 -24.5 -14.8 1 1 0.5
9 0 1 0 0 0 1 0 0 0 1 12.2 -25.5 -13.8 1 1 0.5
9 0 1 0 0 0 1 0 0 0 1 13.2 -40 4.199999 2 0.5 0.5
9 0 1 0 0 0 1 0 0 0 1 11.2 -3 5.699999 1 0.5 1
9 0 1 0 0 0 1 0 0 0 1 11.2 -19.5 -17.8 1 1 0.5
9 0 1 0 0 0 1 0 0 0 1 12.2 -28 10.2 2 0.5 0.5
9 0 1 0 0 0 1 0 0 0 1 10.2 -6 -13.3 1 0.5 1
9 0 1 0 0 0 1 0 0 0 1 10.2 -21.5 16.2 1 1 0.5
9 0 1 0 0 0 1 0 0 0 1 9.700001 -34 0.6999989 0.5 0.5 2
9 0 1 0 0 0 1 0 0 0 1 9.700001 -36.5 4.699999 0.5 1 1
9 0 1 0 0 0 1 0 0 0 1 9.200001 -2 4.699999 1 0.5 1
9 0 1 0 0 0 1 0 0 0 1 9.200001 -25.5 -15.8 1 1 0.5
9 0 1 0 0 0 1 0 0 0 1 10.2 -28 -13.8 2 0.5 0.5
9 0 1 0 0 0 1 0 0 0 1 8.700001 -29.5 -9.300001 0.5 1 1
9 0 1 0 0 0 1 0 0 0 1 9.200001 -27 13.2 2 0.5 0.5
9 0 1 0 0 0 1 0 0 0 1 8.200001 -31 -11.3 1 0.5 1
9 0 1 0 0 0 1 0 0 0 1 7.700001 -30.5 -9.800001 0.5 2 0.5
9 0 1 0 0 0 1 0 0 0 1 8.200001 -33 6.699999 1 0.5 1
9 0 1 0 0 0 1 0 0 0 1 7.200001 -3 9.699999 1 0.5 1
9 0 1 0 0 0 1 0 0 0 1 6.700001 -3.5 7.699999 0.5 1 1
9 0 1 0 0 0 1 0 0 0 1 6.700001 -10.5 -18.3 0.5 1 1
9 0 1 0 0 0 1 0 0 0 1 7.200001 -20.5 -18.8 1 1 0.5
9 0 1 0 0 0 1 0 0 0 1 7.200001 -22.5 17.2 1 1 0.5
9 0 1 0 0 0 1 0 0 0 1 7.200001 -32 9.199999 2 0.5 0.5
9 0 1 0 0 0 1 0 0 0 1 4.700001 -11.5 -25.3 0.5 1 1
9 0 1 0 0 0 1 0 0 0 1 5.200001 -14.5 -20.8 1 1 0.5
9 0 1 0 0 0 1 0 0 0 1 6.200001 -25 16.2 2 0.5 0.5
9 0 1 0 0 0 1 0 0 0 1 4.200001 -3 -11.3 1 0.5 1
9 0 1 0 0 0 1 0 0 0 1 3.200001 -14 -22.3 1 0.5 1
9 0 1 0 0 0 1 0 0 0 1 0.2000008 -9 -27.3 1 0.5 1
9 0 1 0 0 0 1 0 0 0 1 0.2000008 -12.5 -30.8 1 1 0.5
9 0 1 0 0 0 1 0 0 0 1 0.2000008 -14 -28.3 1 0.5 1
9 0 1 0 0 0 1 0 0 0 1 0.2000008 -3 12.2 2 0.5 0.5
9 0 1 0 0 0 1 0 0 0 1 0.2000008 -5 -19.8 2 0.5 0.5
9 0 1 0 0 0 1 0 0 0 1 0.2000008 -33 -11.8 2 0.5 0.5
9 0 1 0 0 0 1 0 0 0 1 -3.799999 -4 -14.3 1 0.5 1
9 0 1 0 0 0 1 0 0 0 1 -4.299999 -13 -22.3 0.5 0.5 2
9 0 1 0 0 0 1 0 0 0 1 -4.799999 -6 -18.3 1 0.5 1
9 0 1 0 0 0 1 0 0 0 1 -4.799999 -25.5 16.2 1 1 0.5
9 0 1 0 0 0 1 0 0 0 1 -4.799999 -35 -2.300001 1 0.5 1
9 0 1 0 0 0 1 0 0 0 1 -5.799999 -13.5 -20.8 1 1 0.5
9 0 1 0 0 0 1 0 0 0 1 -6.799999 -3 9.699999 1 0.5 1
9 0 1 0 0 0 1 0 0 0 1 -7.299999 -10.5 -21.3 0.5 1 1
9 0 1 0 0 0 1 0 0 0 1 -6.799999 -32 9.699999 1 0.5 1
9 0 1 0 0 0 1 0 0 0 1 -8.299999 -4 -10.3 0.5 0.5 2
9 0 1 0 0 0 1 0 0 0 1 -8.299999 -8.5 -18.3 0.5 1 1
9 0 1 0 0 0 1 0 0 0 1 -7.799999 -9.5 16.2 1 1 0.5
9 0 1 0 0 0 1 0 0 0 1 -8.299999 -26.5 13.7 0.5 1 1
9 0 1 0 0 0 1 0 0 0 1 -7.799999 -27.5 -14.8 1 1 0.5
9 0 1 0 0 0 1 0 0 0 1 -8.299999 -30.5 9.699999 0.5 1 1
9 0 1 0 0 0 1 0 0 0 1 -8.799999 -5 11.7 1 0.5 1
9 0 1 0 0 0 1 0 0 0 1 -9.299999 -7 -9.300001 0.5 0.5 2
9 0 1 0 0 0 1 0 0 0 1 -9.299999 -30.5 -11.3 0.5 1 1
9 0 1 0 0 0 1 0 0 0 1 -9.299999 -33 -5.300001 0.5 0.5 2
9 0 1 0 0 0 1 0 0 0 1 -10.3 -5.5 -12.3 0.5 1 1
9 0 1 0 0 0 1 0 0 0 1 -9.799999 -25.5 -15.8 1 1 0.5
9 0 1 0 0 0 1 0 0 0 1 -11.3 -22.5 -16.3 0.5 1 1
9 0 1 0 0 0 1 0 0 0 1 -11.3 -24.5 13.7 0.5 1 1
9 0 1 0 0 0 1 0 0 0 1 -11.3 -32 -5.300001 0.5 0.5 2
9 0 1 0 0 0 1 0 0 0 1 -12.3 -28.5 -11.3 0.5 1 1
9 0 1 0 0 0 1 0 0 0 1 -12.3 -30.5 -8.300001 0.5 1 1
9 0 1 0 0 0 1 0 0 0 1 -12.8 -8 -14.3 1 0.5 1
9 0 1 0 0 0 1 0 0 0 1 -13.3 -14.5 -17.8 0.5 2 0.5
9 0 1 0 0 0 1 0 0 0 1 -13.3 -27.5 -11.3 0.5 1 1
9 0 1 0 0 0 1 0 0 0 1 -13.3 -32 0.6999989 0.5 0.5 2
9 0 1 0 0 0 1 0 0 0 1 -14.3 -16.5 15.2 0.5 2 0.5
9 0 1 0 0 0 1 0 0 0 1 -14.3 -20.5 13.7 0.5 1 1
9 0 1 0 0 0 1 0 0 0 1 -12.8 -39 5.199999 2 0.5 0.5
9 0 1 0 0 0 1 0 0 0 1 -15.3 -6.5 -8.300001 0.5 1 1
9 0 1 0 0 0 1 0 0 0 1 -15.3 -6.5 7.699999 0.5 1 1
9 0 1 0 0 0 1 0 0 0 1 -15.3 -10.5 -13.3 0.5 1 1
9 0 1 0 0 0 1 0 0 0 1 -14.8 -22.5 12.2 1 1 0.5
9 0 1 0 0 0 1 0 0 0 1 -16.3 -6.5 5.699999 0.5 1 1
9 0 1 0 0 0 1 0 0 0 1 -16.3 -22.5 10.7 0.5 1 1
9 0 1 0 0 0 1 0 0 0 1 -16.3 -27 -7.300001 0.5 0.5 2
9 0 1 0 0 0 1 0 0 0 1 -17.3 -10.5 9.699999 0.5 1 1
9 0 1 0 0 0 1 0 0 0 1 -17.3 -23 -9.300001 0.5 0.5 2
9 0 1 0 0 0 1 0 0 0 1 -18.3 -22.5 7.699999 0.5 1 1
9 0 1 0 0 0 1 0 0 0 1 -19.3 -26 1.699999 0.5 0.5 2
9 0 1 0 0 0 1 0 0 0 1 -19.3 -34.5 4.199999 0.5 2 0.5
9 0 1 0 0 0 1 0 0 0 1 -21.3 -16.5 6.199999 0.5 2 0.5
9 0 1 0 0 0 1 0 0 0 1 -22.3 -16.5 2.199999 0.5 2 0.5
9 0 1 0 0 0 1 0 0 0 1 22.7 -15 -0.8000011 0.5 0.5 1.5
9 0 1 0 0 0 1 0 0 0 1 21.7 -15 -5.800001 0.5 1.5 0.5
9 0 1 0 0 0 1 0 0 0 1 20.7 -12 5.199999 0.5 1.5 0.5
9 0 1 0 0 0 1 0 0 0 1 19.7 -24 -3.800001 0.5 0.5 1.5
9 0 1 0 0 0 1 0 0 0 1 19.7 -35 4.199999 0.5 1.5 0.5
9 0 1 0 0 0 1 0 0 0 1 18.7 -12 9.199999 0.5 1.5 0.5
9 0 1 0 0 0 1 0 0 0 1 17.7 -7 4.199999 0.5 0.5 1.5
9 0 1 0 0 0 1 0 0 0 1 17.7 -15 -13.8 0.5 1.5 0.5
9 0 1 0 0 0 1 0 0 0 1 17.7 -27 -3.800001 0.5 0.5 1.5
9 0 1 0 0 0 1 0 0 0 1 17.7 -30 4.199999 0.5 1.5 0.5
9 0 1 0 0 0 1 0 0 0 1 16.7 -30 4.699999 0.5 0.5 2
9 0 1 0 0 0 1 0 0 0 1 16.7 -6 -4.800001 0.5 0.5 1.5
9 0 1 0 0 0 1 0 0 0 1 16.7 -28 -4.800001 0.5 0.5 1.5
9 0 1 0 0 0 1 0 0 0 1 15.7 -5 -4.800001 0.5 0.5 1.5
9 0 1 0 0 0 1 0 0 0 1 15.7 -5 4.199999 0.5 0.5 1.5
9 0 1 0 0 0 1 0 0 0 1 15.7 -11 12.2 0.5 1.5 0.5
9 0 1 0 0 0 1 0 0 0 1 15.7 -19 -14.8 0.5 1.5 0.5
9 0 1 0 0 0 1 0 0 0 1 15.7 -28 -6.800001 0.5 0.5 1.5
9 0 1 0 0 0 1 0 0 0 1 14.7 -12 -15.8 0.5 1.5 0.5
9 0 1 0 0 0 1 0 0 0 1 14.7 -30 -3.800001 0.5 0.5 1.5
9 0 1 0 0 0 1 0 0 0 1 13.7 -18 -16.8 0.5 1.5 0.5
9 0 1 0 0 0 1 0 0 0 1 13.7 -30 -6.800001 0.5 0.5 1.5
9 0 1 0 0 0 1 0 0 0 1 11.7 -14 -18.8 0.5 1.5 0.5
9 0 1 0 0 0 1 0 0 0 1 11.7 -33 1.199999 0.5 0.5 1.5
9 0 1 0 0 0 1 0 0 0 1 11.7 -9 14.2 1.5 0.5 0.5
9 0 1 0 0 0 1 0 0 0 1 9.700001 -29 8.199999 0.5 1.5 0.5
9 0 1 0 0 0 1 0 0 0 1 8.700001 -3 -3.800001 0.5 1.5 0.5
9 0 1 0 0 0 1 0 0 0 1 9.700001 -8 -16.8 1.5 0.5 0.5
9 0 1 0 0 0 1 0 0 0 1 8.700001 -34 -2.800001 0.5 0.5 1.5
9 0 1 0 0 0 1 0 0 0 1 8.700001 -3 -7.800001 1.5 0.5 0.5
9 0 1 0 0 0 1 0 0 0 1 8.700001 -5 12.2 1.5 0.5 0.5
9 0 1 0 0 0 1 0 0 0 1 8.700001 -29 -13.8 1.5 0.5 0.5
9 0 1 0 0 0 1 0 0 0 1 6.700001 -11 -21.8 0.5 1.5 0.5
9 0 1 0 0 0 1 0 0 0 1 7.700001 -24 -17.8 1.5 0.5 0.5
9 0 1 0 0 0 1 0 0 0 1 6.700001 -35 1.199999 0.5 0.5 1.5
9 0 1 0 0 0 1 0 0 0 1 6.700001 -4 -12.8 1.5 0.5 0.5
9 0 1 0 0 0 1 0 0 0 1 6.700001 -5 13.2 1.5 0.5 0.5
9 0 1 0 0 0 1 0 0 0 1 6.700001 -8 16.2 1.5 0.5 0.5
9 0 1 0 0 0 1 0 0 0 1 4.700001 -19 19.2 0.5 1.5 0.5
9 0 1 0 0 0 1 0 0 0 1 5.700001 -28 -15.8 1.5 0.5 0.5
9 0 1 0 0 0 1 0 0 0 1 5.700001 -29 13.2 1.5 0.5 0.5
9 0 1 0 0 0 1 0 0 0 1 5.700001 -33 9.199999 1.5 0.5 0.5
9 0 1 0 0 0 1 0 0 0 1 4.700001 -5 -16.8 1.5 0.5 0.5
9 0 1 0 0 0 1 0 0 0 1 3.700001 -6 -19.8 1.5 0.5 0.5
9 0 1 0 0 0 1 0 0 0 1 3.700001 -34 -7.800001 1.5 0.5 0.5
9 0 1 0 0 0 1 0 0 0 1 -0.2999992 -3 -13.8 1.5 0.5 0.5
9 0 1 0 0 0 1 0 0 0 1 -0.2999992 -17 20.2 1.5 0.5 0.5
9 0 1 0 0 0 1 0 0 0 1 -0.2999992 -24 18.2 1.5 0.5 0.5
9 0 1 0 0 0 1 0 0 0 1 -6.299999 -35 1.199999 0.5 0.5 1.5
9 0 1 0 0 0 1 0 0 0 1 -7.299999 -3 6.199999 0.5 1.5 0.5
9 0 1 0 0 0 1 0 0 0 1 -6.299999 -5 13.2 1.5 0.5 0.5
9 0 1 0 0 0 1 0 0 0 1 -6.299999 -8 16.2 1.5 0.5 0.5
9 0 1 0 0 0 1 0 0 0 1 -6.299999 -30 12.2 1.5 0.5 0.5
9 0 1 0 0 0 1 0 0 0 1 -7.299999 -7 15.2 1.5 0.5 0.5
9 0 1 0 0 0 1 0 0 0 1 -7.299999 -24 -17.8 1.5 0.5 0.5
9 0 1 0 0 0 1 0 0 0 1 -8.299999 -34 -2.800001 0.5 0.5 1.5
9 0 1 0 0 0 1 0 0 0 1 -8.299999 -32 -9.800001 1.5 0.5 0.5
9 0 1 0 0 0 1 0 0 0 1 -10.3 -21 -17.8 0.5 1.5 0.5
9 0 1 0 0 0 1 0 0 0 1 -10.3 -7 13.2 1.5 0.5 0.5
9 0 1 0 0 0 1 0 0 0 1 -10.3 -28 -13.8 1.5 0.5 0.5
9 0 1 0 0 0 1 0 0 0 1 -10.3 -30 10.2 1.5 0.5 0.5
9 0 1 0 0 0 1 0 0 0 1 -12.3 -4 7.199999 0.5 0.5 1.5
9 0 1 0 0 0 1 0 0 0 1 -13.3 -5 -8.800001 0.5 0.5 1.5
9 0 1 0 0 0 1 0 0 0 1 -13.3 -5 8.199999 0.5 0.5 1.5
9 0 1 0 0 0 1 0 0 0 1 -12.3 -35 7.199999 1.5 0.5 0.5
9 0 1 0 0 0 1 0 0 0 1 -14.3 -12 14.2 0.5 1.5 0.5
9 0 1 0 0 0 1 0 0 0 1 -14.3 -27 -10.8 0.5 0.5 1.5
9 0 1 0 0 0 1 0 0 0 1 -14.3 -29 -6.800001 0.5 0.5 1.5
9 0 1 0 0 0 1 0 0 0 1 -14.3 -7 -10.8 1.5 0.5 0.5
9 0 1 0 0 0 1 0 0 0 1 -15.3 -20 -14.8 0.5 1.5 0.5
9 0 1 0 0 0 1 0 0 0 1 -15.3 -31 7.199999 0.5 1.5 0.5
9 0 1 0 0 0 1 0 0 0 1 -17.3 -7 -5.800001 0.5 0.5 1.5
9 0 1 0 0 0 1 0 0 0 1 -17.3 -20 -12.8 0.5 1.5 0.5
9 0 1 0 0 0 1 0 0 0 1 -17.3 -33 6.199999 0.5 1.5 0.5
9 0 1 0 0 0 1 0 0 0 1 -16.3 -36 3.199999 1.5 0.5 0.5
9 0 1 0 0 0 1 0 0 0 1 -18.3 -15 11.2 0.5 1.5 0.5
9 0 1 0 0 0 1 0 0 0 1 -19.3 -24 -4.800001 0.5 0.5 1.5
9 0 1 0 0 0 1 0 0 0 1 -20.3 -12 -6.800001 0.5 0.5 1.5
