9 0 1 0 0 0 1 0 0 0 1 0.2799988 2 2.0298 9.5 0.5 15.5
9 0 1 0 0 0 1 0 0 0 1 0.2799988 4 21.0298 2.5 2.5 3.5
9 0 1 0 0 0 1 0 0 0 1 -0.2200012 2 -15.4702 7 0.5 2
9 0 1 0 0 0 1 0 0 0 1 10.78 2 6.5298 1 0.5 11
9 0 1 0 0 0 1 0 0 0 1 -10.22 2 6.5298 1 0.5 11
9 0 1 0 0 0 1 0 0 0 1 -5.720001 4 29.5298 0.5 2.5 1
9 0 1 0 0 0 1 0 0 0 1 3.779999 2 -18.4702 2 0.5 1
9 0 1 0 0 0 1 0 0 0 1 -4.220001 2 -18.4702 2 0.5 1
9 0 1 0 0 0 1 0 0 0 1 16.28 3 9.5298 0.5 0.5 3
9 0 1 0 0 0 1 0 0 0 1 15.78 3 0.02980042 1 0.5 1.5
9 0 1 0 0 0 1 0 0 0 1 -15.72 3 9.5298 0.5 0.5 3
9 0 1 0 0 0 1 0 0 0 1 -9.720001 2 -10.9702 0.5 0.5 2.5
9 0 1 0 0 0 1 0 0 0 1 -18.72 4 -15.4702 0.5 0.5 2
9 0 1 0 0 0 1 0 0 0 1 18.28 4 -15.9702 0.5 0.5 1.5
9 0 1 0 0 0 1 0 0 0 1 10.28 2 -10.9702 0.5 0.5 1.5
9 0 1 0 0 0 1 0 0 0 1 3.279999 3 -26.9702 1.5 0.5 0.5
9 0 1 0 0 0 1 0 0 0 1 -5.720001 3 -25.9702 1.5 0.5 0.5
9 0 1 0 0 0 1 0 0 0 1 -15.72 3 0.02980042 0.5 0.5 1.5
9 0 1 0 0 0 1 0 0 0 1 -23.72 5 10.0298 0.5 0.5 1.5
