9 0 1 0 0 0 1 0 0 0 1 -0.09589958 0.125 19.4226 4 4 7.5
9 0 1 0 0 0 1 0 0 0 1 -0.09589958 -6.375 40.4226 7 0.5 3.5
9 0 1 0 0 0 1 0 0 0 1 -0.09589958 -4.375 19.4226 3 0.5 7.5
9 0 1 0 0 0 1 0 0 0 1 -0.09589958 -0.375 -0.07740021 2 5.5 1
9 0 1 0 0 0 1 0 0 0 1 4.4041 0.125 19.9226 0.5 3 7
9 0 1 0 0 0 1 0 0 0 1 -4.5959 0.125 20.4226 0.5 3 6.5
9 0 1 0 0 0 1 0 0 0 1 -0.09589958 0.125 30.9226 2 1 4
9 0 1 0 0 0 1 0 0 0 1 -0.09589958 4.625 19.4226 2 0.5 7.5
9 0 1 0 0 0 1 0 0 0 1 0.4041004 -2.875 46.4226 7.5 1 0.5
9 0 1 0 0 0 1 0 0 0 1 0.4041004 -3.875 45.4226 7.5 1 0.5
9 0 1 0 0 0 1 0 0 0 1 0.4041004 -5.375 43.9226 7.5 0.5 1
9 0 1 0 0 0 1 0 0 0 1 -0.09589958 -4.875 35.4226 7 1 0.5
9 0 1 0 0 0 1 0 0 0 1 -0.09589958 -7.375 39.9226 7 0.5 1
9 0 1 0 0 0 1 0 0 0 1 -1.5959 -3.375 34.4226 4.5 1.5 0.5
9 0 1 0 0 0 1 0 0 0 1 3.9041 0.125 33.4226 2 3 0.5
9 0 1 0 0 0 1 0 0 0 1 -0.09589958 3.125 34.4226 6 1 0.5
9 0 1 0 0 0 1 0 0 0 1 -4.0959 0.125 33.4226 2 3 0.5
9 0 1 0 0 0 1 0 0 0 1 -0.09589958 -0.375 -1.5774 1 5.5 0.5
9 0 1 0 0 0 1 0 0 0 1 -0.09589958 -0.375 1.4226 1 5.5 0.5
9 0 1 0 0 0 1 0 0 0 1 -1.5959 -5.875 36.4226 5.5 1 0.5
9 0 1 0 0 0 1 0 0 0 1 -0.09589958 1.625 30.9226 1 0.5 4
9 0 1 0 0 0 1 0 0 0 1 -0.09589958 -1.375 30.9226 1 0.5 4
9 0 1 0 0 0 1 0 0 0 1 -0.09589958 6.625 37.4226 6 0.5 0.5
9 0 1 0 0 0 1 0 0 0 1 -0.09589958 5.625 36.4226 6 0.5 0.5
9 0 1 0 0 0 1 0 0 0 1 -0.09589958 4.625 35.4226 6 0.5 0.5
9 0 1 0 0 0 1 0 0 0 1 -1.0959 -1.375 47.4226 6 0.5 0.5
9 0 1 0 0 0 1 0 0 0 1 -2.0959 -4.375 44.4226 5 0.5 0.5
9 0 1 0 0 0 1 0 0 0 1 4.9041 -3.875 34.4226 2 1 0.5
9 0 1 0 0 0 1 0 0 0 1 3.9041 0.125 32.4226 2 1 0.5
9 0 1 0 0 0 1 0 0 0 1 -4.0959 0.125 32.4226 2 1 0.5
9 0 1 0 0 0 1 0 0 0 1 -0.09589958 -5.375 37.4226 3 0.5 0.5
9 0 1 0 0 0 1 0 0 0 1 -0.09589958 -5.375 42.4226 3 0.5 0.5
9 0 1 0 0 0 1 0 0 0 1 2.4041 4.625 15.9226 0.5 0.5 2
9 0 1 0 0 0 1 0 0 0 1 2.4041 0.125 34.4226 0.5 2 0.5
9 0 1 0 0 0 1 0 0 0 1 1.4041 1.625 32.9226 0.5 0.5 2
9 0 1 0 0 0 1 0 0 0 1 -0.09589958 2.625 33.4226 2 0.5 0.5
9 0 1 0 0 0 1 0 0 0 1 -1.5959 -1.375 32.9226 0.5 0.5 2
9 0 1 0 0 0 1 0 0 0 1 -0.09589958 -2.375 33.4226 2 0.5 0.5
9 0 1 0 0 0 1 0 0 0 1 -2.5959 0.125 34.4226 0.5 2 0.5
9 0 1 0 0 0 1 0 0 0 1 5.4041 -5.375 36.4226 1.5 0.5 0.5
9 0 1 0 0 0 1 0 0 0 1 1.4041 -1.375 33.4226 0.5 0.5 1.5
