9 0 1 0 0 0 1 0 0 0 1 -51.869 0.1309967 -17 1.5 8.5 23.5
9 0 1 0 0 0 1 0 0 0 1 51.631 0.1309967 -13 1 8.5 27.5
9 0 1 0 0 0 1 0 0 0 1 -73.369 0.1309967 -26 1 9.5 15.5
9 0 1 0 0 0 1 0 0 0 1 73.631 0.1309967 -22.5 1 8.5 16
9 0 1 0 0 0 1 0 0 0 1 -0.3690033 73.631 -18 9 1 11.5
9 0 1 0 0 0 1 0 0 0 1 0.1309967 -73.369 -24 11.5 1 8.5
9 0 1 0 0 0 1 0 0 0 1 17.131 54.631 -23 0.5 6 18.5
9 0 1 0 0 0 1 0 0 0 1 -16.869 -57.369 -27 0.5 8 13.5
9 0 1 0 0 0 1 0 0 0 1 17.131 -54.869 -24 0.5 6.5 16.5
9 0 1 0 0 0 1 0 0 0 1 53.131 0.1309967 -32.5 0.5 11.5 9
9 0 1 0 0 0 1 0 0 0 1 -16.869 56.631 -27 0.5 7 14.5
9 0 1 0 0 0 1 0 0 0 1 50.131 -0.3690033 -29.5 0.5 9 11
9 0 1 0 0 0 1 0 0 0 1 -0.3690033 -73.869 -6.5 9 0.5 9
9 0 1 0 0 0 1 0 0 0 1 -61.369 -15.869 -45.5 4 2.5 4
9 0 1 0 0 0 1 0 0 0 1 61.131 -15.869 -46 3.5 2.5 4.5
9 0 1 0 0 0 1 0 0 0 1 -60.869 16.131 -46 3.5 2.5 4.5
9 0 1 0 0 0 1 0 0 0 1 62.631 15.631 -45 5 2 3.5
9 0 1 0 0 0 1 0 0 0 1 -74.869 -0.3690033 -15 0.5 11 5.5
9 0 1 0 0 0 1 0 0 0 1 72.631 -11.369 -30.5 1 3 10
9 0 1 0 0 0 1 0 0 0 1 33.631 41.131 -20.5 3 0.5 20
9 0 1 0 0 0 1 0 0 0 1 -33.369 41.131 -20.5 3 0.5 20
9 0 1 0 0 0 1 0 0 0 1 0.1309967 -74.869 -25 10.5 0.5 5.5
9 0 1 0 0 0 1 0 0 0 1 -44.869 46.131 -45 1.5 5.5 3.5
9 0 1 0 0 0 1 0 0 0 1 -72.369 14.131 -26 1 2.5 11.5
9 0 1 0 0 0 1 0 0 0 1 72.631 11.631 -29 1 3 9.5
9 0 1 0 0 0 1 0 0 0 1 44.631 45.631 -45 2 4 3.5
9 0 1 0 0 0 1 0 0 0 1 -72.369 -13.869 -26.5 1 2.5 11
9 0 1 0 0 0 1 0 0 0 1 -44.369 -45.369 -46 2 3 4.5
9 0 1 0 0 0 1 0 0 0 1 -49.869 -0.3690033 -34.5 0.5 9 6
9 0 1 0 0 0 1 0 0 0 1 75.131 0.1309967 -15.5 0.5 10.5 5
9 0 1 0 0 0 1 0 0 0 1 0.1309967 75.131 -24.5 10.5 0.5 5
9 0 1 0 0 0 1 0 0 0 1 -15.369 -59.369 -47 2 2 6.5
9 0 1 0 0 0 1 0 0 0 1 -33.369 -40.869 -14.5 2 0.5 26
9 0 1 0 0 0 1 0 0 0 1 14.631 59.131 -45 2 1.5 8.5
9 0 1 0 0 0 1 0 0 0 1 14.631 -58.869 -45 2 1.5 8.5
9 0 1 0 0 0 1 0 0 0 1 43.631 -43.869 -46.5 2 2.5 5
9 0 1 0 0 0 1 0 0 0 1 33.631 -40.869 -15.5 2 0.5 25
9 0 1 0 0 0 1 0 0 0 1 -14.369 59.131 -44.5 2 1.5 8
9 0 1 0 0 0 1 0 0 0 1 16.131 65.631 -26 0.5 5 9.5
9 0 1 0 0 0 1 0 0 0 1 16.131 -65.869 -25 0.5 4.5 10.5
9 0 1 0 0 0 1 0 0 0 1 11.131 73.131 -14 2.5 0.5 17.5
9 0 1 0 0 0 1 0 0 0 1 22.631 46.631 -19 1 1 21.5
9 0 1 0 0 0 1 0 0 0 1 -21.369 -47.369 -19.5 1 1 21
9 0 1 0 0 0 1 0 0 0 1 19.131 48.631 -27 1.5 1 13.5
9 0 1 0 0 0 1 0 0 0 1 -20.869 47.631 -27 1.5 1 13.5
9 0 1 0 0 0 1 0 0 0 1 26.631 -44.369 -21.5 1 1 20
9 0 1 0 0 0 1 0 0 0 1 21.631 -47.369 -20.5 1 1 20
9 0 1 0 0 0 1 0 0 0 1 29.631 42.631 -21 1 1 19.5
9 0 1 0 0 0 1 0 0 0 1 -26.369 -44.369 -22 1 1 19.5
9 0 1 0 0 0 1 0 0 0 1 -28.369 -43.369 -21.5 1 1 19
9 0 1 0 0 0 1 0 0 0 1 -51.869 0.1309967 10.5 0.5 9.5 4
9 0 1 0 0 0 1 0 0 0 1 19.631 -48.369 -22 1 1 18.5
9 0 1 0 0 0 1 0 0 0 1 -24.369 45.631 -22 1 1 18.5
9 0 1 0 0 0 1 0 0 0 1 31.131 -41.869 -16 1.5 0.5 24.5
9 0 1 0 0 0 1 0 0 0 1 27.131 44.131 -17 1.5 0.5 24.5
9 0 1 0 0 0 1 0 0 0 1 24.131 -45.869 -17 1.5 0.5 24.5
9 0 1 0 0 0 1 0 0 0 1 -28.869 43.131 -17 1.5 0.5 24.5
9 0 1 0 0 0 1 0 0 0 1 -18.869 -48.869 -17 1.5 0.5 23.5
9 0 1 0 0 0 1 0 0 0 1 68.131 -14.869 -43.5 3.5 2.5 2
9 0 1 0 0 0 1 0 0 0 1 25.631 69.131 -23 2 0.5 17.5
9 0 1 0 0 0 1 0 0 0 1 -0.3690033 73.631 -32 7 1 2.5
9 0 1 0 0 0 1 0 0 0 1 -11.369 73.131 -13.5 2 0.5 17
9 0 1 0 0 0 1 0 0 0 1 -23.369 -46.369 -23.5 1 1 17
9 0 1 0 0 0 1 0 0 0 1 18.131 62.131 -46 1.5 2.5 4.5
9 0 1 0 0 0 1 0 0 0 1 -11.869 -72.869 -6 3.5 0.5 9.5
9 0 1 0 0 0 1 0 0 0 1 73.631 -11.369 -15 1 3 5.5
9 0 1 0 0 0 1 0 0 0 1 25.131 45.131 -19.5 1.5 0.5 22
9 0 1 0 0 0 1 0 0 0 1 -18.869 49.131 -19.5 1.5 0.5 22
9 0 1 0 0 0 1 0 0 0 1 29.131 -42.869 -19 1.5 0.5 21.5
9 0 1 0 0 0 1 0 0 0 1 -26.869 44.131 -20 1.5 0.5 21.5
9 0 1 0 0 0 1 0 0 0 1 46.631 -51.369 -43.5 2 4 2
9 0 1 0 0 0 1 0 0 0 1 26.631 -68.869 -22.5 2 0.5 16
9 0 1 0 0 0 1 0 0 0 1 11.631 -72.869 -7.5 4 0.5 8
9 0 1 0 0 0 1 0 0 0 1 -25.369 69.131 -24.5 2 0.5 16
9 0 1 0 0 0 1 0 0 0 1 -26.369 -68.869 -22.5 2 0.5 16
9 0 1 0 0 0 1 0 0 0 1 -30.369 42.131 -24.5 2 0.5 16
9 0 1 0 0 0 1 0 0 0 1 -68.369 14.631 -43.5 4 2 2
9 0 1 0 0 0 1 0 0 0 1 -30.869 -41.869 -19.5 1.5 0.5 21
9 0 1 0 0 0 1 0 0 0 1 -51.869 -8.869003 -19.5 1.5 0.5 21
9 0 1 0 0 0 1 0 0 0 1 73.631 11.631 -14.5 1 3 5
9 0 1 0 0 0 1 0 0 0 1 -68.369 -14.869 -43.5 3 2.5 2
9 0 1 0 0 0 1 0 0 0 1 60.631 18.131 -43.5 4 0.5 7
9 0 1 0 0 0 1 0 0 0 1 22.631 -69.869 -29.5 2 0.5 14
9 0 1 0 0 0 1 0 0 0 1 18.631 -63.369 -45 2 2 3.5
9 0 1 0 0 0 1 0 0 0 1 -16.869 -59.869 -5.5 0.5 3.5 8
9 0 1 0 0 0 1 0 0 0 1 -19.369 -64.369 -45 2 2 3.5
9 0 1 0 0 0 1 0 0 0 1 -28.369 68.131 -20.5 2 0.5 14
9 0 1 0 0 0 1 0 0 0 1 21.131 47.631 -13 0.5 1 27.5
9 0 1 0 0 0 1 0 0 0 1 0.1309967 74.131 -1.5 5.5 0.5 5
9 0 1 0 0 0 1 0 0 0 1 -69.869 23.131 -12.5 0.5 2.5 11
9 0 1 0 0 0 1 0 0 0 1 71.631 -15.869 -30.5 1 1.5 9
9 0 1 0 0 0 1 0 0 0 1 -15.869 67.631 -26.5 0.5 3 9
9 0 1 0 0 0 1 0 0 0 1 -15.869 -67.369 -26.5 0.5 3 9
9 0 1 0 0 0 1 0 0 0 1 -17.869 61.631 -46 1.5 2 4.5
9 0 1 0 0 0 1 0 0 0 1 -23.369 -69.869 -26.5 3 0.5 9
9 0 1 0 0 0 1 0 0 0 1 28.131 68.131 -23 1.5 0.5 17.5
9 0 1 0 0 0 1 0 0 0 1 -16.869 60.131 -5 0.5 3.5 7.5
9 0 1 0 0 0 1 0 0 0 1 -28.869 -67.869 -24 1.5 0.5 17.5
9 0 1 0 0 0 1 0 0 0 1 -69.869 -22.869 -12 0.5 2.5 10.5
9 0 1 0 0 0 1 0 0 0 1 18.131 -49.369 -15 0.5 1 25.5
9 0 1 0 0 0 1 0 0 0 1 -22.869 46.631 -15 0.5 1 25.5
9 0 1 0 0 0 1 0 0 0 1 71.631 15.631 -33 1 1 12.5
9 0 1 0 0 0 1 0 0 0 1 59.131 -17.369 -39 2.5 2 2.5
9 0 1 0 0 0 1 0 0 0 1 47.131 53.131 -43.5 2.5 2.5 2
9 0 1 0 0 0 1 0 0 0 1 33.631 40.131 -28 2 0.5 12.5
9 0 1 0 0 0 1 0 0 0 1 -24.869 -45.369 -16.5 0.5 1 25
9 0 1 0 0 0 1 0 0 0 1 -33.369 40.131 -28 2 0.5 12.5
9 0 1 0 0 0 1 0 0 0 1 -46.869 -51.869 -43.5 2.5 2.5 2
9 0 1 0 0 0 1 0 0 0 1 31.131 -66.869 -22.5 1.5 0.5 16
9 0 1 0 0 0 1 0 0 0 1 -42.369 43.631 -47.5 1 2 6
9 0 1 0 0 0 1 0 0 0 1 -73.369 -10.369 -20.5 1 1 12
9 0 1 0 0 0 1 0 0 0 1 -73.869 0.1309967 -8 0.5 9.5 2.5
9 0 1 0 0 0 1 0 0 0 1 -52.369 9.130997 -17 1 0.5 23.5
9 0 1 0 0 0 1 0 0 0 1 -17.869 -50.869 -26 0.5 1.5 15.5
9 0 1 0 0 0 1 0 0 0 1 51.631 -8.869003 -18.5 1 0.5 23
9 0 1 0 0 0 1 0 0 0 1 22.631 70.131 -27 2 0.5 11.5
9 0 1 0 0 0 1 0 0 0 1 35.131 -64.869 -22.5 1.5 0.5 15
9 0 1 0 0 0 1 0 0 0 1 -17.869 51.131 -26.5 0.5 1.5 15
9 0 1 0 0 0 1 0 0 0 1 -22.869 70.131 -30.5 1.5 0.5 15
9 0 1 0 0 0 1 0 0 0 1 -32.869 -65.869 -26.5 1.5 0.5 15
9 0 1 0 0 0 1 0 0 0 1 68.631 28.631 -25 1 2 5.5
9 0 1 0 0 0 1 0 0 0 1 68.631 -28.369 -25 1 2 5.5
9 0 1 0 0 0 1 0 0 0 1 28.631 -67.869 -24.5 2 0.5 11
9 0 1 0 0 0 1 0 0 0 1 17.131 -56.369 -2 0.5 4 5.5
9 0 1 0 0 0 1 0 0 0 1 -30.869 -66.869 -24 1.5 0.5 14.5
9 0 1 0 0 0 1 0 0 0 1 36.131 64.131 -27.5 1.5 0.5 14
9 0 1 0 0 0 1 0 0 0 1 30.131 67.131 -27.5 1.5 0.5 14
9 0 1 0 0 0 1 0 0 0 1 16.131 69.631 -9.5 0.5 3 7
9 0 1 0 0 0 1 0 0 0 1 15.631 -61.869 -43.5 1 1.5 7
9 0 1 0 0 0 1 0 0 0 1 -44.369 -40.869 -47.5 1 1.5 7
9 0 1 0 0 0 1 0 0 0 1 33.131 -65.869 -22 1.5 0.5 13.5
9 0 1 0 0 0 1 0 0 0 1 32.131 66.131 -28 1.5 0.5 13.5
9 0 1 0 0 0 1 0 0 0 1 -34.869 -64.869 -26 1.5 0.5 13.5
9 0 1 0 0 0 1 0 0 0 1 -36.869 -63.869 -22 1.5 0.5 13.5
9 0 1 0 0 0 1 0 0 0 1 66.631 32.631 -24.5 1 2 5
9 0 1 0 0 0 1 0 0 0 1 65.631 -34.369 -25.5 1 2 5
9 0 1 0 0 0 1 0 0 0 1 60.131 15.631 -50.5 2.5 2 2
9 0 1 0 0 0 1 0 0 0 1 53.631 -49.369 -18.5 2 1 5
9 0 1 0 0 0 1 0 0 0 1 44.631 42.631 -39 2 2 2.5
9 0 1 0 0 0 1 0 0 0 1 -47.369 51.631 -43.5 1 5 2
9 0 1 0 0 0 1 0 0 0 1 -59.369 -17.369 -39 2 2 2.5
9 0 1 0 0 0 1 0 0 0 1 -65.369 -35.369 -24.5 1 2 5
9 0 1 0 0 0 1 0 0 0 1 -67.369 -31.369 -24.5 1 2 5
9 0 1 0 0 0 1 0 0 0 1 -69.369 -27.369 -24.5 1 2 5
9 0 1 0 0 0 1 0 0 0 1 -30.869 67.131 -19.5 1.5 0.5 13
9 0 1 0 0 0 1 0 0 0 1 -32.869 66.131 -19.5 1.5 0.5 13
9 0 1 0 0 0 1 0 0 0 1 -34.869 65.131 -19.5 1.5 0.5 13
9 0 1 0 0 0 1 0 0 0 1 72.631 3.130997 -40.5 1 9.5 1
9 0 1 0 0 0 1 0 0 0 1 51.631 9.130997 -22.5 1 0.5 19
9 0 1 0 0 0 1 0 0 0 1 -72.869 10.631 -22.5 0.5 1 19
9 0 1 0 0 0 1 0 0 0 1 37.131 -63.869 -19 1.5 0.5 12.5
9 0 1 0 0 0 1 0 0 0 1 34.131 65.131 -29 1.5 0.5 12.5
9 0 1 0 0 0 1 0 0 0 1 -0.8690033 -72.869 -34 12.5 0.5 1.5
9 0 1 0 0 0 1 0 0 0 1 -15.869 62.131 -39 0.5 1.5 12.5
9 0 1 0 0 0 1 0 0 0 1 -35.869 64.131 -29 1.5 0.5 12.5
9 0 1 0 0 0 1 0 0 0 1 -58.869 17.131 -39 1.5 2.5 2.5
9 0 1 0 0 0 1 0 0 0 1 -59.869 -15.869 -51 2.5 2.5 1.5
9 0 1 0 0 0 1 0 0 0 1 64.631 36.631 -25 1 2 4.5
9 0 1 0 0 0 1 0 0 0 1 44.631 -40.369 -45.5 1 1 9
9 0 1 0 0 0 1 0 0 0 1 44.131 -42.869 -39 2.5 1.5 2.5
9 0 1 0 0 0 1 0 0 0 1 41.631 -60.869 -23.5 1 0.5 18
9 0 1 0 0 0 1 0 0 0 1 38.631 -62.869 -23.5 1 0.5 18
9 0 1 0 0 0 1 0 0 0 1 -14.369 72.631 -16.5 1 1 9
9 0 1 0 0 0 1 0 0 0 1 -38.369 -62.869 -23.5 1 0.5 18
9 0 1 0 0 0 1 0 0 0 1 44.631 -58.869 -23 1 0.5 17.5
9 0 1 0 0 0 1 0 0 0 1 39.631 62.131 -24 1 0.5 17.5
9 0 1 0 0 0 1 0 0 0 1 33.631 -39.869 -24 1 0.5 17.5
9 0 1 0 0 0 1 0 0 0 1 24.631 -44.869 -24 1 0.5 17.5
9 0 1 0 0 0 1 0 0 0 1 16.131 -69.869 -7.5 0.5 2.5 7
9 0 1 0 0 0 1 0 0 0 1 -19.369 -47.869 -23 1 0.5 17.5
9 0 1 0 0 0 1 0 0 0 1 -39.869 -61.869 -25 1.5 0.5 11.5
9 0 1 0 0 0 1 0 0 0 1 -68.869 27.131 -19 0.5 1.5 11.5
9 0 1 0 0 0 1 0 0 0 1 42.631 60.131 -23.5 1 0.5 17
9 0 1 0 0 0 1 0 0 0 1 -41.369 -60.869 -24.5 1 0.5 17
9 0 1 0 0 0 1 0 0 0 1 -44.369 -58.869 -24.5 1 0.5 17
9 0 1 0 0 0 1 0 0 0 1 -73.869 0.1309967 -43.5 0.5 8.5 2
9 0 1 0 0 0 1 0 0 0 1 67.131 -30.869 -22.5 0.5 1.5 11
9 0 1 0 0 0 1 0 0 0 1 60.631 -42.869 -25 1 1.5 5.5
9 0 1 0 0 0 1 0 0 0 1 47.631 56.131 -27 1 0.5 16.5
9 0 1 0 0 0 1 0 0 0 1 46.631 57.131 -23 1 0.5 16.5
9 0 1 0 0 0 1 0 0 0 1 9.630997 58.131 -49 3 0.5 5.5
9 0 1 0 0 0 1 0 0 0 1 -9.369003 58.131 -49 3 0.5 5.5
9 0 1 0 0 0 1 0 0 0 1 -33.369 -39.869 -24 1 0.5 16.5
9 0 1 0 0 0 1 0 0 0 1 -38.369 63.131 -22 1 0.5 16.5
9 0 1 0 0 0 1 0 0 0 1 -42.869 -59.869 -28.5 1.5 0.5 11
9 0 1 0 0 0 1 0 0 0 1 -53.869 -49.369 -18 1.5 1 5.5
9 0 1 0 0 0 1 0 0 0 1 -60.369 43.131 -25 1 1.5 5.5
9 0 1 0 0 0 1 0 0 0 1 -62.369 40.131 -25 1 1.5 5.5
9 0 1 0 0 0 1 0 0 0 1 -64.369 37.131 -25 1 1.5 5.5
9 0 1 0 0 0 1 0 0 0 1 -66.369 33.131 -25 1 1.5 5.5
9 0 1 0 0 0 1 0 0 0 1 -67.869 29.131 -21.5 0.5 1.5 11
9 0 1 0 0 0 1 0 0 0 1 17.131 57.131 2 0.5 2.5 6.5
9 0 1 0 0 0 1 0 0 0 1 73.131 -0.3690033 -4.5 0.5 8 2
9 0 1 0 0 0 1 0 0 0 1 45.631 -57.869 -25.5 1 0.5 16
9 0 1 0 0 0 1 0 0 0 1 27.631 43.131 -25.5 1 0.5 16
9 0 1 0 0 0 1 0 0 0 1 22.631 67.631 -43.5 2 2 2
9 0 1 0 0 0 1 0 0 0 1 15.631 61.631 -44.5 1 1 8
9 0 1 0 0 0 1 0 0 0 1 14.631 72.631 -15.5 1 1 8
9 0 1 0 0 0 1 0 0 0 1 -20.369 65.631 -43.5 2 2 2
9 0 1 0 0 0 1 0 0 0 1 -41.369 61.131 -22.5 1 0.5 16
9 0 1 0 0 0 1 0 0 0 1 74.131 0.1309967 -42 0.5 4.5 3.5
9 0 1 0 0 0 1 0 0 0 1 44.131 59.131 -25 1.5 0.5 10.5
9 0 1 0 0 0 1 0 0 0 1 0.1309967 59.131 -41 3.5 0.5 4.5
9 0 1 0 0 0 1 0 0 0 1 -26.369 45.131 -26 1 0.5 15.5
9 0 1 0 0 0 1 0 0 0 1 -39.369 62.131 -26 1 0.5 15.5
9 0 1 0 0 0 1 0 0 0 1 -42.369 60.131 -26 1 0.5 15.5
9 0 1 0 0 0 1 0 0 0 1 -45.369 58.131 -26 1 0.5 15.5
9 0 1 0 0 0 1 0 0 0 1 -46.369 57.131 -30 1 0.5 15.5
9 0 1 0 0 0 1 0 0 0 1 70.131 24.631 -22 1.5 2 2.5
9 0 1 0 0 0 1 0 0 0 1 70.131 13.131 -43.5 2.5 1.5 2
9 0 1 0 0 0 1 0 0 0 1 62.631 40.131 -24.5 1 1.5 5
9 0 1 0 0 0 1 0 0 0 1 62.631 -39.869 -24.5 1 1.5 5
9 0 1 0 0 0 1 0 0 0 1 60.631 43.131 -24.5 1 1.5 5
9 0 1 0 0 0 1 0 0 0 1 58.631 -45.869 -24.5 1 1.5 5
9 0 1 0 0 0 1 0 0 0 1 58.631 16.131 -39 2 1.5 2.5
9 0 1 0 0 0 1 0 0 0 1 57.631 19.131 -44 2 0.5 7.5
9 0 1 0 0 0 1 0 0 0 1 46.631 -56.869 -30.5 1 0.5 15
9 0 1 0 0 0 1 0 0 0 1 45.631 58.131 -21.5 1 0.5 15
9 0 1 0 0 0 1 0 0 0 1 44.631 40.131 -48.5 1 1.5 5
9 0 1 0 0 0 1 0 0 0 1 45.131 -47.869 -47.5 2.5 1.5 2
9 0 1 0 0 0 1 0 0 0 1 43.631 44.131 -50 2 2.5 1.5
9 0 1 0 0 0 1 0 0 0 1 24.631 46.131 -26.5 1 0.5 15
9 0 1 0 0 0 1 0 0 0 1 17.631 -59.869 -46.5 1 1.5 5
9 0 1 0 0 0 1 0 0 0 1 12.631 -72.869 -26.5 1 1.5 5
9 0 1 0 0 0 1 0 0 0 1 11.131 74.131 -25.5 2.5 0.5 6
9 0 1 0 0 0 1 0 0 0 1 -18.369 -60.869 -46.5 1 1.5 5
9 0 1 0 0 0 1 0 0 0 1 -22.869 -67.869 -43.5 2.5 1.5 2
9 0 1 0 0 0 1 0 0 0 1 -43.369 42.631 -39 3 1 2.5
9 0 1 0 0 0 1 0 0 0 1 -43.869 -42.869 -38.5 2.5 1.5 2
9 0 1 0 0 0 1 0 0 0 1 -50.869 -0.8690033 8.5 0.5 7.5 2
9 0 1 0 0 0 1 0 0 0 1 -52.369 -9.869003 -26.5 1 0.5 15
9 0 1 0 0 0 1 0 0 0 1 -58.369 46.131 -24.5 1 1.5 5
9 0 1 0 0 0 1 0 0 0 1 -59.369 -44.869 -24.5 1 1.5 5
9 0 1 0 0 0 1 0 0 0 1 -61.369 -41.869 -24.5 1 1.5 5
9 0 1 0 0 0 1 0 0 0 1 -63.369 -38.869 -24.5 1 1.5 5
9 0 1 0 0 0 1 0 0 0 1 -73.869 12.131 -14.5 0.5 2.5 6
9 0 1 0 0 0 1 0 0 0 1 47.631 -55.869 -31 1 0.5 14.5
9 0 1 0 0 0 1 0 0 0 1 -44.369 59.131 -21 1 0.5 14.5
9 0 1 0 0 0 1 0 0 0 1 53.631 49.631 -18 2 1 3.5
9 0 1 0 0 0 1 0 0 0 1 48.631 55.131 -27.5 1 0.5 14
9 0 1 0 0 0 1 0 0 0 1 39.631 -61.869 -27.5 1 0.5 14
9 0 1 0 0 0 1 0 0 0 1 31.131 42.131 -13.5 0.5 0.5 28
9 0 1 0 0 0 1 0 0 0 1 28.131 -43.869 -13.5 0.5 0.5 28
9 0 1 0 0 0 1 0 0 0 1 23.131 -46.869 -13.5 0.5 0.5 28
9 0 1 0 0 0 1 0 0 0 1 18.631 49.131 0.5 1 0.5 14
9 0 1 0 0 0 1 0 0 0 1 -12.369 -58.369 -47.5 1 1 7
9 0 1 0 0 0 1 0 0 0 1 -20.369 48.131 0.5 1 0.5 14
9 0 1 0 0 0 1 0 0 0 1 -29.869 -42.869 -13.5 0.5 0.5 28
9 0 1 0 0 0 1 0 0 0 1 -44.369 43.131 -50.5 1 3.5 2
9 0 1 0 0 0 1 0 0 0 1 -47.369 -56.869 -20.5 1 0.5 14
9 0 1 0 0 0 1 0 0 0 1 -56.869 17.631 -45.5 0.5 2 7
9 0 1 0 0 0 1 0 0 0 1 0.1309967 -58.869 -49 2.5 0.5 5.5
9 0 1 0 0 0 1 0 0 0 1 70.131 -23.369 -10 0.5 1 13.5
9 0 1 0 0 0 1 0 0 0 1 43.131 -59.869 -23.5 1.5 0.5 9
9 0 1 0 0 0 1 0 0 0 1 37.631 63.131 -28 1 0.5 13.5
9 0 1 0 0 0 1 0 0 0 1 -53.869 49.131 -12.5 1.5 0.5 9
9 0 1 0 0 0 1 0 0 0 1 64.131 -36.369 -21.5 0.5 1 13
9 0 1 0 0 0 1 0 0 0 1 41.631 61.131 -19.5 1 0.5 13
9 0 1 0 0 0 1 0 0 0 1 16.131 -59.369 -30 0.5 2 6.5
9 0 1 0 0 0 1 0 0 0 1 -49.369 -54.869 -27.5 1 0.5 13
9 0 1 0 0 0 1 0 0 0 1 -56.869 -17.369 -45 0.5 2 6.5
9 0 1 0 0 0 1 0 0 0 1 68.131 20.131 -27 1.5 0.5 8.5
9 0 1 0 0 0 1 0 0 0 1 12.131 72.131 -26 1.5 0.5 8.5
9 0 1 0 0 0 1 0 0 0 1 -71.869 -16.869 -25 1.5 0.5 8.5
9 0 1 0 0 0 1 0 0 0 1 57.131 -16.869 -46.5 0.5 2.5 5
9 0 1 0 0 0 1 0 0 0 1 38.631 42.131 -29 1 0.5 12.5
9 0 1 0 0 0 1 0 0 0 1 -36.369 -40.869 -29 1 0.5 12.5
9 0 1 0 0 0 1 0 0 0 1 -46.369 -57.869 -20 1 0.5 12.5
9 0 1 0 0 0 1 0 0 0 1 -47.369 56.131 -29 1 0.5 12.5
9 0 1 0 0 0 1 0 0 0 1 -75.869 0.1309967 -15.5 0.5 2.5 5
9 0 1 0 0 0 1 0 0 0 1 64.131 13.131 -45 3.5 0.5 3.5
9 0 1 0 0 0 1 0 0 0 1 49.631 54.131 -29.5 1 0.5 12
9 0 1 0 0 0 1 0 0 0 1 49.631 -54.369 -28.5 1 1 6
9 0 1 0 0 0 1 0 0 0 1 46.631 -45.369 -42.5 1 1 6
9 0 1 0 0 0 1 0 0 0 1 40.631 43.131 -29.5 1 0.5 12
9 0 1 0 0 0 1 0 0 0 1 22.631 -67.369 -44 2 2 1.5
9 0 1 0 0 0 1 0 0 0 1 -0.3690033 -75.869 -23.5 3 0.5 4
9 0 1 0 0 0 1 0 0 0 1 -0.3690033 73.131 -36 8 0.5 1.5
9 0 1 0 0 0 1 0 0 0 1 -10.869 72.131 -29.5 2.5 0.5 5
9 0 1 0 0 0 1 0 0 0 1 0.6309967 -57.369 -44 12 1 0.5
9 0 1 0 0 0 1 0 0 0 1 -12.369 -72.869 -27.5 1 1.5 4
9 0 1 0 0 0 1 0 0 0 1 -15.869 -61.369 -35.5 0.5 3 4
9 0 1 0 0 0 1 0 0 0 1 -14.869 -72.369 -19.5 1.5 1 4
9 0 1 0 0 0 1 0 0 0 1 -23.369 68.631 -43.5 3 1 2
9 0 1 0 0 0 1 0 0 0 1 -59.369 15.631 -52 2 2 1.5
9 0 1 0 0 0 1 0 0 0 1 -71.869 -11.369 -39.5 0.5 6 2
9 0 1 0 0 0 1 0 0 0 1 17.131 61.631 -30 0.5 1 11.5
9 0 1 0 0 0 1 0 0 0 1 -48.369 -55.869 -25 1 0.5 11.5
9 0 1 0 0 0 1 0 0 0 1 -64.869 34.631 -23 0.5 1 11.5
9 0 1 0 0 0 1 0 0 0 1 72.131 13.131 -12 0.5 1.5 7.5
9 0 1 0 0 0 1 0 0 0 1 66.131 -14.869 -47 1.5 2.5 1.5
9 0 1 0 0 0 1 0 0 0 1 59.131 -15.869 -52 1.5 2.5 1.5
9 0 1 0 0 0 1 0 0 0 1 18.131 50.131 -19 0.5 0.5 22.5
9 0 1 0 0 0 1 0 0 0 1 16.131 58.131 -32 0.5 2.5 4.5
9 0 1 0 0 0 1 0 0 0 1 -6.869003 73.131 -2 2.5 0.5 4.5
9 0 1 0 0 0 1 0 0 0 1 -65.869 15.131 -47 1.5 2.5 1.5
9 0 1 0 0 0 1 0 0 0 1 -67.869 20.131 -28 1.5 0.5 7.5
9 0 1 0 0 0 1 0 0 0 1 26.631 -69.869 -15 2 0.5 5.5
9 0 1 0 0 0 1 0 0 0 1 -11.369 74.131 -25 2 0.5 5.5
9 0 1 0 0 0 1 0 0 0 1 -16.369 -62.369 -46 1 1 5.5
9 0 1 0 0 0 1 0 0 0 1 -18.369 48.131 -29.5 1 0.5 11
9 0 1 0 0 0 1 0 0 0 1 -26.369 70.131 -15 2 0.5 5.5
9 0 1 0 0 0 1 0 0 0 1 -48.369 55.131 -30.5 1 0.5 11
9 0 1 0 0 0 1 0 0 0 1 -67.869 -28.369 -24.5 0.5 1 11
9 0 1 0 0 0 1 0 0 0 1 -71.869 11.131 -39.5 0.5 5.5 2
9 0 1 0 0 0 1 0 0 0 1 72.131 -12.869 -13.5 0.5 1.5 7
9 0 1 0 0 0 1 0 0 0 1 70.131 23.631 -9 0.5 1 10.5
9 0 1 0 0 0 1 0 0 0 1 69.131 -26.369 -9 0.5 1 10.5
9 0 1 0 0 0 1 0 0 0 1 59.131 44.631 -21 0.5 1 10.5
9 0 1 0 0 0 1 0 0 0 1 58.131 45.631 -19 0.5 1 10.5
9 0 1 0 0 0 1 0 0 0 1 35.131 65.631 -13 1.5 1 3.5
9 0 1 0 0 0 1 0 0 0 1 21.131 64.631 -45 1.5 1 3.5
9 0 1 0 0 0 1 0 0 0 1 16.131 -72.369 -20 3.5 1 1.5
9 0 1 0 0 0 1 0 0 0 1 -15.869 71.631 -14 0.5 1 10.5
9 0 1 0 0 0 1 0 0 0 1 -46.869 -46.369 -45 0.5 3 3.5
9 0 1 0 0 0 1 0 0 0 1 -49.369 54.131 -35 1 0.5 10.5
9 0 1 0 0 0 1 0 0 0 1 -52.869 10.131 -20.5 0.5 0.5 21
9 0 1 0 0 0 1 0 0 0 1 -66.869 30.631 -23 0.5 1 10.5
9 0 1 0 0 0 1 0 0 0 1 -72.869 -6.369003 -7 0.5 3 3.5
9 0 1 0 0 0 1 0 0 0 1 -72.869 -13.369 -12 1.5 1 3.5
9 0 1 0 0 0 1 0 0 0 1 -74.869 0.1309967 -23.5 0.5 3.5 3
9 0 1 0 0 0 1 0 0 0 1 72.131 6.630997 -34.5 0.5 2 5
9 0 1 0 0 0 1 0 0 0 1 68.131 28.631 -9.5 0.5 1 10
9 0 1 0 0 0 1 0 0 0 1 26.631 70.131 -15.5 2 0.5 5
9 0 1 0 0 0 1 0 0 0 1 10.631 -57.869 -49.5 2 0.5 5
9 0 1 0 0 0 1 0 0 0 1 6.630997 73.131 -1.5 2 0.5 5
9 0 1 0 0 0 1 0 0 0 1 -22.369 -70.869 -25.5 1 0.5 10
9 0 1 0 0 0 1 0 0 0 1 -30.369 42.131 1.5 1 0.5 10
9 0 1 0 0 0 1 0 0 0 1 -38.369 -41.869 -31.5 1 0.5 10
9 0 1 0 0 0 1 0 0 0 1 -40.369 -42.869 -31.5 1 0.5 10
9 0 1 0 0 0 1 0 0 0 1 -65.869 -33.369 -9.5 0.5 1 10
9 0 1 0 0 0 1 0 0 0 1 -66.869 -31.369 -9.5 0.5 1 10
9 0 1 0 0 0 1 0 0 0 1 -71.369 17.131 -25.5 1 0.5 10
9 0 1 0 0 0 1 0 0 0 1 -72.869 7.130997 -6.5 0.5 2.5 4
9 0 1 0 0 0 1 0 0 0 1 57.131 16.131 -48 0.5 1.5 6.5
9 0 1 0 0 0 1 0 0 0 1 -41.869 -43.869 -48 0.5 1.5 6.5
9 0 1 0 0 0 1 0 0 0 1 -46.869 45.131 -43 0.5 1.5 6.5
9 0 1 0 0 0 1 0 0 0 1 33.631 40.131 -6 1 0.5 9.5
9 0 1 0 0 0 1 0 0 0 1 -16.869 64.631 -26 0.5 1 9.5
9 0 1 0 0 0 1 0 0 0 1 -21.369 47.131 -4 1 0.5 9.5
9 0 1 0 0 0 1 0 0 0 1 -52.369 0.1309967 -41 1 9.5 0.5
9 0 1 0 0 0 1 0 0 0 1 -64.869 -35.369 -10 0.5 1 9.5
9 0 1 0 0 0 1 0 0 0 1 -68.869 -27.369 -10 0.5 1 9.5
9 0 1 0 0 0 1 0 0 0 1 72.131 -6.369003 -35 0.5 2 4.5
9 0 1 0 0 0 1 0 0 0 1 72.631 -15.869 -18.5 1 1.5 3
9 0 1 0 0 0 1 0 0 0 1 71.631 17.131 -24.5 1 0.5 9
9 0 1 0 0 0 1 0 0 0 1 69.131 26.631 -10.5 0.5 1 9
9 0 1 0 0 0 1 0 0 0 1 57.131 46.631 -25.5 0.5 1 9
9 0 1 0 0 0 1 0 0 0 1 55.131 -11.869 -23.5 0.5 0.5 18
9 0 1 0 0 0 1 0 0 0 1 52.131 -9.869003 -23.5 0.5 0.5 18
9 0 1 0 0 0 1 0 0 0 1 42.131 43.131 -42.5 0.5 1.5 6
9 0 1 0 0 0 1 0 0 0 1 38.631 -41.869 -32.5 1 0.5 9
9 0 1 0 0 0 1 0 0 0 1 19.631 48.131 -4.5 1 0.5 9
9 0 1 0 0 0 1 0 0 0 1 16.131 -55.369 -37 0.5 2 4.5
9 0 1 0 0 0 1 0 0 0 1 8.130997 -58.869 -38.5 4.5 0.5 2
9 0 1 0 0 0 1 0 0 0 1 -6.369003 -72.869 -11 2 0.5 4.5
9 0 1 0 0 0 1 0 0 0 1 -9.369003 -58.869 -38 6 0.5 1.5
9 0 1 0 0 0 1 0 0 0 1 -15.869 -71.369 -11 0.5 2 4.5
9 0 1 0 0 0 1 0 0 0 1 -25.369 45.131 5.5 1 0.5 9
9 0 1 0 0 0 1 0 0 0 1 -29.369 67.131 -37 2 0.5 4.5
9 0 1 0 0 0 1 0 0 0 1 -33.369 40.131 -6.5 1 0.5 9
9 0 1 0 0 0 1 0 0 0 1 -43.369 -60.369 -13 1 1 4.5
9 0 1 0 0 0 1 0 0 0 1 -44.369 -44.869 -32.5 1 0.5 9
9 0 1 0 0 0 1 0 0 0 1 -53.369 -10.869 -32.5 1 0.5 9
9 0 1 0 0 0 1 0 0 0 1 -57.869 -45.869 -16.5 0.5 0.5 18
9 0 1 0 0 0 1 0 0 0 1 -57.369 -46.869 -23.5 1 0.5 9
9 0 1 0 0 0 1 0 0 0 1 -58.869 -18.869 -47.5 1.5 0.5 6
9 0 1 0 0 0 1 0 0 0 1 -63.869 -36.369 -26.5 0.5 1 9
9 0 1 0 0 0 1 0 0 0 1 40.131 -42.869 -24 0.5 0.5 17.5
9 0 1 0 0 0 1 0 0 0 1 -26.869 68.131 -38 2.5 0.5 3.5
9 0 1 0 0 0 1 0 0 0 1 -26.869 -69.869 -14 2.5 0.5 3.5
9 0 1 0 0 0 1 0 0 0 1 67.131 30.631 -11 0.5 1 8.5
9 0 1 0 0 0 1 0 0 0 1 65.131 34.631 -12 0.5 1 8.5
9 0 1 0 0 0 1 0 0 0 1 63.131 38.131 -16.5 0.5 0.5 17
9 0 1 0 0 0 1 0 0 0 1 57.131 -46.869 -17.5 0.5 0.5 17
9 0 1 0 0 0 1 0 0 0 1 44.131 -44.869 -24.5 0.5 0.5 17
9 0 1 0 0 0 1 0 0 0 1 36.631 -40.869 -33 1 0.5 8.5
9 0 1 0 0 0 1 0 0 0 1 22.631 -70.869 -24 1 0.5 8.5
9 0 1 0 0 0 1 0 0 0 1 17.131 -62.369 -33 0.5 1 8.5
9 0 1 0 0 0 1 0 0 0 1 -27.369 -43.869 6 1 0.5 8.5
9 0 1 0 0 0 1 0 0 0 1 -61.869 -39.869 -18.5 0.5 0.5 17
9 0 1 0 0 0 1 0 0 0 1 70.131 -26.869 -25 0.5 1.5 5.5
9 0 1 0 0 0 1 0 0 0 1 65.131 -34.869 -15 0.5 1.5 5.5
9 0 1 0 0 0 1 0 0 0 1 61.131 41.131 -16 0.5 0.5 16.5
9 0 1 0 0 0 1 0 0 0 1 59.131 -18.869 -47 1.5 0.5 5.5
9 0 1 0 0 0 1 0 0 0 1 31.131 -40.869 -24 0.5 0.5 16.5
9 0 1 0 0 0 1 0 0 0 1 29.131 69.131 -15 1.5 0.5 5.5
9 0 1 0 0 0 1 0 0 0 1 20.131 47.131 -24 0.5 0.5 16.5
9 0 1 0 0 0 1 0 0 0 1 -21.869 46.131 -24 0.5 0.5 16.5
9 0 1 0 0 0 1 0 0 0 1 -28.869 69.131 -15 1.5 0.5 5.5
9 0 1 0 0 0 1 0 0 0 1 -53.869 -49.869 -7 1.5 0.5 5.5
9 0 1 0 0 0 1 0 0 0 1 -56.869 47.131 -18 0.5 0.5 16.5
9 0 1 0 0 0 1 0 0 0 1 -69.869 27.131 -25 0.5 1.5 5.5
9 0 1 0 0 0 1 0 0 0 1 73.131 15.631 -22.5 0.5 1 8
9 0 1 0 0 0 1 0 0 0 1 69.631 -24.869 -16.5 1 0.5 8
9 0 1 0 0 0 1 0 0 0 1 66.131 32.631 -11.5 0.5 1 8
9 0 1 0 0 0 1 0 0 0 1 64.131 36.631 -12.5 0.5 1 8
9 0 1 0 0 0 1 0 0 0 1 47.131 46.131 -33.5 0.5 0.5 16
9 0 1 0 0 0 1 0 0 0 1 28.631 43.131 6.5 1 0.5 8
9 0 1 0 0 0 1 0 0 0 1 25.631 68.131 -37.5 1 0.5 8
9 0 1 0 0 0 1 0 0 0 1 23.631 -68.869 -34.5 1 0.5 8
9 0 1 0 0 0 1 0 0 0 1 19.631 71.631 -19.5 4 1 1
9 0 1 0 0 0 1 0 0 0 1 -14.369 61.131 -44.5 1 0.5 8
9 0 1 0 0 0 1 0 0 0 1 -26.369 -44.869 5.5 1 0.5 8
9 0 1 0 0 0 1 0 0 0 1 -37.369 64.131 -12.5 2 0.5 4
9 0 1 0 0 0 1 0 0 0 1 -46.369 -45.869 -33.5 1 0.5 8
9 0 1 0 0 0 1 0 0 0 1 -50.369 -53.869 -24.5 1 0.5 8
9 0 1 0 0 0 1 0 0 0 1 -53.869 11.131 -25.5 0.5 0.5 16
9 0 1 0 0 0 1 0 0 0 1 -56.869 13.131 -25.5 0.5 0.5 16
9 0 1 0 0 0 1 0 0 0 1 -59.869 -42.869 -19.5 0.5 0.5 16
9 0 1 0 0 0 1 0 0 0 1 -65.869 -32.369 -27.5 0.5 1 8
9 0 1 0 0 0 1 0 0 0 1 -72.369 13.631 -10.5 1 1 4
9 0 1 0 0 0 1 0 0 0 1 58.131 -13.869 -26 0.5 0.5 15.5
9 0 1 0 0 0 1 0 0 0 1 -42.869 44.131 -26 0.5 0.5 15.5
9 0 1 0 0 0 1 0 0 0 1 -50.869 9.130997 -25 0.5 0.5 15.5
9 0 1 0 0 0 1 0 0 0 1 68.131 -28.369 -12 0.5 1 7.5
9 0 1 0 0 0 1 0 0 0 1 64.131 -37.869 -24.5 1.5 0.5 5
9 0 1 0 0 0 1 0 0 0 1 63.131 -38.369 -12 0.5 1 7.5
9 0 1 0 0 0 1 0 0 0 1 59.131 -43.869 -20.5 0.5 0.5 15
9 0 1 0 0 0 1 0 0 0 1 56.631 13.131 -34 1 0.5 7.5
9 0 1 0 0 0 1 0 0 0 1 54.131 49.131 -9.5 1.5 0.5 5
9 0 1 0 0 0 1 0 0 0 1 40.131 63.131 -15.5 1.5 0.5 5
9 0 1 0 0 0 1 0 0 0 1 36.131 -63.869 -36.5 1.5 0.5 5
9 0 1 0 0 0 1 0 0 0 1 33.131 67.131 -15.5 1.5 0.5 5
9 0 1 0 0 0 1 0 0 0 1 32.631 41.131 7 1 0.5 7.5
9 0 1 0 0 0 1 0 0 0 1 32.131 -67.869 -15.5 1.5 0.5 5
9 0 1 0 0 0 1 0 0 0 1 31.131 68.131 -15.5 1.5 0.5 5
9 0 1 0 0 0 1 0 0 0 1 29.131 -41.869 -25.5 0.5 0.5 15
9 0 1 0 0 0 1 0 0 0 1 20.631 -47.869 7 1 0.5 7.5
9 0 1 0 0 0 1 0 0 0 1 0.6309967 -73.869 -34 5 0.5 1.5
9 0 1 0 0 0 1 0 0 0 1 -9.869003 -57.869 -49.5 1.5 0.5 5
9 0 1 0 0 0 1 0 0 0 1 -18.869 71.631 -20 2.5 1 1.5
9 0 1 0 0 0 1 0 0 0 1 -18.869 -71.369 -20 2.5 1 1.5
9 0 1 0 0 0 1 0 0 0 1 -19.869 64.631 -47 2.5 1 1.5
9 0 1 0 0 0 1 0 0 0 1 -20.369 62.631 -46 1 1 4.5
9 0 1 0 0 0 1 0 0 0 1 -22.869 -69.869 -40.5 1.5 0.5 5
9 0 1 0 0 0 1 0 0 0 1 -26.869 43.131 -26.5 0.5 0.5 15
9 0 1 0 0 0 1 0 0 0 1 -30.869 -40.869 -25.5 0.5 0.5 15
9 0 1 0 0 0 1 0 0 0 1 -29.869 -68.869 -15.5 1.5 0.5 5
9 0 1 0 0 0 1 0 0 0 1 -32.369 41.131 7 1 0.5 7.5
9 0 1 0 0 0 1 0 0 0 1 -31.869 -67.869 -15.5 1.5 0.5 5
9 0 1 0 0 0 1 0 0 0 1 -33.869 -66.869 -15.5 1.5 0.5 5
9 0 1 0 0 0 1 0 0 0 1 -36.869 41.131 -26.5 0.5 0.5 15
9 0 1 0 0 0 1 0 0 0 1 -35.869 -65.869 -15.5 1.5 0.5 5
9 0 1 0 0 0 1 0 0 0 1 -42.869 47.131 -46.5 0.5 1.5 5
9 0 1 0 0 0 1 0 0 0 1 -42.369 -43.869 -29 1 0.5 7.5
9 0 1 0 0 0 1 0 0 0 1 -44.869 45.131 -26.5 0.5 0.5 15
9 0 1 0 0 0 1 0 0 0 1 -57.869 -13.869 -26.5 0.5 0.5 15
9 0 1 0 0 0 1 0 0 0 1 -58.869 44.131 -21.5 0.5 0.5 15
9 0 1 0 0 0 1 0 0 0 1 -61.869 17.631 -39 1.5 1 2.5
9 0 1 0 0 0 1 0 0 0 1 -62.869 13.131 -46.5 1.5 0.5 5
9 0 1 0 0 0 1 0 0 0 1 -66.369 -14.869 -47 1 2.5 1.5
9 0 1 0 0 0 1 0 0 0 1 -67.869 -29.369 -6 0.5 1 7.5
9 0 1 0 0 0 1 0 0 0 1 -68.869 -20.869 -20.5 0.5 0.5 15
9 0 1 0 0 0 1 0 0 0 1 -73.869 -14.369 -18 0.5 3 2.5
9 0 1 0 0 0 1 0 0 0 1 42.131 -43.869 -22 0.5 0.5 14.5
9 0 1 0 0 0 1 0 0 0 1 41.131 -42.869 -40 0.5 0.5 14.5
9 0 1 0 0 0 1 0 0 0 1 -18.869 -49.869 -27 0.5 0.5 14.5
9 0 1 0 0 0 1 0 0 0 1 -38.869 42.131 -27 0.5 0.5 14.5
9 0 1 0 0 0 1 0 0 0 1 -54.869 -11.869 -27 0.5 0.5 14.5
9 0 1 0 0 0 1 0 0 0 1 67.131 29.631 -26.5 0.5 1 7
9 0 1 0 0 0 1 0 0 0 1 65.131 33.631 -27.5 0.5 1 7
9 0 1 0 0 0 1 0 0 0 1 52.131 10.131 -27.5 0.5 0.5 14
9 0 1 0 0 0 1 0 0 0 1 47.631 48.631 -45 1 1 3.5
9 0 1 0 0 0 1 0 0 0 1 45.631 50.131 -45 2 0.5 3.5
9 0 1 0 0 0 1 0 0 0 1 37.131 41.131 -27.5 0.5 0.5 14
9 0 1 0 0 0 1 0 0 0 1 25.131 44.131 -27.5 0.5 0.5 14
9 0 1 0 0 0 1 0 0 0 1 23.131 45.131 -27.5 0.5 0.5 14
9 0 1 0 0 0 1 0 0 0 1 22.131 -45.869 -26.5 0.5 0.5 14
9 0 1 0 0 0 1 0 0 0 1 21.631 -64.369 -45 1 1 3.5
9 0 1 0 0 0 1 0 0 0 1 18.631 65.631 -45 1 1 3.5
9 0 1 0 0 0 1 0 0 0 1 -16.869 -54.369 -10 0.5 2 3.5
9 0 1 0 0 0 1 0 0 0 1 -23.869 -44.869 -27.5 0.5 0.5 14
9 0 1 0 0 0 1 0 0 0 1 -25.369 -70.869 -17 2 0.5 3.5
9 0 1 0 0 0 1 0 0 0 1 -31.369 66.131 -38 2 0.5 3.5
9 0 1 0 0 0 1 0 0 0 1 -55.869 -48.369 -18.5 0.5 1 7
9 0 1 0 0 0 1 0 0 0 1 -60.869 41.131 -21.5 0.5 0.5 14
9 0 1 0 0 0 1 0 0 0 1 -68.869 21.131 -21.5 0.5 0.5 14
9 0 1 0 0 0 1 0 0 0 1 -71.369 -20.869 -20.5 1 3.5 1
9 0 1 0 0 0 1 0 0 0 1 -69.869 12.131 -43.5 3.5 0.5 2
9 0 1 0 0 0 1 0 0 0 1 -72.869 -12.369 -41 0.5 2 3.5
9 0 1 0 0 0 1 0 0 0 1 72.131 19.131 -20 1.5 1.5 1.5
9 0 1 0 0 0 1 0 0 0 1 66.131 -31.869 -22 0.5 0.5 13.5
9 0 1 0 0 0 1 0 0 0 1 42.131 -59.869 -37 1.5 0.5 4.5
9 0 1 0 0 0 1 0 0 0 1 42.131 -61.869 -16 1.5 0.5 4.5
9 0 1 0 0 0 1 0 0 0 1 15.131 57.131 -48 1.5 0.5 4.5
9 0 1 0 0 0 1 0 0 0 1 6.130997 -72.869 -11 1.5 0.5 4.5
9 0 1 0 0 0 1 0 0 0 1 -14.869 57.131 -48 1.5 0.5 4.5
9 0 1 0 0 0 1 0 0 0 1 -33.869 65.131 -37 1.5 0.5 4.5
9 0 1 0 0 0 1 0 0 0 1 -44.869 -49.869 -47 1.5 1.5 1.5
9 0 1 0 0 0 1 0 0 0 1 -62.869 38.131 -21 0.5 0.5 13.5
9 0 1 0 0 0 1 0 0 0 1 -63.869 -12.869 -46 1.5 0.5 4.5
9 0 1 0 0 0 1 0 0 0 1 -71.869 19.131 -20 1.5 1.5 1.5
9 0 1 0 0 0 1 0 0 0 1 58.131 14.131 -28.5 0.5 0.5 13
9 0 1 0 0 0 1 0 0 0 1 54.131 11.131 -28.5 0.5 0.5 13
9 0 1 0 0 0 1 0 0 0 1 40.131 61.131 -28.5 0.5 0.5 13
9 0 1 0 0 0 1 0 0 0 1 33.631 39.131 -34 1 0.5 6.5
9 0 1 0 0 0 1 0 0 0 1 32.131 42.131 -28.5 0.5 0.5 13
9 0 1 0 0 0 1 0 0 0 1 25.631 -44.869 5 1 0.5 6.5
9 0 1 0 0 0 1 0 0 0 1 24.131 46.131 1.5 0.5 0.5 13
9 0 1 0 0 0 1 0 0 0 1 17.131 58.631 -48 0.5 1 6.5
9 0 1 0 0 0 1 0 0 0 1 0.1309967 57.631 -44 6.5 1 0.5
9 0 1 0 0 0 1 0 0 0 1 -16.869 49.131 -28.5 0.5 0.5 13
9 0 1 0 0 0 1 0 0 0 1 -20.369 -47.869 8 1 0.5 6.5
9 0 1 0 0 0 1 0 0 0 1 -21.869 -45.869 -27.5 0.5 0.5 13
9 0 1 0 0 0 1 0 0 0 1 -22.369 71.131 -22 1 0.5 6.5
9 0 1 0 0 0 1 0 0 0 1 -22.369 -46.869 8 1 0.5 6.5
9 0 1 0 0 0 1 0 0 0 1 -23.369 -68.869 -35 1 0.5 6.5
9 0 1 0 0 0 1 0 0 0 1 -27.369 44.131 8 1 0.5 6.5
9 0 1 0 0 0 1 0 0 0 1 -31.369 -41.869 8 1 0.5 6.5
9 0 1 0 0 0 1 0 0 0 1 -40.869 43.131 -23.5 0.5 0.5 13
9 0 1 0 0 0 1 0 0 0 1 -45.869 -57.369 -39 0.5 1 6.5
9 0 1 0 0 0 1 0 0 0 1 -55.369 12.131 -35 1 0.5 6.5
9 0 1 0 0 0 1 0 0 0 1 -59.869 43.631 -13 0.5 1 6.5
9 0 1 0 0 0 1 0 0 0 1 -63.869 -17.869 -28.5 0.5 0.5 13
9 0 1 0 0 0 1 0 0 0 1 -65.869 33.631 -13 0.5 1 6.5
9 0 1 0 0 0 1 0 0 0 1 72.131 -13.869 -43 0.5 2.5 2.5
9 0 1 0 0 0 1 0 0 0 1 61.131 -40.869 -20 0.5 0.5 12.5
9 0 1 0 0 0 1 0 0 0 1 56.131 48.131 -13 0.5 0.5 12.5
9 0 1 0 0 0 1 0 0 0 1 55.131 12.131 -29 0.5 0.5 12.5
9 0 1 0 0 0 1 0 0 0 1 45.131 45.131 -29 0.5 0.5 12.5
9 0 1 0 0 0 1 0 0 0 1 16.131 55.131 -39 0.5 2.5 2.5
9 0 1 0 0 0 1 0 0 0 1 -16.869 -48.869 -28 0.5 0.5 12.5
9 0 1 0 0 0 1 0 0 0 1 -17.869 -49.869 2 0.5 0.5 12.5
9 0 1 0 0 0 1 0 0 0 1 -46.869 46.131 -24 0.5 0.5 12.5
9 0 1 0 0 0 1 0 0 0 1 -59.869 15.131 -24 0.5 0.5 12.5
9 0 1 0 0 0 1 0 0 0 1 74.131 -9.369003 -26.5 0.5 1 6
9 0 1 0 0 0 1 0 0 0 1 71.631 -20.369 -20.5 1 3 1
9 0 1 0 0 0 1 0 0 0 1 70.631 21.631 -21 2 1 1.5
9 0 1 0 0 0 1 0 0 0 1 69.131 15.631 -43.5 1.5 1 2
9 0 1 0 0 0 1 0 0 0 1 66.131 -32.869 -8.5 0.5 0.5 12
9 0 1 0 0 0 1 0 0 0 1 61.131 16.131 -29.5 0.5 0.5 12
9 0 1 0 0 0 1 0 0 0 1 59.131 -14.869 -29.5 0.5 0.5 12
9 0 1 0 0 0 1 0 0 0 1 56.631 -48.369 -22.5 1 1 3
9 0 1 0 0 0 1 0 0 0 1 53.631 -49.869 -7.5 1 0.5 6
9 0 1 0 0 0 1 0 0 0 1 47.631 -57.369 -12.5 1 1 3
9 0 1 0 0 0 1 0 0 0 1 44.131 -49.369 -43.5 0.5 3 2
9 0 1 0 0 0 1 0 0 0 1 36.131 -65.869 -16.5 1.5 0.5 4
9 0 1 0 0 0 1 0 0 0 1 33.631 -66.869 -14.5 1 0.5 6
9 0 1 0 0 0 1 0 0 0 1 30.131 41.131 -28.5 0.5 0.5 12
9 0 1 0 0 0 1 0 0 0 1 31.631 -65.869 -38.5 2 0.5 3
9 0 1 0 0 0 1 0 0 0 1 29.631 -42.869 8.5 1 0.5 6
9 0 1 0 0 0 1 0 0 0 1 29.131 -43.869 -29.5 0.5 0.5 12
9 0 1 0 0 0 1 0 0 0 1 30.131 -68.869 -16.5 1.5 0.5 4
9 0 1 0 0 0 1 0 0 0 1 27.631 -67.869 -38.5 2 0.5 3
9 0 1 0 0 0 1 0 0 0 1 25.631 45.131 8.5 1 0.5 6
9 0 1 0 0 0 1 0 0 0 1 20.131 62.131 -45.5 0.5 1.5 4
9 0 1 0 0 0 1 0 0 0 1 20.131 -46.869 -28.5 0.5 0.5 12
9 0 1 0 0 0 1 0 0 0 1 17.131 -57.369 6.5 0.5 2 3
9 0 1 0 0 0 1 0 0 0 1 18.631 -62.869 -49.5 2 1.5 1
9 0 1 0 0 0 1 0 0 0 1 16.631 63.631 -38.5 1 1 3
9 0 1 0 0 0 1 0 0 0 1 14.631 -72.869 -23.5 1 1.5 2
9 0 1 0 0 0 1 0 0 0 1 9.130997 72.631 -33.5 1.5 1 2
9 0 1 0 0 0 1 0 0 0 1 -3.869003 -58.869 -43.5 1.5 0.5 4
9 0 1 0 0 0 1 0 0 0 1 -12.369 -73.869 -21.5 1 1.5 2
9 0 1 0 0 0 1 0 0 0 1 -16.869 55.131 -8.5 0.5 1.5 4
9 0 1 0 0 0 1 0 0 0 1 -17.869 -53.369 -35.5 0.5 1 6
9 0 1 0 0 0 1 0 0 0 1 -18.369 49.131 8.5 1 0.5 6
9 0 1 0 0 0 1 0 0 0 1 -23.869 42.631 -40.5 1.5 2 1
9 0 1 0 0 0 1 0 0 0 1 -23.869 -42.369 -40.5 1.5 2 1
9 0 1 0 0 0 1 0 0 0 1 -26.369 -67.869 -35.5 1 0.5 6
9 0 1 0 0 0 1 0 0 0 1 -28.869 -41.869 -28.5 0.5 0.5 12
9 0 1 0 0 0 1 0 0 0 1 -37.369 -64.869 -14.5 1 0.5 6
9 0 1 0 0 0 1 0 0 0 1 -40.369 -62.869 -14.5 1 0.5 6
9 0 1 0 0 0 1 0 0 0 1 -41.369 62.131 -14.5 1 0.5 6
9 0 1 0 0 0 1 0 0 0 1 -44.369 60.131 -14.5 1 0.5 6
9 0 1 0 0 0 1 0 0 0 1 -44.869 39.631 -42.5 0.5 1 6
9 0 1 0 0 0 1 0 0 0 1 -43.869 -44.369 -51.5 1.5 2 1
9 0 1 0 0 0 1 0 0 0 1 -45.369 53.131 -43.5 1 1.5 2
9 0 1 0 0 0 1 0 0 0 1 -46.869 -55.369 -43.5 1.5 1 2
9 0 1 0 0 0 1 0 0 0 1 -53.369 51.631 -20 1 2 1.5
9 0 1 0 0 0 1 0 0 0 1 -55.869 48.631 -18.5 0.5 1 6
9 0 1 0 0 0 1 0 0 0 1 -58.869 -44.369 -13.5 0.5 1 6
9 0 1 0 0 0 1 0 0 0 1 -70.869 -15.869 -37.5 0.5 1.5 4
9 0 1 0 0 0 1 0 0 0 1 -71.869 10.131 -33.5 0.5 1.5 4
9 0 1 0 0 0 1 0 0 0 1 -71.869 -9.869003 -33.5 0.5 1.5 4
9 0 1 0 0 0 1 0 0 0 1 -73.869 10.631 -26.5 0.5 1 6
9 0 1 0 0 0 1 0 0 0 1 62.131 -39.869 -8 0.5 0.5 11.5
9 0 1 0 0 0 1 0 0 0 1 60.131 -42.869 -8 0.5 0.5 11.5
9 0 1 0 0 0 1 0 0 0 1 46.131 -45.869 -25 0.5 0.5 11.5
9 0 1 0 0 0 1 0 0 0 1 37.131 -62.869 -30 0.5 0.5 11.5
9 0 1 0 0 0 1 0 0 0 1 27.131 45.131 -30 0.5 0.5 11.5
9 0 1 0 0 0 1 0 0 0 1 27.131 -42.869 -29 0.5 0.5 11.5
9 0 1 0 0 0 1 0 0 0 1 23.131 69.131 -29 0.5 0.5 11.5
9 0 1 0 0 0 1 0 0 0 1 -19.869 -46.869 -29 0.5 0.5 11.5
9 0 1 0 0 0 1 0 0 0 1 -30.869 -42.869 -30 0.5 0.5 11.5
9 0 1 0 0 0 1 0 0 0 1 -34.869 -39.869 -30 0.5 0.5 11.5
9 0 1 0 0 0 1 0 0 0 1 -36.869 63.131 -30 0.5 0.5 11.5
9 0 1 0 0 0 1 0 0 0 1 -44.869 -57.869 -30 0.5 0.5 11.5
9 0 1 0 0 0 1 0 0 0 1 -48.869 47.131 -24 0.5 0.5 11.5
9 0 1 0 0 0 1 0 0 0 1 -57.869 46.131 -8 0.5 0.5 11.5
9 0 1 0 0 0 1 0 0 0 1 -60.869 -15.869 -25 0.5 0.5 11.5
9 0 1 0 0 0 1 0 0 0 1 -62.869 17.131 -25 0.5 0.5 11.5
9 0 1 0 0 0 1 0 0 0 1 -62.869 -38.869 -8 0.5 0.5 11.5
9 0 1 0 0 0 1 0 0 0 1 -63.869 37.131 -8 0.5 0.5 11.5
9 0 1 0 0 0 1 0 0 0 1 75.131 0.1309967 -9.5 0.5 5.5 1
9 0 1 0 0 0 1 0 0 0 1 73.131 2.630997 -39 0.5 11 0.5
9 0 1 0 0 0 1 0 0 0 1 69.131 25.631 -30 0.5 1 5.5
9 0 1 0 0 0 1 0 0 0 1 68.131 -31.369 -25 0.5 1 5.5
9 0 1 0 0 0 1 0 0 0 1 67.131 -33.369 -25 0.5 1 5.5
9 0 1 0 0 0 1 0 0 0 1 62.131 -16.869 -30.5 0.5 0.5 11
9 0 1 0 0 0 1 0 0 0 1 61.131 -15.869 -25.5 0.5 0.5 11
9 0 1 0 0 0 1 0 0 0 1 56.131 -12.869 -30.5 0.5 0.5 11
9 0 1 0 0 0 1 0 0 0 1 50.131 53.131 -31.5 0.5 0.5 11
9 0 1 0 0 0 1 0 0 0 1 49.131 47.131 -24.5 0.5 0.5 11
9 0 1 0 0 0 1 0 0 0 1 49.631 -53.869 -40 1 0.5 5.5
9 0 1 0 0 0 1 0 0 0 1 46.131 -43.369 -47 0.5 1 5.5
9 0 1 0 0 0 1 0 0 0 1 44.631 60.131 -15 1 0.5 5.5
9 0 1 0 0 0 1 0 0 0 1 43.131 44.131 -25.5 0.5 0.5 11
9 0 1 0 0 0 1 0 0 0 1 43.631 -60.869 -15 1 0.5 5.5
9 0 1 0 0 0 1 0 0 0 1 41.631 62.131 -15 1 0.5 5.5
9 0 1 0 0 0 1 0 0 0 1 40.631 -62.869 -15 1 0.5 5.5
9 0 1 0 0 0 1 0 0 0 1 38.631 64.131 -15 1 0.5 5.5
9 0 1 0 0 0 1 0 0 0 1 37.631 -64.869 -15 1 0.5 5.5
9 0 1 0 0 0 1 0 0 0 1 32.131 -39.869 -29.5 0.5 0.5 11
9 0 1 0 0 0 1 0 0 0 1 -0.8690033 75.131 -30.5 5.5 0.5 1
9 0 1 0 0 0 1 0 0 0 1 -16.869 58.631 -47 0.5 1 5.5
9 0 1 0 0 0 1 0 0 0 1 -17.869 53.631 -36 0.5 1 5.5
9 0 1 0 0 0 1 0 0 0 1 -22.369 69.131 -36 1 0.5 5.5
9 0 1 0 0 0 1 0 0 0 1 -26.869 -42.869 -30.5 0.5 0.5 11
9 0 1 0 0 0 1 0 0 0 1 -31.369 68.131 -15 1 0.5 5.5
9 0 1 0 0 0 1 0 0 0 1 -33.369 67.131 -15 1 0.5 5.5
9 0 1 0 0 0 1 0 0 0 1 -35.369 66.131 -15 1 0.5 5.5
9 0 1 0 0 0 1 0 0 0 1 -39.369 -63.869 -15 1 0.5 5.5
9 0 1 0 0 0 1 0 0 0 1 -40.369 63.131 -15 1 0.5 5.5
9 0 1 0 0 0 1 0 0 0 1 -42.869 -41.369 -49 0.5 1 5.5
9 0 1 0 0 0 1 0 0 0 1 -43.369 61.131 -15 1 0.5 5.5
9 0 1 0 0 0 1 0 0 0 1 -46.369 -58.869 -15 1 0.5 5.5
9 0 1 0 0 0 1 0 0 0 1 -48.369 57.131 -15 1 0.5 5.5
9 0 1 0 0 0 1 0 0 0 1 -50.869 53.631 -22 0.5 1 5.5
9 0 1 0 0 0 1 0 0 0 1 -65.869 35.631 -25 0.5 1 5.5
9 0 1 0 0 0 1 0 0 0 1 -67.869 31.631 -25 0.5 1 5.5
9 0 1 0 0 0 1 0 0 0 1 -68.869 30.131 -23.5 0.5 1.5 4
9 0 1 0 0 0 1 0 0 0 1 -70.869 15.631 -35 0.5 1 5.5
9 0 1 0 0 0 1 0 0 0 1 69.131 -20.869 -12 0.5 0.5 10.5
9 0 1 0 0 0 1 0 0 0 1 68.131 -19.869 -32 1.5 0.5 3.5
9 0 1 0 0 0 1 0 0 0 1 40.131 -60.869 -31 0.5 0.5 10.5
9 0 1 0 0 0 1 0 0 0 1 33.131 -64.869 -31 0.5 0.5 10.5
9 0 1 0 0 0 1 0 0 0 1 29.131 -67.869 -10 1.5 0.5 3.5
9 0 1 0 0 0 1 0 0 0 1 26.131 -68.869 -42 1.5 0.5 3.5
9 0 1 0 0 0 1 0 0 0 1 24.131 -46.869 -31 0.5 0.5 10.5
9 0 1 0 0 0 1 0 0 0 1 25.131 -70.869 -17 1.5 0.5 3.5
9 0 1 0 0 0 1 0 0 0 1 21.131 46.131 -30 0.5 0.5 10.5
9 0 1 0 0 0 1 0 0 0 1 19.131 -65.869 -45 1.5 0.5 3.5
9 0 1 0 0 0 1 0 0 0 1 16.131 65.131 -13 0.5 1.5 3.5
9 0 1 0 0 0 1 0 0 0 1 16.131 -65.869 -11 0.5 1.5 3.5
9 0 1 0 0 0 1 0 0 0 1 4.130997 -58.869 -44 1.5 0.5 3.5
9 0 1 0 0 0 1 0 0 0 1 -15.869 69.131 -14 0.5 1.5 3.5
9 0 1 0 0 0 1 0 0 0 1 -15.869 -62.869 -28 0.5 1.5 3.5
9 0 1 0 0 0 1 0 0 0 1 -23.869 -45.869 4 0.5 0.5 10.5
9 0 1 0 0 0 1 0 0 0 1 -24.869 44.131 -29 0.5 0.5 10.5
9 0 1 0 0 0 1 0 0 0 1 -24.869 71.131 -17 1.5 0.5 3.5
9 0 1 0 0 0 1 0 0 0 1 -25.869 -45.869 -31 0.5 0.5 10.5
9 0 1 0 0 0 1 0 0 0 1 -29.869 41.131 -30 0.5 0.5 10.5
9 0 1 0 0 0 1 0 0 0 1 -42.869 59.131 -31 0.5 0.5 10.5
9 0 1 0 0 0 1 0 0 0 1 -47.869 -47.869 -45 0.5 1.5 3.5
9 0 1 0 0 0 1 0 0 0 1 -48.869 -46.869 -25 0.5 0.5 10.5
9 0 1 0 0 0 1 0 0 0 1 -57.869 14.131 -31 0.5 0.5 10.5
9 0 1 0 0 0 1 0 0 0 1 -60.869 -41.869 -9 0.5 0.5 10.5
9 0 1 0 0 0 1 0 0 0 1 -61.869 40.131 -9 0.5 0.5 10.5
9 0 1 0 0 0 1 0 0 0 1 74.131 9.630997 -24.5 0.5 1 5
9 0 1 0 0 0 1 0 0 0 1 73.131 11.131 -7.5 0.5 2.5 2
9 0 1 0 0 0 1 0 0 0 1 73.131 -10.869 -7.5 0.5 2.5 2
9 0 1 0 0 0 1 0 0 0 1 70.131 27.631 -24.5 0.5 1 5
9 0 1 0 0 0 1 0 0 0 1 69.631 25.131 -14.5 1 0.5 5
9 0 1 0 0 0 1 0 0 0 1 68.131 31.631 -24.5 0.5 1 5
9 0 1 0 0 0 1 0 0 0 1 66.131 35.631 -24.5 0.5 1 5
9 0 1 0 0 0 1 0 0 0 1 61.131 -41.869 -9.5 0.5 0.5 10
9 0 1 0 0 0 1 0 0 0 1 60.131 43.131 -9.5 0.5 0.5 10
9 0 1 0 0 0 1 0 0 0 1 58.131 47.631 -24.5 0.5 1 5
9 0 1 0 0 0 1 0 0 0 1 58.631 16.131 -53.5 1 2.5 1
9 0 1 0 0 0 1 0 0 0 1 50.631 -47.869 -30.5 1 0.5 5
9 0 1 0 0 0 1 0 0 0 1 50.631 0.1309967 -41 2 2.5 0.5
9 0 1 0 0 0 1 0 0 0 1 48.631 57.131 -15.5 1 0.5 5
9 0 1 0 0 0 1 0 0 0 1 48.631 -46.869 -30.5 1 0.5 5
9 0 1 0 0 0 1 0 0 0 1 46.631 -58.869 -15.5 1 0.5 5
9 0 1 0 0 0 1 0 0 0 1 43.631 61.131 -15.5 1 0.5 5
9 0 1 0 0 0 1 0 0 0 1 39.631 -63.869 -15.5 1 0.5 5
9 0 1 0 0 0 1 0 0 0 1 37.631 65.131 -15.5 1 0.5 5
9 0 1 0 0 0 1 0 0 0 1 25.131 -43.869 -30.5 0.5 0.5 10
9 0 1 0 0 0 1 0 0 0 1 25.131 -69.869 -30.5 0.5 0.5 10
9 0 1 0 0 0 1 0 0 0 1 11.631 -74.869 -24.5 1 0.5 5
9 0 1 0 0 0 1 0 0 0 1 9.630997 -73.869 -10.5 1 0.5 5
9 0 1 0 0 0 1 0 0 0 1 -10.869 73.131 -32.5 2.5 0.5 2
9 0 1 0 0 0 1 0 0 0 1 -12.369 72.131 -19.5 1 0.5 5
9 0 1 0 0 0 1 0 0 0 1 -16.869 60.631 5 0.5 2 2.5
9 0 1 0 0 0 1 0 0 0 1 -14.869 58.631 -53.5 2.5 1 1
9 0 1 0 0 0 1 0 0 0 1 -16.869 -60.869 4.5 0.5 2.5 2
9 0 1 0 0 0 1 0 0 0 1 -20.869 70.131 -25.5 0.5 0.5 10
9 0 1 0 0 0 1 0 0 0 1 -37.369 65.131 -15.5 1 0.5 5
9 0 1 0 0 0 1 0 0 0 1 -39.869 61.131 -31.5 0.5 0.5 10
9 0 1 0 0 0 1 0 0 0 1 -42.369 -61.869 -15.5 1 0.5 5
9 0 1 0 0 0 1 0 0 0 1 -45.869 -39.369 -39 0.5 2 2.5
9 0 1 0 0 0 1 0 0 0 1 -45.369 -59.869 -15.5 1 0.5 5
9 0 1 0 0 0 1 0 0 0 1 -46.369 59.131 -15.5 1 0.5 5
9 0 1 0 0 0 1 0 0 0 1 -47.369 58.131 -15.5 1 0.5 5
9 0 1 0 0 0 1 0 0 0 1 -49.869 54.631 -19.5 0.5 1 5
9 0 1 0 0 0 1 0 0 0 1 -50.869 48.131 -25.5 0.5 0.5 10
9 0 1 0 0 0 1 0 0 0 1 -51.869 10.131 -31.5 0.5 0.5 10
9 0 1 0 0 0 1 0 0 0 1 -58.369 19.131 -46.5 1 0.5 5
9 0 1 0 0 0 1 0 0 0 1 -61.869 42.631 -24.5 0.5 1 5
9 0 1 0 0 0 1 0 0 0 1 -62.369 -17.369 -39 1 1 2.5
9 0 1 0 0 0 1 0 0 0 1 -63.869 39.631 -24.5 0.5 1 5
9 0 1 0 0 0 1 0 0 0 1 -66.869 -34.369 -24.5 0.5 1 5
9 0 1 0 0 0 1 0 0 0 1 -68.869 25.131 -26.5 0.5 0.5 10
9 0 1 0 0 0 1 0 0 0 1 -66.869 17.131 -43.5 2.5 0.5 2
9 0 1 0 0 0 1 0 0 0 1 -68.869 -30.369 -24.5 0.5 1 5
9 0 1 0 0 0 1 0 0 0 1 -70.869 24.631 -22 0.5 2 2.5
9 0 1 0 0 0 1 0 0 0 1 -69.869 -11.869 -43.5 2.5 0.5 2
9 0 1 0 0 0 1 0 0 0 1 64.131 18.131 -27 0.5 0.5 9.5
9 0 1 0 0 0 1 0 0 0 1 62.131 40.131 -10 0.5 0.5 9.5
9 0 1 0 0 0 1 0 0 0 1 59.131 -44.869 -10 0.5 0.5 9.5
9 0 1 0 0 0 1 0 0 0 1 58.131 -45.869 -10 0.5 0.5 9.5
9 0 1 0 0 0 1 0 0 0 1 49.131 0.1309967 -40 0.5 9.5 0.5
9 0 1 0 0 0 1 0 0 0 1 49.131 -55.869 -23 0.5 0.5 9.5
9 0 1 0 0 0 1 0 0 0 1 28.131 42.131 -31 0.5 0.5 9.5
9 0 1 0 0 0 1 0 0 0 1 18.131 -47.869 -31 0.5 0.5 9.5
9 0 1 0 0 0 1 0 0 0 1 -15.869 64.131 -30 0.5 0.5 9.5
9 0 1 0 0 0 1 0 0 0 1 -22.869 45.131 -31 0.5 0.5 9.5
9 0 1 0 0 0 1 0 0 0 1 -49.869 53.131 -36 0.5 0.5 9.5
9 0 1 0 0 0 1 0 0 0 1 -55.869 -12.869 -32 0.5 0.5 9.5
9 0 1 0 0 0 1 0 0 0 1 -60.869 42.131 -10 0.5 0.5 9.5
9 0 1 0 0 0 1 0 0 0 1 -60.869 16.131 -32 0.5 0.5 9.5
9 0 1 0 0 0 1 0 0 0 1 73.131 -15.369 -26 0.5 1 4.5
9 0 1 0 0 0 1 0 0 0 1 67.131 -30.369 -7 0.5 1 4.5
9 0 1 0 0 0 1 0 0 0 1 63.631 -12.869 -46 1 0.5 4.5
9 0 1 0 0 0 1 0 0 0 1 63.631 -17.869 -37 1 0.5 4.5
9 0 1 0 0 0 1 0 0 0 1 56.131 47.131 -26.5 0.5 0.5 9
9 0 1 0 0 0 1 0 0 0 1 52.631 52.131 -20 1 1.5 1.5
9 0 1 0 0 0 1 0 0 0 1 52.131 9.130997 5.5 0.5 0.5 9
9 0 1 0 0 0 1 0 0 0 1 53.131 -51.369 -20 1.5 1 1.5
9 0 1 0 0 0 1 0 0 0 1 51.131 48.131 -26.5 0.5 0.5 9
9 0 1 0 0 0 1 0 0 0 1 51.131 -54.369 -19 1.5 1 1.5
9 0 1 0 0 0 1 0 0 0 1 48.131 -54.869 -32.5 0.5 0.5 9
9 0 1 0 0 0 1 0 0 0 1 45.131 -50.369 -47 1.5 1 1.5
9 0 1 0 0 0 1 0 0 0 1 44.131 -59.869 -11.5 1.5 0.5 3
9 0 1 0 0 0 1 0 0 0 1 43.131 59.131 -38.5 1.5 0.5 3
9 0 1 0 0 0 1 0 0 0 1 43.131 42.631 -53 1.5 1 1.5
9 0 1 0 0 0 1 0 0 0 1 43.131 -43.869 -52.5 1.5 1.5 1
9 0 1 0 0 0 1 0 0 0 1 41.131 60.631 -37 0.5 1 4.5
9 0 1 0 0 0 1 0 0 0 1 32.631 66.131 -10 1 0.5 4.5
9 0 1 0 0 0 1 0 0 0 1 29.131 -66.869 -32.5 0.5 0.5 9
9 0 1 0 0 0 1 0 0 0 1 24.131 42.131 -40.5 1.5 1.5 1
9 0 1 0 0 0 1 0 0 0 1 19.631 -48.869 1 1 0.5 4.5
9 0 1 0 0 0 1 0 0 0 1 17.131 53.131 -1.5 0.5 1.5 3
9 0 1 0 0 0 1 0 0 0 1 16.131 71.131 0.5 0.5 1.5 3
9 0 1 0 0 0 1 0 0 0 1 18.631 -70.869 -20 3 0.5 1.5
9 0 1 0 0 0 1 0 0 0 1 15.131 -72.369 -17 1.5 1 1.5
9 0 1 0 0 0 1 0 0 0 1 12.131 59.131 -45.5 0.5 0.5 9
9 0 1 0 0 0 1 0 0 0 1 11.631 -72.869 2 3 0.5 1.5
9 0 1 0 0 0 1 0 0 0 1 -12.869 -59.869 -45.5 0.5 0.5 9
9 0 1 0 0 0 1 0 0 0 1 -17.869 50.631 -7 0.5 1 4.5
9 0 1 0 0 0 1 0 0 0 1 -18.869 48.131 -9.5 0.5 0.5 9
9 0 1 0 0 0 1 0 0 0 1 -23.869 46.131 5.5 0.5 0.5 9
9 0 1 0 0 0 1 0 0 0 1 -33.369 39.131 -36 1 0.5 4.5
9 0 1 0 0 0 1 0 0 0 1 -35.869 -63.869 -38.5 1.5 0.5 3
9 0 1 0 0 0 1 0 0 0 1 -47.369 48.131 -47 1 1.5 1.5
9 0 1 0 0 0 1 0 0 0 1 -52.869 -9.869003 -2.5 0.5 0.5 9
9 0 1 0 0 0 1 0 0 0 1 -52.869 -52.369 -20 1.5 1 1.5
9 0 1 0 0 0 1 0 0 0 1 -58.869 45.131 -10.5 0.5 0.5 9
9 0 1 0 0 0 1 0 0 0 1 -63.869 -37.369 -13 0.5 1 4.5
9 0 1 0 0 0 1 0 0 0 1 -67.869 -19.869 -32.5 1.5 0.5 3
9 0 1 0 0 0 1 0 0 0 1 -74.869 0.1309967 -8.5 0.5 4.5 1
9 0 1 0 0 0 1 0 0 0 1 57.131 -13.869 -37 0.5 0.5 8.5
9 0 1 0 0 0 1 0 0 0 1 54.131 -11.869 -33 0.5 0.5 8.5
9 0 1 0 0 0 1 0 0 0 1 50.131 9.130997 -32 0.5 0.5 8.5
9 0 1 0 0 0 1 0 0 0 1 43.131 -58.869 -33 0.5 0.5 8.5
9 0 1 0 0 0 1 0 0 0 1 36.131 -40.869 -16 0.5 0.5 8.5
9 0 1 0 0 0 1 0 0 0 1 22.131 71.131 -29 0.5 0.5 8.5
9 0 1 0 0 0 1 0 0 0 1 14.131 61.131 -45 0.5 0.5 8.5
9 0 1 0 0 0 1 0 0 0 1 14.131 -60.869 -45 0.5 0.5 8.5
9 0 1 0 0 0 1 0 0 0 1 0.1309967 -73.869 3 8.5 0.5 0.5
9 0 1 0 0 0 1 0 0 0 1 -28.869 44.131 -33 0.5 0.5 8.5
9 0 1 0 0 0 1 0 0 0 1 -28.869 -42.869 6 0.5 0.5 8.5
9 0 1 0 0 0 1 0 0 0 1 -35.869 -40.869 -8 0.5 0.5 8.5
9 0 1 0 0 0 1 0 0 0 1 -37.869 -41.869 -13 0.5 0.5 8.5
9 0 1 0 0 0 1 0 0 0 1 -48.869 56.131 -22 0.5 0.5 8.5
9 0 1 0 0 0 1 0 0 0 1 -58.869 -14.869 -33 0.5 0.5 8.5
9 0 1 0 0 0 1 0 0 0 1 -62.869 39.131 -11 0.5 0.5 8.5
9 0 1 0 0 0 1 0 0 0 1 -63.869 18.131 -33 0.5 0.5 8.5
9 0 1 0 0 0 1 0 0 0 1 -65.869 19.131 -27 0.5 0.5 8.5
9 0 1 0 0 0 1 0 0 0 1 69.131 -25.869 -27.5 0.5 0.5 8
9 0 1 0 0 0 1 0 0 0 1 68.131 27.631 -32.5 0.5 2 2
9 0 1 0 0 0 1 0 0 0 1 69.631 -11.869 -43.5 2 0.5 2
9 0 1 0 0 0 1 0 0 0 1 66.631 31.631 -31.5 1 1 2
9 0 1 0 0 0 1 0 0 0 1 64.631 14.631 -49 2 2 0.5
9 0 1 0 0 0 1 0 0 0 1 62.631 39.131 -15.5 1 0.5 4
9 0 1 0 0 0 1 0 0 0 1 62.131 -42.369 -23.5 0.5 1 4
9 0 1 0 0 0 1 0 0 0 1 60.131 -45.369 -23.5 0.5 1 4
9 0 1 0 0 0 1 0 0 0 1 57.131 47.131 -8.5 0.5 0.5 8
9 0 1 0 0 0 1 0 0 0 1 54.631 49.631 -22.5 2 1 1
9 0 1 0 0 0 1 0 0 0 1 47.631 58.131 -16.5 1 0.5 4
9 0 1 0 0 0 1 0 0 0 1 45.131 -38.369 -47.5 0.5 1 4
9 0 1 0 0 0 1 0 0 0 1 45.131 -44.869 -33.5 0.5 0.5 8
9 0 1 0 0 0 1 0 0 0 1 44.131 58.131 -33.5 0.5 0.5 8
9 0 1 0 0 0 1 0 0 0 1 36.631 64.131 -9.5 1 0.5 4
9 0 1 0 0 0 1 0 0 0 1 35.131 -39.869 -33.5 0.5 0.5 8
9 0 1 0 0 0 1 0 0 0 1 30.631 67.131 -9.5 1 0.5 4
9 0 1 0 0 0 1 0 0 0 1 30.131 42.131 6.5 0.5 0.5 8
9 0 1 0 0 0 1 0 0 0 1 30.131 -40.869 -32.5 0.5 0.5 8
9 0 1 0 0 0 1 0 0 0 1 27.131 -43.869 6.5 0.5 0.5 8
9 0 1 0 0 0 1 0 0 0 1 12.631 -72.369 -33.5 1 1 2
9 0 1 0 0 0 1 0 0 0 1 0.6309967 -74.869 -31.5 4 0.5 1
9 0 1 0 0 0 1 0 0 0 1 -14.869 62.131 -44.5 0.5 0.5 8
9 0 1 0 0 0 1 0 0 0 1 -14.369 -60.369 -38.5 1 1 2
9 0 1 0 0 0 1 0 0 0 1 -14.869 -61.869 -44.5 0.5 0.5 8
9 0 1 0 0 0 1 0 0 0 1 -14.369 -57.869 -38.5 2 0.5 2
9 0 1 0 0 0 1 0 0 0 1 -15.369 -73.869 -21.5 2 0.5 2
9 0 1 0 0 0 1 0 0 0 1 -19.369 -48.869 10.5 1 0.5 4
9 0 1 0 0 0 1 0 0 0 1 -21.869 -64.369 -45.5 0.5 1 4
9 0 1 0 0 0 1 0 0 0 1 -22.869 -46.369 -2.5 0.5 1 4
9 0 1 0 0 0 1 0 0 0 1 -23.369 66.631 -43.5 1 1 2
9 0 1 0 0 0 1 0 0 0 1 -24.869 70.131 -28.5 0.5 0.5 8
9 0 1 0 0 0 1 0 0 0 1 -37.869 62.131 -33.5 0.5 0.5 8
9 0 1 0 0 0 1 0 0 0 1 -39.869 -42.869 -13.5 0.5 0.5 8
9 0 1 0 0 0 1 0 0 0 1 -45.869 43.631 -50.5 0.5 2 2
9 0 1 0 0 0 1 0 0 0 1 -44.369 -48.869 -43.5 2 0.5 2
9 0 1 0 0 0 1 0 0 0 1 -46.869 -55.869 -33.5 0.5 0.5 8
9 0 1 0 0 0 1 0 0 0 1 -48.869 51.631 -43.5 0.5 2 2
9 0 1 0 0 0 1 0 0 0 1 -49.869 -53.369 -41.5 0.5 1 4
9 0 1 0 0 0 1 0 0 0 1 -50.869 -47.869 -27.5 0.5 0.5 8
9 0 1 0 0 0 1 0 0 0 1 -58.369 -16.369 -53.5 1 2 1
9 0 1 0 0 0 1 0 0 0 1 -64.869 -34.369 -32.5 0.5 2 2
9 0 1 0 0 0 1 0 0 0 1 -66.869 31.631 -8.5 0.5 1 4
9 0 1 0 0 0 1 0 0 0 1 -71.869 -14.369 -43.5 0.5 2 2
9 0 1 0 0 0 1 0 0 0 1 -72.869 13.631 -41.5 0.5 1 4
9 0 1 0 0 0 1 0 0 0 1 -72.869 -11.369 -6.5 0.5 2 2
9 0 1 0 0 0 1 0 0 0 1 -74.869 11.631 -16.5 0.5 1 4
9 0 1 0 0 0 1 0 0 0 1 71.131 -24.869 -22 0.5 1.5 2.5
9 0 1 0 0 0 1 0 0 0 1 69.131 -22.869 -23 0.5 1.5 2.5
9 0 1 0 0 0 1 0 0 0 1 68.131 -20.869 -28 0.5 0.5 7.5
9 0 1 0 0 0 1 0 0 0 1 67.131 -28.869 -27 0.5 0.5 7.5
9 0 1 0 0 0 1 0 0 0 1 65.131 -18.869 -28 0.5 0.5 7.5
9 0 1 0 0 0 1 0 0 0 1 62.131 17.131 -39 1.5 0.5 2.5
9 0 1 0 0 0 1 0 0 0 1 60.131 42.131 -32 0.5 1.5 2.5
9 0 1 0 0 0 1 0 0 0 1 51.131 -9.869003 -34 0.5 0.5 7.5
9 0 1 0 0 0 1 0 0 0 1 50.131 55.131 -23 0.5 0.5 7.5
9 0 1 0 0 0 1 0 0 0 1 45.131 59.131 -12 1.5 0.5 2.5
9 0 1 0 0 0 1 0 0 0 1 38.131 62.131 -34 0.5 0.5 7.5
9 0 1 0 0 0 1 0 0 0 1 38.131 -41.869 -16 0.5 0.5 7.5
9 0 1 0 0 0 1 0 0 0 1 23.131 70.131 -41 1.5 0.5 2.5
9 0 1 0 0 0 1 0 0 0 1 22.131 -46.869 7 0.5 0.5 7.5
9 0 1 0 0 0 1 0 0 0 1 0.1309967 -74.869 -17 1.5 0.5 2.5
9 0 1 0 0 0 1 0 0 0 1 -14.869 74.131 -22 1.5 0.5 2.5
9 0 1 0 0 0 1 0 0 0 1 -16.869 68.131 -34 0.5 2.5 1.5
9 0 1 0 0 0 1 0 0 0 1 -16.869 64.131 -43 0.5 0.5 7.5
9 0 1 0 0 0 1 0 0 0 1 -16.869 -67.869 -34 0.5 2.5 1.5
9 0 1 0 0 0 1 0 0 0 1 -22.869 -71.869 -18 1.5 0.5 2.5
9 0 1 0 0 0 1 0 0 0 1 -25.869 68.131 -27 0.5 0.5 7.5
9 0 1 0 0 0 1 0 0 0 1 -27.869 42.131 -33 0.5 0.5 7.5
9 0 1 0 0 0 1 0 0 0 1 -28.869 -66.869 -34 0.5 0.5 7.5
9 0 1 0 0 0 1 0 0 0 1 -44.869 44.131 -39 1.5 0.5 2.5
9 0 1 0 0 0 1 0 0 0 1 -44.869 41.131 -39 1.5 0.5 2.5
9 0 1 0 0 0 1 0 0 0 1 -65.869 32.131 -33 0.5 1.5 2.5
9 0 1 0 0 0 1 0 0 0 1 -73.869 16.131 -18 0.5 1.5 2.5
9 0 1 0 0 0 1 0 0 0 1 -73.869 -11.869 -13 1.5 0.5 2.5
9 0 1 0 0 0 1 0 0 0 1 71.131 13.631 -38 0.5 1 3.5
9 0 1 0 0 0 1 0 0 0 1 61.131 40.131 -27.5 0.5 0.5 7
9 0 1 0 0 0 1 0 0 0 1 60.631 42.131 -16 1 0.5 3.5
9 0 1 0 0 0 1 0 0 0 1 59.631 15.131 -33 1 0.5 3.5
9 0 1 0 0 0 1 0 0 0 1 56.131 -18.369 -47 0.5 1 3.5
9 0 1 0 0 0 1 0 0 0 1 56.131 -47.869 -12.5 0.5 0.5 7
9 0 1 0 0 0 1 0 0 0 1 52.131 49.131 -28.5 0.5 0.5 7
9 0 1 0 0 0 1 0 0 0 1 48.131 -56.869 -22.5 0.5 0.5 7
9 0 1 0 0 0 1 0 0 0 1 47.131 45.131 -43.5 0.5 0.5 7
9 0 1 0 0 0 1 0 0 0 1 46.131 45.131 -49.5 0.5 3.5 1
9 0 1 0 0 0 1 0 0 0 1 45.131 39.631 -40 0.5 1 3.5
9 0 1 0 0 0 1 0 0 0 1 42.131 45.631 -45 0.5 1 3.5
9 0 1 0 0 0 1 0 0 0 1 34.131 66.131 -23.5 0.5 0.5 7
9 0 1 0 0 0 1 0 0 0 1 32.131 65.131 -34.5 0.5 0.5 7
9 0 1 0 0 0 1 0 0 0 1 27.631 44.131 11 1 0.5 3.5
9 0 1 0 0 0 1 0 0 0 1 26.131 43.131 -34.5 0.5 0.5 7
9 0 1 0 0 0 1 0 0 0 1 24.631 71.131 -17 1 0.5 3.5
9 0 1 0 0 0 1 0 0 0 1 24.631 -45.869 11 1 0.5 3.5
9 0 1 0 0 0 1 0 0 0 1 23.131 -44.869 -34.5 0.5 0.5 7
9 0 1 0 0 0 1 0 0 0 1 17.131 -57.869 -47.5 0.5 0.5 7
9 0 1 0 0 0 1 0 0 0 1 16.131 59.631 -24 0.5 1 3.5
9 0 1 0 0 0 1 0 0 0 1 15.631 -56.869 -47 1 0.5 3.5
9 0 1 0 0 0 1 0 0 0 1 12.131 -58.869 -47.5 0.5 0.5 7
9 0 1 0 0 0 1 0 0 0 1 11.631 58.131 -40 1 0.5 3.5
9 0 1 0 0 0 1 0 0 0 1 9.630997 72.131 -28 1 0.5 3.5
9 0 1 0 0 0 1 0 0 0 1 10.131 56.631 -44 3.5 1 0.5
9 0 1 0 0 0 1 0 0 0 1 -11.869 58.631 -40 0.5 1 3.5
9 0 1 0 0 0 1 0 0 0 1 -9.869003 56.631 -44 3.5 1 0.5
9 0 1 0 0 0 1 0 0 0 1 -16.369 -63.869 -44 1 0.5 3.5
9 0 1 0 0 0 1 0 0 0 1 -19.869 -61.369 -45 0.5 1 3.5
9 0 1 0 0 0 1 0 0 0 1 -26.369 -68.869 -42 1 0.5 3.5
9 0 1 0 0 0 1 0 0 0 1 -28.869 67.131 -25.5 0.5 0.5 7
9 0 1 0 0 0 1 0 0 0 1 -29.369 43.131 11 1 0.5 3.5
9 0 1 0 0 0 1 0 0 0 1 -30.869 66.131 -27.5 0.5 0.5 7
9 0 1 0 0 0 1 0 0 0 1 -31.869 -39.869 -33.5 0.5 0.5 7
9 0 1 0 0 0 1 0 0 0 1 -32.869 65.131 -25.5 0.5 0.5 7
9 0 1 0 0 0 1 0 0 0 1 -35.369 -64.869 -9 1 0.5 3.5
9 0 1 0 0 0 1 0 0 0 1 -39.869 42.131 -34.5 0.5 0.5 7
9 0 1 0 0 0 1 0 0 0 1 -40.369 -61.869 -10 1 0.5 3.5
9 0 1 0 0 0 1 0 0 0 1 -41.869 -43.869 -14.5 0.5 0.5 7
9 0 1 0 0 0 1 0 0 0 1 -44.869 -38.869 -47.5 0.5 0.5 7
9 0 1 0 0 0 1 0 0 0 1 -45.869 -41.369 -45 0.5 1 3.5
9 0 1 0 0 0 1 0 0 0 1 -47.869 46.131 -34.5 0.5 0.5 7
9 0 1 0 0 0 1 0 0 0 1 -51.869 48.631 -32 0.5 1 3.5
9 0 1 0 0 0 1 0 0 0 1 -51.869 -48.869 -28.5 0.5 0.5 7
9 0 1 0 0 0 1 0 0 0 1 -56.869 -13.369 -38 0.5 1 3.5
9 0 1 0 0 0 1 0 0 0 1 -56.869 -47.869 -19.5 0.5 0.5 7
9 0 1 0 0 0 1 0 0 0 1 -57.369 48.131 -23 1 0.5 3.5
9 0 1 0 0 0 1 0 0 0 1 -64.869 35.131 -4.5 0.5 0.5 7
9 0 1 0 0 0 1 0 0 0 1 -66.369 32.131 -16 1 0.5 3.5
9 0 1 0 0 0 1 0 0 0 1 -67.869 29.131 -3.5 0.5 0.5 7
9 0 1 0 0 0 1 0 0 0 1 -69.369 -25.869 -16 1 0.5 3.5
9 0 1 0 0 0 1 0 0 0 1 -72.869 17.131 -22.5 0.5 0.5 7
9 0 1 0 0 0 1 0 0 0 1 74.131 0.1309967 -6 0.5 6.5 0.5
9 0 1 0 0 0 1 0 0 0 1 65.131 -34.869 -3 0.5 0.5 6.5
9 0 1 0 0 0 1 0 0 0 1 61.131 -39.869 -28 0.5 0.5 6.5
9 0 1 0 0 0 1 0 0 0 1 59.131 -42.869 -28 0.5 0.5 6.5
9 0 1 0 0 0 1 0 0 0 1 43.131 41.131 -48 0.5 0.5 6.5
9 0 1 0 0 0 1 0 0 0 1 43.131 -40.869 -48 0.5 0.5 6.5
9 0 1 0 0 0 1 0 0 0 1 41.131 43.131 -48 0.5 0.5 6.5
9 0 1 0 0 0 1 0 0 0 1 36.131 65.131 -23 0.5 0.5 6.5
9 0 1 0 0 0 1 0 0 0 1 36.131 63.131 -35 0.5 0.5 6.5
9 0 1 0 0 0 1 0 0 0 1 28.131 67.131 -35 0.5 0.5 6.5
9 0 1 0 0 0 1 0 0 0 1 26.131 68.131 -23 0.5 0.5 6.5
9 0 1 0 0 0 1 0 0 0 1 24.131 -68.869 -20 0.5 0.5 6.5
9 0 1 0 0 0 1 0 0 0 1 16.131 -63.869 -42 0.5 0.5 6.5
9 0 1 0 0 0 1 0 0 0 1 -17.869 -58.869 -48 0.5 0.5 6.5
9 0 1 0 0 0 1 0 0 0 1 -20.869 46.131 -34 0.5 0.5 6.5
9 0 1 0 0 0 1 0 0 0 1 -24.869 -43.869 -33 0.5 0.5 6.5
9 0 1 0 0 0 1 0 0 0 1 -30.869 -65.869 -35 0.5 0.5 6.5
9 0 1 0 0 0 1 0 0 0 1 -39.869 -60.869 -35 0.5 0.5 6.5
9 0 1 0 0 0 1 0 0 0 1 -40.869 60.131 -35 0.5 0.5 6.5
9 0 1 0 0 0 1 0 0 0 1 -47.869 -54.869 -35 0.5 0.5 6.5
9 0 1 0 0 0 1 0 0 0 1 -61.869 -16.869 -30 0.5 0.5 6.5
9 0 1 0 0 0 1 0 0 0 1 -61.869 -40.869 -13 0.5 0.5 6.5
9 0 1 0 0 0 1 0 0 0 1 -64.869 36.131 -13 0.5 0.5 6.5
9 0 1 0 0 0 1 0 0 0 1 -70.869 -22.869 -13 0.5 0.5 6.5
9 0 1 0 0 0 1 0 0 0 1 74.131 15.631 -17.5 0.5 1 3
9 0 1 0 0 0 1 0 0 0 1 74.131 -15.369 -17.5 0.5 1 3
9 0 1 0 0 0 1 0 0 0 1 73.131 -11.869 -42.5 0.5 1.5 2
9 0 1 0 0 0 1 0 0 0 1 72.131 15.631 -17.5 0.5 1 3
9 0 1 0 0 0 1 0 0 0 1 71.131 -13.869 -35.5 0.5 0.5 6
9 0 1 0 0 0 1 0 0 0 1 71.131 -16.369 -18.5 0.5 1 3
9 0 1 0 0 0 1 0 0 0 1 72.131 -18.369 -18.5 1.5 1 1
9 0 1 0 0 0 1 0 0 0 1 68.631 -27.369 -32 1 1 1.5
9 0 1 0 0 0 1 0 0 0 1 65.131 -33.869 -32.5 0.5 1.5 2
9 0 1 0 0 0 1 0 0 0 1 65.131 -36.869 -25.5 0.5 0.5 6
9 0 1 0 0 0 1 0 0 0 1 64.131 36.631 -31 0.5 2 1.5
9 0 1 0 0 0 1 0 0 0 1 63.131 37.131 -28 0.5 0.5 7.5
9 0 1 0 0 0 1 0 0 0 1 64.131 -36.869 -2.5 0.5 0.5 6
9 0 1 0 0 0 1 0 0 0 1 63.131 -37.369 -32.5 0.5 1 3
9 0 1 0 0 0 1 0 0 0 1 62.131 39.131 -32.5 0.5 1.5 2
9 0 1 0 0 0 1 0 0 0 1 62.631 17.131 -30.5 1 0.5 3
9 0 1 0 0 0 1 0 0 0 1 61.631 -14.869 -51.5 1 1.5 1
9 0 1 0 0 0 1 0 0 0 1 59.131 46.131 -25.5 0.5 0.5 6
9 0 1 0 0 0 1 0 0 0 1 59.131 43.131 -27.5 0.5 0.5 6
9 0 1 0 0 0 1 0 0 0 1 58.131 45.131 -31.5 0.5 1.5 2
9 0 1 0 0 0 1 0 0 0 1 57.131 48.631 -22.5 0.5 1 3
9 0 1 0 0 0 1 0 0 0 1 57.131 -17.369 -53 0.5 2 1.5
9 0 1 0 0 0 1 0 0 0 1 58.631 18.131 -51.5 3 0.5 1
9 0 1 0 0 0 1 0 0 0 1 54.131 0.1309967 -46.5 0.5 1.5 2
9 0 1 0 0 0 1 0 0 0 1 52.131 -48.869 -29.5 0.5 0.5 6
9 0 1 0 0 0 1 0 0 0 1 51.131 54.131 -18.5 0.5 1.5 2
9 0 1 0 0 0 1 0 0 0 1 49.631 56.131 -17.5 1 0.5 3
9 0 1 0 0 0 1 0 0 0 1 49.131 -51.869 -43.5 0.5 1.5 2
9 0 1 0 0 0 1 0 0 0 1 46.131 56.631 -42.5 0.5 1 3
9 0 1 0 0 0 1 0 0 0 1 46.131 45.131 -35.5 0.5 0.5 6
9 0 1 0 0 0 1 0 0 0 1 46.131 -46.869 -43.5 1.5 0.5 2
9 0 1 0 0 0 1 0 0 0 1 45.631 -59.869 -17.5 1 0.5 3
9 0 1 0 0 0 1 0 0 0 1 44.631 48.131 -49.5 1 1.5 1
9 0 1 0 0 0 1 0 0 0 1 43.131 -43.869 -30.5 0.5 0.5 6
9 0 1 0 0 0 1 0 0 0 1 43.131 -47.869 -43.5 0.5 1.5 2
9 0 1 0 0 0 1 0 0 0 1 36.131 52.131 -46.5 0.5 1.5 2
9 0 1 0 0 0 1 0 0 0 1 36.131 -51.869 -46.5 0.5 1.5 2
9 0 1 0 0 0 1 0 0 0 1 33.131 -40.869 11.5 1.5 0.5 2
9 0 1 0 0 0 1 0 0 0 1 25.131 70.131 -26.5 0.5 0.5 6
9 0 1 0 0 0 1 0 0 0 1 24.131 44.131 -35.5 0.5 0.5 6
9 0 1 0 0 0 1 0 0 0 1 23.131 46.131 8.5 0.5 0.5 6
9 0 1 0 0 0 1 0 0 0 1 25.631 -41.369 -40 3 1 0.5
9 0 1 0 0 0 1 0 0 0 1 22.631 71.631 -17 1 1 1.5
9 0 1 0 0 0 1 0 0 0 1 22.131 47.131 8.5 0.5 0.5 6
9 0 1 0 0 0 1 0 0 0 1 22.631 -66.869 -42 2 1.5 0.5
9 0 1 0 0 0 1 0 0 0 1 22.131 -71.869 -18.5 1.5 0.5 2
9 0 1 0 0 0 1 0 0 0 1 20.131 67.131 -43.5 0.5 1.5 2
9 0 1 0 0 0 1 0 0 0 1 18.131 59.131 -47.5 0.5 0.5 6
9 0 1 0 0 0 1 0 0 0 1 18.131 60.631 -51.5 1.5 1 1
9 0 1 0 0 0 1 0 0 0 1 17.131 -50.869 -5.5 0.5 1.5 2
9 0 1 0 0 0 1 0 0 0 1 18.631 -69.869 -34 2 0.5 1.5
9 0 1 0 0 0 1 0 0 0 1 17.631 73.131 -20 2 0.5 1.5
9 0 1 0 0 0 1 0 0 0 1 16.131 63.631 -44.5 0.5 1 3
9 0 1 0 0 0 1 0 0 0 1 16.131 -70.869 1.5 0.5 1.5 2
9 0 1 0 0 0 1 0 0 0 1 15.131 74.131 -21.5 1.5 0.5 2
9 0 1 0 0 0 1 0 0 0 1 14.631 -73.869 -20.5 3 0.5 1
9 0 1 0 0 0 1 0 0 0 1 7.630997 73.131 -30.5 1 1.5 1
9 0 1 0 0 0 1 0 0 0 1 6.630997 -72.869 -36.5 3 0.5 1
9 0 1 0 0 0 1 0 0 0 1 3.630997 73.131 -3.5 1 0.5 3
9 0 1 0 0 0 1 0 0 0 1 -6.369003 74.131 -3.5 1 0.5 3
9 0 1 0 0 0 1 0 0 0 1 -7.369003 72.131 -32.5 1 0.5 3
9 0 1 0 0 0 1 0 0 0 1 -9.869003 -73.869 -9.5 0.5 0.5 6
9 0 1 0 0 0 1 0 0 0 1 -11.369 -74.869 -26.5 1 0.5 3
9 0 1 0 0 0 1 0 0 0 1 -11.369 -71.869 -34 2 0.5 1.5
9 0 1 0 0 0 1 0 0 0 1 -14.369 -72.869 -24.5 1 1.5 1
9 0 1 0 0 0 1 0 0 0 1 -15.869 56.631 -40.5 0.5 1 3
9 0 1 0 0 0 1 0 0 0 1 -15.869 -56.369 -41.5 0.5 1 3
9 0 1 0 0 0 1 0 0 0 1 -15.869 -67.869 -15.5 0.5 1.5 2
9 0 1 0 0 0 1 0 0 0 1 -16.869 73.131 -20.5 1.5 0.5 2
9 0 1 0 0 0 1 0 0 0 1 -17.869 59.131 -47.5 0.5 0.5 6
9 0 1 0 0 0 1 0 0 0 1 -17.869 -47.869 -34.5 0.5 0.5 6
9 0 1 0 0 0 1 0 0 0 1 -17.869 60.631 -51.5 1.5 1 1
9 0 1 0 0 0 1 0 0 0 1 -18.869 -63.369 -49.5 1.5 1 1
9 0 1 0 0 0 1 0 0 0 1 -22.869 -65.869 -43.5 1.5 0.5 2
9 0 1 0 0 0 1 0 0 0 1 -23.869 -68.869 -22.5 0.5 0.5 6
9 0 1 0 0 0 1 0 0 0 1 -32.869 -64.869 -35.5 0.5 0.5 6
9 0 1 0 0 0 1 0 0 0 1 -33.369 -65.869 -8.5 1 0.5 3
9 0 1 0 0 0 1 0 0 0 1 -35.869 52.131 -46.5 0.5 1.5 2
9 0 1 0 0 0 1 0 0 0 1 -35.869 40.131 -35.5 0.5 0.5 6
9 0 1 0 0 0 1 0 0 0 1 -35.869 -51.869 -46.5 0.5 1.5 2
9 0 1 0 0 0 1 0 0 0 1 -37.869 41.631 -38.5 0.5 1 3
9 0 1 0 0 0 1 0 0 0 1 -38.869 64.131 -18.5 1.5 0.5 2
9 0 1 0 0 0 1 0 0 0 1 -38.869 -61.869 -39.5 1.5 0.5 2
9 0 1 0 0 0 1 0 0 0 1 -43.869 58.631 -38.5 0.5 1 3
9 0 1 0 0 0 1 0 0 0 1 -44.369 48.131 -49.5 1 1.5 1
9 0 1 0 0 0 1 0 0 0 1 -44.369 41.131 -53.5 1 1.5 1
9 0 1 0 0 0 1 0 0 0 1 -45.869 45.131 -35.5 0.5 0.5 6
9 0 1 0 0 0 1 0 0 0 1 -48.869 -56.869 -14.5 0.5 0.5 6
9 0 1 0 0 0 1 0 0 0 1 -49.369 0.1309967 -41 2 1.5 0.5
9 0 1 0 0 0 1 0 0 0 1 -53.869 0.1309967 -46.5 0.5 1.5 2
9 0 1 0 0 0 1 0 0 0 1 -53.869 50.131 -16.5 1.5 0.5 2
9 0 1 0 0 0 1 0 0 0 1 -55.869 13.131 -35.5 0.5 0.5 6
9 0 1 0 0 0 1 0 0 0 1 -54.369 -50.869 -21 2 0.5 1.5
9 0 1 0 0 0 1 0 0 0 1 -56.869 46.131 -29.5 0.5 0.5 6
9 0 1 0 0 0 1 0 0 0 1 -56.869 14.631 -41.5 0.5 1 3
9 0 1 0 0 0 1 0 0 0 1 -56.369 -19.869 -39.5 1 0.5 3
9 0 1 0 0 0 1 0 0 0 1 -57.869 -44.869 -29.5 0.5 0.5 6
9 0 1 0 0 0 1 0 0 0 1 -59.869 45.631 -22.5 0.5 1 3
9 0 1 0 0 0 1 0 0 0 1 -59.869 -43.869 -13.5 0.5 0.5 6
9 0 1 0 0 0 1 0 0 0 1 -60.869 -43.869 -25.5 0.5 0.5 6
9 0 1 0 0 0 1 0 0 0 1 -63.869 -15.369 -50 1.5 2 0.5
9 0 1 0 0 0 1 0 0 0 1 -66.869 -29.869 -32.5 0.5 1.5 2
9 0 1 0 0 0 1 0 0 0 1 -67.869 27.131 -29.5 0.5 0.5 6
9 0 1 0 0 0 1 0 0 0 1 -67.869 -26.869 -29.5 0.5 0.5 6
9 0 1 0 0 0 1 0 0 0 1 -67.369 -29.869 -16.5 1 0.5 3
9 0 1 0 0 0 1 0 0 0 1 -68.869 -26.869 -31.5 0.5 1.5 2
9 0 1 0 0 0 1 0 0 0 1 -69.869 -23.869 0.5 0.5 1.5 2
9 0 1 0 0 0 1 0 0 0 1 -69.869 -24.869 -24.5 1.5 0.5 2
9 0 1 0 0 0 1 0 0 0 1 -71.369 21.631 -21 1 1 1.5
9 0 1 0 0 0 1 0 0 0 1 -71.869 -18.369 -18.5 1.5 1 1
9 0 1 0 0 0 1 0 0 0 1 -74.869 0.1309967 -28.5 0.5 1.5 2
9 0 1 0 0 0 1 0 0 0 1 69.131 21.131 -14 0.5 0.5 5.5
9 0 1 0 0 0 1 0 0 0 1 64.131 39.131 -25 0.5 0.5 5.5
9 0 1 0 0 0 1 0 0 0 1 64.131 -38.869 -25 0.5 0.5 5.5
9 0 1 0 0 0 1 0 0 0 1 62.131 42.131 -25 0.5 0.5 5.5
9 0 1 0 0 0 1 0 0 0 1 60.131 45.131 -25 0.5 0.5 5.5
9 0 1 0 0 0 1 0 0 0 1 60.131 -15.869 -31 0.5 0.5 5.5
9 0 1 0 0 0 1 0 0 0 1 59.131 44.131 -5 0.5 0.5 5.5
9 0 1 0 0 0 1 0 0 0 1 57.131 14.131 -41 0.5 0.5 5.5
9 0 1 0 0 0 1 0 0 0 1 57.131 -45.869 -28 0.5 0.5 5.5
9 0 1 0 0 0 1 0 0 0 1 56.131 -19.869 -42 0.5 0.5 5.5
9 0 1 0 0 0 1 0 0 0 1 56.131 -46.869 -30 0.5 0.5 5.5
9 0 1 0 0 0 1 0 0 0 1 50.131 -52.869 -35 0.5 0.5 5.5
9 0 1 0 0 0 1 0 0 0 1 49.131 -54.869 -40 0.5 0.5 5.5
9 0 1 0 0 0 1 0 0 0 1 49.131 -56.869 -15 0.5 0.5 5.5
9 0 1 0 0 0 1 0 0 0 1 48.131 -55.869 -11 0.5 0.5 5.5
9 0 1 0 0 0 1 0 0 0 1 47.131 -45.869 -31 0.5 0.5 5.5
9 0 1 0 0 0 1 0 0 0 1 45.131 38.131 -49 0.5 0.5 5.5
9 0 1 0 0 0 1 0 0 0 1 41.131 -61.869 -26 0.5 0.5 5.5
9 0 1 0 0 0 1 0 0 0 1 39.131 63.131 -26 0.5 0.5 5.5
9 0 1 0 0 0 1 0 0 0 1 31.131 40.131 -35 0.5 0.5 5.5
9 0 1 0 0 0 1 0 0 0 1 28.131 69.131 -26 0.5 0.5 5.5
9 0 1 0 0 0 1 0 0 0 1 24.131 -69.869 -10 0.5 0.5 5.5
9 0 1 0 0 0 1 0 0 0 1 22.131 69.131 -36 0.5 0.5 5.5
9 0 1 0 0 0 1 0 0 0 1 22.131 -70.869 -38 0.5 0.5 5.5
9 0 1 0 0 0 1 0 0 0 1 19.131 47.131 -35 0.5 0.5 5.5
9 0 1 0 0 0 1 0 0 0 1 19.131 -60.869 -47 0.5 0.5 5.5
9 0 1 0 0 0 1 0 0 0 1 18.131 -50.869 -36 0.5 0.5 5.5
9 0 1 0 0 0 1 0 0 0 1 17.131 48.131 -35 0.5 0.5 5.5
9 0 1 0 0 0 1 0 0 0 1 9.130997 74.131 -14 0.5 0.5 5.5
9 0 1 0 0 0 1 0 0 0 1 -16.869 64.131 -11 0.5 0.5 5.5
9 0 1 0 0 0 1 0 0 0 1 -16.869 -65.869 -27 0.5 0.5 5.5
9 0 1 0 0 0 1 0 0 0 1 -26.869 -67.869 -24 0.5 0.5 5.5
9 0 1 0 0 0 1 0 0 0 1 -27.869 69.131 -26 0.5 0.5 5.5
9 0 1 0 0 0 1 0 0 0 1 -29.869 -40.869 -35 0.5 0.5 5.5
9 0 1 0 0 0 1 0 0 0 1 -36.869 -62.869 -36 0.5 0.5 5.5
9 0 1 0 0 0 1 0 0 0 1 -42.869 41.131 -49 0.5 0.5 5.5
9 0 1 0 0 0 1 0 0 0 1 -42.869 -58.869 -36 0.5 0.5 5.5
9 0 1 0 0 0 1 0 0 0 1 -45.869 -56.869 -27 0.5 0.5 5.5
9 0 1 0 0 0 1 0 0 0 1 -46.869 -56.869 -40 0.5 0.5 5.5
9 0 1 0 0 0 1 0 0 0 1 -47.869 56.131 -11 0.5 0.5 5.5
9 0 1 0 0 0 1 0 0 0 1 -47.869 -57.869 -15 0.5 0.5 5.5
9 0 1 0 0 0 1 0 0 0 1 -49.869 9.130997 -35 0.5 0.5 5.5
9 0 1 0 0 0 1 0 0 0 1 -50.869 -52.869 -22 0.5 0.5 5.5
9 0 1 0 0 0 1 0 0 0 1 -55.869 19.131 -49 0.5 0.5 5.5
9 0 1 0 0 0 1 0 0 0 1 -55.869 -18.869 -49 0.5 0.5 5.5
9 0 1 0 0 0 1 0 0 0 1 -57.869 -47.869 -25 0.5 0.5 5.5
9 0 1 0 0 0 1 0 0 0 1 -58.869 -46.869 -25 0.5 0.5 5.5
9 0 1 0 0 0 1 0 0 0 1 -61.869 -38.869 -30 0.5 0.5 5.5
9 0 1 0 0 0 1 0 0 0 1 -62.869 -40.869 -25 0.5 0.5 5.5
9 0 1 0 0 0 1 0 0 0 1 -64.869 -37.869 -25 0.5 0.5 5.5
9 0 1 0 0 0 1 0 0 0 1 -68.869 27.131 -2 0.5 0.5 5.5
9 0 1 0 0 0 1 0 0 0 1 -70.869 -15.869 -28 0.5 0.5 5.5
9 0 1 0 0 0 1 0 0 0 1 72.131 7.630997 -27 0.5 1 2.5
9 0 1 0 0 0 1 0 0 0 1 72.131 3.630997 -37 0.5 1 2.5
9 0 1 0 0 0 1 0 0 0 1 72.131 -7.369003 -28 0.5 1 2.5
9 0 1 0 0 0 1 0 0 0 1 66.131 -30.869 -29.5 0.5 0.5 5
9 0 1 0 0 0 1 0 0 0 1 64.131 -34.869 -30.5 0.5 0.5 5
9 0 1 0 0 0 1 0 0 0 1 63.631 15.131 -50 1 2.5 0.5
9 0 1 0 0 0 1 0 0 0 1 62.131 -39.369 -32 0.5 1 2.5
9 0 1 0 0 0 1 0 0 0 1 58.631 -15.869 -54 1 2.5 0.5
9 0 1 0 0 0 1 0 0 0 1 58.131 -47.869 -24.5 0.5 0.5 5
9 0 1 0 0 0 1 0 0 0 1 57.631 -14.869 -39 1 0.5 2.5
9 0 1 0 0 0 1 0 0 0 1 52.131 -8.869003 9.5 0.5 0.5 5
9 0 1 0 0 0 1 0 0 0 1 47.631 -57.869 -18 1 0.5 2.5
9 0 1 0 0 0 1 0 0 0 1 45.131 57.631 -39 0.5 1 2.5
9 0 1 0 0 0 1 0 0 0 1 44.131 51.631 -44 0.5 1 2.5
9 0 1 0 0 0 1 0 0 0 1 40.631 42.131 -39 1 0.5 2.5
9 0 1 0 0 0 1 0 0 0 1 40.631 -41.869 -39 1 0.5 2.5
9 0 1 0 0 0 1 0 0 0 1 31.131 -65.869 -30.5 0.5 0.5 5
9 0 1 0 0 0 1 0 0 0 1 30.131 66.131 -36.5 0.5 0.5 5
9 0 1 0 0 0 1 0 0 0 1 28.131 -41.869 -34.5 0.5 0.5 5
9 0 1 0 0 0 1 0 0 0 1 26.131 -67.869 -30.5 0.5 0.5 5
9 0 1 0 0 0 1 0 0 0 1 25.631 69.131 -43 1 0.5 2.5
9 0 1 0 0 0 1 0 0 0 1 24.131 70.131 -10.5 0.5 0.5 5
9 0 1 0 0 0 1 0 0 0 1 21.131 -45.869 -35.5 0.5 0.5 5
9 0 1 0 0 0 1 0 0 0 1 20.131 48.131 9.5 0.5 0.5 5
9 0 1 0 0 0 1 0 0 0 1 18.131 71.631 -21 2.5 1 0.5
9 0 1 0 0 0 1 0 0 0 1 16.131 -72.869 -10.5 0.5 0.5 5
9 0 1 0 0 0 1 0 0 0 1 14.631 72.131 -5 1 0.5 2.5
9 0 1 0 0 0 1 0 0 0 1 13.131 72.131 -12.5 0.5 0.5 5
9 0 1 0 0 0 1 0 0 0 1 6.630997 74.131 -4 1 0.5 2.5
9 0 1 0 0 0 1 0 0 0 1 -6.869003 -72.869 -36.5 2.5 0.5 1
9 0 1 0 0 0 1 0 0 0 1 -6.869003 -73.869 -33.5 2.5 0.5 1
9 0 1 0 0 0 1 0 0 0 1 -15.869 59.631 -34 0.5 1 2.5
9 0 1 0 0 0 1 0 0 0 1 -16.869 -63.869 -8.5 0.5 0.5 5
9 0 1 0 0 0 1 0 0 0 1 -17.869 53.131 -25.5 0.5 0.5 5
9 0 1 0 0 0 1 0 0 0 1 -17.869 -50.869 -5.5 0.5 0.5 5
9 0 1 0 0 0 1 0 0 0 1 -17.869 -52.869 -24.5 0.5 0.5 5
9 0 1 0 0 0 1 0 0 0 1 -19.869 61.131 -46.5 0.5 0.5 5
9 0 1 0 0 0 1 0 0 0 1 -18.869 -72.869 -19.5 2.5 0.5 1
9 0 1 0 0 0 1 0 0 0 1 -22.369 72.131 -18 1 0.5 2.5
9 0 1 0 0 0 1 0 0 0 1 -34.869 -63.869 -30.5 0.5 0.5 5
9 0 1 0 0 0 1 0 0 0 1 -40.369 -41.869 -39 1 0.5 2.5
9 0 1 0 0 0 1 0 0 0 1 -42.869 -60.869 -22.5 0.5 0.5 5
9 0 1 0 0 0 1 0 0 0 1 -43.869 -43.369 -41 2.5 1 0.5
9 0 1 0 0 0 1 0 0 0 1 -46.369 -44.869 -39 1 0.5 2.5
9 0 1 0 0 0 1 0 0 0 1 -47.869 -46.369 -37 0.5 1 2.5
9 0 1 0 0 0 1 0 0 0 1 -50.869 -9.869003 -36.5 0.5 0.5 5
9 0 1 0 0 0 1 0 0 0 1 -50.869 -54.869 -20.5 0.5 0.5 5
9 0 1 0 0 0 1 0 0 0 1 -50.369 -55.869 -18 1 0.5 2.5
9 0 1 0 0 0 1 0 0 0 1 -52.869 11.131 -36.5 0.5 0.5 5
9 0 1 0 0 0 1 0 0 0 1 -52.369 -8.869003 4 1 0.5 2.5
9 0 1 0 0 0 1 0 0 0 1 -57.869 45.631 -32 0.5 1 2.5
9 0 1 0 0 0 1 0 0 0 1 -58.869 43.131 -30.5 0.5 0.5 5
9 0 1 0 0 0 1 0 0 0 1 -58.369 16.131 -54 1 2.5 0.5
9 0 1 0 0 0 1 0 0 0 1 -58.869 -44.369 -32 0.5 1 2.5
9 0 1 0 0 0 1 0 0 0 1 -59.869 -41.869 -30.5 0.5 0.5 5
9 0 1 0 0 0 1 0 0 0 1 -60.869 -41.369 -32 0.5 1 2.5
9 0 1 0 0 0 1 0 0 0 1 -62.369 16.131 -51 1 2.5 0.5
9 0 1 0 0 0 1 0 0 0 1 -63.869 35.631 -33 0.5 1 2.5
9 0 1 0 0 0 1 0 0 0 1 -64.869 -18.869 -30.5 0.5 0.5 5
9 0 1 0 0 0 1 0 0 0 1 -65.869 33.131 -1.5 0.5 0.5 5
9 0 1 0 0 0 1 0 0 0 1 -65.369 15.131 -49 1 2.5 0.5
9 0 1 0 0 0 1 0 0 0 1 -70.869 -25.869 -24.5 0.5 0.5 5
9 0 1 0 0 0 1 0 0 0 1 -72.869 12.131 -9.5 0.5 0.5 5
9 0 1 0 0 0 1 0 0 0 1 -72.869 -10.369 -35 0.5 1 2.5
9 0 1 0 0 0 1 0 0 0 1 -73.869 -0.3690033 -5 0.5 5 0.5
9 0 1 0 0 0 1 0 0 0 1 -73.869 -11.869 -25.5 0.5 0.5 5
9 0 1 0 0 0 1 0 0 0 1 -75.869 -3.369003 -18 0.5 1 2.5
9 0 1 0 0 0 1 0 0 0 1 73.131 17.131 -20 0.5 0.5 4.5
9 0 1 0 0 0 1 0 0 0 1 66.131 -33.869 -16 0.5 0.5 4.5
9 0 1 0 0 0 1 0 0 0 1 60.131 19.131 -41 0.5 0.5 4.5
9 0 1 0 0 0 1 0 0 0 1 57.131 19.131 -53 1.5 0.5 1.5
9 0 1 0 0 0 1 0 0 0 1 52.131 -52.869 -20 1.5 0.5 1.5
9 0 1 0 0 0 1 0 0 0 1 49.131 -54.869 -18 0.5 0.5 4.5
9 0 1 0 0 0 1 0 0 0 1 46.131 -55.869 -41 0.5 0.5 4.5
9 0 1 0 0 0 1 0 0 0 1 44.131 -41.869 -53 1.5 0.5 1.5
9 0 1 0 0 0 1 0 0 0 1 44.131 -47.869 -50 1.5 1.5 0.5
9 0 1 0 0 0 1 0 0 0 1 43.131 45.131 -52 1.5 1.5 0.5
9 0 1 0 0 0 1 0 0 0 1 41.131 -61.869 -10 1.5 0.5 1.5
9 0 1 0 0 0 1 0 0 0 1 38.131 41.131 -37 0.5 0.5 4.5
9 0 1 0 0 0 1 0 0 0 1 35.131 65.131 -8 1.5 0.5 1.5
9 0 1 0 0 0 1 0 0 0 1 34.131 64.131 -37 0.5 0.5 4.5
9 0 1 0 0 0 1 0 0 0 1 31.131 -42.869 -37 0.5 0.5 4.5
9 0 1 0 0 0 1 0 0 0 1 25.131 -42.369 -41 2.5 1 0.5
9 0 1 0 0 0 1 0 0 0 1 26.131 -69.869 -25 0.5 0.5 4.5
9 0 1 0 0 0 1 0 0 0 1 21.131 -62.869 -46 0.5 0.5 4.5
9 0 1 0 0 0 1 0 0 0 1 19.131 -48.869 10 0.5 0.5 4.5
9 0 1 0 0 0 1 0 0 0 1 17.131 61.131 -14 0.5 0.5 4.5
9 0 1 0 0 0 1 0 0 0 1 17.131 -61.869 -20 0.5 0.5 4.5
9 0 1 0 0 0 1 0 0 0 1 16.131 -59.869 -22 0.5 1.5 1.5
9 0 1 0 0 0 1 0 0 0 1 14.131 -58.869 -54 1.5 1.5 0.5
9 0 1 0 0 0 1 0 0 0 1 12.131 73.131 -33 1.5 0.5 1.5
9 0 1 0 0 0 1 0 0 0 1 0.1309967 59.131 -47 1.5 0.5 1.5
9 0 1 0 0 0 1 0 0 0 1 -2.869003 73.131 -5 1.5 0.5 1.5
9 0 1 0 0 0 1 0 0 0 1 -16.869 70.131 -28 0.5 0.5 4.5
9 0 1 0 0 0 1 0 0 0 1 -18.869 47.131 -36 0.5 0.5 4.5
9 0 1 0 0 0 1 0 0 0 1 -18.869 -69.869 -34 1.5 0.5 1.5
9 0 1 0 0 0 1 0 0 0 1 -21.869 47.131 10 0.5 0.5 4.5
9 0 1 0 0 0 1 0 0 0 1 -22.869 69.131 -26 0.5 0.5 4.5
9 0 1 0 0 0 1 0 0 0 1 -22.869 -44.869 -36 0.5 0.5 4.5
9 0 1 0 0 0 1 0 0 0 1 -22.869 -69.869 -16 1.5 0.5 1.5
9 0 1 0 0 0 1 0 0 0 1 -24.869 46.131 1 0.5 0.5 4.5
9 0 1 0 0 0 1 0 0 0 1 -25.869 43.131 -37 0.5 0.5 4.5
9 0 1 0 0 0 1 0 0 0 1 -25.869 69.131 -7 1.5 0.5 1.5
9 0 1 0 0 0 1 0 0 0 1 -25.869 -69.869 -9 1.5 0.5 1.5
9 0 1 0 0 0 1 0 0 0 1 -27.869 -69.869 -19 1.5 0.5 1.5
9 0 1 0 0 0 1 0 0 0 1 -31.869 42.131 -4 0.5 0.5 4.5
9 0 1 0 0 0 1 0 0 0 1 -32.869 -41.869 -37 0.5 0.5 4.5
9 0 1 0 0 0 1 0 0 0 1 -33.869 -40.869 13 1.5 0.5 1.5
9 0 1 0 0 0 1 0 0 0 1 -41.869 43.131 -32 0.5 0.5 4.5
9 0 1 0 0 0 1 0 0 0 1 -45.869 39.131 -38 0.5 1.5 1.5
9 0 1 0 0 0 1 0 0 0 1 -46.869 57.131 -10 0.5 0.5 4.5
9 0 1 0 0 0 1 0 0 0 1 -47.869 -55.869 -9 0.5 0.5 4.5
9 0 1 0 0 0 1 0 0 0 1 -49.869 55.131 -29 0.5 0.5 4.5
9 0 1 0 0 0 1 0 0 0 1 -51.869 53.131 -19 0.5 1.5 1.5
9 0 1 0 0 0 1 0 0 0 1 -53.869 50.131 -22 1.5 1.5 0.5
9 0 1 0 0 0 1 0 0 0 1 -54.869 12.131 -24 0.5 0.5 4.5
9 0 1 0 0 0 1 0 0 0 1 -54.869 -20.869 -48 0.5 0.5 4.5
9 0 1 0 0 0 1 0 0 0 1 -56.869 -17.869 -53 0.5 1.5 1.5
9 0 1 0 0 0 1 0 0 0 1 -58.869 -44.869 -3 0.5 0.5 4.5
9 0 1 0 0 0 1 0 0 0 1 -58.869 18.131 -52 1.5 0.5 1.5
9 0 1 0 0 0 1 0 0 0 1 -62.869 -38.869 -31 0.5 1.5 1.5
9 0 1 0 0 0 1 0 0 0 1 -67.869 -20.869 -31 0.5 0.5 4.5
9 0 1 0 0 0 1 0 0 0 1 -68.869 27.131 -32 0.5 1.5 1.5
9 0 1 0 0 0 1 0 0 0 1 74.131 5.630997 -40.5 0.5 1 2
9 0 1 0 0 0 1 0 0 0 1 74.131 -5.369003 -40.5 0.5 1 2
9 0 1 0 0 0 1 0 0 0 1 73.131 11.631 -43.5 0.5 1 2
9 0 1 0 0 0 1 0 0 0 1 72.131 -3.369003 -37.5 0.5 1 2
9 0 1 0 0 0 1 0 0 0 1 72.631 -7.369003 -40.5 1 1 1
9 0 1 0 0 0 1 0 0 0 1 70.131 -21.369 -20.5 0.5 1 2
9 0 1 0 0 0 1 0 0 0 1 69.131 28.131 -15.5 0.5 0.5 4
9 0 1 0 0 0 1 0 0 0 1 69.131 -27.869 -15.5 0.5 0.5 4
9 0 1 0 0 0 1 0 0 0 1 68.631 17.131 -43.5 1 0.5 2
9 0 1 0 0 0 1 0 0 0 1 68.131 -28.869 -0.5 0.5 0.5 4
9 0 1 0 0 0 1 0 0 0 1 68.131 -29.869 -15.5 0.5 0.5 4
9 0 1 0 0 0 1 0 0 0 1 66.631 12.131 -43.5 1 0.5 2
9 0 1 0 0 0 1 0 0 0 1 65.631 -14.369 -49 1 2 0.5
9 0 1 0 0 0 1 0 0 0 1 65.631 -17.869 -43.5 1 0.5 2
9 0 1 0 0 0 1 0 0 0 1 62.131 -18.369 -38.5 0.5 1 2
9 0 1 0 0 0 1 0 0 0 1 60.131 -42.369 -32.5 0.5 1 2
9 0 1 0 0 0 1 0 0 0 1 58.131 -44.369 -33.5 0.5 1 2
9 0 1 0 0 0 1 0 0 0 1 58.631 -45.369 -30.5 1 1 1
9 0 1 0 0 0 1 0 0 0 1 55.131 20.131 -47.5 0.5 0.5 4
9 0 1 0 0 0 1 0 0 0 1 55.631 16.631 -44 1 2 0.5
9 0 1 0 0 0 1 0 0 0 1 54.631 -19.369 -44 1 2 0.5
9 0 1 0 0 0 1 0 0 0 1 53.631 21.631 -44 1 2 0.5
9 0 1 0 0 0 1 0 0 0 1 53.131 -10.869 -19.5 0.5 0.5 4
9 0 1 0 0 0 1 0 0 0 1 52.631 -23.369 -44 1 2 0.5
9 0 1 0 0 0 1 0 0 0 1 51.631 25.631 -44 1 2 0.5
9 0 1 0 0 0 1 0 0 0 1 47.131 47.131 -45.5 0.5 0.5 4
9 0 1 0 0 0 1 0 0 0 1 47.631 -0.3690033 -40.5 1 1 1
9 0 1 0 0 0 1 0 0 0 1 46.631 59.131 -18.5 1 0.5 2
9 0 1 0 0 0 1 0 0 0 1 42.131 43.131 -32.5 0.5 0.5 4
9 0 1 0 0 0 1 0 0 0 1 39.131 61.131 -37.5 0.5 0.5 4
9 0 1 0 0 0 1 0 0 0 1 38.631 63.131 -8.5 1 0.5 2
9 0 1 0 0 0 1 0 0 0 1 38.131 -61.869 -37.5 0.5 0.5 4
9 0 1 0 0 0 1 0 0 0 1 36.131 40.131 -37.5 0.5 0.5 4
9 0 1 0 0 0 1 0 0 0 1 35.631 66.131 -18.5 1 0.5 2
9 0 1 0 0 0 1 0 0 0 1 34.631 -64.869 -39.5 1 0.5 2
9 0 1 0 0 0 1 0 0 0 1 32.131 67.131 -24.5 0.5 0.5 4
9 0 1 0 0 0 1 0 0 0 1 31.631 -41.869 10.5 1 0.5 2
9 0 1 0 0 0 1 0 0 0 1 30.131 68.131 -24.5 0.5 0.5 4
9 0 1 0 0 0 1 0 0 0 1 28.631 46.131 -46.5 1 0.5 2
9 0 1 0 0 0 1 0 0 0 1 28.131 43.131 -5.5 0.5 0.5 4
9 0 1 0 0 0 1 0 0 0 1 23.131 71.131 -24.5 0.5 0.5 4
9 0 1 0 0 0 1 0 0 0 1 21.131 63.131 -45.5 0.5 0.5 4
9 0 1 0 0 0 1 0 0 0 1 20.131 -67.369 -43.5 0.5 1 2
9 0 1 0 0 0 1 0 0 0 1 17.131 -53.369 -41 0.5 4 0.5
9 0 1 0 0 0 1 0 0 0 1 16.131 54.631 -34.5 0.5 1 2
9 0 1 0 0 0 1 0 0 0 1 16.131 -52.369 -39.5 0.5 1 2
9 0 1 0 0 0 1 0 0 0 1 16.131 -56.369 -30.5 0.5 1 2
9 0 1 0 0 0 1 0 0 0 1 17.631 -62.369 -51 2 1 0.5
9 0 1 0 0 0 1 0 0 0 1 16.631 -72.369 -22 1 2 0.5
9 0 1 0 0 0 1 0 0 0 1 16.631 -61.369 -52 2 1 0.5
9 0 1 0 0 0 1 0 0 0 1 14.631 58.631 -54 2 1 0.5
9 0 1 0 0 0 1 0 0 0 1 13.131 -60.869 -40.5 0.5 0.5 4
9 0 1 0 0 0 1 0 0 0 1 11.631 -55.869 -44 4 0.5 0.5
9 0 1 0 0 0 1 0 0 0 1 7.630997 -57.869 -46.5 1 0.5 2
9 0 1 0 0 0 1 0 0 0 1 6.130997 58.131 -48.5 0.5 0.5 4
9 0 1 0 0 0 1 0 0 0 1 7.630997 -73.869 -33.5 2 0.5 1
9 0 1 0 0 0 1 0 0 0 1 3.630997 -72.869 -13.5 1 0.5 2
9 0 1 0 0 0 1 0 0 0 1 3.630997 -75.869 -21.5 1 0.5 2
9 0 1 0 0 0 1 0 0 0 1 -0.3690033 -75.869 -28.5 2 0.5 1
9 0 1 0 0 0 1 0 0 0 1 -4.369003 59.131 -38.5 1 0.5 2
9 0 1 0 0 0 1 0 0 0 1 -6.369003 -58.869 -41.5 1 0.5 2
9 0 1 0 0 0 1 0 0 0 1 -7.869003 73.631 -31.5 0.5 1 2
9 0 1 0 0 0 1 0 0 0 1 -7.369003 -72.869 -4.5 1 0.5 2
9 0 1 0 0 0 1 0 0 0 1 -12.369 -72.869 -17.5 1 0.5 2
9 0 1 0 0 0 1 0 0 0 1 -13.369 -56.369 -44 2 1 0.5
9 0 1 0 0 0 1 0 0 0 1 -15.369 -56.869 -46.5 1 0.5 2
9 0 1 0 0 0 1 0 0 0 1 -15.869 -70.869 -19.5 0.5 0.5 4
9 0 1 0 0 0 1 0 0 0 1 -16.869 52.631 -10.5 0.5 1 2
9 0 1 0 0 0 1 0 0 0 1 -16.869 -55.369 -4.5 0.5 1 2
9 0 1 0 0 0 1 0 0 0 1 -16.869 -53.369 -41 0.5 4 0.5
9 0 1 0 0 0 1 0 0 0 1 -15.369 -58.369 -54 2 1 0.5
9 0 1 0 0 0 1 0 0 0 1 -17.869 64.631 -43.5 0.5 1 2
9 0 1 0 0 0 1 0 0 0 1 -19.369 -66.869 -43.5 1 0.5 2
9 0 1 0 0 0 1 0 0 0 1 -21.869 71.131 -32.5 0.5 0.5 4
9 0 1 0 0 0 1 0 0 0 1 -21.869 63.131 -45.5 0.5 0.5 4
9 0 1 0 0 0 1 0 0 0 1 -25.369 -70.869 -11.5 1 0.5 2
9 0 1 0 0 0 1 0 0 0 1 -31.369 -66.869 -7.5 1 0.5 2
9 0 1 0 0 0 1 0 0 0 1 -33.869 64.131 -37.5 0.5 0.5 4
9 0 1 0 0 0 1 0 0 0 1 -40.869 62.131 -24.5 0.5 0.5 4
9 0 1 0 0 0 1 0 0 0 1 -40.869 42.631 -43.5 0.5 1 2
9 0 1 0 0 0 1 0 0 0 1 -40.869 -42.869 -45.5 0.5 0.5 4
9 0 1 0 0 0 1 0 0 0 1 -42.869 62.131 -16.5 0.5 0.5 4
9 0 1 0 0 0 1 0 0 0 1 -43.869 40.131 -44.5 0.5 0.5 4
9 0 1 0 0 0 1 0 0 0 1 -43.869 -50.369 -43.5 0.5 1 2
9 0 1 0 0 0 1 0 0 0 1 -44.869 38.131 -47.5 0.5 0.5 4
9 0 1 0 0 0 1 0 0 0 1 -44.369 -40.869 -38.5 1 0.5 2
9 0 1 0 0 0 1 0 0 0 1 -45.869 55.631 -43.5 0.5 1 2
9 0 1 0 0 0 1 0 0 0 1 -45.869 -43.369 -51.5 0.5 2 1
9 0 1 0 0 0 1 0 0 0 1 -48.869 -53.869 -37.5 0.5 0.5 4
9 0 1 0 0 0 1 0 0 0 1 -51.869 -54.369 -18.5 0.5 1 2
9 0 1 0 0 0 1 0 0 0 1 -53.369 21.631 -44 1 2 0.5
9 0 1 0 0 0 1 0 0 0 1 -53.869 -11.869 -37.5 0.5 0.5 4
9 0 1 0 0 0 1 0 0 0 1 -53.369 -21.369 -44 1 2 0.5
9 0 1 0 0 0 1 0 0 0 1 -53.369 49.131 -23.5 2 0.5 1
9 0 1 0 0 0 1 0 0 0 1 -55.369 16.631 -44 1 2 0.5
9 0 1 0 0 0 1 0 0 0 1 -59.869 43.131 -2.5 0.5 0.5 4
9 0 1 0 0 0 1 0 0 0 1 -59.869 42.631 -32.5 0.5 1 2
9 0 1 0 0 0 1 0 0 0 1 -60.369 -15.369 -53 1 2 0.5
9 0 1 0 0 0 1 0 0 0 1 -61.369 40.131 -32.5 1 0.5 2
9 0 1 0 0 0 1 0 0 0 1 -62.369 39.131 -32.5 1 0.5 2
9 0 1 0 0 0 1 0 0 0 1 -63.869 38.131 -15.5 0.5 0.5 4
9 0 1 0 0 0 1 0 0 0 1 -63.369 37.131 -32.5 1 0.5 2
9 0 1 0 0 0 1 0 0 0 1 -66.869 31.131 -0.5 0.5 0.5 4
9 0 1 0 0 0 1 0 0 0 1 -66.869 -19.869 -25.5 0.5 0.5 4
9 0 1 0 0 0 1 0 0 0 1 -69.869 29.131 -23.5 0.5 0.5 4
9 0 1 0 0 0 1 0 0 0 1 -69.869 23.631 0.5 0.5 1 2
9 0 1 0 0 0 1 0 0 0 1 -70.869 16.131 -25.5 0.5 0.5 4
9 0 1 0 0 0 1 0 0 0 1 -70.369 -23.369 -23.5 1 1 1
9 0 1 0 0 0 1 0 0 0 1 -71.869 11.131 -25.5 0.5 0.5 4
9 0 1 0 0 0 1 0 0 0 1 -71.369 -22.369 -22 1 2 0.5
9 0 1 0 0 0 1 0 0 0 1 -72.369 11.131 -43.5 1 0.5 2
9 0 1 0 0 0 1 0 0 0 1 -72.869 3.630997 -8.5 0.5 1 2
9 0 1 0 0 0 1 0 0 0 1 -72.869 -19.369 -20.5 0.5 2 1
9 0 1 0 0 0 1 0 0 0 1 -75.869 3.630997 -18.5 0.5 1 2
9 0 1 0 0 0 1 0 0 0 1 75.131 -10.869 -17 0.5 0.5 3.5
9 0 1 0 0 0 1 0 0 0 1 74.131 -10.869 -24 0.5 0.5 3.5
9 0 1 0 0 0 1 0 0 0 1 72.131 11.131 -16 0.5 0.5 3.5
9 0 1 0 0 0 1 0 0 0 1 70.131 26.131 -28 0.5 0.5 3.5
9 0 1 0 0 0 1 0 0 0 1 66.131 33.131 0 0.5 0.5 3.5
9 0 1 0 0 0 1 0 0 0 1 65.131 35.131 0 0.5 0.5 3.5
9 0 1 0 0 0 1 0 0 0 1 65.131 19.131 -32 0.5 0.5 3.5
9 0 1 0 0 0 1 0 0 0 1 60.131 -41.869 -16 0.5 0.5 3.5
9 0 1 0 0 0 1 0 0 0 1 57.131 -47.869 -29 0.5 0.5 3.5
9 0 1 0 0 0 1 0 0 0 1 54.131 12.131 -38 0.5 0.5 3.5
9 0 1 0 0 0 1 0 0 0 1 46.131 -41.869 -45 0.5 0.5 3.5
9 0 1 0 0 0 1 0 0 0 1 45.131 -38.869 -40 0.5 0.5 3.5
9 0 1 0 0 0 1 0 0 0 1 44.131 40.131 -40 0.5 0.5 3.5
9 0 1 0 0 0 1 0 0 0 1 44.131 -57.869 -38 0.5 0.5 3.5
9 0 1 0 0 0 1 0 0 0 1 33.131 -38.869 -37 0.5 0.5 3.5
9 0 1 0 0 0 1 0 0 0 1 33.131 -39.869 -3 0.5 0.5 3.5
9 0 1 0 0 0 1 0 0 0 1 23.131 65.131 -45 0.5 0.5 3.5
9 0 1 0 0 0 1 0 0 0 1 23.131 -64.869 -45 0.5 0.5 3.5
9 0 1 0 0 0 1 0 0 0 1 18.131 51.131 -38 0.5 0.5 3.5
9 0 1 0 0 0 1 0 0 0 1 17.131 63.131 -32 0.5 0.5 3.5
9 0 1 0 0 0 1 0 0 0 1 17.131 -63.869 -38 0.5 0.5 3.5
9 0 1 0 0 0 1 0 0 0 1 14.131 73.131 -4 0.5 0.5 3.5
9 0 1 0 0 0 1 0 0 0 1 14.131 -61.869 -40 0.5 0.5 3.5
9 0 1 0 0 0 1 0 0 0 1 9.130997 -73.869 -2 0.5 0.5 3.5
9 0 1 0 0 0 1 0 0 0 1 -5.869003 58.131 -48 0.5 0.5 3.5
9 0 1 0 0 0 1 0 0 0 1 -9.869003 74.131 -16 0.5 0.5 3.5
9 0 1 0 0 0 1 0 0 0 1 -10.869 75.131 -23 0.5 0.5 3.5
9 0 1 0 0 0 1 0 0 0 1 -13.869 73.131 -4 0.5 0.5 3.5
9 0 1 0 0 0 1 0 0 0 1 -14.869 72.131 -4 0.5 0.5 3.5
9 0 1 0 0 0 1 0 0 0 1 -14.869 -62.869 -40 0.5 0.5 3.5
9 0 1 0 0 0 1 0 0 0 1 -15.869 72.131 0 0.5 0.5 3.5
9 0 1 0 0 0 1 0 0 0 1 -19.869 -47.869 -2 0.5 0.5 3.5
9 0 1 0 0 0 1 0 0 0 1 -22.869 65.131 -45 0.5 0.5 3.5
9 0 1 0 0 0 1 0 0 0 1 -22.869 -64.869 -45 0.5 0.5 3.5
9 0 1 0 0 0 1 0 0 0 1 -25.869 70.131 -24 0.5 0.5 3.5
9 0 1 0 0 0 1 0 0 0 1 -25.869 45.131 -7 0.5 0.5 3.5
9 0 1 0 0 0 1 0 0 0 1 -32.869 -66.869 -24 0.5 0.5 3.5
9 0 1 0 0 0 1 0 0 0 1 -37.869 64.131 -24 0.5 0.5 3.5
9 0 1 0 0 0 1 0 0 0 1 -38.869 -64.869 -17 0.5 0.5 3.5
9 0 1 0 0 0 1 0 0 0 1 -39.869 -62.869 -24 0.5 0.5 3.5
9 0 1 0 0 0 1 0 0 0 1 -41.869 -45.869 -45 0.5 0.5 3.5
9 0 1 0 0 0 1 0 0 0 1 -43.869 60.131 -24 0.5 0.5 3.5
9 0 1 0 0 0 1 0 0 0 1 -43.869 44.131 -33 0.5 0.5 3.5
9 0 1 0 0 0 1 0 0 0 1 -45.869 -58.869 -24 0.5 0.5 3.5
9 0 1 0 0 0 1 0 0 0 1 -46.869 -45.869 -22 0.5 0.5 3.5
9 0 1 0 0 0 1 0 0 0 1 -54.869 21.131 -47 0.5 0.5 3.5
9 0 1 0 0 0 1 0 0 0 1 -55.869 47.131 -32 0.5 0.5 3.5
9 0 1 0 0 0 1 0 0 0 1 -56.869 -46.869 -11 0.5 0.5 3.5
9 0 1 0 0 0 1 0 0 0 1 -58.869 15.131 -33 0.5 0.5 3.5
9 0 1 0 0 0 1 0 0 0 1 -59.869 42.131 -16 0.5 0.5 3.5
9 0 1 0 0 0 1 0 0 0 1 -60.869 -18.869 -45 0.5 0.5 3.5
9 0 1 0 0 0 1 0 0 0 1 -63.869 -36.869 -5 0.5 0.5 3.5
9 0 1 0 0 0 1 0 0 0 1 -67.869 33.131 -23 0.5 0.5 3.5
9 0 1 0 0 0 1 0 0 0 1 -70.869 23.131 -16 0.5 0.5 3.5
9 0 1 0 0 0 1 0 0 0 1 -73.869 12.131 -24 0.5 0.5 3.5
9 0 1 0 0 0 1 0 0 0 1 75.131 0.1309967 -21.5 0.5 1.5 1
9 0 1 0 0 0 1 0 0 0 1 74.131 11.131 -22.5 0.5 0.5 3
9 0 1 0 0 0 1 0 0 0 1 74.131 10.131 -8.5 0.5 1.5 1
9 0 1 0 0 0 1 0 0 0 1 74.131 -9.869003 -8.5 0.5 1.5 1
9 0 1 0 0 0 1 0 0 0 1 73.131 9.130997 -4.5 0.5 1.5 1
9 0 1 0 0 0 1 0 0 0 1 73.131 0.6309967 -2 0.5 3 0.5
9 0 1 0 0 0 1 0 0 0 1 72.131 13.631 -40 0.5 1 1.5
9 0 1 0 0 0 1 0 0 0 1 72.131 -10.369 -19 0.5 1 1.5
9 0 1 0 0 0 1 0 0 0 1 72.131 -13.369 -5 0.5 1 1.5
9 0 1 0 0 0 1 0 0 0 1 72.131 18.131 -17.5 1.5 0.5 1
9 0 1 0 0 0 1 0 0 0 1 71.131 17.131 -36.5 0.5 0.5 3
9 0 1 0 0 0 1 0 0 0 1 71.131 16.131 -17.5 0.5 0.5 3
9 0 1 0 0 0 1 0 0 0 1 71.131 14.131 -31.5 0.5 0.5 3
9 0 1 0 0 0 1 0 0 0 1 71.131 -15.869 -40.5 0.5 1.5 1
9 0 1 0 0 0 1 0 0 0 1 70.131 22.131 -16.5 0.5 0.5 3
9 0 1 0 0 0 1 0 0 0 1 68.131 21.131 -32.5 0.5 0.5 3
9 0 1 0 0 0 1 0 0 0 1 68.131 -12.369 -47 0.5 1 1.5
9 0 1 0 0 0 1 0 0 0 1 68.131 -26.869 -34.5 0.5 1.5 1
9 0 1 0 0 0 1 0 0 0 1 67.131 31.131 0.5 0.5 0.5 3
9 0 1 0 0 0 1 0 0 0 1 67.131 29.631 -35 0.5 1 1.5
9 0 1 0 0 0 1 0 0 0 1 67.631 12.131 -47 1 0.5 1.5
9 0 1 0 0 0 1 0 0 0 1 67.131 -30.869 0.5 0.5 0.5 3
9 0 1 0 0 0 1 0 0 0 1 66.131 34.131 -16.5 0.5 0.5 3
9 0 1 0 0 0 1 0 0 0 1 66.131 33.631 -31 0.5 1 1.5
9 0 1 0 0 0 1 0 0 0 1 65.131 36.131 -30.5 0.5 1.5 1
9 0 1 0 0 0 1 0 0 0 1 64.131 35.631 -34 0.5 1 1.5
9 0 1 0 0 0 1 0 0 0 1 63.131 -17.869 -29.5 0.5 0.5 3
9 0 1 0 0 0 1 0 0 0 1 61.131 -18.869 -44.5 0.5 0.5 3
9 0 1 0 0 0 1 0 0 0 1 60.631 15.131 -53 1 1.5 0.5
9 0 1 0 0 0 1 0 0 0 1 56.131 18.131 -47.5 0.5 0.5 3
9 0 1 0 0 0 1 0 0 0 1 56.131 -48.869 -16.5 0.5 0.5 3
9 0 1 0 0 0 1 0 0 0 1 55.131 -12.869 -38.5 0.5 0.5 3
9 0 1 0 0 0 1 0 0 0 1 55.631 -15.869 -44 1 1.5 0.5
9 0 1 0 0 0 1 0 0 0 1 54.631 51.131 -21 1 0.5 1.5
9 0 1 0 0 0 1 0 0 0 1 54.131 -22.869 -46.5 0.5 0.5 3
9 0 1 0 0 0 1 0 0 0 1 54.131 -48.869 -12.5 1.5 0.5 1
9 0 1 0 0 0 1 0 0 0 1 52.131 5.630997 -41 0.5 3 0.5
9 0 1 0 0 0 1 0 0 0 1 52.131 -5.369003 -41 0.5 3 0.5
9 0 1 0 0 0 1 0 0 0 1 51.131 10.131 -38.5 0.5 0.5 3
9 0 1 0 0 0 1 0 0 0 1 50.131 47.131 -32.5 0.5 0.5 3
9 0 1 0 0 0 1 0 0 0 1 50.631 -27.869 -44 1 1.5 0.5
9 0 1 0 0 0 1 0 0 0 1 50.131 -54.869 -16.5 0.5 1.5 1
9 0 1 0 0 0 1 0 0 0 1 49.131 56.131 -23.5 0.5 0.5 3
9 0 1 0 0 0 1 0 0 0 1 48.131 -48.369 -47 0.5 1 1.5
9 0 1 0 0 0 1 0 0 0 1 47.131 44.131 -39.5 0.5 0.5 3
9 0 1 0 0 0 1 0 0 0 1 47.131 -34.869 -46.5 0.5 0.5 3
9 0 1 0 0 0 1 0 0 0 1 46.131 43.131 -51.5 0.5 1.5 1
9 0 1 0 0 0 1 0 0 0 1 46.631 34.131 -44 1 1.5 0.5
9 0 1 0 0 0 1 0 0 0 1 46.131 -45.369 -50 0.5 1 1.5
9 0 1 0 0 0 1 0 0 0 1 45.631 51.131 -47 1 0.5 1.5
9 0 1 0 0 0 1 0 0 0 1 45.131 41.131 -42.5 1.5 0.5 1
9 0 1 0 0 0 1 0 0 0 1 44.631 40.131 -54 1 1.5 0.5
9 0 1 0 0 0 1 0 0 0 1 44.631 -51.869 -47 1 0.5 1.5
9 0 1 0 0 0 1 0 0 0 1 43.131 47.631 -50 0.5 1 1.5
9 0 1 0 0 0 1 0 0 0 1 43.631 -37.869 -44 1 1.5 0.5
9 0 1 0 0 0 1 0 0 0 1 41.131 -43.869 -44.5 0.5 0.5 3
9 0 1 0 0 0 1 0 0 0 1 35.131 -63.869 -28.5 0.5 0.5 3
9 0 1 0 0 0 1 0 0 0 1 35.631 -65.869 -11 1 0.5 1.5
9 0 1 0 0 0 1 0 0 0 1 34.131 40.631 -41 1.5 1 0.5
9 0 1 0 0 0 1 0 0 0 1 30.631 -66.869 -40 1 0.5 1.5
9 0 1 0 0 0 1 0 0 0 1 29.631 -68.869 -11 1 0.5 1.5
9 0 1 0 0 0 1 0 0 0 1 25.131 -67.369 -43 0.5 1 1.5
9 0 1 0 0 0 1 0 0 0 1 26.131 -68.869 -5.5 1.5 0.5 1
9 0 1 0 0 0 1 0 0 0 1 25.631 -70.869 -12 1 0.5 1.5
9 0 1 0 0 0 1 0 0 0 1 23.131 -69.869 -44.5 1.5 0.5 1
9 0 1 0 0 0 1 0 0 0 1 20.131 49.131 -10.5 0.5 0.5 3
9 0 1 0 0 0 1 0 0 0 1 20.631 -72.869 -19 1 0.5 1.5
9 0 1 0 0 0 1 0 0 0 1 16.631 72.131 -22 1 1.5 0.5
9 0 1 0 0 0 1 0 0 0 1 16.131 72.131 -17.5 0.5 1.5 1
9 0 1 0 0 0 1 0 0 0 1 15.131 -71.869 -12.5 0.5 0.5 3
9 0 1 0 0 0 1 0 0 0 1 14.631 73.131 -24 1 1.5 0.5
9 0 1 0 0 0 1 0 0 0 1 12.631 72.131 -36 1 0.5 1.5
9 0 1 0 0 0 1 0 0 0 1 12.131 -57.869 -40.5 0.5 0.5 3
9 0 1 0 0 0 1 0 0 0 1 12.631 -72.869 -17 1 0.5 1.5
9 0 1 0 0 0 1 0 0 0 1 11.131 75.131 -22.5 0.5 0.5 3
9 0 1 0 0 0 1 0 0 0 1 11.131 -71.869 -32.5 0.5 0.5 3
9 0 1 0 0 0 1 0 0 0 1 8.130997 74.131 -32.5 1.5 0.5 1
9 0 1 0 0 0 1 0 0 0 1 7.130997 72.631 -33 0.5 1 1.5
9 0 1 0 0 0 1 0 0 0 1 6.630997 -72.869 -5 1 0.5 1.5
9 0 1 0 0 0 1 0 0 0 1 4.630997 59.131 -38 1 0.5 1.5
9 0 1 0 0 0 1 0 0 0 1 -3.369003 -58.869 -49 1 0.5 1.5
9 0 1 0 0 0 1 0 0 0 1 -3.369003 -72.869 -14 1 0.5 1.5
9 0 1 0 0 0 1 0 0 0 1 -3.869003 -75.869 -22.5 0.5 0.5 3
9 0 1 0 0 0 1 0 0 0 1 -7.869003 -57.869 -47.5 0.5 0.5 3
9 0 1 0 0 0 1 0 0 0 1 -9.869003 74.131 -31.5 1.5 0.5 1
9 0 1 0 0 0 1 0 0 0 1 -9.869003 72.631 -35 1.5 1 0.5
9 0 1 0 0 0 1 0 0 0 1 -10.869 58.131 -40.5 0.5 0.5 3
9 0 1 0 0 0 1 0 0 0 1 -10.869 -73.869 -12.5 0.5 0.5 3
9 0 1 0 0 0 1 0 0 0 1 -12.869 72.131 -11.5 0.5 0.5 3
9 0 1 0 0 0 1 0 0 0 1 -14.869 -71.869 -12.5 0.5 0.5 3
9 0 1 0 0 0 1 0 0 0 1 -15.869 -61.369 -40 0.5 3 0.5
9 0 1 0 0 0 1 0 0 0 1 -15.869 -72.369 -5 0.5 1 1.5
9 0 1 0 0 0 1 0 0 0 1 -16.869 66.131 -29.5 0.5 0.5 3
9 0 1 0 0 0 1 0 0 0 1 -16.869 65.131 -38.5 0.5 0.5 3
9 0 1 0 0 0 1 0 0 0 1 -17.869 50.131 0.5 0.5 0.5 3
9 0 1 0 0 0 1 0 0 0 1 -17.369 -71.869 -22 1 1.5 0.5
9 0 1 0 0 0 1 0 0 0 1 -16.369 60.131 -53 3 0.5 0.5
9 0 1 0 0 0 1 0 0 0 1 -19.369 66.131 -47 1 0.5 1.5
9 0 1 0 0 0 1 0 0 0 1 -18.869 64.631 -49 1.5 1 0.5
9 0 1 0 0 0 1 0 0 0 1 -23.369 46.131 -41 1 1.5 0.5
9 0 1 0 0 0 1 0 0 0 1 -23.869 -70.869 -23.5 0.5 0.5 3
9 0 1 0 0 0 1 0 0 0 1 -24.869 -45.869 11.5 0.5 0.5 3
9 0 1 0 0 0 1 0 0 0 1 -24.869 -69.369 -40 0.5 1 1.5
9 0 1 0 0 0 1 0 0 0 1 -25.369 -68.869 -5 1 0.5 1.5
9 0 1 0 0 0 1 0 0 0 1 -26.869 -41.369 -40 1.5 1 0.5
9 0 1 0 0 0 1 0 0 0 1 -30.869 40.131 -37.5 0.5 0.5 3
9 0 1 0 0 0 1 0 0 0 1 -30.369 -66.869 -40 1 0.5 1.5
9 0 1 0 0 0 1 0 0 0 1 -30.869 -67.869 -23.5 0.5 0.5 3
9 0 1 0 0 0 1 0 0 0 1 -34.869 -65.869 -23.5 0.5 0.5 3
9 0 1 0 0 0 1 0 0 0 1 -36.369 64.131 -7 1 0.5 1.5
9 0 1 0 0 0 1 0 0 0 1 -36.869 -64.869 -23.5 0.5 0.5 3
9 0 1 0 0 0 1 0 0 0 1 -37.869 41.131 -32.5 0.5 0.5 3
9 0 1 0 0 0 1 0 0 0 1 -37.869 -40.869 -38.5 0.5 0.5 3
9 0 1 0 0 0 1 0 0 0 1 -41.869 59.131 -38.5 0.5 0.5 3
9 0 1 0 0 0 1 0 0 0 1 -41.369 -41.869 -43 1 0.5 1.5
9 0 1 0 0 0 1 0 0 0 1 -43.369 -43.869 -53 1 1.5 0.5
9 0 1 0 0 0 1 0 0 0 1 -44.869 39.131 -51.5 0.5 0.5 3
9 0 1 0 0 0 1 0 0 0 1 -44.369 -49.869 -49 1 1.5 0.5
9 0 1 0 0 0 1 0 0 0 1 -44.369 -60.869 -19 1 0.5 1.5
9 0 1 0 0 0 1 0 0 0 1 -45.869 47.131 -49.5 0.5 1.5 1
9 0 1 0 0 0 1 0 0 0 1 -45.369 -35.869 -44 1 1.5 0.5
9 0 1 0 0 0 1 0 0 0 1 -46.369 58.131 -9 1 0.5 1.5
9 0 1 0 0 0 1 0 0 0 1 -46.869 -45.869 -49.5 0.5 1.5 1
9 0 1 0 0 0 1 0 0 0 1 -48.869 55.131 -16.5 0.5 0.5 3
9 0 1 0 0 0 1 0 0 0 1 -49.869 56.131 -17.5 0.5 0.5 3
9 0 1 0 0 0 1 0 0 0 1 -49.869 47.131 -32.5 0.5 0.5 3
9 0 1 0 0 0 1 0 0 0 1 -50.869 54.131 -30.5 0.5 0.5 3
9 0 1 0 0 0 1 0 0 0 1 -50.869 7.630997 8 0.5 1 1.5
9 0 1 0 0 0 1 0 0 0 1 -51.369 -26.869 -44 1 1.5 0.5
9 0 1 0 0 0 1 0 0 0 1 -53.869 23.131 -47.5 0.5 0.5 3
9 0 1 0 0 0 1 0 0 0 1 -53.869 -48.869 -24.5 1.5 0.5 1
9 0 1 0 0 0 1 0 0 0 1 -55.369 -16.869 -44 1 1.5 0.5
9 0 1 0 0 0 1 0 0 0 1 -56.869 49.131 -22.5 0.5 0.5 3
9 0 1 0 0 0 1 0 0 0 1 -56.869 18.131 -53.5 0.5 1.5 1
9 0 1 0 0 0 1 0 0 0 1 -56.869 18.131 -37.5 0.5 1.5 1
9 0 1 0 0 0 1 0 0 0 1 -56.869 -14.369 -43 0.5 1 1.5
9 0 1 0 0 0 1 0 0 0 1 -56.869 -46.369 -34 0.5 1 1.5
9 0 1 0 0 0 1 0 0 0 1 -56.869 -48.869 -22.5 0.5 0.5 3
9 0 1 0 0 0 1 0 0 0 1 -57.369 -14.869 -40 1 0.5 1.5
9 0 1 0 0 0 1 0 0 0 1 -59.869 45.131 -28.5 0.5 0.5 3
9 0 1 0 0 0 1 0 0 0 1 -60.869 -40.869 -16.5 0.5 0.5 3
9 0 1 0 0 0 1 0 0 0 1 -60.869 -44.869 -22.5 0.5 0.5 3
9 0 1 0 0 0 1 0 0 0 1 -61.869 41.131 -16.5 0.5 0.5 3
9 0 1 0 0 0 1 0 0 0 1 -63.869 36.131 -16.5 0.5 0.5 3
9 0 1 0 0 0 1 0 0 0 1 -65.869 -17.869 -44.5 0.5 0.5 3
9 0 1 0 0 0 1 0 0 0 1 -65.869 -34.369 -31 0.5 1 1.5
9 0 1 0 0 0 1 0 0 0 1 -66.869 35.131 -22.5 0.5 0.5 3
9 0 1 0 0 0 1 0 0 0 1 -66.869 29.131 -32.5 0.5 0.5 3
9 0 1 0 0 0 1 0 0 0 1 -66.869 -32.369 -31 0.5 1 1.5
9 0 1 0 0 0 1 0 0 0 1 -67.869 30.131 -7.5 0.5 0.5 3
9 0 1 0 0 0 1 0 0 0 1 -67.869 28.631 -34 0.5 1 1.5
9 0 1 0 0 0 1 0 0 0 1 -67.369 12.131 -47 1 0.5 1.5
9 0 1 0 0 0 1 0 0 0 1 -67.869 -12.869 -46.5 0.5 1.5 1
9 0 1 0 0 0 1 0 0 0 1 -67.869 -30.369 -31 0.5 1 1.5
9 0 1 0 0 0 1 0 0 0 1 -68.869 29.631 -29 0.5 1 1.5
9 0 1 0 0 0 1 0 0 0 1 -68.869 20.131 -19.5 1.5 0.5 1
9 0 1 0 0 0 1 0 0 0 1 -71.869 8.130997 -34.5 0.5 0.5 3
9 0 1 0 0 0 1 0 0 0 1 -71.869 -10.869 -26.5 0.5 0.5 3
9 0 1 0 0 0 1 0 0 0 1 -71.869 -13.869 -5.5 0.5 0.5 3
9 0 1 0 0 0 1 0 0 0 1 -71.869 18.131 -17.5 1.5 0.5 1
9 0 1 0 0 0 1 0 0 0 1 -72.869 -7.369003 -3 0.5 3 0.5
9 0 1 0 0 0 1 0 0 0 1 -72.869 -14.869 -14.5 1.5 0.5 1
9 0 1 0 0 0 1 0 0 0 1 75.131 11.131 -18 0.5 0.5 2.5
9 0 1 0 0 0 1 0 0 0 1 74.131 9.130997 -32 0.5 0.5 2.5
9 0 1 0 0 0 1 0 0 0 1 72.131 23.131 -22 0.5 0.5 2.5
9 0 1 0 0 0 1 0 0 0 1 71.131 -12.869 -39 0.5 0.5 2.5
9 0 1 0 0 0 1 0 0 0 1 69.131 26.131 1 0.5 0.5 2.5
9 0 1 0 0 0 1 0 0 0 1 68.131 27.131 -17 0.5 0.5 2.5
9 0 1 0 0 0 1 0 0 0 1 67.131 32.131 -17 0.5 0.5 2.5
9 0 1 0 0 0 1 0 0 0 1 66.131 -19.869 -33 0.5 0.5 2.5
9 0 1 0 0 0 1 0 0 0 1 65.131 36.131 -18 0.5 0.5 2.5
9 0 1 0 0 0 1 0 0 0 1 63.131 15.131 -51 0.5 2.5 0.5
9 0 1 0 0 0 1 0 0 0 1 63.131 -36.869 -27 0.5 0.5 2.5
9 0 1 0 0 0 1 0 0 0 1 62.131 -12.869 -44 0.5 0.5 2.5
9 0 1 0 0 0 1 0 0 0 1 56.131 -49.869 -22 0.5 0.5 2.5
9 0 1 0 0 0 1 0 0 0 1 55.131 -49.869 -11 0.5 0.5 2.5
9 0 1 0 0 0 1 0 0 0 1 53.131 -24.869 -47 0.5 0.5 2.5
9 0 1 0 0 0 1 0 0 0 1 52.131 -10.869 -39 0.5 0.5 2.5
9 0 1 0 0 0 1 0 0 0 1 48.131 57.131 -23 0.5 0.5 2.5
9 0 1 0 0 0 1 0 0 0 1 48.131 56.131 -8 0.5 0.5 2.5
9 0 1 0 0 0 1 0 0 0 1 48.131 -46.869 -38 0.5 0.5 2.5
9 0 1 0 0 0 1 0 0 0 1 48.131 -46.869 -23 0.5 0.5 2.5
9 0 1 0 0 0 1 0 0 0 1 41.131 60.131 -30 0.5 0.5 2.5
9 0 1 0 0 0 1 0 0 0 1 41.131 -59.869 -30 0.5 0.5 2.5
9 0 1 0 0 0 1 0 0 0 1 35.131 -66.869 -18 0.5 0.5 2.5
9 0 1 0 0 0 1 0 0 0 1 33.131 40.131 6 0.5 0.5 2.5
9 0 1 0 0 0 1 0 0 0 1 32.131 40.131 -13 0.5 0.5 2.5
9 0 1 0 0 0 1 0 0 0 1 29.131 41.131 -38 0.5 0.5 2.5
9 0 1 0 0 0 1 0 0 0 1 29.131 -69.869 -18 0.5 0.5 2.5
9 0 1 0 0 0 1 0 0 0 1 26.131 -42.869 -38 0.5 0.5 2.5
9 0 1 0 0 0 1 0 0 0 1 25.131 -44.869 -4 0.5 0.5 2.5
9 0 1 0 0 0 1 0 0 0 1 20.131 -69.869 -30 0.5 0.5 2.5
9 0 1 0 0 0 1 0 0 0 1 19.131 -59.869 -44 0.5 0.5 2.5
9 0 1 0 0 0 1 0 0 0 1 17.131 65.131 -44 0.5 0.5 2.5
9 0 1 0 0 0 1 0 0 0 1 17.131 -51.869 -1 0.5 0.5 2.5
9 0 1 0 0 0 1 0 0 0 1 19.131 -64.869 -49 2.5 0.5 0.5
9 0 1 0 0 0 1 0 0 0 1 13.131 57.131 -47 0.5 0.5 2.5
9 0 1 0 0 0 1 0 0 0 1 10.131 74.131 -17 0.5 0.5 2.5
9 0 1 0 0 0 1 0 0 0 1 0.1309967 73.131 -38 2.5 0.5 0.5
9 0 1 0 0 0 1 0 0 0 1 -5.869003 -74.869 -31 2.5 0.5 0.5
9 0 1 0 0 0 1 0 0 0 1 -10.869 72.131 -22 0.5 0.5 2.5
9 0 1 0 0 0 1 0 0 0 1 -16.869 56.131 -2 0.5 0.5 2.5
9 0 1 0 0 0 1 0 0 0 1 -16.869 -64.869 -43 0.5 0.5 2.5
9 0 1 0 0 0 1 0 0 0 1 -19.869 -69.869 -30 0.5 0.5 2.5
9 0 1 0 0 0 1 0 0 0 1 -18.869 62.131 -51 2.5 0.5 0.5
9 0 1 0 0 0 1 0 0 0 1 -20.869 -45.869 -38 0.5 0.5 2.5
9 0 1 0 0 0 1 0 0 0 1 -21.869 48.131 -11 0.5 0.5 2.5
9 0 1 0 0 0 1 0 0 0 1 -21.869 -70.869 -38 0.5 0.5 2.5
9 0 1 0 0 0 1 0 0 0 1 -28.869 -68.869 -23 0.5 0.5 2.5
9 0 1 0 0 0 1 0 0 0 1 -33.869 41.131 -41 2.5 0.5 0.5
9 0 1 0 0 0 1 0 0 0 1 -35.869 -39.869 -39 0.5 0.5 2.5
9 0 1 0 0 0 1 0 0 0 1 -39.869 64.131 -14 0.5 0.5 2.5
9 0 1 0 0 0 1 0 0 0 1 -39.869 43.131 -39 0.5 0.5 2.5
9 0 1 0 0 0 1 0 0 0 1 -41.869 -62.869 -18 0.5 0.5 2.5
9 0 1 0 0 0 1 0 0 0 1 -45.869 60.131 -18 0.5 0.5 2.5
9 0 1 0 0 0 1 0 0 0 1 -46.869 -43.869 -39 0.5 0.5 2.5
9 0 1 0 0 0 1 0 0 0 1 -47.869 57.131 -23 0.5 0.5 2.5
9 0 1 0 0 0 1 0 0 0 1 -47.869 -55.869 -39 0.5 0.5 2.5
9 0 1 0 0 0 1 0 0 0 1 -48.869 -54.869 -43 0.5 0.5 2.5
9 0 1 0 0 0 1 0 0 0 1 -49.869 -53.869 -35 0.5 0.5 2.5
9 0 1 0 0 0 1 0 0 0 1 -50.869 55.131 -18 0.5 0.5 2.5
9 0 1 0 0 0 1 0 0 0 1 -53.869 50.131 -23 2.5 0.5 0.5
9 0 1 0 0 0 1 0 0 0 1 -55.869 -19.869 -45 0.5 0.5 2.5
9 0 1 0 0 0 1 0 0 0 1 -55.869 -48.869 -9 0.5 0.5 2.5
9 0 1 0 0 0 1 0 0 0 1 -55.869 -49.869 -22 0.5 0.5 2.5
9 0 1 0 0 0 1 0 0 0 1 -59.869 19.131 -44 0.5 0.5 2.5
9 0 1 0 0 0 1 0 0 0 1 -59.869 -14.869 -39 0.5 0.5 2.5
9 0 1 0 0 0 1 0 0 0 1 -60.869 13.131 -44 0.5 0.5 2.5
9 0 1 0 0 0 1 0 0 0 1 -61.869 17.131 -34 0.5 0.5 2.5
9 0 1 0 0 0 1 0 0 0 1 -61.869 15.131 -52 0.5 2.5 0.5
9 0 1 0 0 0 1 0 0 0 1 -61.869 -18.869 -39 0.5 0.5 2.5
9 0 1 0 0 0 1 0 0 0 1 -62.869 -15.869 -51 0.5 2.5 0.5
9 0 1 0 0 0 1 0 0 0 1 -64.869 33.131 -33 0.5 0.5 2.5
9 0 1 0 0 0 1 0 0 0 1 -65.869 37.131 -22 0.5 0.5 2.5
9 0 1 0 0 0 1 0 0 0 1 -65.869 -14.869 -49 0.5 2.5 0.5
9 0 1 0 0 0 1 0 0 0 1 -68.869 26.131 -5 0.5 0.5 2.5
9 0 1 0 0 0 1 0 0 0 1 -68.869 -25.869 -10 0.5 0.5 2.5
9 0 1 0 0 0 1 0 0 0 1 -70.869 26.131 -27 0.5 0.5 2.5
9 0 1 0 0 0 1 0 0 0 1 -70.869 17.131 -38 0.5 0.5 2.5
9 0 1 0 0 0 1 0 0 0 1 -71.869 23.131 -22 0.5 0.5 2.5
9 0 1 0 0 0 1 0 0 0 1 -71.869 -7.869003 -35 0.5 0.5 2.5
9 0 1 0 0 0 1 0 0 0 1 -73.869 10.131 -35 0.5 0.5 2.5
9 0 1 0 0 0 1 0 0 0 1 -73.869 -9.869003 -35 0.5 0.5 2.5
9 0 1 0 0 0 1 0 0 0 1 -73.869 -12.869 -23 0.5 0.5 2.5
9 0 1 0 0 0 1 0 0 0 1 -74.869 -6.869003 -9 0.5 2.5 0.5
9 0 1 0 0 0 1 0 0 0 1 -74.869 -11.869 -18 0.5 0.5 2.5
9 0 1 0 0 0 1 0 0 0 1 76.131 0.1309967 -18.5 0.5 0.5 2
9 0 1 0 0 0 1 0 0 0 1 75.131 -7.369003 -10 0.5 2 0.5
9 0 1 0 0 0 1 0 0 0 1 73.131 15.131 -32.5 0.5 0.5 2
9 0 1 0 0 0 1 0 0 0 1 73.131 13.131 -41.5 0.5 0.5 2
9 0 1 0 0 0 1 0 0 0 1 73.131 -9.369003 -4.5 0.5 1 1
9 0 1 0 0 0 1 0 0 0 1 73.131 -14.869 -32.5 0.5 0.5 2
9 0 1 0 0 0 1 0 0 0 1 72.131 11.131 -43.5 0.5 0.5 2
9 0 1 0 0 0 1 0 0 0 1 72.131 10.631 -39 0.5 2 0.5
9 0 1 0 0 0 1 0 0 0 1 72.631 -9.369003 -41 1 1 0.5
9 0 1 0 0 0 1 0 0 0 1 72.631 -14.869 -14.5 1 0.5 1
9 0 1 0 0 0 1 0 0 0 1 71.631 -22.369 -22 1 1 0.5
9 0 1 0 0 0 1 0 0 0 1 71.131 -21.369 -19 0.5 2 0.5
9 0 1 0 0 0 1 0 0 0 1 70.631 25.131 -25.5 1 0.5 1
9 0 1 0 0 0 1 0 0 0 1 70.131 20.131 -20.5 0.5 0.5 2
9 0 1 0 0 0 1 0 0 0 1 70.631 -24.369 -25 1 1 0.5
9 0 1 0 0 0 1 0 0 0 1 69.131 27.631 -31.5 0.5 1 1
9 0 1 0 0 0 1 0 0 0 1 70.631 22.131 -23 2 0.5 0.5
9 0 1 0 0 0 1 0 0 0 1 68.131 30.131 -17.5 0.5 0.5 2
9 0 1 0 0 0 1 0 0 0 1 68.131 -28.869 -32.5 0.5 0.5 2
9 0 1 0 0 0 1 0 0 0 1 66.131 31.631 -34.5 0.5 1 1
9 0 1 0 0 0 1 0 0 0 1 66.131 31.131 -17.5 0.5 0.5 2
9 0 1 0 0 0 1 0 0 0 1 66.131 -32.869 -32.5 0.5 0.5 2
9 0 1 0 0 0 1 0 0 0 1 65.131 18.131 -43.5 0.5 0.5 2
9 0 1 0 0 0 1 0 0 0 1 65.131 -17.869 -47.5 0.5 0.5 2
9 0 1 0 0 0 1 0 0 0 1 64.131 37.131 -2.5 0.5 0.5 2
9 0 1 0 0 0 1 0 0 0 1 64.131 -37.869 -17.5 0.5 0.5 2
9 0 1 0 0 0 1 0 0 0 1 64.131 -39.869 -21.5 0.5 0.5 2
9 0 1 0 0 0 1 0 0 0 1 63.131 39.631 -30.5 0.5 1 1
9 0 1 0 0 0 1 0 0 0 1 63.131 5.130997 -46.5 0.5 0.5 2
9 0 1 0 0 0 1 0 0 0 1 63.131 -15.369 -51 0.5 2 0.5
9 0 1 0 0 0 1 0 0 0 1 63.131 -38.869 -31.5 0.5 0.5 2
9 0 1 0 0 0 1 0 0 0 1 62.131 13.131 -50.5 0.5 0.5 2
9 0 1 0 0 0 1 0 0 0 1 62.131 -40.869 -17.5 0.5 0.5 2
9 0 1 0 0 0 1 0 0 0 1 62.131 -41.369 -30.5 0.5 1 1
9 0 1 0 0 0 1 0 0 0 1 61.131 42.631 -30.5 0.5 1 1
9 0 1 0 0 0 1 0 0 0 1 61.131 -5.869003 -46.5 0.5 0.5 2
9 0 1 0 0 0 1 0 0 0 1 61.631 -17.369 -51 1 1 0.5
9 0 1 0 0 0 1 0 0 0 1 59.131 47.131 -21.5 0.5 0.5 2
9 0 1 0 0 0 1 0 0 0 1 59.131 44.631 -32.5 0.5 1 1
9 0 1 0 0 0 1 0 0 0 1 58.131 44.631 -34.5 0.5 1 1
9 0 1 0 0 0 1 0 0 0 1 58.131 -44.869 -17.5 0.5 0.5 2
9 0 1 0 0 0 1 0 0 0 1 57.131 -19.869 -38.5 0.5 0.5 2
9 0 1 0 0 0 1 0 0 0 1 56.131 49.631 -20.5 0.5 1 1
9 0 1 0 0 0 1 0 0 0 1 56.131 -18.869 -52.5 0.5 0.5 2
9 0 1 0 0 0 1 0 0 0 1 55.131 -20.369 -45.5 0.5 1 1
9 0 1 0 0 0 1 0 0 0 1 55.131 -50.869 -21.5 0.5 0.5 2
9 0 1 0 0 0 1 0 0 0 1 54.631 49.131 -24 2 0.5 0.5
9 0 1 0 0 0 1 0 0 0 1 53.131 25.131 -45.5 0.5 0.5 2
9 0 1 0 0 0 1 0 0 0 1 51.131 54.131 -22.5 0.5 0.5 2
9 0 1 0 0 0 1 0 0 0 1 50.131 54.131 -43.5 0.5 0.5 2
9 0 1 0 0 0 1 0 0 0 1 50.631 28.631 -44 1 1 0.5
9 0 1 0 0 0 1 0 0 0 1 50.631 -53.869 -21.5 1 0.5 1
9 0 1 0 0 0 1 0 0 0 1 49.631 -30.369 -44 1 1 0.5
9 0 1 0 0 0 1 0 0 0 1 48.131 50.131 -43.5 0.5 0.5 2
9 0 1 0 0 0 1 0 0 0 1 48.631 31.631 -44 1 1 0.5
9 0 1 0 0 0 1 0 0 0 1 47.131 58.131 -10.5 0.5 0.5 2
9 0 1 0 0 0 1 0 0 0 1 47.631 -32.369 -44 1 1 0.5
9 0 1 0 0 0 1 0 0 0 1 47.631 -56.869 -8.5 1 0.5 1
9 0 1 0 0 0 1 0 0 0 1 46.631 -57.869 -8.5 1 0.5 1
9 0 1 0 0 0 1 0 0 0 1 45.131 43.631 -52 0.5 2 0.5
9 0 1 0 0 0 1 0 0 0 1 45.631 -35.369 -44 1 1 0.5
9 0 1 0 0 0 1 0 0 0 1 44.131 60.131 -22.5 0.5 0.5 2
9 0 1 0 0 0 1 0 0 0 1 44.631 59.131 -8.5 1 0.5 1
9 0 1 0 0 0 1 0 0 0 1 44.631 50.631 -49 1 1 0.5
9 0 1 0 0 0 1 0 0 0 1 44.131 45.131 -39.5 0.5 0.5 2
9 0 1 0 0 0 1 0 0 0 1 44.131 44.131 -34.5 0.5 0.5 2
9 0 1 0 0 0 1 0 0 0 1 44.631 36.631 -44 1 1 0.5
9 0 1 0 0 0 1 0 0 0 1 44.131 -38.869 -46.5 0.5 0.5 2
9 0 1 0 0 0 1 0 0 0 1 44.631 -50.369 -49 1 1 0.5
9 0 1 0 0 0 1 0 0 0 1 43.631 -46.369 -52 1 1 0.5
9 0 1 0 0 0 1 0 0 0 1 43.631 -47.369 -51 1 1 0.5
9 0 1 0 0 0 1 0 0 0 1 42.631 44.631 -53 1 1 0.5
9 0 1 0 0 0 1 0 0 0 1 42.631 39.631 -44 1 1 0.5
9 0 1 0 0 0 1 0 0 0 1 42.131 4.630997 -22.5 0.5 1 1
9 0 1 0 0 0 1 0 0 0 1 42.131 -4.369003 -22.5 0.5 1 1
9 0 1 0 0 0 1 0 0 0 1 42.631 -43.369 -54 1 1 0.5
9 0 1 0 0 0 1 0 0 0 1 41.131 42.131 -43.5 0.5 0.5 2
9 0 1 0 0 0 1 0 0 0 1 41.631 -40.369 -44 1 1 0.5
9 0 1 0 0 0 1 0 0 0 1 40.131 42.131 -34.5 0.5 0.5 2
9 0 1 0 0 0 1 0 0 0 1 40.131 -61.869 -6.5 0.5 0.5 2
9 0 1 0 0 0 1 0 0 0 1 38.131 63.131 -12.5 0.5 0.5 2
9 0 1 0 0 0 1 0 0 0 1 35.131 -65.869 -22.5 0.5 0.5 2
9 0 1 0 0 0 1 0 0 0 1 33.631 -65.869 -7.5 1 0.5 1
9 0 1 0 0 0 1 0 0 0 1 33.131 -66.869 -22.5 0.5 0.5 2
9 0 1 0 0 0 1 0 0 0 1 32.631 67.131 -9.5 1 0.5 1
9 0 1 0 0 0 1 0 0 0 1 30.631 68.131 -9.5 1 0.5 1
9 0 1 0 0 0 1 0 0 0 1 28.631 -57.869 -45.5 1 0.5 1
9 0 1 0 0 0 1 0 0 0 1 28.631 -67.869 -5.5 1 0.5 1
9 0 1 0 0 0 1 0 0 0 1 27.131 57.131 -46.5 0.5 0.5 2
9 0 1 0 0 0 1 0 0 0 1 26.631 42.131 -40.5 1 0.5 1
9 0 1 0 0 0 1 0 0 0 1 25.131 71.131 -11.5 0.5 0.5 2
9 0 1 0 0 0 1 0 0 0 1 25.631 70.131 -9.5 1 0.5 1
9 0 1 0 0 0 1 0 0 0 1 25.131 67.131 -43.5 0.5 0.5 2
9 0 1 0 0 0 1 0 0 0 1 25.631 -69.869 -8.5 1 0.5 1
9 0 1 0 0 0 1 0 0 0 1 24.131 -70.869 -22.5 0.5 0.5 2
9 0 1 0 0 0 1 0 0 0 1 23.631 40.131 -40.5 1 0.5 1
9 0 1 0 0 0 1 0 0 0 1 23.631 -43.369 -40 1 1 0.5
9 0 1 0 0 0 1 0 0 0 1 22.631 70.131 -44.5 1 0.5 1
9 0 1 0 0 0 1 0 0 0 1 21.131 71.631 -17.5 0.5 1 1
9 0 1 0 0 0 1 0 0 0 1 20.131 70.131 -20.5 0.5 0.5 2
9 0 1 0 0 0 1 0 0 0 1 20.631 48.631 -41 1 1 0.5
9 0 1 0 0 0 1 0 0 0 1 20.131 -71.869 -19.5 0.5 0.5 2
9 0 1 0 0 0 1 0 0 0 1 19.131 67.131 -43.5 0.5 0.5 2
9 0 1 0 0 0 1 0 0 0 1 19.131 -46.869 -38.5 0.5 0.5 2
9 0 1 0 0 0 1 0 0 0 1 19.131 -66.869 -43.5 0.5 0.5 2
9 0 1 0 0 0 1 0 0 0 1 19.631 -69.869 -36.5 1 0.5 1
9 0 1 0 0 0 1 0 0 0 1 18.131 -49.869 12.5 0.5 0.5 2
9 0 1 0 0 0 1 0 0 0 1 18.631 62.131 -51 2 0.5 0.5
9 0 1 0 0 0 1 0 0 0 1 17.131 60.131 -2.5 0.5 0.5 2
9 0 1 0 0 0 1 0 0 0 1 17.131 57.631 9 0.5 2 0.5
9 0 1 0 0 0 1 0 0 0 1 17.131 54.131 3.5 0.5 0.5 2
9 0 1 0 0 0 1 0 0 0 1 17.131 51.131 -2.5 0.5 0.5 2
9 0 1 0 0 0 1 0 0 0 1 18.631 46.131 -40 2 0.5 0.5
9 0 1 0 0 0 1 0 0 0 1 17.131 -54.869 5.5 0.5 0.5 2
9 0 1 0 0 0 1 0 0 0 1 17.631 -59.869 -52.5 1 0.5 1
9 0 1 0 0 0 1 0 0 0 1 16.131 69.131 -0.5 0.5 0.5 2
9 0 1 0 0 0 1 0 0 0 1 16.131 66.131 -7.5 0.5 0.5 2
9 0 1 0 0 0 1 0 0 0 1 16.131 63.131 -49.5 0.5 0.5 2
9 0 1 0 0 0 1 0 0 0 1 16.131 63.131 -14.5 0.5 0.5 2
9 0 1 0 0 0 1 0 0 0 1 16.131 58.131 -25.5 0.5 0.5 2
9 0 1 0 0 0 1 0 0 0 1 16.131 56.631 -42.5 0.5 1 1
9 0 1 0 0 0 1 0 0 0 1 16.131 52.131 -39.5 0.5 0.5 2
9 0 1 0 0 0 1 0 0 0 1 16.131 -60.869 -18.5 0.5 0.5 2
9 0 1 0 0 0 1 0 0 0 1 16.131 -63.369 -13.5 0.5 1 1
9 0 1 0 0 0 1 0 0 0 1 16.131 -66.869 -5.5 0.5 0.5 2
9 0 1 0 0 0 1 0 0 0 1 16.131 -70.869 -16.5 0.5 0.5 2
9 0 1 0 0 0 1 0 0 0 1 16.131 -72.369 -23 0.5 2 0.5
9 0 1 0 0 0 1 0 0 0 1 15.131 63.131 -38.5 0.5 0.5 2
9 0 1 0 0 0 1 0 0 0 1 15.631 57.131 -53.5 1 0.5 1
9 0 1 0 0 0 1 0 0 0 1 14.631 55.631 -44 1 1 0.5
9 0 1 0 0 0 1 0 0 0 1 11.131 -73.869 -13.5 0.5 0.5 2
9 0 1 0 0 0 1 0 0 0 1 6.630997 -58.869 -41.5 1 0.5 1
9 0 1 0 0 0 1 0 0 0 1 6.630997 75.131 -30 2 0.5 0.5
9 0 1 0 0 0 1 0 0 0 1 5.130997 58.131 -46.5 0.5 0.5 2
9 0 1 0 0 0 1 0 0 0 1 6.630997 -74.869 -31 2 0.5 0.5
9 0 1 0 0 0 1 0 0 0 1 5.630997 -72.869 -38 2 0.5 0.5
9 0 1 0 0 0 1 0 0 0 1 3.630997 43.131 -30.5 1 0.5 1
9 0 1 0 0 0 1 0 0 0 1 3.630997 42.131 -21.5 1 0.5 1
9 0 1 0 0 0 1 0 0 0 1 3.630997 -58.869 -48.5 1 0.5 1
9 0 1 0 0 0 1 0 0 0 1 -0.3690033 76.131 -20.5 1 0.5 1
9 0 1 0 0 0 1 0 0 0 1 0.6309967 73.131 -6 2 0.5 0.5
9 0 1 0 0 0 1 0 0 0 1 -0.3690033 -43.869 -35 2 0.5 0.5
9 0 1 0 0 0 1 0 0 0 1 -3.869003 73.131 -1.5 0.5 0.5 2
9 0 1 0 0 0 1 0 0 0 1 -5.369003 43.131 -32.5 1 0.5 1
9 0 1 0 0 0 1 0 0 0 1 -7.869003 74.131 -4.5 0.5 0.5 2
9 0 1 0 0 0 1 0 0 0 1 -7.369003 73.131 3 2 0.5 0.5
9 0 1 0 0 0 1 0 0 0 1 -10.869 -74.869 -21.5 0.5 0.5 2
9 0 1 0 0 0 1 0 0 0 1 -11.869 59.131 -45.5 0.5 0.5 2
9 0 1 0 0 0 1 0 0 0 1 -12.369 72.131 -35.5 1 0.5 1
9 0 1 0 0 0 1 0 0 0 1 -12.369 -72.369 -32 1 1 0.5
9 0 1 0 0 0 1 0 0 0 1 -13.369 -58.869 -40 2 0.5 0.5
9 0 1 0 0 0 1 0 0 0 1 -15.869 73.131 -16.5 0.5 0.5 2
9 0 1 0 0 0 1 0 0 0 1 -15.869 70.131 -8.5 0.5 0.5 2
9 0 1 0 0 0 1 0 0 0 1 -15.869 67.131 -15.5 0.5 0.5 2
9 0 1 0 0 0 1 0 0 0 1 -15.869 63.131 -24.5 0.5 0.5 2
9 0 1 0 0 0 1 0 0 0 1 -15.369 57.131 -53.5 1 0.5 1
9 0 1 0 0 0 1 0 0 0 1 -15.869 -56.869 -50.5 0.5 0.5 2
9 0 1 0 0 0 1 0 0 0 1 -15.869 -60.869 -29.5 0.5 0.5 2
9 0 1 0 0 0 1 0 0 0 1 -15.869 -63.869 -22.5 0.5 0.5 2
9 0 1 0 0 0 1 0 0 0 1 -15.869 -68.369 -12.5 0.5 1 1
9 0 1 0 0 0 1 0 0 0 1 -16.869 71.631 -22.5 0.5 1 1
9 0 1 0 0 0 1 0 0 0 1 -16.869 57.131 -43.5 0.5 0.5 2
9 0 1 0 0 0 1 0 0 0 1 -16.869 -51.369 -12.5 0.5 1 1
9 0 1 0 0 0 1 0 0 0 1 -16.869 -60.369 7.5 0.5 1 1
9 0 1 0 0 0 1 0 0 0 1 -17.369 46.631 -40 1 1 0.5
9 0 1 0 0 0 1 0 0 0 1 -18.369 -60.369 -52 1 1 0.5
9 0 1 0 0 0 1 0 0 0 1 -19.369 73.131 -19.5 1 0.5 1
9 0 1 0 0 0 1 0 0 0 1 -19.869 68.131 -43.5 0.5 0.5 2
9 0 1 0 0 0 1 0 0 0 1 -19.869 -67.869 -43.5 0.5 0.5 2
9 0 1 0 0 0 1 0 0 0 1 -20.369 71.631 -18 1 1 0.5
9 0 1 0 0 0 1 0 0 0 1 -19.369 -48.869 -41 2 0.5 0.5
9 0 1 0 0 0 1 0 0 0 1 -19.369 -64.869 -49 2 0.5 0.5
9 0 1 0 0 0 1 0 0 0 1 -20.369 -71.369 -18 1 1 0.5
9 0 1 0 0 0 1 0 0 0 1 -22.869 47.131 12.5 0.5 0.5 2
9 0 1 0 0 0 1 0 0 0 1 -22.869 -46.369 -41 0.5 2 0.5
9 0 1 0 0 0 1 0 0 0 1 -23.369 40.131 -40.5 1 0.5 1
9 0 1 0 0 0 1 0 0 0 1 -24.869 71.131 -11.5 0.5 0.5 2
9 0 1 0 0 0 1 0 0 0 1 -24.869 67.131 -43.5 0.5 0.5 2
9 0 1 0 0 0 1 0 0 0 1 -25.369 70.131 -8.5 1 0.5 1
9 0 1 0 0 0 1 0 0 0 1 -25.869 -67.869 -43.5 0.5 0.5 2
9 0 1 0 0 0 1 0 0 0 1 -26.369 42.131 -40.5 1 0.5 1
9 0 1 0 0 0 1 0 0 0 1 -26.869 -46.869 -46.5 0.5 0.5 2
9 0 1 0 0 0 1 0 0 0 1 -26.869 -69.869 -22.5 0.5 0.5 2
9 0 1 0 0 0 1 0 0 0 1 -27.869 -41.869 -37.5 0.5 0.5 2
9 0 1 0 0 0 1 0 0 0 1 -27.869 -42.869 -0.5 0.5 0.5 2
9 0 1 0 0 0 1 0 0 0 1 -28.369 46.131 -45.5 1 0.5 1
9 0 1 0 0 0 1 0 0 0 1 -27.369 41.131 -40 2 0.5 0.5
9 0 1 0 0 0 1 0 0 0 1 -28.369 -43.369 -41 1 1 0.5
9 0 1 0 0 0 1 0 0 0 1 -28.369 -67.869 -5.5 1 0.5 1
9 0 1 0 0 0 1 0 0 0 1 -31.869 65.131 -39.5 0.5 0.5 2
9 0 1 0 0 0 1 0 0 0 1 -31.369 -67.869 -9.5 1 0.5 1
9 0 1 0 0 0 1 0 0 0 1 -32.369 66.131 -33.5 1 0.5 1
9 0 1 0 0 0 1 0 0 0 1 -33.869 39.131 -29.5 0.5 0.5 2
9 0 1 0 0 0 1 0 0 0 1 -32.369 -38.869 -40 2 0.5 0.5
9 0 1 0 0 0 1 0 0 0 1 -33.869 -39.869 -5.5 0.5 0.5 2
9 0 1 0 0 0 1 0 0 0 1 -33.369 -66.869 -9.5 1 0.5 1
9 0 1 0 0 0 1 0 0 0 1 -34.869 40.131 -13.5 0.5 0.5 2
9 0 1 0 0 0 1 0 0 0 1 -33.369 -40.869 -41 2 0.5 0.5
9 0 1 0 0 0 1 0 0 0 1 -34.369 -64.869 -40.5 1 0.5 1
9 0 1 0 0 0 1 0 0 0 1 -35.369 -65.869 -9.5 1 0.5 1
9 0 1 0 0 0 1 0 0 0 1 -36.869 -63.869 -6.5 0.5 0.5 2
9 0 1 0 0 0 1 0 0 0 1 -39.869 62.131 -7.5 0.5 0.5 2
9 0 1 0 0 0 1 0 0 0 1 -41.369 40.631 -44 1 1 0.5
9 0 1 0 0 0 1 0 0 0 1 -41.869 -4.369003 -20.5 0.5 1 1
9 0 1 0 0 0 1 0 0 0 1 -42.869 60.131 -7.5 0.5 0.5 2
9 0 1 0 0 0 1 0 0 0 1 -42.369 43.631 -54 1 1 0.5
9 0 1 0 0 0 1 0 0 0 1 -42.369 -39.369 -44 1 1 0.5
9 0 1 0 0 0 1 0 0 0 1 -42.869 -47.369 -51.5 0.5 1 1
9 0 1 0 0 0 1 0 0 0 1 -42.369 -59.869 -40.5 1 0.5 1
9 0 1 0 0 0 1 0 0 0 1 -42.869 -59.869 -6.5 0.5 0.5 2
9 0 1 0 0 0 1 0 0 0 1 -43.369 38.631 -44 1 1 0.5
9 0 1 0 0 0 1 0 0 0 1 -43.869 -0.3690033 -35 0.5 2 0.5
9 0 1 0 0 0 1 0 0 0 1 -44.369 50.631 -49 1 1 0.5
9 0 1 0 0 0 1 0 0 0 1 -44.369 43.631 -53 1 1 0.5
9 0 1 0 0 0 1 0 0 0 1 -44.369 36.631 -44 1 1 0.5
9 0 1 0 0 0 1 0 0 0 1 -44.869 -39.869 -38.5 0.5 0.5 2
9 0 1 0 0 0 1 0 0 0 1 -46.369 34.631 -44 1 1 0.5
9 0 1 0 0 0 1 0 0 0 1 -46.369 0.1309967 -40.5 1 0.5 1
9 0 1 0 0 0 1 0 0 0 1 -48.369 0.1309967 -40 1 1.5 0.5
9 0 1 0 0 0 1 0 0 0 1 -47.869 -32.369 -44 0.5 2 0.5
9 0 1 0 0 0 1 0 0 0 1 -47.369 -49.869 -46.5 1 0.5 1
9 0 1 0 0 0 1 0 0 0 1 -48.869 55.131 -43.5 0.5 0.5 2
9 0 1 0 0 0 1 0 0 0 1 -48.369 31.631 -44 1 1 0.5
9 0 1 0 0 0 1 0 0 0 1 -49.369 -30.369 -44 1 1 0.5
9 0 1 0 0 0 1 0 0 0 1 -50.369 28.631 -44 1 1 0.5
9 0 1 0 0 0 1 0 0 0 1 -50.869 10.131 -39.5 0.5 0.5 2
9 0 1 0 0 0 1 0 0 0 1 -51.869 49.131 -26.5 0.5 0.5 2
9 0 1 0 0 0 1 0 0 0 1 -51.369 26.631 -44 1 1 0.5
9 0 1 0 0 0 1 0 0 0 1 -52.369 24.631 -44 1 1 0.5
9 0 1 0 0 0 1 0 0 0 1 -52.369 -24.369 -44 1 1 0.5
9 0 1 0 0 0 1 0 0 0 1 -53.869 12.131 -39.5 0.5 0.5 2
9 0 1 0 0 0 1 0 0 0 1 -53.869 -22.869 -46.5 0.5 0.5 2
9 0 1 0 0 0 1 0 0 0 1 -54.869 50.631 -20.5 0.5 1 1
9 0 1 0 0 0 1 0 0 0 1 -55.869 20.131 -38.5 0.5 0.5 2
9 0 1 0 0 0 1 0 0 0 1 -56.869 -18.369 -37.5 0.5 1 1
9 0 1 0 0 0 1 0 0 0 1 -58.869 45.631 -30.5 0.5 1 1
9 0 1 0 0 0 1 0 0 0 1 -59.869 -43.869 -31.5 0.5 0.5 2
9 0 1 0 0 0 1 0 0 0 1 -60.869 -39.869 -33.5 0.5 0.5 2
9 0 1 0 0 0 1 0 0 0 1 -61.869 -40.869 -31.5 0.5 0.5 2
9 0 1 0 0 0 1 0 0 0 1 -62.869 5.130997 -46.5 0.5 0.5 2
9 0 1 0 0 0 1 0 0 0 1 -62.869 -37.869 -17.5 0.5 0.5 2
9 0 1 0 0 0 1 0 0 0 1 -63.869 -37.869 -31.5 0.5 0.5 2
9 0 1 0 0 0 1 0 0 0 1 -64.869 36.631 -31.5 0.5 1 1
9 0 1 0 0 0 1 0 0 0 1 -64.869 18.131 -43.5 0.5 0.5 2
9 0 1 0 0 0 1 0 0 0 1 -64.869 14.631 -50 0.5 2 0.5
9 0 1 0 0 0 1 0 0 0 1 -64.869 -35.369 -30 0.5 2 0.5
9 0 1 0 0 0 1 0 0 0 1 -65.869 34.631 -31.5 0.5 1 1
9 0 1 0 0 0 1 0 0 0 1 -65.869 31.131 -28.5 0.5 0.5 2
9 0 1 0 0 0 1 0 0 0 1 -67.869 13.631 -46.5 0.5 1 1
9 0 1 0 0 0 1 0 0 0 1 -68.869 -26.869 1.5 0.5 0.5 2
9 0 1 0 0 0 1 0 0 0 1 -68.869 -29.369 -30.5 0.5 1 1
9 0 1 0 0 0 1 0 0 0 1 -69.869 26.131 -17.5 0.5 0.5 2
9 0 1 0 0 0 1 0 0 0 1 -69.869 24.631 -24.5 0.5 1 1
9 0 1 0 0 0 1 0 0 0 1 -69.869 -25.869 -31.5 0.5 0.5 2
9 0 1 0 0 0 1 0 0 0 1 -70.869 14.131 -39.5 0.5 0.5 2
9 0 1 0 0 0 1 0 0 0 1 -70.869 -13.869 -39.5 0.5 0.5 2
9 0 1 0 0 0 1 0 0 0 1 -71.869 14.131 -4.5 0.5 0.5 2
9 0 1 0 0 0 1 0 0 0 1 -71.869 -16.869 -35.5 0.5 0.5 2
9 0 1 0 0 0 1 0 0 0 1 -71.369 -20.369 -19 1 1 0.5
9 0 1 0 0 0 1 0 0 0 1 -72.869 15.131 -39.5 0.5 0.5 2
9 0 1 0 0 0 1 0 0 0 1 -72.869 12.131 -39.5 0.5 0.5 2
9 0 1 0 0 0 1 0 0 0 1 -72.869 -2.869003 -8.5 0.5 0.5 2
9 0 1 0 0 0 1 0 0 0 1 -72.869 -9.869003 -39.5 0.5 0.5 2
9 0 1 0 0 0 1 0 0 0 1 -72.869 -14.869 -39.5 0.5 0.5 2
9 0 1 0 0 0 1 0 0 0 1 -73.869 -10.369 -7.5 0.5 1 1
9 0 1 0 0 0 1 0 0 0 1 -73.369 -11.869 -9.5 1 0.5 1
9 0 1 0 0 0 1 0 0 0 1 -72.369 -17.869 -17 2 0.5 0.5
9 0 1 0 0 0 1 0 0 0 1 -74.869 6.630997 -9 0.5 2 0.5
9 0 1 0 0 0 1 0 0 0 1 -74.869 4.630997 -21.5 0.5 1 1
9 0 1 0 0 0 1 0 0 0 1 -74.869 -3.869003 -22.5 0.5 0.5 2
9 0 1 0 0 0 1 0 0 0 1 75.131 7.130997 -10 0.5 1.5 0.5
9 0 1 0 0 0 1 0 0 0 1 74.131 13.131 -20 0.5 1.5 0.5
9 0 1 0 0 0 1 0 0 0 1 74.131 0.1309967 -5 0.5 1.5 0.5
9 0 1 0 0 0 1 0 0 0 1 73.131 14.131 -8 0.5 0.5 1.5
9 0 1 0 0 0 1 0 0 0 1 73.131 -13.869 -8 0.5 0.5 1.5
9 0 1 0 0 0 1 0 0 0 1 73.131 -16.869 -23 0.5 0.5 1.5
9 0 1 0 0 0 1 0 0 0 1 73.131 -18.869 -20 0.5 1.5 0.5
9 0 1 0 0 0 1 0 0 0 1 73.131 15.131 -14 1.5 0.5 0.5
9 0 1 0 0 0 1 0 0 0 1 72.131 8.130997 -23 0.5 0.5 1.5
9 0 1 0 0 0 1 0 0 0 1 72.131 6.130997 -28 0.5 0.5 1.5
9 0 1 0 0 0 1 0 0 0 1 72.131 4.130997 -33 0.5 0.5 1.5
9 0 1 0 0 0 1 0 0 0 1 72.131 2.130997 -38 0.5 0.5 1.5
9 0 1 0 0 0 1 0 0 0 1 72.131 -3.869003 -34 0.5 0.5 1.5
9 0 1 0 0 0 1 0 0 0 1 72.131 -5.869003 -29 0.5 0.5 1.5
9 0 1 0 0 0 1 0 0 0 1 72.131 -7.869003 -24 0.5 0.5 1.5
9 0 1 0 0 0 1 0 0 0 1 72.131 -10.869 -16 0.5 0.5 1.5
9 0 1 0 0 0 1 0 0 0 1 72.131 -15.869 -15 1.5 0.5 0.5
9 0 1 0 0 0 1 0 0 0 1 72.131 -17.869 -17 1.5 0.5 0.5
9 0 1 0 0 0 1 0 0 0 1 71.131 -25.869 -26 0.5 0.5 1.5
9 0 1 0 0 0 1 0 0 0 1 70.131 17.131 -42 0.5 0.5 1.5
9 0 1 0 0 0 1 0 0 0 1 70.131 24.131 -25 1.5 0.5 0.5
9 0 1 0 0 0 1 0 0 0 1 69.131 -20.869 -24 0.5 0.5 1.5
9 0 1 0 0 0 1 0 0 0 1 68.131 27.131 -35 0.5 1.5 0.5
9 0 1 0 0 0 1 0 0 0 1 68.131 26.131 -29 0.5 0.5 1.5
9 0 1 0 0 0 1 0 0 0 1 67.131 -28.869 -35 0.5 1.5 0.5
9 0 1 0 0 0 1 0 0 0 1 66.131 19.131 -26 0.5 0.5 1.5
9 0 1 0 0 0 1 0 0 0 1 66.131 -35.869 -20 0.5 1.5 0.5
9 0 1 0 0 0 1 0 0 0 1 65.131 35.131 -33 0.5 0.5 1.5
9 0 1 0 0 0 1 0 0 0 1 65.131 14.131 -50 0.5 1.5 0.5
9 0 1 0 0 0 1 0 0 0 1 65.131 -13.869 -50 0.5 1.5 0.5
9 0 1 0 0 0 1 0 0 0 1 65.131 -35.869 -32 0.5 0.5 1.5
9 0 1 0 0 0 1 0 0 0 1 64.131 -17.869 -21 0.5 0.5 1.5
9 0 1 0 0 0 1 0 0 0 1 64.131 -37.869 -31 0.5 0.5 1.5
9 0 1 0 0 0 1 0 0 0 1 64.131 17.131 -49 1.5 0.5 0.5
9 0 1 0 0 0 1 0 0 0 1 62.131 41.131 -31 0.5 0.5 1.5
9 0 1 0 0 0 1 0 0 0 1 62.131 17.131 -35 0.5 0.5 1.5
9 0 1 0 0 0 1 0 0 0 1 62.131 -38.869 -18 0.5 0.5 1.5
9 0 1 0 0 0 1 0 0 0 1 61.131 41.131 -34 0.5 0.5 1.5
9 0 1 0 0 0 1 0 0 0 1 61.131 19.131 -38 0.5 0.5 1.5
9 0 1 0 0 0 1 0 0 0 1 61.131 -14.869 -53 0.5 1.5 0.5
9 0 1 0 0 0 1 0 0 0 1 61.131 -40.869 -34 0.5 0.5 1.5
9 0 1 0 0 0 1 0 0 0 1 61.131 -41.869 -32 0.5 0.5 1.5
9 0 1 0 0 0 1 0 0 0 1 60.131 44.131 -31 0.5 0.5 1.5
9 0 1 0 0 0 1 0 0 0 1 60.131 41.131 -28 0.5 0.5 1.5
9 0 1 0 0 0 1 0 0 0 1 60.131 -43.869 -18 0.5 0.5 1.5
9 0 1 0 0 0 1 0 0 0 1 60.131 -44.869 -29 0.5 0.5 1.5
9 0 1 0 0 0 1 0 0 0 1 54.131 52.131 -20 0.5 0.5 1.5
9 0 1 0 0 0 1 0 0 0 1 54.131 -48.869 -24 1.5 0.5 0.5
9 0 1 0 0 0 1 0 0 0 1 53.131 -53.869 -19 0.5 0.5 1.5
9 0 1 0 0 0 1 0 0 0 1 52.131 54.131 -19 0.5 0.5 1.5
9 0 1 0 0 0 1 0 0 0 1 52.131 27.131 -46 0.5 0.5 1.5
9 0 1 0 0 0 1 0 0 0 1 53.131 -50.869 -22 1.5 0.5 0.5
9 0 1 0 0 0 1 0 0 0 1 51.131 -53.869 -17 0.5 1.5 0.5
9 0 1 0 0 0 1 0 0 0 1 50.131 -47.869 -24 0.5 0.5 1.5
9 0 1 0 0 0 1 0 0 0 1 50.131 -55.869 -19 0.5 0.5 1.5
9 0 1 0 0 0 1 0 0 0 1 48.131 46.131 -35 0.5 0.5 1.5
9 0 1 0 0 0 1 0 0 0 1 47.131 58.131 -22 0.5 0.5 1.5
9 0 1 0 0 0 1 0 0 0 1 47.131 -49.869 -47 0.5 0.5 1.5
9 0 1 0 0 0 1 0 0 0 1 47.131 -57.869 -22 0.5 0.5 1.5
9 0 1 0 0 0 1 0 0 0 1 46.131 56.131 -38 0.5 0.5 1.5
9 0 1 0 0 0 1 0 0 0 1 46.131 36.131 -45 0.5 0.5 1.5
9 0 1 0 0 0 1 0 0 0 1 46.131 -40.869 -38 0.5 0.5 1.5
9 0 1 0 0 0 1 0 0 0 1 45.131 57.131 -35 0.5 0.5 1.5
9 0 1 0 0 0 1 0 0 0 1 45.131 52.131 -47 0.5 0.5 1.5
9 0 1 0 0 0 1 0 0 0 1 45.131 -38.869 -53 0.5 0.5 1.5
9 0 1 0 0 0 1 0 0 0 1 45.131 -43.869 -52 0.5 1.5 0.5
9 0 1 0 0 0 1 0 0 0 1 43.131 5.130997 -32 0.5 0.5 1.5
9 0 1 0 0 0 1 0 0 0 1 43.131 -59.869 -7 0.5 0.5 1.5
9 0 1 0 0 0 1 0 0 0 1 43.131 -60.869 -22 0.5 0.5 1.5
9 0 1 0 0 0 1 0 0 0 1 42.131 44.131 -35 0.5 0.5 1.5
9 0 1 0 0 0 1 0 0 0 1 41.131 62.131 -22 0.5 0.5 1.5
9 0 1 0 0 0 1 0 0 0 1 41.131 44.131 -43 0.5 0.5 1.5
9 0 1 0 0 0 1 0 0 0 1 41.131 43.131 -16 0.5 0.5 1.5
9 0 1 0 0 0 1 0 0 0 1 41.131 -41.869 -43 0.5 0.5 1.5
9 0 1 0 0 0 1 0 0 0 1 41.131 41.131 -44 1.5 0.5 0.5
9 0 1 0 0 0 1 0 0 0 1 38.131 64.131 -22 0.5 0.5 1.5
9 0 1 0 0 0 1 0 0 0 1 37.131 -64.869 -22 0.5 0.5 1.5
9 0 1 0 0 0 1 0 0 0 1 35.131 -64.869 -6 0.5 0.5 1.5
9 0 1 0 0 0 1 0 0 0 1 34.131 -63.869 -40 0.5 0.5 1.5
9 0 1 0 0 0 1 0 0 0 1 33.131 39.131 -26 0.5 0.5 1.5
9 0 1 0 0 0 1 0 0 0 1 34.131 -40.869 -41 1.5 0.5 0.5
9 0 1 0 0 0 1 0 0 0 1 31.131 41.131 1 0.5 0.5 1.5
9 0 1 0 0 0 1 0 0 0 1 31.131 -39.869 -39 0.5 0.5 1.5
9 0 1 0 0 0 1 0 0 0 1 31.131 -67.869 -22 0.5 0.5 1.5
9 0 1 0 0 0 1 0 0 0 1 29.131 -42.869 -41 1.5 0.5 0.5
9 0 1 0 0 0 1 0 0 0 1 28.131 -66.869 -40 0.5 0.5 1.5
9 0 1 0 0 0 1 0 0 0 1 27.131 67.131 -40 0.5 0.5 1.5
9 0 1 0 0 0 1 0 0 0 1 26.131 71.131 -19 0.5 0.5 1.5
9 0 1 0 0 0 1 0 0 0 1 27.131 41.131 -40 1.5 0.5 0.5
9 0 1 0 0 0 1 0 0 0 1 26.131 -44.869 13 0.5 0.5 1.5
9 0 1 0 0 0 1 0 0 0 1 23.131 71.131 -15 0.5 1.5 0.5
9 0 1 0 0 0 1 0 0 0 1 24.131 -40.869 -41 1.5 0.5 0.5
9 0 1 0 0 0 1 0 0 0 1 24.131 -43.869 -41 1.5 0.5 0.5
9 0 1 0 0 0 1 0 0 0 1 23.131 -70.869 -15 0.5 1.5 0.5
9 0 1 0 0 0 1 0 0 0 1 22.131 45.131 -39 0.5 0.5 1.5
9 0 1 0 0 0 1 0 0 0 1 22.131 -68.869 -41 0.5 0.5 1.5
9 0 1 0 0 0 1 0 0 0 1 21.131 71.131 -22 0.5 0.5 1.5
9 0 1 0 0 0 1 0 0 0 1 21.131 62.131 -43 0.5 0.5 1.5
9 0 1 0 0 0 1 0 0 0 1 21.131 -46.869 1 0.5 0.5 1.5
9 0 1 0 0 0 1 0 0 0 1 21.131 -65.869 -47 0.5 0.5 1.5
9 0 1 0 0 0 1 0 0 0 1 21.131 -70.869 -23 0.5 0.5 1.5
9 0 1 0 0 0 1 0 0 0 1 20.131 73.131 -19 0.5 0.5 1.5
9 0 1 0 0 0 1 0 0 0 1 20.131 66.131 -47 0.5 0.5 1.5
9 0 1 0 0 0 1 0 0 0 1 21.131 64.131 -49 1.5 0.5 0.5
9 0 1 0 0 0 1 0 0 0 1 21.131 -47.869 -41 1.5 0.5 0.5
9 0 1 0 0 0 1 0 0 0 1 20.131 -47.869 -2 0.5 0.5 1.5
9 0 1 0 0 0 1 0 0 0 1 19.131 -45.869 -40 1.5 0.5 0.5
9 0 1 0 0 0 1 0 0 0 1 19.131 -48.869 -41 1.5 0.5 0.5
9 0 1 0 0 0 1 0 0 0 1 17.131 -56.869 10 0.5 1.5 0.5
9 0 1 0 0 0 1 0 0 0 1 17.131 -58.869 -53 0.5 0.5 1.5
9 0 1 0 0 0 1 0 0 0 1 17.131 -59.869 -41 0.5 1.5 0.5
9 0 1 0 0 0 1 0 0 0 1 16.131 73.131 -15 0.5 0.5 1.5
9 0 1 0 0 0 1 0 0 0 1 16.131 72.131 -23 0.5 1.5 0.5
9 0 1 0 0 0 1 0 0 0 1 16.131 -56.869 -52 0.5 0.5 1.5
9 0 1 0 0 0 1 0 0 0 1 15.131 72.131 -1 0.5 0.5 1.5
9 0 1 0 0 0 1 0 0 0 1 14.131 73.131 -25 0.5 1.5 0.5
9 0 1 0 0 0 1 0 0 0 1 14.131 62.131 -38 0.5 0.5 1.5
9 0 1 0 0 0 1 0 0 0 1 14.131 -56.869 -45 0.5 0.5 1.5
9 0 1 0 0 0 1 0 0 0 1 12.131 72.131 -16 0.5 0.5 1.5
9 0 1 0 0 0 1 0 0 0 1 12.131 -59.869 -38 0.5 0.5 1.5
9 0 1 0 0 0 1 0 0 0 1 12.131 -72.869 -20 0.5 0.5 1.5
9 0 1 0 0 0 1 0 0 0 1 10.131 -71.869 -34 0.5 0.5 1.5
9 0 1 0 0 0 1 0 0 0 1 8.130997 74.131 -5 0.5 0.5 1.5
9 0 1 0 0 0 1 0 0 0 1 8.130997 -57.869 -50 0.5 0.5 1.5
9 0 1 0 0 0 1 0 0 0 1 6.130997 74.131 0 0.5 0.5 1.5
9 0 1 0 0 0 1 0 0 0 1 6.130997 72.131 -34 0.5 0.5 1.5
9 0 1 0 0 0 1 0 0 0 1 5.130997 -41.869 -21 0.5 0.5 1.5
9 0 1 0 0 0 1 0 0 0 1 3.130997 -75.869 -25 0.5 0.5 1.5
9 0 1 0 0 0 1 0 0 0 1 2.130997 -74.869 -18 0.5 0.5 1.5
9 0 1 0 0 0 1 0 0 0 1 0.1309967 59.131 -50 0.5 0.5 1.5
9 0 1 0 0 0 1 0 0 0 1 0.1309967 74.131 -35 1.5 0.5 0.5
9 0 1 0 0 0 1 0 0 0 1 0.1309967 42.131 -19 1.5 0.5 0.5
9 0 1 0 0 0 1 0 0 0 1 0.1309967 -42.869 -26 1.5 0.5 0.5
9 0 1 0 0 0 1 0 0 0 1 -1.869003 -74.869 -18 0.5 0.5 1.5
9 0 1 0 0 0 1 0 0 0 1 -2.869003 -72.869 -36 1.5 0.5 0.5
9 0 1 0 0 0 1 0 0 0 1 -3.869003 -72.869 -11 0.5 0.5 1.5
9 0 1 0 0 0 1 0 0 0 1 -5.869003 74.131 1 0.5 0.5 1.5
9 0 1 0 0 0 1 0 0 0 1 -5.869003 72.131 -34 0.5 0.5 1.5
9 0 1 0 0 0 1 0 0 0 1 -5.869003 -41.869 -22 0.5 0.5 1.5
9 0 1 0 0 0 1 0 0 0 1 -5.869003 -57.869 -45 1.5 0.5 0.5
9 0 1 0 0 0 1 0 0 0 1 -7.869003 75.131 -30 1.5 0.5 0.5
9 0 1 0 0 0 1 0 0 0 1 -9.869003 -55.869 -44 1.5 0.5 0.5
9 0 1 0 0 0 1 0 0 0 1 -10.869 -71.869 -31 0.5 0.5 1.5
9 0 1 0 0 0 1 0 0 0 1 -11.869 -73.869 -18 0.5 0.5 1.5
9 0 1 0 0 0 1 0 0 0 1 -12.869 57.131 -46 0.5 0.5 1.5
9 0 1 0 0 0 1 0 0 0 1 -12.869 -71.869 -22 0.5 0.5 1.5
9 0 1 0 0 0 1 0 0 0 1 -13.869 73.131 -26 0.5 1.5 0.5
9 0 1 0 0 0 1 0 0 0 1 -13.869 -72.869 -26 0.5 1.5 0.5
9 0 1 0 0 0 1 0 0 0 1 -15.869 58.131 -35 0.5 0.5 1.5
9 0 1 0 0 0 1 0 0 0 1 -14.869 56.131 -44 1.5 0.5 0.5
9 0 1 0 0 0 1 0 0 0 1 -16.869 48.131 -39 0.5 0.5 1.5
9 0 1 0 0 0 1 0 0 0 1 -16.869 -63.869 -49 0.5 0.5 1.5
9 0 1 0 0 0 1 0 0 0 1 -16.869 -66.869 -31 0.5 0.5 1.5
9 0 1 0 0 0 1 0 0 0 1 -17.869 -54.869 -40 0.5 0.5 1.5
9 0 1 0 0 0 1 0 0 0 1 -16.869 -61.869 -52 1.5 0.5 0.5
9 0 1 0 0 0 1 0 0 0 1 -17.869 -46.869 -40 1.5 0.5 0.5
9 0 1 0 0 0 1 0 0 0 1 -17.869 -72.869 -21 1.5 0.5 0.5
9 0 1 0 0 0 1 0 0 0 1 -19.869 -61.869 -50 0.5 0.5 1.5
9 0 1 0 0 0 1 0 0 0 1 -20.869 -61.869 -43 0.5 0.5 1.5
9 0 1 0 0 0 1 0 0 0 1 -20.869 48.131 -41 1.5 0.5 0.5
9 0 1 0 0 0 1 0 0 0 1 -20.869 45.131 -40 1.5 0.5 0.5
9 0 1 0 0 0 1 0 0 0 1 -21.869 -62.869 -43 0.5 0.5 1.5
9 0 1 0 0 0 1 0 0 0 1 -22.869 64.131 -43 0.5 0.5 1.5
9 0 1 0 0 0 1 0 0 0 1 -23.869 44.131 -38 0.5 0.5 1.5
9 0 1 0 0 0 1 0 0 0 1 -24.869 -69.869 -37 0.5 0.5 1.5
9 0 1 0 0 0 1 0 0 0 1 -24.869 69.131 -41 1.5 0.5 0.5
9 0 1 0 0 0 1 0 0 0 1 -25.869 -42.869 -40 0.5 0.5 1.5
9 0 1 0 0 0 1 0 0 0 1 -27.869 69.131 -8 0.5 0.5 1.5
9 0 1 0 0 0 1 0 0 0 1 -27.869 68.131 -5 0.5 0.5 1.5
9 0 1 0 0 0 1 0 0 0 1 -28.869 -68.869 -9 0.5 0.5 1.5
9 0 1 0 0 0 1 0 0 0 1 -29.869 67.131 -5 0.5 0.5 1.5
9 0 1 0 0 0 1 0 0 0 1 -30.869 42.131 13 0.5 0.5 1.5
9 0 1 0 0 0 1 0 0 0 1 -31.869 66.131 -5 0.5 0.5 1.5
9 0 1 0 0 0 1 0 0 0 1 -33.869 40.131 4 0.5 0.5 1.5
9 0 1 0 0 0 1 0 0 0 1 -33.869 -38.869 -38 0.5 0.5 1.5
9 0 1 0 0 0 1 0 0 0 1 -34.869 67.131 -19 0.5 0.5 1.5
9 0 1 0 0 0 1 0 0 0 1 -35.869 63.131 -40 0.5 0.5 1.5
9 0 1 0 0 0 1 0 0 0 1 -34.869 41.131 0 1.5 0.5 0.5
9 0 1 0 0 0 1 0 0 0 1 -36.869 65.131 -9 0.5 0.5 1.5
9 0 1 0 0 0 1 0 0 0 1 -37.869 63.131 -40 0.5 0.5 1.5
9 0 1 0 0 0 1 0 0 0 1 -40.869 61.131 -40 0.5 0.5 1.5
9 0 1 0 0 0 1 0 0 0 1 -40.869 43.131 -47 0.5 0.5 1.5
9 0 1 0 0 0 1 0 0 0 1 -41.869 46.131 -43 0.5 0.5 1.5
9 0 1 0 0 0 1 0 0 0 1 -41.869 5.130997 -21 0.5 0.5 1.5
9 0 1 0 0 0 1 0 0 0 1 -42.869 5.130997 -30 0.5 0.5 1.5
9 0 1 0 0 0 1 0 0 0 1 -42.869 0.1309967 -26 0.5 1.5 0.5
9 0 1 0 0 0 1 0 0 0 1 -42.869 -41.869 -42 0.5 0.5 1.5
9 0 1 0 0 0 1 0 0 0 1 -44.869 52.131 -47 0.5 0.5 1.5
9 0 1 0 0 0 1 0 0 0 1 -43.869 -37.869 -44 1.5 0.5 0.5
9 0 1 0 0 0 1 0 0 0 1 -44.869 -44.869 -22 0.5 0.5 1.5
9 0 1 0 0 0 1 0 0 0 1 -44.869 -51.869 -47 0.5 0.5 1.5
9 0 1 0 0 0 1 0 0 0 1 -46.869 58.131 -22 0.5 0.5 1.5
9 0 1 0 0 0 1 0 0 0 1 -46.869 50.131 -47 0.5 0.5 1.5
9 0 1 0 0 0 1 0 0 0 1 -46.869 48.131 -49 0.5 1.5 0.5
9 0 1 0 0 0 1 0 0 0 1 -46.869 46.131 -50 0.5 1.5 0.5
9 0 1 0 0 0 1 0 0 0 1 -46.869 43.131 -38 0.5 0.5 1.5
9 0 1 0 0 0 1 0 0 0 1 -47.869 -46.869 -33 0.5 0.5 1.5
9 0 1 0 0 0 1 0 0 0 1 -48.869 8.130997 -40 0.5 1.5 0.5
9 0 1 0 0 0 1 0 0 0 1 -48.869 -7.869003 -40 0.5 1.5 0.5
9 0 1 0 0 0 1 0 0 0 1 -49.869 -1.869003 -41 1.5 0.5 0.5
9 0 1 0 0 0 1 0 0 0 1 -51.869 -49.869 -23 0.5 0.5 1.5
9 0 1 0 0 0 1 0 0 0 1 -52.869 54.131 -19 0.5 0.5 1.5
9 0 1 0 0 0 1 0 0 0 1 -52.869 -53.869 -19 0.5 0.5 1.5
9 0 1 0 0 0 1 0 0 0 1 -54.869 -51.869 -21 0.5 0.5 1.5
9 0 1 0 0 0 1 0 0 0 1 -55.869 50.131 -21 0.5 0.5 1.5
9 0 1 0 0 0 1 0 0 0 1 -55.869 18.131 -46 0.5 0.5 1.5
9 0 1 0 0 0 1 0 0 0 1 -57.869 48.131 -28 0.5 0.5 1.5
9 0 1 0 0 0 1 0 0 0 1 -57.869 47.131 -31 0.5 0.5 1.5
9 0 1 0 0 0 1 0 0 0 1 -57.869 19.131 -53 0.5 0.5 1.5
9 0 1 0 0 0 1 0 0 0 1 -60.869 42.131 -32 0.5 0.5 1.5
9 0 1 0 0 0 1 0 0 0 1 -60.869 19.131 -38 0.5 0.5 1.5
9 0 1 0 0 0 1 0 0 0 1 -60.869 -5.869003 -46 0.5 0.5 1.5
9 0 1 0 0 0 1 0 0 0 1 -60.869 -42.869 -31 0.5 0.5 1.5
9 0 1 0 0 0 1 0 0 0 1 -60.869 -42.869 -18 0.5 0.5 1.5
9 0 1 0 0 0 1 0 0 0 1 -61.869 41.131 -32 0.5 0.5 1.5
9 0 1 0 0 0 1 0 0 0 1 -61.869 -12.869 -43 0.5 0.5 1.5
9 0 1 0 0 0 1 0 0 0 1 -62.869 -37.869 -34 0.5 0.5 1.5
9 0 1 0 0 0 1 0 0 0 1 -63.869 35.131 -29 0.5 0.5 1.5
9 0 1 0 0 0 1 0 0 0 1 -63.869 -13.869 -51 0.5 1.5 0.5
9 0 1 0 0 0 1 0 0 0 1 -64.869 -33.869 -18 0.5 0.5 1.5
9 0 1 0 0 0 1 0 0 0 1 -64.869 -33.869 -35 0.5 1.5 0.5
9 0 1 0 0 0 1 0 0 0 1 -64.869 -38.869 -21 0.5 0.5 1.5
9 0 1 0 0 0 1 0 0 0 1 -65.869 12.131 -43 0.5 0.5 1.5
9 0 1 0 0 0 1 0 0 0 1 -65.869 -31.869 -18 0.5 0.5 1.5
9 0 1 0 0 0 1 0 0 0 1 -65.869 -33.869 2 0.5 0.5 1.5
9 0 1 0 0 0 1 0 0 0 1 -66.869 32.131 -32 0.5 0.5 1.5
9 0 1 0 0 0 1 0 0 0 1 -66.869 30.131 -35 0.5 0.5 1.5
9 0 1 0 0 0 1 0 0 0 1 -67.869 21.131 -34 0.5 0.5 1.5
9 0 1 0 0 0 1 0 0 0 1 -68.869 26.131 -35 0.5 0.5 1.5
9 0 1 0 0 0 1 0 0 0 1 -69.869 17.131 -43 0.5 0.5 1.5
9 0 1 0 0 0 1 0 0 0 1 -70.869 -24.869 -21 0.5 0.5 1.5
9 0 1 0 0 0 1 0 0 0 1 -70.869 -26.869 -21 0.5 0.5 1.5
9 0 1 0 0 0 1 0 0 0 1 -71.869 10.131 -28 0.5 0.5 1.5
9 0 1 0 0 0 1 0 0 0 1 -71.869 7.130997 -36 0.5 0.5 1.5
9 0 1 0 0 0 1 0 0 0 1 -72.869 -12.869 -45 0.5 1.5 0.5
9 0 1 0 0 0 1 0 0 0 1 -72.869 -13.869 -7 0.5 0.5 1.5
9 0 1 0 0 0 1 0 0 0 1 -72.869 15.131 -14 1.5 0.5 0.5
9 0 1 0 0 0 1 0 0 0 1 -73.869 11.131 -8 0.5 1.5 0.5
9 0 1 0 0 0 1 0 0 0 1 -72.869 -15.869 -15 1.5 0.5 0.5
9 0 1 0 0 0 1 0 0 0 1 -73.869 -17.869 -19 0.5 0.5 1.5
9 0 1 0 0 0 1 0 0 0 1 -75.869 -2.869003 -14 0.5 0.5 1.5
