9 0 1 0 0 0 1 0 0 0 1 0.3059998 -8.404999 -0.1919994 4.5 1.5 6
9 0 1 0 0 0 1 0 0 0 1 0.3059998 -10.905 -0.1919994 3.5 1 3
9 0 1 0 0 0 1 0 0 0 1 -6.194 -7.904999 -0.1919994 2 1 4
9 0 1 0 0 0 1 0 0 0 1 6.806 -7.904999 -0.1919994 2 1 3
9 0 1 0 0 0 1 0 0 0 1 0.3059998 -7.904999 7.308001 3.5 1 1.5
9 0 1 0 0 0 1 0 0 0 1 -0.1940002 14.095 15.308 2 4 0.5
9 0 1 0 0 0 1 0 0 0 1 0.3059998 -6.404999 -0.1919994 2.5 0.5 3
9 0 1 0 0 0 1 0 0 0 1 0.3059998 -7.904999 -7.691999 2.5 1 1.5
9 0 1 0 0 0 1 0 0 0 1 -0.1940002 -12.405 0.3080006 1 0.5 5.5
9 0 1 0 0 0 1 0 0 0 1 0.3059998 -10.405 4.308001 3.5 0.5 1.5
9 0 1 0 0 0 1 0 0 0 1 -3.194 13.095 14.308 1 5 0.5
9 0 1 0 0 0 1 0 0 0 1 -5.694 -9.404999 -0.1919994 1.5 0.5 3
9 0 1 0 0 0 1 0 0 0 1 -0.1940002 -10.905 -5.191999 1 1 2
9 0 1 0 0 0 1 0 0 0 1 5.806 -7.904999 -4.691999 1 1 1.5
9 0 1 0 0 0 1 0 0 0 1 6.306 -7.904999 3.808001 1.5 1 1
9 0 1 0 0 0 1 0 0 0 1 6.306 -9.404999 -0.1919994 1.5 0.5 2
9 0 1 0 0 0 1 0 0 0 1 3.806 15.095 14.308 1 3 0.5
9 0 1 0 0 0 1 0 0 0 1 -0.1940002 -7.404999 -10.192 1 1.5 1
9 0 1 0 0 0 1 0 0 0 1 -0.1940002 -9.404999 6.808001 3 0.5 1
9 0 1 0 0 0 1 0 0 0 1 -4.194 -10.405 -0.1919994 1 0.5 3
9 0 1 0 0 0 1 0 0 0 1 -5.194 -7.904999 5.308001 1 1 1.5
9 0 1 0 0 0 1 0 0 0 1 -0.1940002 -13.405 0.3080006 1 0.5 2.5
9 0 1 0 0 0 1 0 0 0 1 -8.694 -7.904999 0.3080006 0.5 1 2.5
9 0 1 0 0 0 1 0 0 0 1 -14.694 13.095 0.3080006 0.5 5 0.5
9 0 1 0 0 0 1 0 0 0 1 6.306 18.595 -15.692 1.5 1.5 0.5
9 0 1 0 0 0 1 0 0 0 1 -3.694 -7.404999 -7.691999 1.5 0.5 1.5
9 0 1 0 0 0 1 0 0 0 1 9.806 -7.404999 -0.1919994 1 0.5 2
9 0 1 0 0 0 1 0 0 0 1 4.806 -10.405 0.8080006 1 0.5 2
9 0 1 0 0 0 1 0 0 0 1 3.806 -7.904999 -7.191999 1 1 1
9 0 1 0 0 0 1 0 0 0 1 -0.1940002 8.095001 15.308 1 2 0.5
9 0 1 0 0 0 1 0 0 0 1 -0.1940002 -7.904999 9.808001 1 1 1
9 0 1 0 0 0 1 0 0 0 1 -0.1940002 -11.405 4.808001 1 0.5 2
9 0 1 0 0 0 1 0 0 0 1 -0.1940002 10.095 -15.692 2 1 0.5
9 0 1 0 0 0 1 0 0 0 1 -0.1940002 -6.404999 10.308 4 0.5 0.5
9 0 1 0 0 0 1 0 0 0 1 -5.194 -7.904999 -5.191999 1 1 1
9 0 1 0 0 0 1 0 0 0 1 -6.194 18.095 -15.692 1 2 0.5
9 0 1 0 0 0 1 0 0 0 1 5.806 -7.404999 6.308001 1 0.5 1.5
9 0 1 0 0 0 1 0 0 0 1 3.306 9.095001 14.308 0.5 3 0.5
9 0 1 0 0 0 1 0 0 0 1 2.306 -10.405 -4.191999 1.5 0.5 1
9 0 1 0 0 0 1 0 0 0 1 -0.1940002 -9.404999 -7.691999 1 0.5 1.5
9 0 1 0 0 0 1 0 0 0 1 2.306 15.595 15.308 0.5 2.5 0.5
9 0 1 0 0 0 1 0 0 0 1 0.3059998 15.595 16.308 0.5 2.5 0.5
9 0 1 0 0 0 1 0 0 0 1 -9.694 -7.404999 0.3080006 0.5 0.5 2.5
9 0 1 0 0 0 1 0 0 0 1 5.806 -9.404999 2.808001 1 0.5 1
9 0 1 0 0 0 1 0 0 0 1 4.806 17.095 -16.692 1 1 0.5
9 0 1 0 0 0 1 0 0 0 1 4.306 -7.904999 6.808001 0.5 1 1
9 0 1 0 0 0 1 0 0 0 1 -0.1940002 -10.405 6.808001 1 0.5 1
9 0 1 0 0 0 1 0 0 0 1 -0.1940002 -6.404999 3.308001 2 0.5 0.5
9 0 1 0 0 0 1 0 0 0 1 -2.694 6.095001 14.308 0.5 2 0.5
9 0 1 0 0 0 1 0 0 0 1 -2.694 -6.404999 0.8080006 0.5 0.5 2
9 0 1 0 0 0 1 0 0 0 1 -2.194 -10.405 -4.191999 1 0.5 1
9 0 1 0 0 0 1 0 0 0 1 -3.694 16.095 -16.692 0.5 2 0.5
9 0 1 0 0 0 1 0 0 0 1 -3.694 -7.404999 7.808001 0.5 0.5 2
9 0 1 0 0 0 1 0 0 0 1 -3.194 -8.404999 -7.191999 1 0.5 1
9 0 1 0 0 0 1 0 0 0 1 -3.694 -11.405 -0.1919994 0.5 0.5 2
9 0 1 0 0 0 1 0 0 0 1 -4.694 17.095 -16.192 0.5 1 1
9 0 1 0 0 0 1 0 0 0 1 -4.694 16.095 14.308 0.5 2 0.5
9 0 1 0 0 0 1 0 0 0 1 -5.694 -10.405 -0.1919994 0.5 0.5 2
9 0 1 0 0 0 1 0 0 0 1 -7.194 -7.404999 4.808001 1 0.5 1
9 0 1 0 0 0 1 0 0 0 1 -8.194 19.095 -15.692 1 1 0.5
9 0 1 0 0 0 1 0 0 0 1 -8.694 19.095 -14.692 0.5 2 0.5
9 0 1 0 0 0 1 0 0 0 1 7.306 -7.404999 -4.691999 0.5 0.5 1.5
9 0 1 0 0 0 1 0 0 0 1 4.306 -10.405 -2.691999 0.5 0.5 1.5
9 0 1 0 0 0 1 0 0 0 1 4.306 -11.405 0.3080006 0.5 0.5 1.5
9 0 1 0 0 0 1 0 0 0 1 2.306 -7.404999 9.308001 1.5 0.5 0.5
9 0 1 0 0 0 1 0 0 0 1 2.306 -9.404999 -6.691999 1.5 0.5 0.5
9 0 1 0 0 0 1 0 0 0 1 0.3059998 15.595 -18.692 1.5 0.5 0.5
9 0 1 0 0 0 1 0 0 0 1 0.3059998 -6.404999 -3.691999 1.5 0.5 0.5
9 0 1 0 0 0 1 0 0 0 1 -2.694 -9.404999 -6.691999 1.5 0.5 0.5
9 0 1 0 0 0 1 0 0 0 1 -14.694 17.595 1.308001 0.5 1.5 0.5
