9 0 1 0 0 0 1 0 0 0 1 -0.1469994 14.314 -13.04 9.5 6.5 1.5
9 0 1 0 0 0 1 0 0 0 1 -0.6469994 5.314 -12.04 15 2.5 0.5
9 0 1 0 0 0 1 0 0 0 1 -0.1469994 4.314 11.96 14.5 2.5 0.5
9 0 1 0 0 0 1 0 0 0 1 9.853001 19.314 19.96 1.5 6.5 1.5
9 0 1 0 0 0 1 0 0 0 1 -10.147 19.314 19.96 1.5 6.5 1.5
9 0 1 0 0 0 1 0 0 0 1 -0.1469994 2.814 13.46 8.5 1 1
9 0 1 0 0 0 1 0 0 0 1 -0.1469994 21.314 -13.54 7.5 0.5 2
9 0 1 0 0 0 1 0 0 0 1 -0.6469994 6.814 -13.04 15 1 0.5
9 0 1 0 0 0 1 0 0 0 1 11.853 12.814 -12.04 2.5 5 0.5
9 0 1 0 0 0 1 0 0 0 1 -12.147 12.814 -12.04 2.5 5 0.5
9 0 1 0 0 0 1 0 0 0 1 9.853001 5.314 13.46 3.5 1.5 1
9 0 1 0 0 0 1 0 0 0 1 -10.147 5.314 13.46 3.5 1.5 1
9 0 1 0 0 0 1 0 0 0 1 -0.1469994 23.314 -12.04 6.5 1.5 0.5
9 0 1 0 0 0 1 0 0 0 1 -0.1469994 1.314 12.46 8.5 0.5 1
9 0 1 0 0 0 1 0 0 0 1 -0.1469994 4.814 -13.04 5.5 1 0.5
9 0 1 0 0 0 1 0 0 0 1 -0.1469994 9.314 -15.04 9.5 0.5 0.5
9 0 1 0 0 0 1 0 0 0 1 -0.6469994 6.314 -14.04 3 1.5 0.5
9 0 1 0 0 0 1 0 0 0 1 -0.1469994 22.314 -13.04 8.5 0.5 0.5
9 0 1 0 0 0 1 0 0 0 1 -0.1469994 0.3140001 11.96 8.5 0.5 0.5
9 0 1 0 0 0 1 0 0 0 1 6.853001 3.314 14.96 1.5 2.5 0.5
9 0 1 0 0 0 1 0 0 0 1 11.853 19.314 19.96 0.5 6.5 0.5
9 0 1 0 0 0 1 0 0 0 1 9.853001 19.314 17.96 0.5 6.5 0.5
9 0 1 0 0 0 1 0 0 0 1 9.853001 19.314 21.96 0.5 6.5 0.5
9 0 1 0 0 0 1 0 0 0 1 7.853001 19.314 19.96 0.5 6.5 0.5
9 0 1 0 0 0 1 0 0 0 1 -8.146999 19.314 19.96 0.5 6.5 0.5
9 0 1 0 0 0 1 0 0 0 1 -10.147 19.314 17.96 0.5 6.5 0.5
9 0 1 0 0 0 1 0 0 0 1 -10.147 19.314 21.96 0.5 6.5 0.5
9 0 1 0 0 0 1 0 0 0 1 -12.147 19.314 19.96 0.5 6.5 0.5
9 0 1 0 0 0 1 0 0 0 1 -7.146999 3.814 14.96 1.5 2 0.5
9 0 1 0 0 0 1 0 0 0 1 -12.647 8.814 -13.04 3 1 0.5
9 0 1 0 0 0 1 0 0 0 1 14.853 8.314 -12.54 0.5 2.5 1
9 0 1 0 0 0 1 0 0 0 1 13.853 12.814 -13.04 0.5 5 0.5
9 0 1 0 0 0 1 0 0 0 1 11.353 8.814 -13.04 2 1 0.5
9 0 1 0 0 0 1 0 0 0 1 -14.147 13.314 -13.04 0.5 3.5 0.5
9 0 1 0 0 0 1 0 0 0 1 15.353 4.314 -12.04 1 1.5 0.5
9 0 1 0 0 0 1 0 0 0 1 10.853 18.814 -12.04 1.5 1 0.5
9 0 1 0 0 0 1 0 0 0 1 11.353 3.314 12.96 3 0.5 0.5
9 0 1 0 0 0 1 0 0 0 1 6.853001 0.8140001 13.96 1.5 1 0.5
9 0 1 0 0 0 1 0 0 0 1 -7.146999 0.8140001 13.96 1.5 1 0.5
9 0 1 0 0 0 1 0 0 0 1 -11.147 18.814 -12.04 1.5 1 0.5
9 0 1 0 0 0 1 0 0 0 1 -11.647 3.314 12.96 3 0.5 0.5
9 0 1 0 0 0 1 0 0 0 1 -0.1469994 8.314 -15.04 2.5 0.5 0.5
9 0 1 0 0 0 1 0 0 0 1 13.853 4.814 13.46 0.5 1 1
9 0 1 0 0 0 1 0 0 0 1 8.853001 11.814 -15.04 0.5 2 0.5
9 0 1 0 0 0 1 0 0 0 1 8.353001 21.814 -12.04 1 1 0.5
9 0 1 0 0 0 1 0 0 0 1 7.853001 18.814 -15.04 0.5 2 0.5
9 0 1 0 0 0 1 0 0 0 1 5.853001 4.814 13.46 0.5 1 1
9 0 1 0 0 0 1 0 0 0 1 -6.146999 4.814 13.46 0.5 1 1
9 0 1 0 0 0 1 0 0 0 1 -8.146999 18.814 -15.04 0.5 2 0.5
9 0 1 0 0 0 1 0 0 0 1 -8.646999 21.314 -12.54 1 0.5 1
9 0 1 0 0 0 1 0 0 0 1 -9.146999 11.814 -15.04 0.5 2 0.5
9 0 1 0 0 0 1 0 0 0 1 -14.147 4.814 13.46 0.5 1 1
9 0 1 0 0 0 1 0 0 0 1 -15.147 9.814 -12.04 0.5 2 0.5
9 0 1 0 0 0 1 0 0 0 1 9.853001 20.314 -13.04 0.5 0.5 1.5
9 0 1 0 0 0 1 0 0 0 1 9.853001 11.314 -13.04 0.5 1.5 0.5
9 0 1 0 0 0 1 0 0 0 1 6.853001 0.3140001 12.96 1.5 0.5 0.5
9 0 1 0 0 0 1 0 0 0 1 -7.146999 0.3140001 12.96 1.5 0.5 0.5
9 0 1 0 0 0 1 0 0 0 1 -10.147 20.314 -13.04 0.5 0.5 1.5
9 0 1 0 0 0 1 0 0 0 1 -10.147 11.314 -13.04 0.5 1.5 0.5
9 0 1 0 0 0 1 0 0 0 1 -16.147 3.314 -12.04 0.5 1.5 0.5
