9 0 1 0 0 0 1 0 0 0 1 0.2109985 -14.671 -0.342 10.5 2.5 1
9 0 1 0 0 0 1 0 0 0 1 -12.789 -12.671 -0.342 2.5 2.5 1
9 0 1 0 0 0 1 0 0 0 1 16.711 -10.171 -0.342 3 2 1
9 0 1 0 0 0 1 0 0 0 1 -17.289 -9.671 -0.342 2 2.5 1
9 0 1 0 0 0 1 0 0 0 1 -0.2890015 -17.671 -0.342 8 0.5 1
9 0 1 0 0 0 1 0 0 0 1 13.711 -13.171 -0.342 3 1 1
9 0 1 0 0 0 1 0 0 0 1 0.2109985 -7.171 0.158 5.5 1 0.5
9 0 1 0 0 0 1 0 0 0 1 11.711 -11.171 -0.342 2 1 1
9 0 1 0 0 0 1 0 0 0 1 0.2109985 -18.671 -0.342 3.5 0.5 1
9 0 1 0 0 0 1 0 0 0 1 -0.2890015 -7.671 1.158 5 0.5 0.5
9 0 1 0 0 0 1 0 0 0 1 8.210999 -5.671 0.158 1.5 0.5 1.5
9 0 1 0 0 0 1 0 0 0 1 20.711 -9.171 -0.342 1 1 1
9 0 1 0 0 0 1 0 0 0 1 17.711 -7.671 -0.342 2 0.5 1
9 0 1 0 0 0 1 0 0 0 1 12.711 -14.671 -0.342 2 0.5 1
9 0 1 0 0 0 1 0 0 0 1 3.710999 -7.171 -0.842 2 1 0.5
9 0 1 0 0 0 1 0 0 0 1 -20.289 -9.171 -0.342 1 1 1
9 0 1 0 0 0 1 0 0 0 1 10.711 -4.671 0.158 1 0.5 1.5
9 0 1 0 0 0 1 0 0 0 1 8.210999 -11.671 -0.342 1.5 0.5 1
9 0 1 0 0 0 1 0 0 0 1 6.710999 -6.671 0.158 1 0.5 1.5
9 0 1 0 0 0 1 0 0 0 1 -3.789001 -7.171 -0.842 1.5 1 0.5
9 0 1 0 0 0 1 0 0 0 1 -6.289001 -6.671 0.158 1 0.5 1.5
9 0 1 0 0 0 1 0 0 0 1 -8.289001 -5.671 0.158 1 0.5 1.5
9 0 1 0 0 0 1 0 0 0 1 -8.789001 -11.671 -0.342 1.5 0.5 1
9 0 1 0 0 0 1 0 0 0 1 -10.289 -4.671 0.158 1 0.5 1.5
9 0 1 0 0 0 1 0 0 0 1 -11.789 -15.671 -0.342 1.5 0.5 1
9 0 1 0 0 0 1 0 0 0 1 -13.789 -9.671 -0.342 1.5 0.5 1
9 0 1 0 0 0 1 0 0 0 1 -16.789 -12.671 -0.342 1.5 0.5 1
9 0 1 0 0 0 1 0 0 0 1 11.711 -3.671 -0.342 1 0.5 1
9 0 1 0 0 0 1 0 0 0 1 11.711 -15.671 -0.342 1 0.5 1
9 0 1 0 0 0 1 0 0 0 1 -17.289 -6.671 -0.342 1 0.5 1
9 0 1 0 0 0 1 0 0 0 1 13.211 -2.671 0.158 0.5 0.5 1.5
9 0 1 0 0 0 1 0 0 0 1 4.210999 -6.671 1.158 1.5 0.5 0.5
9 0 1 0 0 0 1 0 0 0 1 -3.789001 -6.671 1.158 1.5 0.5 0.5
9 0 1 0 0 0 1 0 0 0 1 -11.789 -3.671 0.158 0.5 0.5 1.5
9 0 1 0 0 0 1 0 0 0 1 -12.789 -2.671 0.158 0.5 0.5 1.5
