9 0 1 0 0 0 1 0 0 0 1 -7 -0.25 -0.75 5 2.5 1.5
9 0 1 0 0 0 1 0 0 0 1 3.5 -0.25 0.25 2.5 1.5 1.5
9 0 1 0 0 0 1 0 0 0 1 -6.5 0.25 1.25 4.5 2 0.5
9 0 1 0 0 0 1 0 0 0 1 -15 -0.25 -2.25 3 1.5 1
9 0 1 0 0 0 1 0 0 0 1 -7 0.25 -2.75 5 1 0.5
9 0 1 0 0 0 1 0 0 0 1 -18.5 0.25 -4.25 2.5 1 1
9 0 1 0 0 0 1 0 0 0 1 -6.5 2.75 -0.25 4.5 0.5 1
9 0 1 0 0 0 1 0 0 0 1 -4.5 -0.25 2.25 2.5 1.5 0.5
9 0 1 0 0 0 1 0 0 0 1 -13 -0.25 -0.25 1 1.5 1
9 0 1 0 0 0 1 0 0 0 1 3.5 1.75 -0.25 2.5 0.5 1
9 0 1 0 0 0 1 0 0 0 1 3.5 0.25 -1.75 2.5 1 0.5
9 0 1 0 0 0 1 0 0 0 1 -21 0.25 -5.75 2 1 0.5
9 0 1 0 0 0 1 0 0 0 1 -23 0.25 -7.25 1 1 1
9 0 1 0 0 0 1 0 0 0 1 -5 -2.25 1.25 3 0.5 0.5
9 0 1 0 0 0 1 0 0 0 1 -13.5 1.75 -1.25 1.5 0.5 1
9 0 1 0 0 0 1 0 0 0 1 -15.5 0.25 -0.75 1.5 1 0.5
9 0 1 0 0 0 1 0 0 0 1 -18.5 -1.25 -4.25 1.5 0.5 1
9 0 1 0 0 0 1 0 0 0 1 -4 2.75 1.25 2 0.5 0.5
9 0 1 0 0 0 1 0 0 0 1 -8 0.25 2.25 1 1 0.5
9 0 1 0 0 0 1 0 0 0 1 -10 -1.25 -2.75 2 0.5 0.5
9 0 1 0 0 0 1 0 0 0 1 -12 2.75 -1.25 1 0.5 1
9 0 1 0 0 0 1 0 0 0 1 -13 -2.25 -1.25 1 0.5 1
9 0 1 0 0 0 1 0 0 0 1 -15 0.25 -3.75 1 1 0.5
9 0 1 0 0 0 1 0 0 0 1 -16 1.75 -2.75 2 0.5 0.5
9 0 1 0 0 0 1 0 0 0 1 -16 -2.25 -2.75 2 0.5 0.5
9 0 1 0 0 0 1 0 0 0 1 -18.5 0.25 -2.25 0.5 1 1
9 0 1 0 0 0 1 0 0 0 1 -25 -0.25 -8.25 1 0.5 1
9 0 1 0 0 0 1 0 0 0 1 -17.5 1.75 -3.75 1.5 0.5 0.5
9 0 1 0 0 0 1 0 0 0 1 -27.5 -0.25 -9.75 1.5 0.5 0.5
