9 0 1 0 0 0 1 0 0 0 1 1.405909 20.15529 -14.51489 0.5 4.5 3.5
9 0 1 0 0 0 1 0 0 0 1 0.4059086 20.15529 -27.51489 1.5 1.5 2.5
9 0 1 0 0 0 1 0 0 0 1 -0.09409142 8.655294 -8.014887 1 2 2
9 0 1 0 0 0 1 0 0 0 1 0.4059086 0.1552949 -5.514887 2.5 1.5 0.5
9 0 1 0 0 0 1 0 0 0 1 1.405909 20.15529 -19.01489 0.5 2.5 1
9 0 1 0 0 0 1 0 0 0 1 1.405909 20.15529 -10.01489 0.5 2.5 1
9 0 1 0 0 0 1 0 0 0 1 -0.09409142 18.15529 -27.51489 1 0.5 2.5
9 0 1 0 0 0 1 0 0 0 1 -0.09409142 10.15529 -5.514887 1 2.5 0.5
9 0 1 0 0 0 1 0 0 0 1 -1.594091 19.65529 -27.51489 0.5 1 2.5
9 0 1 0 0 0 1 0 0 0 1 -5.594091 20.15529 -40.01488 0.5 2.5 1
9 0 1 0 0 0 1 0 0 0 1 -0.09409142 8.655294 -11.01489 1 1 1
9 0 1 0 0 0 1 0 0 0 1 -0.09409142 13.15529 -5.014887 2 0.5 1
9 0 1 0 0 0 1 0 0 0 1 -0.09409142 6.155295 -8.514887 1 0.5 1.5
9 0 1 0 0 0 1 0 0 0 1 1.405909 15.15529 -14.51489 0.5 0.5 2.5
9 0 1 0 0 0 1 0 0 0 1 1.405909 25.15529 -15.01489 0.5 0.5 2
9 0 1 0 0 0 1 0 0 0 1 -0.09409142 11.65529 -6.514887 1 1 0.5
9 0 1 0 0 0 1 0 0 0 1 -0.09409142 8.655294 -4.514887 1 1 0.5
9 0 1 0 0 0 1 0 0 0 1 -0.09409142 7.155295 -10.51489 2 0.5 0.5
