9 0 1 0 0 0 1 0 0 0 1 0.25 5.584 14.283 4.5 4.5 0.5
9 0 1 0 0 0 1 0 0 0 1 14.25 4.584 0.2830009 0.5 3.5 2.5
9 0 1 0 0 0 1 0 0 0 1 -14.75 3.584 0.2830009 0.5 2.5 2.5
9 0 1 0 0 0 1 0 0 0 1 0.25 20.084 -14.717 5.5 1 0.5
9 0 1 0 0 0 1 0 0 0 1 -13.75 15.584 -6.716999 0.5 1.5 2.5
9 0 1 0 0 0 1 0 0 0 1 13.25 15.584 -7.216999 0.5 1.5 2
9 0 1 0 0 0 1 0 0 0 1 11.75 17.084 -10.717 1 1 1.5
9 0 1 0 0 0 1 0 0 0 1 8.25 19.084 -12.717 1.5 2 0.5
9 0 1 0 0 0 1 0 0 0 1 -11.25 17.584 -11.217 1 1.5 1
9 0 1 0 0 0 1 0 0 0 1 5.25 4.584 13.283 0.5 5.5 0.5
9 0 1 0 0 0 1 0 0 0 1 0.25 5.584 -14.717 5.5 0.5 0.5
9 0 1 0 0 0 1 0 0 0 1 6.25 19.584 -13.717 1.5 1.5 0.5
9 0 1 0 0 0 1 0 0 0 1 -12.75 16.584 -8.716999 0.5 1.5 1.5
9 0 1 0 0 0 1 0 0 0 1 9.75 18.084 -11.717 1 2 0.5
9 0 1 0 0 0 1 0 0 0 1 -4.75 3.084 13.783 0.5 2 1
9 0 1 0 0 0 1 0 0 0 1 -6.25 19.084 -13.717 1 2 0.5
9 0 1 0 0 0 1 0 0 0 1 -8.25 19.084 -12.717 1 2 0.5
9 0 1 0 0 0 1 0 0 0 1 0.25 0.5839996 14.283 3.5 0.5 0.5
9 0 1 0 0 0 1 0 0 0 1 0.25 6.584 -15.217 1.5 0.5 1
9 0 1 0 0 0 1 0 0 0 1 -1.25 20.584 -15.717 3 0.5 0.5
9 0 1 0 0 0 1 0 0 0 1 14.25 3.584 -2.716999 0.5 2.5 0.5
9 0 1 0 0 0 1 0 0 0 1 -9.75 18.584 -11.717 0.5 2.5 0.5
9 0 1 0 0 0 1 0 0 0 1 14.25 9.084 0.7830009 0.5 1 1
9 0 1 0 0 0 1 0 0 0 1 14.25 0.5839996 -0.2169991 0.5 0.5 2
9 0 1 0 0 0 1 0 0 0 1 12.25 16.084 -8.716999 0.5 2 0.5
9 0 1 0 0 0 1 0 0 0 1 9.25 2.084 11.283 0.5 2 0.5
9 0 1 0 0 0 1 0 0 0 1 8.25 3.084 12.283 0.5 2 0.5
9 0 1 0 0 0 1 0 0 0 1 0.75 18.084 -14.717 1 1 0.5
9 0 1 0 0 0 1 0 0 0 1 -5.25 0.08399963 13.283 1 1 0.5
9 0 1 0 0 0 1 0 0 0 1 -11.75 17.084 -9.716999 0.5 2 0.5
9 0 1 0 0 0 1 0 0 0 1 -13.75 13.084 -5.216999 0.5 1 1
9 0 1 0 0 0 1 0 0 0 1 14.25 3.584 3.283001 0.5 1.5 0.5
9 0 1 0 0 0 1 0 0 0 1 11.25 18.584 -10.717 0.5 0.5 1.5
9 0 1 0 0 0 1 0 0 0 1 10.25 18.084 -10.717 0.5 2 0.5
9 0 1 0 0 0 1 0 0 0 1 12.25 15.584 -9.716999 1.5 0.5 0.5
9 0 1 0 0 0 1 0 0 0 1 0.25 4.584 -14.717 1.5 0.5 0.5
9 0 1 0 0 0 1 0 0 0 1 -14.75 6.584 0.2830009 0.5 0.5 1.5
9 0 1 0 0 0 1 0 0 0 1 -14.75 3.584 -2.716999 0.5 1.5 0.5
9 0 1 0 0 0 1 0 0 0 1 -14.75 0.5839996 0.2830009 0.5 0.5 1.5
