9 0 1 0 0 0 1 0 0 0 1 -5.743 -9.5 -26.5 2.5 3 5
9 0 1 0 0 0 1 0 0 0 1 25.757 -9.5 -27.5 2 3 6
9 0 1 0 0 0 1 0 0 0 1 28.257 -4 -12.5 0.5 2.5 21
9 0 1 0 0 0 1 0 0 0 1 9.757 -4 -28 18 2.5 0.5
9 0 1 0 0 0 1 0 0 0 1 9.757 -4 8 18 2.5 0.5
9 0 1 0 0 0 1 0 0 0 1 -5.243 -16.5 -24 2 4 2.5
9 0 1 0 0 0 1 0 0 0 1 25.257 -17.5 -24 1.5 5 2.5
9 0 1 0 0 0 1 0 0 0 1 29.757 -9.5 -24 2 3 2.5
9 0 1 0 0 0 1 0 0 0 1 -9.743 -9.5 -24 1.5 3 2.5
9 0 1 0 0 0 1 0 0 0 1 10.257 -8.5 -45 9.5 2 0.5
9 0 1 0 0 0 1 0 0 0 1 23.257 -8.5 -30.5 0.5 2 8
9 0 1 0 0 0 1 0 0 0 1 -4.743 -9.5 -33 1.5 3 1.5
9 0 1 0 0 0 1 0 0 0 1 -2.743 -8 -31.5 0.5 1.5 8
9 0 1 0 0 0 1 0 0 0 1 23.257 -16.5 -24 0.5 6 1.5
9 0 1 0 0 0 1 0 0 0 1 9.757 -7.5 -46 9 1 0.5
9 0 1 0 0 0 1 0 0 0 1 20.257 -10 0 3.5 0.5 2.5
9 0 1 0 0 0 1 0 0 0 1 0.257 -10 0 3.5 0.5 2.5
9 0 1 0 0 0 1 0 0 0 1 27.257 -4 -31.5 0.5 2.5 3
9 0 1 0 0 0 1 0 0 0 1 18.257 -9 -43.5 1.5 2.5 1
9 0 1 0 0 0 1 0 0 0 1 -4.743 -21.5 -24 1.5 1 2.5
9 0 1 0 0 0 1 0 0 0 1 -7.243 -5 -31 1 1.5 2.5
9 0 1 0 0 0 1 0 0 0 1 27.257 -15 -24 0.5 2.5 2.5
9 0 1 0 0 0 1 0 0 0 1 3.257 -9 -44 2.5 2.5 0.5
9 0 1 0 0 0 1 0 0 0 1 -8.243 -13.5 -24 1 1 2.5
9 0 1 0 0 0 1 0 0 0 1 25.257 -9.5 -34 1.5 3 0.5
9 0 1 0 0 0 1 0 0 0 1 24.257 -14 -29.5 0.5 1.5 3
9 0 1 0 0 0 1 0 0 0 1 28.257 -8.5 -28.5 0.5 2 2
9 0 1 0 0 0 1 0 0 0 1 1.757 -8.5 -43 2 2 0.5
9 0 1 0 0 0 1 0 0 0 1 22.257 -9 -38 0.5 2.5 1.5
9 0 1 0 0 0 1 0 0 0 1 -1.743 -9 -39 0.5 2.5 1.5
9 0 1 0 0 0 1 0 0 0 1 -2.743 -16 -24 0.5 6.5 0.5
9 0 1 0 0 0 1 0 0 0 1 30.757 -6 -25 2 0.5 1.5
9 0 1 0 0 0 1 0 0 0 1 23.257 -11 -31.5 0.5 0.5 6
9 0 1 0 0 0 1 0 0 0 1 21.257 -8.5 -40 0.5 2 1.5
9 0 1 0 0 0 1 0 0 0 1 19.757 -8 -41.5 1 1.5 1
9 0 1 0 0 0 1 0 0 0 1 15.257 -8.5 -44 1.5 2 0.5
9 0 1 0 0 0 1 0 0 0 1 15.757 -11.5 -45 3 1 0.5
9 0 1 0 0 0 1 0 0 0 1 11.757 -10 -46 2 1.5 0.5
9 0 1 0 0 0 1 0 0 0 1 -3.743 -8.5 -36 0.5 2 1.5
9 0 1 0 0 0 1 0 0 0 1 -6.743 -9.5 -32.5 0.5 3 1
9 0 1 0 0 0 1 0 0 0 1 -7.743 -2.5 -31.5 0.5 1 3
9 0 1 0 0 0 1 0 0 0 1 -10.243 -6 -25 2 0.5 1.5
9 0 1 0 0 0 1 0 0 0 1 28.757 -13 -24 1 0.5 2.5
9 0 1 0 0 0 1 0 0 0 1 0.757 -9 -42 1 2.5 0.5
9 0 1 0 0 0 1 0 0 0 1 -0.243 -9 -41 1 2.5 0.5
9 0 1 0 0 0 1 0 0 0 1 -8.743 -6.5 -29 0.5 1 2.5
9 0 1 0 0 0 1 0 0 0 1 -2.743 -10.5 -36.5 0.5 1 2
9 0 1 0 0 0 1 0 0 0 1 -2.743 -10.5 -26.5 0.5 1 2
9 0 1 0 0 0 1 0 0 0 1 -8.743 -1 -33 0.5 3.5 0.5
9 0 1 0 0 0 1 0 0 0 1 24.257 -8 -35.5 0.5 1.5 1
9 0 1 0 0 0 1 0 0 0 1 20.757 13 -49 1 1.5 0.5
9 0 1 0 0 0 1 0 0 0 1 3.257 -11.5 -45 1.5 1 0.5
9 0 1 0 0 0 1 0 0 0 1 -0.243 16 -50 1 1.5 0.5
9 0 1 0 0 0 1 0 0 0 1 -0.243 11 -49 1 1.5 0.5
9 0 1 0 0 0 1 0 0 0 1 -1.243 19 -50 1 1.5 0.5
9 0 1 0 0 0 1 0 0 0 1 -4.743 -13 -29.5 0.5 0.5 3
9 0 1 0 0 0 1 0 0 0 1 30.257 11 -34 0.5 2.5 0.5
9 0 1 0 0 0 1 0 0 0 1 29.257 5 -34 0.5 2.5 0.5
9 0 1 0 0 0 1 0 0 0 1 29.257 1 -33 0.5 2.5 0.5
9 0 1 0 0 0 1 0 0 0 1 28.257 -14 -24 0.5 0.5 2.5
9 0 1 0 0 0 1 0 0 0 1 21.257 10 -48 0.5 2.5 0.5
9 0 1 0 0 0 1 0 0 0 1 19.257 4 -48 0.5 2.5 0.5
9 0 1 0 0 0 1 0 0 0 1 19.257 -1 -47 0.5 2.5 0.5
9 0 1 0 0 0 1 0 0 0 1 20.257 -10 -3 2.5 0.5 0.5
9 0 1 0 0 0 1 0 0 0 1 20.257 -10 3 2.5 0.5 0.5
9 0 1 0 0 0 1 0 0 0 1 10.257 -7 -47 2.5 0.5 0.5
9 0 1 0 0 0 1 0 0 0 1 0.257 5 -48 0.5 2.5 0.5
9 0 1 0 0 0 1 0 0 0 1 -0.743 -9 -40 0.5 2.5 0.5
9 0 1 0 0 0 1 0 0 0 1 -1.743 16 -49 0.5 2.5 0.5
9 0 1 0 0 0 1 0 0 0 1 0.257 -10 -3 2.5 0.5 0.5
9 0 1 0 0 0 1 0 0 0 1 0.257 -10 3 2.5 0.5 0.5
9 0 1 0 0 0 1 0 0 0 1 -2.743 -19 -23 0.5 2.5 0.5
9 0 1 0 0 0 1 0 0 0 1 -6.743 -6 -34 0.5 2.5 0.5
9 0 1 0 0 0 1 0 0 0 1 -7.743 -9 -32 0.5 2.5 0.5
9 0 1 0 0 0 1 0 0 0 1 -7.743 -15 -24 0.5 0.5 2.5
9 0 1 0 0 0 1 0 0 0 1 -9.743 -13 -24 0.5 0.5 2.5
9 0 1 0 0 0 1 0 0 0 1 -11.743 -7 -24 0.5 0.5 2.5
9 0 1 0 0 0 1 0 0 0 1 28.257 1.5 -34 0.5 2 0.5
9 0 1 0 0 0 1 0 0 0 1 28.257 -7.5 -31.5 0.5 1 1
9 0 1 0 0 0 1 0 0 0 1 20.257 14.5 -50 0.5 2 0.5
9 0 1 0 0 0 1 0 0 0 1 19.757 9.5 -49 1 1 0.5
9 0 1 0 0 0 1 0 0 0 1 18.257 -8.5 -42 0.5 2 0.5
9 0 1 0 0 0 1 0 0 0 1 10.757 -11 -45 2 0.5 0.5
9 0 1 0 0 0 1 0 0 0 1 1.257 -2.5 -47 0.5 2 0.5
9 0 1 0 0 0 1 0 0 0 1 0.257 0.5 -47 0.5 2 0.5
9 0 1 0 0 0 1 0 0 0 1 -3.743 -11.5 -35.5 0.5 1 1
9 0 1 0 0 0 1 0 0 0 1 -8.743 4.5 -34 0.5 2 0.5
9 0 1 0 0 0 1 0 0 0 1 -9.743 8.5 -34 0.5 2 0.5
9 0 1 0 0 0 1 0 0 0 1 30.257 5 -33 0.5 1.5 0.5
9 0 1 0 0 0 1 0 0 0 1 25.257 -13 -28 0.5 0.5 1.5
9 0 1 0 0 0 1 0 0 0 1 24.257 -11 -35 0.5 1.5 0.5
9 0 1 0 0 0 1 0 0 0 1 23.257 -12 -36 0.5 0.5 1.5
9 0 1 0 0 0 1 0 0 0 1 22.257 -8 -40 0.5 1.5 0.5
9 0 1 0 0 0 1 0 0 0 1 20.257 8 -48 0.5 1.5 0.5
9 0 1 0 0 0 1 0 0 0 1 19.257 -5 -46 0.5 1.5 0.5
9 0 1 0 0 0 1 0 0 0 1 18.257 -3 -47 0.5 1.5 0.5
9 0 1 0 0 0 1 0 0 0 1 16.257 -10 0 0.5 0.5 1.5
9 0 1 0 0 0 1 0 0 0 1 17.257 -12 -44 1.5 0.5 0.5
9 0 1 0 0 0 1 0 0 0 1 11.257 -12 -46 1.5 0.5 0.5
9 0 1 0 0 0 1 0 0 0 1 1.257 3 -48 0.5 1.5 0.5
9 0 1 0 0 0 1 0 0 0 1 2.257 -12 -44 1.5 0.5 0.5
9 0 1 0 0 0 1 0 0 0 1 0.257 -8 -44 0.5 1.5 0.5
9 0 1 0 0 0 1 0 0 0 1 -0.743 20 -51 0.5 1.5 0.5
9 0 1 0 0 0 1 0 0 0 1 -0.743 14 -49 0.5 1.5 0.5
9 0 1 0 0 0 1 0 0 0 1 -0.743 4 -47 0.5 1.5 0.5
9 0 1 0 0 0 1 0 0 0 1 -1.743 12 -48 0.5 1.5 0.5
9 0 1 0 0 0 1 0 0 0 1 -1.743 -8 -41 0.5 1.5 0.5
9 0 1 0 0 0 1 0 0 0 1 -2.743 20 -49 0.5 1.5 0.5
9 0 1 0 0 0 1 0 0 0 1 -3.743 -10 0 0.5 0.5 1.5
9 0 1 0 0 0 1 0 0 0 1 -4.743 -8 -35 0.5 1.5 0.5
9 0 1 0 0 0 1 0 0 0 1 -8.743 -5 -31 0.5 0.5 1.5
9 0 1 0 0 0 1 0 0 0 1 -9.743 4 -33 0.5 1.5 0.5
9 0 1 0 0 0 1 0 0 0 1 -10.743 13 -34 0.5 1.5 0.5
