9 0 -1.192093E-07 0 -1 0 1 0 1 0 -1.192093E-07 30 -42 -90 3.35 0.5 3.35
9 0 -1.192093E-07 0 -1 0 1 0 1 0 -1.192093E-07 10 -42 -90 3.35 0.5 3.35
9 0 -1.192093E-07 0 -1 0 1 0 1 0 -1.192093E-07 -10 -42 -90 3.35 0.5 3.35
9 0 -1.192093E-07 0 -1 0 1 0 1 0 -1.192093E-07 -30 -42 -90 3.35 0.5 3.35
9 0 1 0 0 0 1 0 0 0 1 -0.5 2 -5.699997 39 0.5 64
9 0 1 0 0 0 1 0 0 0 1 0 -38 -90.2 38.5 0.5 8.5
9 0 1 0 0 0 1 0 0 0 1 -0.5 -35.5 -81.7 39 2 1
9 0 1 0 0 0 1 0 0 0 1 38 4.5 -4.699997 0.5 2 64
9 0 1 0 0 0 1 0 0 0 1 -38 4.5 0.3000031 0.5 2 59
9 0 1 0 0 0 1 0 0 0 1 0 -35.5 -98.2 39.5 2 0.5
9 0 1 0 0 0 1 0 0 0 1 0 4.5 -58.2 37.5 2 0.5
9 0 1 0 0 0 1 0 0 0 1 0 4.5 57.8 37.5 2 0.5
9 0 1 0 0 0 1 0 0 0 1 39 2.5 -3.699997 0.5 1 66
9 0 1 0 0 0 1 0 0 0 1 48 -38 -9.699997 0.5 0.5 69
9 0 1 0 0 0 1 0 0 0 1 -48 -38 -9.699997 0.5 0.5 69
9 0 1 0 0 0 1 0 0 0 1 -39 3 1.800003 0.5 0.5 60.5
9 0 1 0 0 0 1 0 0 0 1 0 -34 -80.2 39.5 0.5 0.5
9 0 1 0 0 0 1 0 0 0 1 38 -35.5 -90.2 0.5 2 7.5
9 0 1 0 0 0 1 0 0 0 1 -38 -35.5 -90.2 0.5 2 7.5
9 0 1 0 0 0 1 0 0 0 1 19.5 4 60.8 1 2.5 2.5
9 0 1 0 0 0 1 0 0 0 1 -19.5 4 60.8 1 2.5 2.5
9 0 1 0 0 0 1 0 0 0 1 -38 4.5 -63.7 0.5 2 5
9 0 1 0 0 0 1 0 0 0 1 39 4 3.300003 0.5 0.5 18
9 0 1 0 0 0 1 0 0 0 1 -39 4 -3.699997 0.5 0.5 18
9 0 1 0 0 0 1 0 0 0 1 39 4 -35.7 0.5 0.5 16
9 0 1 0 0 0 1 0 0 0 1 -39 4 -42.7 0.5 0.5 16
9 0 1 0 0 0 1 0 0 0 1 -39 4 35.3 0.5 0.5 16
9 0 1 0 0 0 1 0 0 0 1 40 -36 -81.7 1.5 1.5 1
9 0 1 0 0 0 1 0 0 0 1 47 -33 -57.7 0.5 3.5 1
9 0 1 0 0 0 1 0 0 0 1 47 -33 -20.7 0.5 3.5 1
9 0 1 0 0 0 1 0 0 0 1 47 -33 20.3 0.5 3.5 1
9 0 1 0 0 0 1 0 0 0 1 46 -27 -57.7 0.5 3.5 1
9 0 1 0 0 0 1 0 0 0 1 46 -27 -20.7 0.5 3.5 1
9 0 1 0 0 0 1 0 0 0 1 46 -27 20.3 0.5 3.5 1
9 0 1 0 0 0 1 0 0 0 1 46 -27 57.3 0.5 3.5 1
9 0 1 0 0 0 1 0 0 0 1 -46 -27 -57.7 0.5 3.5 1
9 0 1 0 0 0 1 0 0 0 1 -46 -27 -20.7 0.5 3.5 1
9 0 1 0 0 0 1 0 0 0 1 -46 -27 20.3 0.5 3.5 1
9 0 1 0 0 0 1 0 0 0 1 -46 -27 57.3 0.5 3.5 1
9 0 1 0 0 0 1 0 0 0 1 -47 -33 -57.7 0.5 3.5 1
9 0 1 0 0 0 1 0 0 0 1 -47 -33 -20.7 0.5 3.5 1
9 0 1 0 0 0 1 0 0 0 1 -47 -33 20.3 0.5 3.5 1
9 0 1 0 0 0 1 0 0 0 1 -47 -33 57.3 0.5 3.5 1
9 0 1 0 0 0 1 0 0 0 1 47 -32.5 57.3 0.5 3 1
9 0 1 0 0 0 1 0 0 0 1 45 -21.5 -57.7 0.5 3 1
9 0 1 0 0 0 1 0 0 0 1 45 -21.5 -20.7 0.5 3 1
9 0 1 0 0 0 1 0 0 0 1 45 -21.5 20.3 0.5 3 1
9 0 1 0 0 0 1 0 0 0 1 45 -21.5 57.3 0.5 3 1
9 0 1 0 0 0 1 0 0 0 1 44 -15.5 -57.7 0.5 3 1
9 0 1 0 0 0 1 0 0 0 1 44 -15.5 -20.7 0.5 3 1
9 0 1 0 0 0 1 0 0 0 1 44 -15.5 20.3 0.5 3 1
9 0 1 0 0 0 1 0 0 0 1 44 -15.5 57.3 0.5 3 1
9 0 1 0 0 0 1 0 0 0 1 43 -10.5 20.3 0.5 3 1
9 0 1 0 0 0 1 0 0 0 1 43 -10.5 57.3 0.5 3 1
9 0 1 0 0 0 1 0 0 0 1 42 -4.5 -57.7 0.5 3 1
9 0 1 0 0 0 1 0 0 0 1 42 -4.5 -20.7 0.5 3 1
9 0 1 0 0 0 1 0 0 0 1 42 -4.5 20.3 0.5 3 1
9 0 1 0 0 0 1 0 0 0 1 42 -4.5 57.3 0.5 3 1
9 0 1 0 0 0 1 0 0 0 1 39.5 5 -57.7 1 1.5 1
9 0 1 0 0 0 1 0 0 0 1 39.5 5 57.3 1 1.5 1
9 0 1 0 0 0 1 0 0 0 1 19.5 3 64.3 1 1.5 1
9 0 1 0 0 0 1 0 0 0 1 19.5 1 66.3 1 1.5 1
9 0 1 0 0 0 1 0 0 0 1 -19.5 3 64.3 1 1.5 1
9 0 1 0 0 0 1 0 0 0 1 -19.5 1 66.3 1 1.5 1
9 0 1 0 0 0 1 0 0 0 1 -39.5 5 57.3 1 1.5 1
9 0 1 0 0 0 1 0 0 0 1 -40.5 -36 -81.7 1 1.5 1
9 0 1 0 0 0 1 0 0 0 1 -42 -4.5 -57.7 0.5 3 1
9 0 1 0 0 0 1 0 0 0 1 -42 -4.5 -20.7 0.5 3 1
9 0 1 0 0 0 1 0 0 0 1 -42 -4.5 20.3 0.5 3 1
9 0 1 0 0 0 1 0 0 0 1 -42 -4.5 57.3 0.5 3 1
9 0 1 0 0 0 1 0 0 0 1 -43 -10.5 -57.7 0.5 3 1
9 0 1 0 0 0 1 0 0 0 1 -43 -10.5 -20.7 0.5 3 1
9 0 1 0 0 0 1 0 0 0 1 -44 -15.5 -57.7 0.5 3 1
9 0 1 0 0 0 1 0 0 0 1 -44 -15.5 -20.7 0.5 3 1
9 0 1 0 0 0 1 0 0 0 1 -44 -15.5 20.3 0.5 3 1
9 0 1 0 0 0 1 0 0 0 1 -44 -15.5 57.3 0.5 3 1
9 0 1 0 0 0 1 0 0 0 1 -45 -21.5 -57.7 0.5 3 1
9 0 1 0 0 0 1 0 0 0 1 -45 -21.5 -20.7 0.5 3 1
9 0 1 0 0 0 1 0 0 0 1 -45 -21.5 20.3 0.5 3 1
9 0 1 0 0 0 1 0 0 0 1 -45 -21.5 57.3 0.5 3 1
9 0 1 0 0 0 1 0 0 0 1 -39 3 -64.2 0.5 0.5 5.5
9 0 1 0 0 0 1 0 0 0 1 43 -10 -57.7 0.5 2.5 1
9 0 1 0 0 0 1 0 0 0 1 43 -10 -20.7 0.5 2.5 1
9 0 1 0 0 0 1 0 0 0 1 41 1 -57.7 0.5 2.5 1
9 0 1 0 0 0 1 0 0 0 1 41 1 -20.7 0.5 2.5 1
9 0 1 0 0 0 1 0 0 0 1 41 1 20.3 0.5 2.5 1
9 0 1 0 0 0 1 0 0 0 1 41 1 57.3 0.5 2.5 1
9 0 1 0 0 0 1 0 0 0 1 40 4 -20.7 0.5 2.5 1
9 0 1 0 0 0 1 0 0 0 1 40 4 20.3 0.5 2.5 1
9 0 1 0 0 0 1 0 0 0 1 42 -37.5 -98.2 2.5 1 0.5
9 0 1 0 0 0 1 0 0 0 1 -38.5 2 60.8 1 0.5 2.5
9 0 1 0 0 0 1 0 0 0 1 -40 4 -57.7 0.5 2.5 1
9 0 1 0 0 0 1 0 0 0 1 -40 4 -20.7 0.5 2.5 1
9 0 1 0 0 0 1 0 0 0 1 -40 4 20.3 0.5 2.5 1
9 0 1 0 0 0 1 0 0 0 1 -41 1 -57.7 0.5 2.5 1
9 0 1 0 0 0 1 0 0 0 1 -41 1 -20.7 0.5 2.5 1
9 0 1 0 0 0 1 0 0 0 1 -41 1 20.3 0.5 2.5 1
9 0 1 0 0 0 1 0 0 0 1 -41 1 57.3 0.5 2.5 1
9 0 1 0 0 0 1 0 0 0 1 -43 -10 20.3 0.5 2.5 1
9 0 1 0 0 0 1 0 0 0 1 -43 -10 57.3 0.5 2.5 1
9 0 1 0 0 0 1 0 0 0 1 -42 -37.5 -98.2 2.5 1 0.5
9 0 1 0 0 0 1 0 0 0 1 20 -34 -90.2 1.5 0.5 1.5
9 0 1 0 0 0 1 0 0 0 1 0 -34 -90.2 1.5 0.5 1.5
9 0 1 0 0 0 1 0 0 0 1 -20 -34 -90.2 1.5 0.5 1.5
9 0 1 0 0 0 1 0 0 0 1 48 -36.5 58.3 0.5 1 2
9 0 1 0 0 0 1 0 0 0 1 19.5 -0.5 68.3 1 1 1
9 0 1 0 0 0 1 0 0 0 1 19.5 -2.5 70.3 1 1 1
9 0 1 0 0 0 1 0 0 0 1 19.5 -4.5 72.3 1 1 1
9 0 1 0 0 0 1 0 0 0 1 -19.5 -0.5 68.3 1 1 1
9 0 1 0 0 0 1 0 0 0 1 -19.5 -2.5 70.3 1 1 1
9 0 1 0 0 0 1 0 0 0 1 -42.5 -38 -82.2 4 0.5 0.5
9 0 1 0 0 0 1 0 0 0 1 -48 -36.5 58.3 0.5 1 2
9 0 1 0 0 0 1 0 0 0 1 48 -36 -57.7 0.5 1.5 1
9 0 1 0 0 0 1 0 0 0 1 48 -36 -20.7 0.5 1.5 1
9 0 1 0 0 0 1 0 0 0 1 48 -36 20.3 0.5 1.5 1
9 0 1 0 0 0 1 0 0 0 1 43 -37 -81.7 1.5 0.5 1
9 0 1 0 0 0 1 0 0 0 1 42 -38 -82.2 3.5 0.5 0.5
9 0 1 0 0 0 1 0 0 0 1 38 3 60.3 0.5 1.5 1
9 0 1 0 0 0 1 0 0 0 1 -43 -37 -81.7 1.5 0.5 1
9 0 1 0 0 0 1 0 0 0 1 -48 -36 -57.7 0.5 1.5 1
9 0 1 0 0 0 1 0 0 0 1 -48 -36 -20.7 0.5 1.5 1
9 0 1 0 0 0 1 0 0 0 1 -48 -36 20.3 0.5 1.5 1
9 0 1 0 0 0 1 0 0 0 1 40 2.5 -57.7 0.5 1 1
9 0 1 0 0 0 1 0 0 0 1 40 2.5 57.3 0.5 1 1
9 0 1 0 0 0 1 0 0 0 1 40.5 -35.5 -98.2 1 1 0.5
9 0 1 0 0 0 1 0 0 0 1 39 5.5 -20.7 0.5 1 1
9 0 1 0 0 0 1 0 0 0 1 39 5.5 20.3 0.5 1 1
9 0 1 0 0 0 1 0 0 0 1 19.5 -5.5 73.8 1 1 0.5
9 0 1 0 0 0 1 0 0 0 1 19.5 -6.5 74.8 1 1 0.5
9 0 1 0 0 0 1 0 0 0 1 19.5 -7.5 75.8 1 1 0.5
9 0 1 0 0 0 1 0 0 0 1 19.5 -8.5 76.8 1 1 0.5
9 0 1 0 0 0 1 0 0 0 1 -19.5 -3.5 71.8 1 1 0.5
9 0 1 0 0 0 1 0 0 0 1 -19.5 -4.5 72.8 1 1 0.5
9 0 1 0 0 0 1 0 0 0 1 -19.5 -5.5 73.8 1 1 0.5
9 0 1 0 0 0 1 0 0 0 1 -19.5 -6.5 74.8 1 1 0.5
9 0 1 0 0 0 1 0 0 0 1 -19.5 -7.5 75.8 1 1 0.5
9 0 1 0 0 0 1 0 0 0 1 -38 3.5 60.3 0.5 1 1
9 0 1 0 0 0 1 0 0 0 1 -39 5.5 -57.7 0.5 1 1
9 0 1 0 0 0 1 0 0 0 1 -39 5.5 -20.7 0.5 1 1
9 0 1 0 0 0 1 0 0 0 1 -39 5.5 20.3 0.5 1 1
9 0 1 0 0 0 1 0 0 0 1 -37.5 -1 -70.2 2 0.5 0.5
9 0 1 0 0 0 1 0 0 0 1 -40 2.5 57.3 0.5 1 1
9 0 1 0 0 0 1 0 0 0 1 -40.5 -35.5 -98.2 1 1 0.5
9 0 1 0 0 0 1 0 0 0 1 -39 4 59.8 0.5 0.5 1.5
