9 0 1 0 0 0 1 0 0 0 1 14 13 0.3040009 1.5 14.5 1.5
9 0 1 0 0 0 1 0 0 0 1 14 33.5 -0.1959991 2.5 3 2
9 0 1 0 0 0 1 0 0 0 1 7 0 0.3040009 5.5 1.5 1.5
9 0 1 0 0 0 1 0 0 0 1 20.5 35.5 -0.1959991 4 1 1
9 0 1 0 0 0 1 0 0 0 1 16 12.5 0.3040009 0.5 15 0.5
9 0 1 0 0 0 1 0 0 0 1 14 13.5 -1.695999 0.5 14 0.5
9 0 1 0 0 0 1 0 0 0 1 12 14.5 0.3040009 0.5 13 0.5
9 0 1 0 0 0 1 0 0 0 1 16.5 37 -0.1959991 5 0.5 1
9 0 1 0 0 0 1 0 0 0 1 14 33.5 -2.695999 1.5 3 0.5
9 0 1 0 0 0 1 0 0 0 1 14 33.5 2.304001 1.5 3 0.5
9 0 1 0 0 0 1 0 0 0 1 8.5 -2 0.3040009 7 0.5 0.5
9 0 1 0 0 0 1 0 0 0 1 11 36 1.304001 0.5 0.5 6.5
9 0 1 0 0 0 1 0 0 0 1 7.5 0 -1.695999 6 0.5 0.5
9 0 1 0 0 0 1 0 0 0 1 6.5 2 0.3040009 5 0.5 0.5
9 0 1 0 0 0 1 0 0 0 1 25.5 34.5 -0.1959991 1 1 1
9 0 1 0 0 0 1 0 0 0 1 10.5 35.5 -6.195999 1 1 1
9 0 1 0 0 0 1 0 0 0 1 9.5 35.5 7.804001 1 1 1
9 0 1 0 0 0 1 0 0 0 1 20 36 1.304001 3.5 0.5 0.5
9 0 1 0 0 0 1 0 0 0 1 12.5 37 -2.695999 1 0.5 1.5
9 0 1 0 0 0 1 0 0 0 1 14.5 37 1.304001 3 0.5 0.5
9 0 1 0 0 0 1 0 0 0 1 12.5 36 3.304001 1 1.5 0.5
9 0 1 0 0 0 1 0 0 0 1 11 37 4.304001 0.5 0.5 2.5
9 0 1 0 0 0 1 0 0 0 1 11 33 0.3040009 0.5 2.5 0.5
9 0 1 0 0 0 1 0 0 0 1 17 33.5 -0.1959991 0.5 1 1
9 0 1 0 0 0 1 0 0 0 1 12.5 36 -4.195999 1 0.5 1
9 0 1 0 0 0 1 0 0 0 1 9.5 36 -8.195999 1 0.5 1
9 0 1 0 0 0 1 0 0 0 1 9 34.5 -9.195999 0.5 1 1
9 0 1 0 0 0 1 0 0 0 1 8.5 35 9.804001 1 0.5 1
9 0 1 0 0 0 1 0 0 0 1 8 34.5 -10.196 0.5 1 1
9 0 1 0 0 0 1 0 0 0 1 18 36 -1.695999 1.5 0.5 0.5
9 0 1 0 0 0 1 0 0 0 1 15 37 -1.695999 1.5 0.5 0.5
9 0 1 0 0 0 1 0 0 0 1 13 37 2.304001 1.5 0.5 0.5
9 0 1 0 0 0 1 0 0 0 1 11 37 -3.695999 0.5 0.5 1.5
9 0 1 0 0 0 1 0 0 0 1 11 35 5.304001 0.5 0.5 1.5
9 0 1 0 0 0 1 0 0 0 1 10 36 5.304001 0.5 0.5 1.5
9 0 1 0 0 0 1 0 0 0 1 8 34 10.304 0.5 0.5 1.5
