9 0 -1.192093E-07 0 1 0 1 0 -1 0 -1.192093E-07 -10 -2 -10 3.35 0.5 3.35
9 0 -1.192093E-07 0 1 0 1 0 -1 0 -1.192093E-07 10 -2 -10 3.35 0.5 3.35
9 0 1 0 0 0 1 0 0 0 1 0 2 -50.5 21.5 0.5 49
9 0 1 0 0 0 1 0 0 0 1 78 58 -55 0.5 12.5 73.5
9 0 1 0 0 0 1 0 0 0 1 -78 58 -55 0.5 12.5 73.5
9 0 1 0 0 0 1 0 0 0 1 0 95 -262 18.5 23.5 0.5
9 0 1 0 0 0 1 0 0 0 1 62 45 10 0.5 25.5 8.5
9 0 1 0 0 0 1 0 0 0 1 -62 45 10 0.5 25.5 8.5
9 0 1 0 0 0 1 0 0 0 1 42 26.5 10 0.5 20 8.5
9 0 1 0 0 0 1 0 0 0 1 -42 26.5 10 0.5 20 8.5
9 0 1 0 0 0 1 0 0 0 1 0 2 10 24.5 0.5 6.5
9 0 1 0 0 0 1 0 0 0 1 52 32 2 9.5 14.5 0.5
9 0 1 0 0 0 1 0 0 0 1 52 32 18 9.5 14.5 0.5
9 0 1 0 0 0 1 0 0 0 1 -52 32 2 9.5 14.5 0.5
9 0 1 0 0 0 1 0 0 0 1 -52 32 18 9.5 14.5 0.5
9 0 1 0 0 0 1 0 0 0 1 78 65.5 -145 0.5 8 16.5
9 0 1 0 0 0 1 0 0 0 1 -78 65.5 -145 0.5 8 16.5
9 0 1 0 0 0 1 0 0 0 1 18 106 -272 0.5 12.5 9.5
9 0 1 0 0 0 1 0 0 0 1 -18 106 -272 0.5 12.5 9.5
9 0 1 0 0 0 1 0 0 0 1 69.5 54.5 18 7 16 0.5
9 0 1 0 0 0 1 0 0 0 1 -69.5 54.5 18 7 16 0.5
9 0 1 0 0 0 1 0 0 0 1 37 5 -57.5 1.5 0.5 42
9 0 1 0 0 0 1 0 0 0 1 -37 5 -57.5 1.5 0.5 42
9 0 1 0 0 0 1 0 0 0 1 0 21 18 41.5 1.5 0.5
9 0 1 0 0 0 1 0 0 0 1 78 44.5 -42 0.5 1 60.5
9 0 1 0 0 0 1 0 0 0 1 -78 44.5 -42 0.5 1 60.5
9 0 1 0 0 0 1 0 0 0 1 78 75.5 -172 0.5 6 9.5
9 0 1 0 0 0 1 0 0 0 1 -78 75.5 -172 0.5 6 9.5
9 0 1 0 0 0 1 0 0 0 1 35.5 14 2 6 8.5 0.5
9 0 1 0 0 0 1 0 0 0 1 -35.5 14 2 6 8.5 0.5
9 0 1 0 0 0 1 0 0 0 1 33 4 -39 1.5 0.5 31.5
9 0 1 0 0 0 1 0 0 0 1 -33 4 -39 1.5 0.5 31.5
9 0 1 0 0 0 1 0 0 0 1 35.5 12.5 18 6 7 0.5
9 0 1 0 0 0 1 0 0 0 1 -35.5 12.5 18 6 7 0.5
9 0 1 0 0 0 1 0 0 0 1 0 6 -139.5 19.5 0.5 2
9 0 1 0 0 0 1 0 0 0 1 0 5 -130.5 19.5 0.5 2
9 0 1 0 0 0 1 0 0 0 1 0 4 -120.5 19.5 0.5 2
9 0 1 0 0 0 1 0 0 0 1 0 3 -110.5 19.5 0.5 2
9 0 1 0 0 0 1 0 0 0 1 0 2 -101.5 19.5 0.5 2
9 0 1 0 0 0 1 0 0 0 1 40 6 -78 1.5 0.5 25.5
9 0 1 0 0 0 1 0 0 0 1 -40 6 -78 1.5 0.5 25.5
9 0 1 0 0 0 1 0 0 0 1 78 54.5 -138 0.5 3 9.5
9 0 1 0 0 0 1 0 0 0 1 23 2 -20.5 1.5 0.5 19
9 0 1 0 0 0 1 0 0 0 1 -22.5 2 -30 1 0.5 28.5
9 0 1 0 0 0 1 0 0 0 1 -78 54.5 -138 0.5 3 9.5
9 0 1 0 0 0 1 0 0 0 1 59.5 32.5 10 2 14 0.5
9 0 1 0 0 0 1 0 0 0 1 27.5 3 -49.5 1 0.5 28
9 0 1 0 0 0 1 0 0 0 1 -27.5 3 -49.5 1 0.5 28
9 0 1 0 0 0 1 0 0 0 1 -59.5 32.5 10 2 14 0.5
9 0 1 0 0 0 1 0 0 0 1 78 84.5 -187 0.5 5 5.5
9 0 1 0 0 0 1 0 0 0 1 18 88 -267.5 0.5 5.5 5
9 0 1 0 0 0 1 0 0 0 1 -18 88 -267.5 0.5 5.5 5
9 0 1 0 0 0 1 0 0 0 1 -78 84.5 -187 0.5 5 5.5
9 0 1 0 0 0 1 0 0 0 1 31.5 4 -83.5 2 0.5 13
9 0 1 0 0 0 1 0 0 0 1 -31.5 4 -83.5 2 0.5 13
9 0 1 0 0 0 1 0 0 0 1 61 18 -49 0.5 0.5 50.5
9 0 1 0 0 0 1 0 0 0 1 -61 18 -49 0.5 0.5 50.5
9 0 1 0 0 0 1 0 0 0 1 18 113.5 -286.5 0.5 5 5
9 0 1 0 0 0 1 0 0 0 1 -18 113.5 -286.5 0.5 5 5
9 0 1 0 0 0 1 0 0 0 1 66 32.5 18 3.5 6 0.5
9 0 1 0 0 0 1 0 0 0 1 -66 32.5 18 3.5 6 0.5
9 0 1 0 0 0 1 0 0 0 1 29 3 -9.5 1.5 0.5 12
9 0 1 0 0 0 1 0 0 0 1 39.5 14 10 2 8.5 0.5
9 0 1 0 0 0 1 0 0 0 1 -29.5 3 -14.5 1 0.5 17
9 0 1 0 0 0 1 0 0 0 1 -39.5 14 10 2 8.5 0.5
9 0 1 0 0 0 1 0 0 0 1 78 91.5 -197.5 0.5 4 4
9 0 1 0 0 0 1 0 0 0 1 46.5 13.5 18 4 4 0.5
9 0 1 0 0 0 1 0 0 0 1 -46.5 13.5 18 4 4 0.5
9 0 1 0 0 0 1 0 0 0 1 -78 91.5 -197.5 0.5 4 4
9 0 1 0 0 0 1 0 0 0 1 47 14 2 4.5 3.5 0.5
9 0 1 0 0 0 1 0 0 0 1 -47 14 2 4.5 3.5 0.5
9 0 1 0 0 0 1 0 0 0 1 -35 5 -74 0.5 0.5 30.5
9 0 1 0 0 0 1 0 0 0 1 78 67 -167.5 0.5 2.5 6
9 0 1 0 0 0 1 0 0 0 1 -78 67 -167.5 0.5 2.5 6
9 0 1 0 0 0 1 0 0 0 1 57 15 -27 0.5 0.5 29.5
9 0 1 0 0 0 1 0 0 0 1 -57 15 -27 0.5 0.5 29.5
9 0 1 0 0 0 1 0 0 0 1 35 5 -72.5 0.5 0.5 29
9 0 1 0 0 0 1 0 0 0 1 78 75 -153.5 0.5 1.5 9
9 0 1 0 0 0 1 0 0 0 1 -78 75 -153.5 0.5 1.5 9
9 0 1 0 0 0 1 0 0 0 1 26 3 -91 1.5 0.5 8.5
9 0 1 0 0 0 1 0 0 0 1 -26 3 -91 1.5 0.5 8.5
9 0 1 0 0 0 1 0 0 0 1 41 6 -28 0.5 0.5 24.5
9 0 1 0 0 0 1 0 0 0 1 -41 6 -28 0.5 0.5 24.5
9 0 1 0 0 0 1 0 0 0 1 22 2 -62.5 0.5 0.5 23
9 0 1 0 0 0 1 0 0 0 1 54 13 -18.5 0.5 0.5 21
9 0 1 0 0 0 1 0 0 0 1 -54 13 -18.5 0.5 0.5 21
9 0 1 0 0 0 1 0 0 0 1 25 3 10 1.5 0.5 6.5
9 0 1 0 0 0 1 0 0 0 1 15 3 10 1.5 0.5 6.5
9 0 1 0 0 0 1 0 0 0 1 5 3 10 1.5 0.5 6.5
9 0 1 0 0 0 1 0 0 0 1 -5 3 10 1.5 0.5 6.5
9 0 1 0 0 0 1 0 0 0 1 -15 3 10 1.5 0.5 6.5
9 0 1 0 0 0 1 0 0 0 1 -25 3 10 1.5 0.5 6.5
9 0 1 0 0 0 1 0 0 0 1 -24 2 -20.5 0.5 0.5 19
9 0 1 0 0 0 1 0 0 0 1 78 97.5 -205.5 0.5 3 3
9 0 1 0 0 0 1 0 0 0 1 37.5 5 -6.5 1 0.5 9
9 0 1 0 0 0 1 0 0 0 1 18 105.5 -284.5 0.5 3 3
9 0 1 0 0 0 1 0 0 0 1 -18 105.5 -284.5 0.5 3 3
9 0 1 0 0 0 1 0 0 0 1 -37.5 5 -6.5 1 0.5 9
9 0 1 0 0 0 1 0 0 0 1 -78 97.5 -205.5 0.5 3 3
9 0 1 0 0 0 1 0 0 0 1 43 7 -83.5 0.5 0.5 17
9 0 1 0 0 0 1 0 0 0 1 31 4 -53.5 0.5 0.5 17
9 0 1 0 0 0 1 0 0 0 1 -31 4 -53.5 0.5 0.5 17
9 0 1 0 0 0 1 0 0 0 1 -43 7 -83.5 0.5 0.5 17
9 0 1 0 0 0 1 0 0 0 1 78 83.5 -177.5 0.5 2 4
9 0 1 0 0 0 1 0 0 0 1 -78 83.5 -177.5 0.5 2 4
9 0 1 0 0 0 1 0 0 0 1 29 3 -36.5 0.5 0.5 15
9 0 1 0 0 0 1 0 0 0 1 77 56 18 0.5 14.5 0.5
9 0 1 0 0 0 1 0 0 0 1 -77 56 18 0.5 14.5 0.5
9 0 1 0 0 0 1 0 0 0 1 -34 5 -92.5 0.5 0.5 14
9 0 1 0 0 0 1 0 0 0 1 78 50 -133 0.5 1.5 4.5
9 0 1 0 0 0 1 0 0 0 1 20 21 10 1.5 1.5 1.5
9 0 1 0 0 0 1 0 0 0 1 0 21 10 1.5 1.5 1.5
9 0 1 0 0 0 1 0 0 0 1 -20 21 10 1.5 1.5 1.5
9 0 1 0 0 0 1 0 0 0 1 -22 2 -72 0.5 0.5 13.5
9 0 1 0 0 0 1 0 0 0 1 -78 50 -133 0.5 1.5 4.5
9 0 1 0 0 0 1 0 0 0 1 58 16 -10.5 0.5 0.5 13
9 0 1 0 0 0 1 0 0 0 1 34 5 -91.5 0.5 0.5 13
9 0 1 0 0 0 1 0 0 0 1 26 3 -69.5 0.5 0.5 13
9 0 1 0 0 0 1 0 0 0 1 -26 3 -69.5 0.5 0.5 13
9 0 1 0 0 0 1 0 0 0 1 -58 16 -10.5 0.5 0.5 13
9 0 1 0 0 0 1 0 0 0 1 78 77 -184 0.5 2.5 2.5
9 0 1 0 0 0 1 0 0 0 1 18 91 -275 0.5 2.5 2.5
9 0 1 0 0 0 1 0 0 0 1 18 80 -265 0.5 2.5 2.5
9 0 1 0 0 0 1 0 0 0 1 -18 91 -275 0.5 2.5 2.5
9 0 1 0 0 0 1 0 0 0 1 -18 80 -265 0.5 2.5 2.5
9 0 1 0 0 0 1 0 0 0 1 -78 77 -184 0.5 2.5 2.5
9 0 1 0 0 0 1 0 0 0 1 78 102.5 -210.5 0.5 2 3
9 0 1 0 0 0 1 0 0 0 1 78 56 -151.5 0.5 1.5 4
9 0 1 0 0 0 1 0 0 0 1 40 6 -40.5 0.5 0.5 12
9 0 1 0 0 0 1 0 0 0 1 -28 3 -9.5 0.5 0.5 12
9 0 1 0 0 0 1 0 0 0 1 -40 6 -40.5 0.5 0.5 12
9 0 1 0 0 0 1 0 0 0 1 -78 102.5 -210.5 0.5 2 3
9 0 1 0 0 0 1 0 0 0 1 -78 56 -151.5 0.5 1.5 4
9 0 1 0 0 0 1 0 0 0 1 51 11 -10 0.5 0.5 11.5
9 0 1 0 0 0 1 0 0 0 1 0 71 -262 11.5 0.5 0.5
9 0 1 0 0 0 1 0 0 0 1 -38 6 -97 0.5 0.5 11.5
9 0 1 0 0 0 1 0 0 0 1 -51 11 -10 0.5 0.5 11.5
9 0 1 0 0 0 1 0 0 0 1 38 6 -96.5 0.5 0.5 11
9 0 1 0 0 0 1 0 0 0 1 7.5 5 -128 11 0.5 0.5
9 0 1 0 0 0 1 0 0 0 1 78 63 -165 0.5 1.5 3.5
9 0 1 0 0 0 1 0 0 0 1 71 35 18 1.5 3.5 0.5
9 0 1 0 0 0 1 0 0 0 1 55 14 -8 0.5 0.5 10.5
9 0 1 0 0 0 1 0 0 0 1 54 16 18 3.5 1.5 0.5
9 0 1 0 0 0 1 0 0 0 1 10 12 2 0.5 10.5 0.5
9 0 1 0 0 0 1 0 0 0 1 10 2 0 3.5 0.5 1.5
9 0 1 0 0 0 1 0 0 0 1 -10 12 2 0.5 10.5 0.5
9 0 1 0 0 0 1 0 0 0 1 -10 2 0 3.5 0.5 1.5
9 0 1 0 0 0 1 0 0 0 1 -55 14 -8 0.5 0.5 10.5
9 0 1 0 0 0 1 0 0 0 1 -54 16 18 3.5 1.5 0.5
9 0 1 0 0 0 1 0 0 0 1 -71 35 18 1.5 3.5 0.5
9 0 1 0 0 0 1 0 0 0 1 -78 63 -165 0.5 1.5 3.5
9 0 1 0 0 0 1 0 0 0 1 63 20.5 6.5 0.5 1 5
9 0 1 0 0 0 1 0 0 0 1 33.5 4 -2.5 1 0.5 5
9 0 1 0 0 0 1 0 0 0 1 -29 3 -41.5 0.5 0.5 10
9 0 1 0 0 0 1 0 0 0 1 -33.5 4 -2.5 1 0.5 5
9 0 1 0 0 0 1 0 0 0 1 -63 20.5 6.5 0.5 1 5
9 0 1 0 0 0 1 0 0 0 1 78 71 -119 0.5 0.5 9.5
9 0 1 0 0 0 1 0 0 0 1 23 2 -49 0.5 0.5 9.5
9 0 1 0 0 0 1 0 0 0 1 -78 71 -119 0.5 0.5 9.5
9 0 1 0 0 0 1 0 0 0 1 78 91 -190.5 0.5 1.5 3
9 0 1 0 0 0 1 0 0 0 1 78 78 -159.5 0.5 1.5 3
9 0 1 0 0 0 1 0 0 0 1 40 7 -109.5 1.5 0.5 3
9 0 1 0 0 0 1 0 0 0 1 10 10.5 18 0.5 9 0.5
9 0 1 0 0 0 1 0 0 0 1 -10 10.5 18 0.5 9 0.5
9 0 1 0 0 0 1 0 0 0 1 -40 7 -109.5 1.5 0.5 3
9 0 1 0 0 0 1 0 0 0 1 -78 91 -190.5 0.5 1.5 3
9 0 1 0 0 0 1 0 0 0 1 -78 78 -159.5 0.5 1.5 3
9 0 1 0 0 0 1 0 0 0 1 43 7 10 0.5 0.5 8.5
9 0 1 0 0 0 1 0 0 0 1 -43 7 10 0.5 0.5 8.5
9 0 1 0 0 0 1 0 0 0 1 78 106.5 -215.5 0.5 2 2
9 0 1 0 0 0 1 0 0 0 1 78 85.5 -194.5 0.5 2 2
9 0 1 0 0 0 1 0 0 0 1 78 45 -110.5 0.5 0.5 8
9 0 1 0 0 0 1 0 0 0 1 52 12 -5.5 0.5 0.5 8
9 0 1 0 0 0 1 0 0 0 1 18 116.5 -293.5 0.5 2 2
9 0 1 0 0 0 1 0 0 0 1 -18 116.5 -293.5 0.5 2 2
9 0 1 0 0 0 1 0 0 0 1 -52 12 -5.5 0.5 0.5 8
9 0 1 0 0 0 1 0 0 0 1 -78 106.5 -215.5 0.5 2 2
9 0 1 0 0 0 1 0 0 0 1 -78 85.5 -194.5 0.5 2 2
9 0 1 0 0 0 1 0 0 0 1 -78 45 -110.5 0.5 0.5 8
9 0 1 0 0 0 1 0 0 0 1 54 16 2 2.5 1.5 0.5
9 0 1 0 0 0 1 0 0 0 1 41 10 -135 1.5 0.5 2.5
9 0 1 0 0 0 1 0 0 0 1 40 8 -119 1.5 0.5 2.5
9 0 1 0 0 0 1 0 0 0 1 -39 8 -121 1.5 0.5 2.5
9 0 1 0 0 0 1 0 0 0 1 -41 10 -135 1.5 0.5 2.5
9 0 1 0 0 0 1 0 0 0 1 -54 16 2 2.5 1.5 0.5
9 0 1 0 0 0 1 0 0 0 1 42 7 -99.5 0.5 0.5 7
9 0 1 0 0 0 1 0 0 0 1 41.5 9 -125 1 0.5 3.5
9 0 1 0 0 0 1 0 0 0 1 36.5 6 -107 1 0.5 3.5
9 0 1 0 0 0 1 0 0 0 1 0 117.5 -298 3.5 1 0.5
9 0 1 0 0 0 1 0 0 0 1 -36.5 6 -107 1 0.5 3.5
9 0 1 0 0 0 1 0 0 0 1 -41.5 9 -125 1 0.5 3.5
9 0 1 0 0 0 1 0 0 0 1 -42 7 -99.5 0.5 0.5 7
9 0 1 0 0 0 1 0 0 0 1 26 4 10 0.5 0.5 6.5
9 0 1 0 0 0 1 0 0 0 1 14 4 10 0.5 0.5 6.5
9 0 1 0 0 0 1 0 0 0 1 6 4 10 0.5 0.5 6.5
9 0 1 0 0 0 1 0 0 0 1 -6 4 10 0.5 0.5 6.5
9 0 1 0 0 0 1 0 0 0 1 -14 4 10 0.5 0.5 6.5
9 0 1 0 0 0 1 0 0 0 1 -26 4 10 0.5 0.5 6.5
9 0 1 0 0 0 1 0 0 0 1 78 93 -203.5 0.5 1.5 2
9 0 1 0 0 0 1 0 0 0 1 78 68 -175.5 0.5 1.5 2
9 0 1 0 0 0 1 0 0 0 1 64.5 25 18 2 1.5 0.5
9 0 1 0 0 0 1 0 0 0 1 44 7 -52.5 0.5 0.5 6
9 0 1 0 0 0 1 0 0 0 1 45.5 9.5 2 3 1 0.5
9 0 1 0 0 0 1 0 0 0 1 39.5 9 -129.5 1 0.5 3
9 0 1 0 0 0 1 0 0 0 1 37.5 8 -123.5 1 0.5 3
9 0 1 0 0 0 1 0 0 0 1 37.5 7 -114.5 1 0.5 3
9 0 1 0 0 0 1 0 0 0 1 35.5 7 -118.5 1 0.5 3
9 0 1 0 0 0 1 0 0 0 1 31 4 -98.5 1.5 0.5 2
9 0 1 0 0 0 1 0 0 0 1 31.5 4.5 18 3 1 0.5
9 0 1 0 0 0 1 0 0 0 1 18 101 -283.5 0.5 1.5 2
9 0 1 0 0 0 1 0 0 0 1 -18 101 -283.5 0.5 1.5 2
9 0 1 0 0 0 1 0 0 0 1 -30 4 -100.5 1.5 0.5 2
9 0 1 0 0 0 1 0 0 0 1 -31.5 4.5 18 3 1 0.5
9 0 1 0 0 0 1 0 0 0 1 -34.5 7 -120.5 1 0.5 3
9 0 1 0 0 0 1 0 0 0 1 -36.5 7 -116.5 1 0.5 3
9 0 1 0 0 0 1 0 0 0 1 -39 9 -130.5 1.5 0.5 2
9 0 1 0 0 0 1 0 0 0 1 -44 7 -52.5 0.5 0.5 6
9 0 1 0 0 0 1 0 0 0 1 -45.5 9.5 2 3 1 0.5
9 0 1 0 0 0 1 0 0 0 1 -64 24.5 18 1.5 2 0.5
9 0 1 0 0 0 1 0 0 0 1 -78 93 -203.5 0.5 1.5 2
9 0 1 0 0 0 1 0 0 0 1 -78 68 -175.5 0.5 1.5 2
9 0 1 0 0 0 1 0 0 0 1 78 96.5 -200 0.5 1 2.5
9 0 1 0 0 0 1 0 0 0 1 78 82.5 -171 0.5 1 2.5
9 0 1 0 0 0 1 0 0 0 1 78 74.5 -142 0.5 1 2.5
9 0 1 0 0 0 1 0 0 0 1 37.5 9 -133 1 0.5 2.5
9 0 1 0 0 0 1 0 0 0 1 35.5 8 -128 1 0.5 2.5
9 0 1 0 0 0 1 0 0 0 1 33.5 6 -113 1 0.5 2.5
9 0 1 0 0 0 1 0 0 0 1 32.5 5 -106 1 0.5 2.5
9 0 1 0 0 0 1 0 0 0 1 30 3 -26.5 0.5 0.5 5
9 0 1 0 0 0 1 0 0 0 1 -32.5 5 -106 1 0.5 2.5
9 0 1 0 0 0 1 0 0 0 1 -33.5 6 -113 1 0.5 2.5
9 0 1 0 0 0 1 0 0 0 1 -35.5 8 -128 1 0.5 2.5
9 0 1 0 0 0 1 0 0 0 1 -78 96.5 -200 0.5 1 2.5
9 0 1 0 0 0 1 0 0 0 1 -78 82.5 -171 0.5 1 2.5
9 0 1 0 0 0 1 0 0 0 1 -78 74.5 -142 0.5 1 2.5
9 0 1 0 0 0 1 0 0 0 1 78 117 -223 0.5 1.5 1.5
9 0 1 0 0 0 1 0 0 0 1 78 99 -210 0.5 1.5 1.5
9 0 1 0 0 0 1 0 0 0 1 78 78 -188 0.5 1.5 1.5
9 0 1 0 0 0 1 0 0 0 1 48 9 -3 0.5 0.5 4.5
9 0 1 0 0 0 1 0 0 0 1 10 2 17 4.5 0.5 0.5
9 0 1 0 0 0 1 0 0 0 1 -10 2 17 4.5 0.5 0.5
9 0 1 0 0 0 1 0 0 0 1 -48 9 -3 0.5 0.5 4.5
9 0 1 0 0 0 1 0 0 0 1 -78 117 -223 0.5 1.5 1.5
9 0 1 0 0 0 1 0 0 0 1 -78 99 -210 0.5 1.5 1.5
9 0 1 0 0 0 1 0 0 0 1 -78 78 -188 0.5 1.5 1.5
9 0 1 0 0 0 1 0 0 0 1 78 109.5 -218.5 0.5 2 1
9 0 1 0 0 0 1 0 0 0 1 78 86.5 -179.5 0.5 1 2
9 0 1 0 0 0 1 0 0 0 1 78 50.5 -139.5 0.5 1 2
9 0 1 0 0 0 1 0 0 0 1 73.5 36.5 18 1 2 0.5
9 0 1 0 0 0 1 0 0 0 1 62 19 4.5 0.5 0.5 4
9 0 1 0 0 0 1 0 0 0 1 52.5 13.5 18 2 1 0.5
9 0 1 0 0 0 1 0 0 0 1 42.5 10 -130.5 1 0.5 2
9 0 1 0 0 0 1 0 0 0 1 41.5 8 -114.5 1 0.5 2
9 0 1 0 0 0 1 0 0 0 1 35.5 9 -137.5 1 0.5 2
9 0 1 0 0 0 1 0 0 0 1 32.5 7 -124.5 1 0.5 2
9 0 1 0 0 0 1 0 0 0 1 31.5 6 -117.5 1 0.5 2
9 0 1 0 0 0 1 0 0 0 1 30 4 -66.5 0.5 0.5 4
9 0 1 0 0 0 1 0 0 0 1 32.5 5 2 4 0.5 0.5
9 0 1 0 0 0 1 0 0 0 1 18 75.5 -263.5 0.5 2 1
9 0 1 0 0 0 1 0 0 0 1 9.5 2 3 4 0.5 0.5
9 0 1 0 0 0 1 0 0 0 1 -10.5 2 3 4 0.5 0.5
9 0 1 0 0 0 1 0 0 0 1 -18 75.5 -263.5 0.5 2 1
9 0 1 0 0 0 1 0 0 0 1 -30 4 -66.5 0.5 0.5 4
9 0 1 0 0 0 1 0 0 0 1 -31.5 7 -126.5 1 0.5 2
9 0 1 0 0 0 1 0 0 0 1 -31.5 6 -117.5 1 0.5 2
9 0 1 0 0 0 1 0 0 0 1 -30.5 4.5 2 2 1 0.5
9 0 1 0 0 0 1 0 0 0 1 -35.5 9 -137.5 1 0.5 2
9 0 1 0 0 0 1 0 0 0 1 -38 7 -113.5 0.5 0.5 4
9 0 1 0 0 0 1 0 0 0 1 -40.5 8 -116.5 1 0.5 2
9 0 1 0 0 0 1 0 0 0 1 -42.5 10 -130.5 1 0.5 2
9 0 1 0 0 0 1 0 0 0 1 -52.5 13.5 18 2 1 0.5
9 0 1 0 0 0 1 0 0 0 1 -62 19 4.5 0.5 0.5 4
9 0 1 0 0 0 1 0 0 0 1 -73.5 36.5 18 1 2 0.5
9 0 1 0 0 0 1 0 0 0 1 -78 109.5 -218.5 0.5 2 1
9 0 1 0 0 0 1 0 0 0 1 -78 86.5 -179.5 0.5 1 2
9 0 1 0 0 0 1 0 0 0 1 -78 50.5 -139.5 0.5 1 2
9 0 1 0 0 0 1 0 0 0 1 78 77 -153 0.5 0.5 3.5
9 0 1 0 0 0 1 0 0 0 1 63 21 15 0.5 0.5 3.5
9 0 1 0 0 0 1 0 0 0 1 49 10 -1 0.5 0.5 3.5
9 0 1 0 0 0 1 0 0 0 1 7 72 -263 3.5 0.5 0.5
9 0 1 0 0 0 1 0 0 0 1 0 70 -262 3.5 0.5 0.5
9 0 1 0 0 0 1 0 0 0 1 -7 72 -263 3.5 0.5 0.5
9 0 1 0 0 0 1 0 0 0 1 -35 6 -110 0.5 0.5 3.5
9 0 1 0 0 0 1 0 0 0 1 -49 10 -1 0.5 0.5 3.5
9 0 1 0 0 0 1 0 0 0 1 -63 21 15 0.5 0.5 3.5
9 0 1 0 0 0 1 0 0 0 1 -78 77 -153 0.5 0.5 3.5
9 0 1 0 0 0 1 0 0 0 1 78 105.5 -212 0.5 1 1.5
9 0 1 0 0 0 1 0 0 0 1 78 73.5 -183 0.5 1 1.5
9 0 1 0 0 0 1 0 0 0 1 78 60.5 -163 0.5 1 1.5
9 0 1 0 0 0 1 0 0 0 1 78 54 -150.5 0.5 0.5 3
9 0 1 0 0 0 1 0 0 0 1 78 48 -131.5 0.5 0.5 3
9 0 1 0 0 0 1 0 0 0 1 44 8.5 18 1.5 1 0.5
9 0 1 0 0 0 1 0 0 0 1 39.5 10 -139 1 0.5 1.5
9 0 1 0 0 0 1 0 0 0 1 35 6 -109.5 0.5 0.5 3
9 0 1 0 0 0 1 0 0 0 1 34 8 -130.5 0.5 0.5 3
9 0 1 0 0 0 1 0 0 0 1 34 7 -120.5 0.5 0.5 3
9 0 1 0 0 0 1 0 0 0 1 30.5 8 -138 1 0.5 1.5
9 0 1 0 0 0 1 0 0 0 1 31 5 -109.5 1.5 0.5 1
9 0 1 0 0 0 1 0 0 0 1 29.5 6 -121 1 0.5 1.5
9 0 1 0 0 0 1 0 0 0 1 29.5 5 -112 1 0.5 1.5
9 0 1 0 0 0 1 0 0 0 1 30 4 -101.5 1.5 0.5 1
9 0 1 0 0 0 1 0 0 0 1 28.5 18 18 1 1.5 0.5
9 0 1 0 0 0 1 0 0 0 1 20 117.5 -295 1.5 1 0.5
9 0 1 0 0 0 1 0 0 0 1 18 113 -292.5 0.5 1.5 1
9 0 1 0 0 0 1 0 0 0 1 18 87.5 -274 0.5 1 1.5
9 0 1 0 0 0 1 0 0 0 1 18 81.5 -269 0.5 1 1.5
9 0 1 0 0 0 1 0 0 0 1 15.5 73 -263 3 0.5 0.5
9 0 1 0 0 0 1 0 0 0 1 12 18.5 18 1.5 1 0.5
9 0 1 0 0 0 1 0 0 0 1 8.5 18 18 1 1.5 0.5
9 0 1 0 0 0 1 0 0 0 1 0 83.5 -274 1.5 1 0.5
9 0 1 0 0 0 1 0 0 0 1 -8 18.5 18 1.5 1 0.5
9 0 1 0 0 0 1 0 0 0 1 -11.5 18 18 1 1.5 0.5
9 0 1 0 0 0 1 0 0 0 1 -18 113 -292.5 0.5 1.5 1
9 0 1 0 0 0 1 0 0 0 1 -18 87.5 -274 0.5 1 1.5
9 0 1 0 0 0 1 0 0 0 1 -18 81.5 -269 0.5 1 1.5
9 0 1 0 0 0 1 0 0 0 1 -15.5 73 -263 3 0.5 0.5
9 0 1 0 0 0 1 0 0 0 1 -19.5 117 -295 1 1.5 0.5
9 0 1 0 0 0 1 0 0 0 1 -28 18.5 18 1.5 1 0.5
9 0 1 0 0 0 1 0 0 0 1 -28.5 5 -114 1 0.5 1.5
9 0 1 0 0 0 1 0 0 0 1 -29.5 6 -121 1 0.5 1.5
9 0 1 0 0 0 1 0 0 0 1 -30.5 8 -138 1 0.5 1.5
9 0 1 0 0 0 1 0 0 0 1 -30.5 5 -110 1 0.5 1.5
9 0 1 0 0 0 1 0 0 0 1 -31 4 -97.5 1.5 0.5 1
9 0 1 0 0 0 1 0 0 0 1 -33.5 8 -132 1 0.5 1.5
9 0 1 0 0 0 1 0 0 0 1 -37 9 -134.5 1.5 0.5 1
9 0 1 0 0 0 1 0 0 0 1 -37 8 -124.5 1.5 0.5 1
9 0 1 0 0 0 1 0 0 0 1 -38.5 10 -140 1 0.5 1.5
9 0 1 0 0 0 1 0 0 0 1 -44 8.5 18 1.5 1 0.5
9 0 1 0 0 0 1 0 0 0 1 -78 105.5 -212 0.5 1 1.5
9 0 1 0 0 0 1 0 0 0 1 -78 73.5 -183 0.5 1 1.5
9 0 1 0 0 0 1 0 0 0 1 -78 60.5 -163 0.5 1 1.5
9 0 1 0 0 0 1 0 0 0 1 -78 54 -150.5 0.5 0.5 3
9 0 1 0 0 0 1 0 0 0 1 -78 48 -131.5 0.5 0.5 3
9 0 1 0 0 0 1 0 0 0 1 78 74 -137 0.5 0.5 2.5
9 0 1 0 0 0 1 0 0 0 1 78 72 -126 0.5 0.5 2.5
9 0 1 0 0 0 1 0 0 0 1 64 21 11 0.5 0.5 2.5
9 0 1 0 0 0 1 0 0 0 1 63 22 -129 0.5 0.5 2.5
9 0 1 0 0 0 1 0 0 0 1 42 6 -79 0.5 0.5 2.5
9 0 1 0 0 0 1 0 0 0 1 34 5 -73 0.5 0.5 2.5
9 0 1 0 0 0 1 0 0 0 1 31 4 -31 0.5 0.5 2.5
9 0 1 0 0 0 1 0 0 0 1 27 3 -80 0.5 0.5 2.5
9 0 1 0 0 0 1 0 0 0 1 1 94 -283 2.5 0.5 0.5
9 0 1 0 0 0 1 0 0 0 1 0 90 -280 2.5 0.5 0.5
9 0 1 0 0 0 1 0 0 0 1 0 71 -263 2.5 0.5 0.5
9 0 1 0 0 0 1 0 0 0 1 -27 3 -80 0.5 0.5 2.5
9 0 1 0 0 0 1 0 0 0 1 -31 4 -31 0.5 0.5 2.5
9 0 1 0 0 0 1 0 0 0 1 -34 5 -73 0.5 0.5 2.5
9 0 1 0 0 0 1 0 0 0 1 -42 8 -112 0.5 0.5 2.5
9 0 1 0 0 0 1 0 0 0 1 -42 6 -79 0.5 0.5 2.5
9 0 1 0 0 0 1 0 0 0 1 -63 22 -129 0.5 0.5 2.5
9 0 1 0 0 0 1 0 0 0 1 -64 21 11 0.5 0.5 2.5
9 0 1 0 0 0 1 0 0 0 1 -78 74 -137 0.5 0.5 2.5
9 0 1 0 0 0 1 0 0 0 1 -78 72 -126 0.5 0.5 2.5
9 0 1 0 0 0 1 0 0 0 1 78 111.5 -220.5 0.5 1 1
9 0 1 0 0 0 1 0 0 0 1 78 103.5 -214.5 0.5 1 1
9 0 1 0 0 0 1 0 0 0 1 78 101.5 -206.5 0.5 1 1
9 0 1 0 0 0 1 0 0 0 1 78 98.5 -201.5 0.5 1 1
9 0 1 0 0 0 1 0 0 0 1 78 93.5 -192.5 0.5 1 1
9 0 1 0 0 0 1 0 0 0 1 78 90.5 -202.5 0.5 1 1
9 0 1 0 0 0 1 0 0 0 1 78 90.5 -186.5 0.5 1 1
9 0 1 0 0 0 1 0 0 0 1 78 87 -198.5 0.5 0.5 2
9 0 1 0 0 0 1 0 0 0 1 78 82.5 -193.5 0.5 1 1
9 0 1 0 0 0 1 0 0 0 1 78 71.5 -162 0.5 2 0.5
9 0 1 0 0 0 1 0 0 0 1 78 57 -157.5 0.5 0.5 2
9 0 1 0 0 0 1 0 0 0 1 63.5 22.5 18 1 1 0.5
9 0 1 0 0 0 1 0 0 0 1 62 19 -102.5 0.5 0.5 2
9 0 1 0 0 0 1 0 0 0 1 62 19 -95.5 0.5 0.5 2
9 0 1 0 0 0 1 0 0 0 1 58.5 17.5 10 1 1 0.5
9 0 1 0 0 0 1 0 0 0 1 52.5 13.5 2 1 1 0.5
9 0 1 0 0 0 1 0 0 0 1 43 11 -138.5 0.5 0.5 2
9 0 1 0 0 0 1 0 0 0 1 43 9 -119.5 0.5 0.5 2
9 0 1 0 0 0 1 0 0 0 1 43 8 -109.5 0.5 0.5 2
9 0 1 0 0 0 1 0 0 0 1 42.5 17 -159.5 1 0.5 1
9 0 1 0 0 0 1 0 0 0 1 42.5 14 -150.5 1 0.5 1
9 0 1 0 0 0 1 0 0 0 1 42 11 -140.5 0.5 0.5 2
9 0 1 0 0 0 1 0 0 0 1 41.5 13 -147.5 1 0.5 1
9 0 1 0 0 0 1 0 0 0 1 40.5 12 -145.5 1 0.5 1
9 0 1 0 0 0 1 0 0 0 1 40.5 7 -105.5 1 0.5 1
9 0 1 0 0 0 1 0 0 0 1 39.5 8 -122.5 1 0.5 1
9 0 1 0 0 0 1 0 0 0 1 39.5 7 -113.5 1 0.5 1
9 0 1 0 0 0 1 0 0 0 1 39.5 6 -104.5 1 0.5 1
9 0 1 0 0 0 1 0 0 0 1 36.5 5 -100.5 1 0.5 1
9 0 1 0 0 0 1 0 0 0 1 36.5 5 18 2 0.5 0.5
9 0 1 0 0 0 1 0 0 0 1 33.5 9 -140.5 1 0.5 1
9 0 1 0 0 0 1 0 0 0 1 33 8 -132.5 0.5 0.5 2
9 0 1 0 0 0 1 0 0 0 1 32 8 -134.5 0.5 0.5 2
9 0 1 0 0 0 1 0 0 0 1 31.5 7 -127.5 1 0.5 1
9 0 1 0 0 0 1 0 0 0 1 30 7 -129.5 0.5 0.5 2
9 0 1 0 0 0 1 0 0 0 1 30.5 4 2 2 0.5 0.5
9 0 1 0 0 0 1 0 0 0 1 28 6 -123.5 0.5 0.5 2
9 0 1 0 0 0 1 0 0 0 1 28.5 5 -114.5 1 0.5 1
9 0 1 0 0 0 1 0 0 0 1 28.5 4 -104.5 1 0.5 1
9 0 1 0 0 0 1 0 0 0 1 27 5 -116.5 0.5 0.5 2
9 0 1 0 0 0 1 0 0 0 1 27.5 4 -106.5 1 0.5 1
9 0 1 0 0 0 1 0 0 0 1 26 5 -118.5 0.5 0.5 2
9 0 1 0 0 0 1 0 0 0 1 25.5 3 -100.5 1 0.5 1
9 0 1 0 0 0 1 0 0 0 1 18 107.5 -288.5 0.5 1 1
9 0 1 0 0 0 1 0 0 0 1 18 98.5 -282.5 0.5 1 1
9 0 1 0 0 0 1 0 0 0 1 18 92.5 -278.5 0.5 1 1
9 0 1 0 0 0 1 0 0 0 1 11 3.5 2 0.5 2 0.5
9 0 1 0 0 0 1 0 0 0 1 11 3.5 18 0.5 2 0.5
9 0 1 0 0 0 1 0 0 0 1 9 3.5 2 0.5 2 0.5
9 0 1 0 0 0 1 0 0 0 1 9 3.5 18 0.5 2 0.5
9 0 1 0 0 0 1 0 0 0 1 -9 3.5 2 0.5 2 0.5
9 0 1 0 0 0 1 0 0 0 1 -9 3.5 18 0.5 2 0.5
9 0 1 0 0 0 1 0 0 0 1 -11 3.5 2 0.5 2 0.5
9 0 1 0 0 0 1 0 0 0 1 -11 3.5 18 0.5 2 0.5
9 0 1 0 0 0 1 0 0 0 1 -18 107.5 -288.5 0.5 1 1
9 0 1 0 0 0 1 0 0 0 1 -18 98.5 -282.5 0.5 1 1
9 0 1 0 0 0 1 0 0 0 1 -18 92.5 -278.5 0.5 1 1
9 0 1 0 0 0 1 0 0 0 1 -25.5 5 -119.5 1 0.5 1
9 0 1 0 0 0 1 0 0 0 1 -25.5 3 -100.5 1 0.5 1
9 0 1 0 0 0 1 0 0 0 1 -26.5 5 -117.5 1 0.5 1
9 0 1 0 0 0 1 0 0 0 1 -28 6 -123.5 0.5 0.5 2
9 0 1 0 0 0 1 0 0 0 1 -27.5 4 -106.5 1 0.5 1
9 0 1 0 0 0 1 0 0 0 1 -28.5 4 -104.5 1 0.5 1
9 0 1 0 0 0 1 0 0 0 1 -29.5 7 -130.5 1 0.5 1
9 0 1 0 0 0 1 0 0 0 1 -31.5 8 -135.5 1 0.5 1
9 0 1 0 0 0 1 0 0 0 1 -32.5 7 -123.5 1 0.5 1
9 0 1 0 0 0 1 0 0 0 1 -33.5 9 -140.5 1 0.5 1
9 0 1 0 0 0 1 0 0 0 1 -34.5 5 2 2 0.5 0.5
9 0 1 0 0 0 1 0 0 0 1 -36.5 5 -100.5 1 0.5 1
9 0 1 0 0 0 1 0 0 0 1 -36.5 5 18 2 0.5 0.5
9 0 1 0 0 0 1 0 0 0 1 -39 6 -105.5 0.5 0.5 2
9 0 1 0 0 0 1 0 0 0 1 -39.5 9 -127.5 1 0.5 1
9 0 1 0 0 0 1 0 0 0 1 -39.5 7 -113.5 1 0.5 1
9 0 1 0 0 0 1 0 0 0 1 -40.5 12 -145.5 1 0.5 1
9 0 1 0 0 0 1 0 0 0 1 -40.5 7 -105.5 1 0.5 1
9 0 1 0 0 0 1 0 0 0 1 -41.5 17 -160.5 1 0.5 1
9 0 1 0 0 0 1 0 0 0 1 -41.5 13 -147.5 1 0.5 1
9 0 1 0 0 0 1 0 0 0 1 -41.5 11 -141.5 1 0.5 1
9 0 1 0 0 0 1 0 0 0 1 -42.5 14 -150.5 1 0.5 1
9 0 1 0 0 0 1 0 0 0 1 -42.5 11 -139.5 1 0.5 1
9 0 1 0 0 0 1 0 0 0 1 -42.5 9 -120.5 1 0.5 1
9 0 1 0 0 0 1 0 0 0 1 -43 8 -109.5 0.5 0.5 2
9 0 1 0 0 0 1 0 0 0 1 -52.5 13.5 2 1 1 0.5
9 0 1 0 0 0 1 0 0 0 1 -58.5 17.5 10 1 1 0.5
9 0 1 0 0 0 1 0 0 0 1 -62 19 -102.5 0.5 0.5 2
9 0 1 0 0 0 1 0 0 0 1 -62 19 -95.5 0.5 0.5 2
9 0 1 0 0 0 1 0 0 0 1 -66.5 25.5 18 1 1 0.5
9 0 1 0 0 0 1 0 0 0 1 -78 111.5 -220.5 0.5 1 1
9 0 1 0 0 0 1 0 0 0 1 -78 103.5 -214.5 0.5 1 1
9 0 1 0 0 0 1 0 0 0 1 -78 101.5 -206.5 0.5 1 1
9 0 1 0 0 0 1 0 0 0 1 -78 98.5 -201.5 0.5 1 1
9 0 1 0 0 0 1 0 0 0 1 -78 93.5 -192.5 0.5 1 1
9 0 1 0 0 0 1 0 0 0 1 -78 90.5 -202.5 0.5 1 1
9 0 1 0 0 0 1 0 0 0 1 -78 90.5 -186.5 0.5 1 1
9 0 1 0 0 0 1 0 0 0 1 -78 87 -198.5 0.5 0.5 2
9 0 1 0 0 0 1 0 0 0 1 -78 82.5 -193.5 0.5 1 1
9 0 1 0 0 0 1 0 0 0 1 -78 71.5 -162 0.5 2 0.5
9 0 1 0 0 0 1 0 0 0 1 -78 57 -157.5 0.5 0.5 2
9 0 1 0 0 0 1 0 0 0 1 78 114 -222 0.5 1.5 0.5
9 0 1 0 0 0 1 0 0 0 1 78 82 -167 0.5 0.5 1.5
9 0 1 0 0 0 1 0 0 0 1 78 80 -161 0.5 0.5 1.5
9 0 1 0 0 0 1 0 0 0 1 78 78 -155 0.5 0.5 1.5
9 0 1 0 0 0 1 0 0 0 1 78 64 -170 0.5 0.5 1.5
9 0 1 0 0 0 1 0 0 0 1 78 53 -149 0.5 0.5 1.5
9 0 1 0 0 0 1 0 0 0 1 78 51 -143 0.5 0.5 1.5
9 0 1 0 0 0 1 0 0 0 1 78 47 -130 0.5 0.5 1.5
9 0 1 0 0 0 1 0 0 0 1 75 117 -241 0.5 1.5 0.5
9 0 1 0 0 0 1 0 0 0 1 70 30 18 0.5 1.5 0.5
9 0 1 0 0 0 1 0 0 0 1 64 117 -264 0.5 1.5 0.5
9 0 1 0 0 0 1 0 0 0 1 62 117 -267 0.5 1.5 0.5
9 0 1 0 0 0 1 0 0 0 1 62 20 -113 0.5 0.5 1.5
9 0 1 0 0 0 1 0 0 0 1 61 117 -268 0.5 1.5 0.5
9 0 1 0 0 0 1 0 0 0 1 61 20 -121 0.5 0.5 1.5
9 0 1 0 0 0 1 0 0 0 1 61 19 -110 0.5 0.5 1.5
9 0 1 0 0 0 1 0 0 0 1 58 17 2 1.5 0.5 0.5
9 0 1 0 0 0 1 0 0 0 1 44 11 -135 0.5 0.5 1.5
9 0 1 0 0 0 1 0 0 0 1 43 16 -156 0.5 0.5 1.5
9 0 1 0 0 0 1 0 0 0 1 44 8 2 1.5 0.5 0.5
9 0 1 0 0 0 1 0 0 0 1 42 8 -111 0.5 0.5 1.5
9 0 1 0 0 0 1 0 0 0 1 40 13 -149 0.5 0.5 1.5
9 0 1 0 0 0 1 0 0 0 1 38 10 -140 0.5 0.5 1.5
9 0 1 0 0 0 1 0 0 0 1 37 11 -145 1.5 0.5 0.5
9 0 1 0 0 0 1 0 0 0 1 35 5 -103 0.5 0.5 1.5
9 0 1 0 0 0 1 0 0 0 1 32 6 -114 0.5 0.5 1.5
9 0 1 0 0 0 1 0 0 0 1 32 4 -3 0.5 0.5 1.5
9 0 1 0 0 0 1 0 0 0 1 29 7 -131 0.5 0.5 1.5
9 0 1 0 0 0 1 0 0 0 1 28 7 -133 0.5 0.5 1.5
9 0 1 0 0 0 1 0 0 0 1 29 3 18 1.5 0.5 0.5
9 0 1 0 0 0 1 0 0 0 1 27 7 -135 0.5 0.5 1.5
9 0 1 0 0 0 1 0 0 0 1 27 6 -126 0.5 0.5 1.5
9 0 1 0 0 0 1 0 0 0 1 26 6 -128 0.5 0.5 1.5
9 0 1 0 0 0 1 0 0 0 1 26 4 -109 0.5 0.5 1.5
9 0 1 0 0 0 1 0 0 0 1 26 19 18 1.5 0.5 0.5
9 0 1 0 0 0 1 0 0 0 1 25 6 -130 0.5 0.5 1.5
9 0 1 0 0 0 1 0 0 0 1 25 5 -120 0.5 0.5 1.5
9 0 1 0 0 0 1 0 0 0 1 25 4 -111 0.5 0.5 1.5
9 0 1 0 0 0 1 0 0 0 1 24 4 -113 0.5 0.5 1.5
9 0 1 0 0 0 1 0 0 0 1 23 2 -64 0.5 0.5 1.5
9 0 1 0 0 0 1 0 0 0 1 22 21 10 0.5 1.5 0.5
9 0 1 0 0 0 1 0 0 0 1 20 21 8 0.5 1.5 0.5
9 0 1 0 0 0 1 0 0 0 1 20 21 12 0.5 1.5 0.5
9 0 1 0 0 0 1 0 0 0 1 20 6 -139 0.5 0.5 1.5
9 0 1 0 0 0 1 0 0 0 1 20 3 -110 0.5 0.5 1.5
9 0 1 0 0 0 1 0 0 0 1 18 21 10 0.5 1.5 0.5
9 0 1 0 0 0 1 0 0 0 1 11 16 18 0.5 1.5 0.5
9 0 1 0 0 0 1 0 0 0 1 6 19 18 1.5 0.5 0.5
9 0 1 0 0 0 1 0 0 0 1 2 21 10 0.5 1.5 0.5
9 0 1 0 0 0 1 0 0 0 1 0 21 8 0.5 1.5 0.5
9 0 1 0 0 0 1 0 0 0 1 0 21 12 0.5 1.5 0.5
9 0 1 0 0 0 1 0 0 0 1 0 91 -281 1.5 0.5 0.5
9 0 1 0 0 0 1 0 0 0 1 -2 21 10 0.5 1.5 0.5
9 0 1 0 0 0 1 0 0 0 1 -9 16 18 0.5 1.5 0.5
9 0 1 0 0 0 1 0 0 0 1 -14 19 18 1.5 0.5 0.5
9 0 1 0 0 0 1 0 0 0 1 -18 21 10 0.5 1.5 0.5
9 0 1 0 0 0 1 0 0 0 1 -17 8 -149 1.5 0.5 0.5
9 0 1 0 0 0 1 0 0 0 1 -20 21 8 0.5 1.5 0.5
9 0 1 0 0 0 1 0 0 0 1 -20 21 12 0.5 1.5 0.5
9 0 1 0 0 0 1 0 0 0 1 -20 6 -139 0.5 0.5 1.5
9 0 1 0 0 0 1 0 0 0 1 -20 3 -110 0.5 0.5 1.5
9 0 1 0 0 0 1 0 0 0 1 -22 21 10 0.5 1.5 0.5
9 0 1 0 0 0 1 0 0 0 1 -23 2 -64 0.5 0.5 1.5
9 0 1 0 0 0 1 0 0 0 1 -24 4 -113 0.5 0.5 1.5
9 0 1 0 0 0 1 0 0 0 1 -25 6 -130 0.5 0.5 1.5
9 0 1 0 0 0 1 0 0 0 1 -25 4 -111 0.5 0.5 1.5
9 0 1 0 0 0 1 0 0 0 1 -26 6 -128 0.5 0.5 1.5
9 0 1 0 0 0 1 0 0 0 1 -26 4 -109 0.5 0.5 1.5
9 0 1 0 0 0 1 0 0 0 1 -27 7 -135 0.5 0.5 1.5
9 0 1 0 0 0 1 0 0 0 1 -27 6 -126 0.5 0.5 1.5
9 0 1 0 0 0 1 0 0 0 1 -28 7 -133 0.5 0.5 1.5
9 0 1 0 0 0 1 0 0 0 1 -29 16 18 0.5 1.5 0.5
9 0 1 0 0 0 1 0 0 0 1 -29 3 18 1.5 0.5 0.5
9 0 1 0 0 0 1 0 0 0 1 -32 6 -114 0.5 0.5 1.5
9 0 1 0 0 0 1 0 0 0 1 -32 4 -3 0.5 0.5 1.5
9 0 1 0 0 0 1 0 0 0 1 -34 8 -129 0.5 0.5 1.5
9 0 1 0 0 0 1 0 0 0 1 -37 9 -132 0.5 0.5 1.5
9 0 1 0 0 0 1 0 0 0 1 -37 8 -122 0.5 0.5 1.5
9 0 1 0 0 0 1 0 0 0 1 -37 11 -145 1.5 0.5 0.5
9 0 1 0 0 0 1 0 0 0 1 -39 13 -150 1.5 0.5 0.5
9 0 1 0 0 0 1 0 0 0 1 -40 10 -139 0.5 0.5 1.5
9 0 1 0 0 0 1 0 0 0 1 -41 8 -120 0.5 0.5 1.5
9 0 1 0 0 0 1 0 0 0 1 -42 16 -157 1.5 0.5 0.5
9 0 1 0 0 0 1 0 0 0 1 -44 11 -135 0.5 0.5 1.5
9 0 1 0 0 0 1 0 0 0 1 -44 8 2 1.5 0.5 0.5
9 0 1 0 0 0 1 0 0 0 1 -58 17 2 1.5 0.5 0.5
9 0 1 0 0 0 1 0 0 0 1 -61 117 -268 0.5 1.5 0.5
9 0 1 0 0 0 1 0 0 0 1 -61 20 -121 0.5 0.5 1.5
9 0 1 0 0 0 1 0 0 0 1 -61 19 -110 0.5 0.5 1.5
9 0 1 0 0 0 1 0 0 0 1 -62 117 -267 0.5 1.5 0.5
9 0 1 0 0 0 1 0 0 0 1 -62 20 -113 0.5 0.5 1.5
9 0 1 0 0 0 1 0 0 0 1 -64 117 -264 0.5 1.5 0.5
9 0 1 0 0 0 1 0 0 0 1 -70 30 18 0.5 1.5 0.5
9 0 1 0 0 0 1 0 0 0 1 -75 117 -241 0.5 1.5 0.5
9 0 1 0 0 0 1 0 0 0 1 -78 114 -222 0.5 1.5 0.5
9 0 1 0 0 0 1 0 0 0 1 -78 82 -167 0.5 0.5 1.5
9 0 1 0 0 0 1 0 0 0 1 -78 80 -161 0.5 0.5 1.5
9 0 1 0 0 0 1 0 0 0 1 -78 78 -155 0.5 0.5 1.5
9 0 1 0 0 0 1 0 0 0 1 -78 64 -170 0.5 0.5 1.5
9 0 1 0 0 0 1 0 0 0 1 -78 53 -149 0.5 0.5 1.5
9 0 1 0 0 0 1 0 0 0 1 -78 51 -143 0.5 0.5 1.5
9 0 1 0 0 0 1 0 0 0 1 -78 47 -130 0.5 0.5 1.5
