9 0 1 0 0 0 1 0 0 0 1 23.00116 -36.5 -0.0003242493 0.5 35 5.5
9 0 1 0 0 0 1 0 0 0 1 -22.99884 -36.5 -0.0003242493 0.5 35 5.5
9 0 1 0 0 0 1 0 0 0 1 30.00116 -2 0.9996758 5.5 0.5 11.5
9 0 1 0 0 0 1 0 0 0 1 -29.99884 -2 -1.000324 5.5 0.5 11.5
9 0 1 0 0 0 1 0 0 0 1 24.00116 -33.5 -9.500324 0.5 32 1
9 0 1 0 0 0 1 0 0 0 1 24.00116 -33.5 9.499676 0.5 32 1
9 0 1 0 0 0 1 0 0 0 1 -23.99884 -33.5 -9.500324 0.5 32 1
9 0 1 0 0 0 1 0 0 0 1 -23.99884 -33.5 9.499676 0.5 32 1
9 0 1 0 0 0 1 0 0 0 1 25.00116 -29.5 -14.00032 0.5 28 0.5
9 0 1 0 0 0 1 0 0 0 1 25.00116 -29.5 13.99968 0.5 28 0.5
9 0 1 0 0 0 1 0 0 0 1 -24.99884 -29.5 -14.00032 0.5 28 0.5
9 0 1 0 0 0 1 0 0 0 1 -24.99884 -29.5 13.99968 0.5 28 0.5
9 0 1 0 0 0 1 0 0 0 1 0.001159668 -5.5 -37.00032 2.5 4 0.5
9 0 1 0 0 0 1 0 0 0 1 0.001159668 -5.5 36.99968 2.5 4 0.5
9 0 1 0 0 0 1 0 0 0 1 29.50116 -2 15.49968 3 0.5 3
9 0 1 0 0 0 1 0 0 0 1 0.001159668 -19 -36.00032 3.5 2.5 0.5
9 0 1 0 0 0 1 0 0 0 1 0.001159668 -19 35.99968 3.5 2.5 0.5
9 0 1 0 0 0 1 0 0 0 1 -29.99884 -2 -15.50032 2.5 0.5 3
9 0 1 0 0 0 1 0 0 0 1 26.00116 -15 16.99968 0.5 13.5 0.5
9 0 1 0 0 0 1 0 0 0 1 -25.99884 -15 -17.00032 0.5 13.5 0.5
9 0 1 0 0 0 1 0 0 0 1 28.00116 -8 -22.50032 0.5 6.5 1
9 0 1 0 0 0 1 0 0 0 1 28.00116 -8 22.49968 0.5 6.5 1
9 0 1 0 0 0 1 0 0 0 1 -27.99884 -8 -22.50032 0.5 6.5 1
9 0 1 0 0 0 1 0 0 0 1 -27.99884 -8 22.49968 0.5 6.5 1
9 0 1 0 0 0 1 0 0 0 1 36.50116 -2 -0.0003242493 1 0.5 4.5
9 0 1 0 0 0 1 0 0 0 1 27.00116 -2 -13.50032 1.5 0.5 3
9 0 1 0 0 0 1 0 0 0 1 -26.99884 -2 13.49968 1.5 0.5 3
9 0 1 0 0 0 1 0 0 0 1 -35.99884 -2 -0.5003242 0.5 0.5 9
9 0 1 0 0 0 1 0 0 0 1 24.00116 -2 -0.0003242493 0.5 0.5 8.5
9 0 1 0 0 0 1 0 0 0 1 -23.99884 -2 -0.0003242493 0.5 0.5 8.5
9 0 1 0 0 0 1 0 0 0 1 26.00116 -41 -17.00032 0.5 7.5 0.5
9 0 1 0 0 0 1 0 0 0 1 7.50116 -6 35.99968 1 3.5 0.5
9 0 1 0 0 0 1 0 0 0 1 0.001159668 -35.5 -34.00032 3.5 1 0.5
9 0 1 0 0 0 1 0 0 0 1 -7.49884 -6 -36.00032 1 3.5 0.5
9 0 1 0 0 0 1 0 0 0 1 6.50116 -12.5 -36.00032 1 3 0.5
9 0 1 0 0 0 1 0 0 0 1 0.5011597 -29.5 -35.00032 3 1 0.5
9 0 1 0 0 0 1 0 0 0 1 -0.4988403 -29.5 34.99968 3 1 0.5
9 0 1 0 0 0 1 0 0 0 1 -6.49884 -12.5 35.99968 1 3 0.5
9 0 1 0 0 0 1 0 0 0 1 26.00116 -6.5 -17.00032 0.5 5 0.5
9 0 1 0 0 0 1 0 0 0 1 6.50116 -12 35.99968 1 2.5 0.5
9 0 1 0 0 0 1 0 0 0 1 -6.49884 -12 -36.00032 1 2.5 0.5
9 0 1 0 0 0 1 0 0 0 1 -25.99884 -6.5 16.99968 0.5 5 0.5
9 0 1 0 0 0 1 0 0 0 1 29.00116 -2 19.99968 1.5 0.5 1.5
9 0 1 0 0 0 1 0 0 0 1 26.00116 -44 16.99968 0.5 4.5 0.5
9 0 1 0 0 0 1 0 0 0 1 -27.99884 -19 -22.00032 0.5 4.5 0.5
9 0 1 0 0 0 1 0 0 0 1 -28.99884 -2 -20.00032 1.5 0.5 1.5
9 0 1 0 0 0 1 0 0 0 1 -36.99884 -2 -0.0003242493 0.5 0.5 4.5
9 0 1 0 0 0 1 0 0 0 1 28.00116 -18.5 -22.00032 0.5 4 0.5
9 0 1 0 0 0 1 0 0 0 1 28.00116 -18.5 21.99968 0.5 4 0.5
9 0 1 0 0 0 1 0 0 0 1 26.00116 -18.5 -17.00032 0.5 4 0.5
9 0 1 0 0 0 1 0 0 0 1 7.50116 -6.5 -36.00032 1 2 0.5
9 0 1 0 0 0 1 0 0 0 1 -7.49884 -7.5 35.99968 1 2 0.5
9 0 1 0 0 0 1 0 0 0 1 -24.99884 -5.5 12.99968 0.5 4 0.5
9 0 1 0 0 0 1 0 0 0 1 -24.99884 -52.5 12.99968 0.5 4 0.5
9 0 1 0 0 0 1 0 0 0 1 -26.49884 -2 -14.50032 1 0.5 2
9 0 1 0 0 0 1 0 0 0 1 -27.99884 -18.5 21.99968 0.5 4 0.5
9 0 1 0 0 0 1 0 0 0 1 27.00116 -33 -20.00032 0.5 3.5 0.5
9 0 1 0 0 0 1 0 0 0 1 27.00116 -33 19.99968 0.5 3.5 0.5
9 0 1 0 0 0 1 0 0 0 1 0.001159668 -36 33.99968 3.5 0.5 0.5
9 0 1 0 0 0 1 0 0 0 1 -25.99884 -35 16.99968 0.5 3.5 0.5
9 0 1 0 0 0 1 0 0 0 1 -25.99884 -45 16.99968 0.5 3.5 0.5
9 0 1 0 0 0 1 0 0 0 1 -26.99884 -33 -20.00032 0.5 3.5 0.5
9 0 1 0 0 0 1 0 0 0 1 -26.99884 -33 19.99968 0.5 3.5 0.5
9 0 1 0 0 0 1 0 0 0 1 25.00116 -35.5 -13.00032 0.5 3 0.5
9 0 1 0 0 0 1 0 0 0 1 4.50116 -17 35.99968 1 1.5 0.5
9 0 1 0 0 0 1 0 0 0 1 4.00116 -27.5 34.99968 1.5 1 0.5
9 0 1 0 0 0 1 0 0 0 1 0.001159668 -10.5 -37.00032 1.5 1 0.5
9 0 1 0 0 0 1 0 0 0 1 0.001159668 -10.5 36.99968 1.5 1 0.5
9 0 1 0 0 0 1 0 0 0 1 0.001159668 -94 -0.5003242 1.5 0.5 1
9 0 1 0 0 0 1 0 0 0 1 -4.49884 -17 -36.00032 1 1.5 0.5
9 0 1 0 0 0 1 0 0 0 1 -3.99884 -27.5 34.99968 1.5 1 0.5
9 0 1 0 0 0 1 0 0 0 1 -10.99884 -8.5 -35.00032 0.5 3 0.5
9 0 1 0 0 0 1 0 0 0 1 -10.99884 -10.5 34.99968 0.5 3 0.5
9 0 1 0 0 0 1 0 0 0 1 -24.99884 -35.5 12.99968 0.5 3 0.5
9 0 1 0 0 0 1 0 0 0 1 -24.99884 -37.5 -13.00032 0.5 3 0.5
9 0 1 0 0 0 1 0 0 0 1 36.00116 -2 6.999676 0.5 0.5 2.5
9 0 1 0 0 0 1 0 0 0 1 31.00116 -2 -11.00032 2.5 0.5 0.5
9 0 1 0 0 0 1 0 0 0 1 26.00116 -34 16.99968 0.5 2.5 0.5
9 0 1 0 0 0 1 0 0 0 1 25.00116 -19 -13.00032 0.5 2.5 0.5
9 0 1 0 0 0 1 0 0 0 1 25.00116 -51 -13.00032 0.5 2.5 0.5
9 0 1 0 0 0 1 0 0 0 1 23.00116 -72 -0.0003242493 0.5 0.5 2.5
9 0 1 0 0 0 1 0 0 0 1 11.00116 -9 34.99968 0.5 2.5 0.5
9 0 1 0 0 0 1 0 0 0 1 5.00116 -16 -36.00032 0.5 2.5 0.5
9 0 1 0 0 0 1 0 0 0 1 3.00116 -4 36.99968 0.5 2.5 0.5
9 0 1 0 0 0 1 0 0 0 1 0.001159668 -22 -36.00032 2.5 0.5 0.5
9 0 1 0 0 0 1 0 0 0 1 0.001159668 -22 35.99968 2.5 0.5 0.5
9 0 1 0 0 0 1 0 0 0 1 0.001159668 -42 -33.00032 2.5 0.5 0.5
9 0 1 0 0 0 1 0 0 0 1 0.001159668 -42 32.99968 2.5 0.5 0.5
9 0 1 0 0 0 1 0 0 0 1 0.001159668 -93 -4.000324 2.5 0.5 0.5
9 0 1 0 0 0 1 0 0 0 1 -2.99884 -4 -37.00032 0.5 2.5 0.5
9 0 1 0 0 0 1 0 0 0 1 -4.99884 -16 35.99968 0.5 2.5 0.5
9 0 1 0 0 0 1 0 0 0 1 -22.99884 -72 -0.0003242493 0.5 0.5 2.5
9 0 1 0 0 0 1 0 0 0 1 -24.99884 -19 12.99968 0.5 2.5 0.5
9 0 1 0 0 0 1 0 0 0 1 -25.99884 -34 -17.00032 0.5 2.5 0.5
9 0 1 0 0 0 1 0 0 0 1 -30.99884 -2 10.99968 2.5 0.5 0.5
9 0 1 0 0 0 1 0 0 0 1 36.00116 -2 -6.500324 0.5 0.5 2
9 0 1 0 0 0 1 0 0 0 1 33.50116 -2 13.49968 1 0.5 1
9 0 1 0 0 0 1 0 0 0 1 26.00116 -2 14.49968 0.5 0.5 2
9 0 1 0 0 0 1 0 0 0 1 25.00116 -3.5 -13.00032 0.5 2 0.5
9 0 1 0 0 0 1 0 0 0 1 25.00116 -29.5 12.99968 0.5 2 0.5
9 0 1 0 0 0 1 0 0 0 1 25.00116 -36.5 12.99968 0.5 2 0.5
9 0 1 0 0 0 1 0 0 0 1 25.00116 -52.5 12.99968 0.5 2 0.5
9 0 1 0 0 0 1 0 0 0 1 8.50116 -2.5 -36.00032 1 1 0.5
9 0 1 0 0 0 1 0 0 0 1 4.50116 -27.5 -35.00032 1 1 0.5
9 0 1 0 0 0 1 0 0 0 1 3.00116 -3.5 -37.00032 0.5 2 0.5
9 0 1 0 0 0 1 0 0 0 1 -0.4988403 -37 -34.00032 2 0.5 0.5
9 0 1 0 0 0 1 0 0 0 1 -2.99884 -3.5 36.99968 0.5 2 0.5
9 0 1 0 0 0 1 0 0 0 1 -3.49884 -28.5 -35.00032 1 1 0.5
9 0 1 0 0 0 1 0 0 0 1 -7.99884 -3.5 35.99968 0.5 2 0.5
9 0 1 0 0 0 1 0 0 0 1 -24.99884 -22.5 -13.00032 0.5 2 0.5
9 0 1 0 0 0 1 0 0 0 1 -24.99884 -29.5 -13.00032 0.5 2 0.5
9 0 1 0 0 0 1 0 0 0 1 -24.99884 -45.5 -13.00032 0.5 2 0.5
9 0 1 0 0 0 1 0 0 0 1 -24.99884 -52.5 -13.00032 0.5 2 0.5
9 0 1 0 0 0 1 0 0 0 1 -25.99884 -20.5 16.99968 0.5 2 0.5
9 0 1 0 0 0 1 0 0 0 1 -25.99884 -45.5 -17.50032 0.5 1 1
9 0 1 0 0 0 1 0 0 0 1 -32.99884 -2 -14.50032 0.5 0.5 2
9 0 1 0 0 0 1 0 0 0 1 27.00116 -2 -18.00032 0.5 0.5 1.5
9 0 1 0 0 0 1 0 0 0 1 27.00116 -31 -21.00032 0.5 1.5 0.5
9 0 1 0 0 0 1 0 0 0 1 27.00116 -31 20.99968 0.5 1.5 0.5
9 0 1 0 0 0 1 0 0 0 1 26.00116 -27 -17.00032 0.5 1.5 0.5
9 0 1 0 0 0 1 0 0 0 1 25.00116 -16 12.99968 0.5 1.5 0.5
9 0 1 0 0 0 1 0 0 0 1 23.00116 -16 -6.000324 0.5 1.5 0.5
9 0 1 0 0 0 1 0 0 0 1 23.00116 -16 5.999676 0.5 1.5 0.5
9 0 1 0 0 0 1 0 0 0 1 12.00116 -3 -35.00032 0.5 1.5 0.5
9 0 1 0 0 0 1 0 0 0 1 11.00116 -9 -35.00032 0.5 1.5 0.5
9 0 1 0 0 0 1 0 0 0 1 5.00116 -14 35.99968 0.5 1.5 0.5
9 0 1 0 0 0 1 0 0 0 1 4.00116 -18 -36.00032 0.5 1.5 0.5
9 0 1 0 0 0 1 0 0 0 1 4.00116 -93 -0.0003242493 0.5 0.5 1.5
9 0 1 0 0 0 1 0 0 0 1 0.001159668 -37 33.99968 1.5 0.5 0.5
9 0 1 0 0 0 1 0 0 0 1 0.001159668 -93 3.999676 1.5 0.5 0.5
9 0 1 0 0 0 1 0 0 0 1 -3.99884 -18 35.99968 0.5 1.5 0.5
9 0 1 0 0 0 1 0 0 0 1 -3.99884 -93 -0.0003242493 0.5 0.5 1.5
9 0 1 0 0 0 1 0 0 0 1 -4.99884 -14 -36.00032 0.5 1.5 0.5
9 0 1 0 0 0 1 0 0 0 1 -11.99884 -3 34.99968 0.5 1.5 0.5
9 0 1 0 0 0 1 0 0 0 1 -24.99884 -16 -13.00032 0.5 1.5 0.5
9 0 1 0 0 0 1 0 0 0 1 -26.99884 -2 -18.00032 0.5 0.5 1.5
9 0 1 0 0 0 1 0 0 0 1 -26.99884 -2 17.99968 0.5 0.5 1.5
9 0 1 0 0 0 1 0 0 0 1 -26.99884 -31 -21.00032 0.5 1.5 0.5
9 0 1 0 0 0 1 0 0 0 1 -26.99884 -31 20.99968 0.5 1.5 0.5
