9 0 1 0 0 0 1 0 0 0 1 29.75 -33.976 9.75 0.5 3.5 3
9 0 1 0 0 0 1 0 0 0 1 10.25 -33.976 -9.75 3 3.5 0.5
9 0 1 0 0 0 1 0 0 0 1 32.75 -40.476 10.25 0.5 2 3.5
9 0 1 0 0 0 1 0 0 0 1 10.25 -25.976 29.25 2 3.5 0.5
9 0 1 0 0 0 1 0 0 0 1 9.75 -40.476 -12.75 3.5 2 0.5
9 0 1 0 0 0 1 0 0 0 1 -9.25 -25.976 9.75 0.5 3.5 2
9 0 1 0 0 0 1 0 0 0 1 10.25 -39.476 32.25 6 1 0.5
9 0 1 0 0 0 1 0 0 0 1 -12.25 -39.476 9.75 0.5 1 6
9 0 1 0 0 0 1 0 0 0 1 10.25 -35.976 30.25 2 2.5 0.5
9 0 1 0 0 0 1 0 0 0 1 -10.25 -35.976 9.75 0.5 2.5 2
9 0 1 0 0 0 1 0 0 0 1 28.75 -31.476 16.25 0.5 3 1.5
9 0 1 0 0 0 1 0 0 0 1 14.75 -34.476 29.25 1.5 3 0.5
9 0 1 0 0 0 1 0 0 0 1 4.75 -35.476 29.25 1.5 3 0.5
9 0 1 0 0 0 1 0 0 0 1 3.75 -31.476 -8.75 1.5 3 0.5
9 0 1 0 0 0 1 0 0 0 1 -9.25 -31.476 6.25 0.5 3 1.5
9 0 1 0 0 0 1 0 0 0 1 -9.25 -35.476 15.25 0.5 3 1.5
9 0 1 0 0 0 1 0 0 0 1 28.75 -28.976 4.75 0.5 3.5 1
9 0 1 0 0 0 1 0 0 0 1 28.75 -34.976 2.75 0.5 3.5 1
9 0 1 0 0 0 1 0 0 0 1 16.25 -31.976 -8.75 1 3.5 0.5
9 0 1 0 0 0 1 0 0 0 1 31.75 -39.476 15.75 0.5 1 3
9 0 1 0 0 0 1 0 0 0 1 29.75 -28.476 10.25 0.5 2 1.5
9 0 1 0 0 0 1 0 0 0 1 28.75 -18.476 10.25 0.5 2 1.5
9 0 1 0 0 0 1 0 0 0 1 16.75 -40.476 -11.75 1.5 2 0.5
9 0 1 0 0 0 1 0 0 0 1 9.75 -18.476 -8.75 1.5 2 0.5
9 0 1 0 0 0 1 0 0 0 1 9.75 -28.476 -9.75 1.5 2 0.5
9 0 1 0 0 0 1 0 0 0 1 9.75 -41.476 33.25 1.5 2 0.5
9 0 1 0 0 0 1 0 0 0 1 7.25 -29.476 29.25 1 3 0.5
9 0 1 0 0 0 1 0 0 0 1 4.25 -39.476 -11.75 3 1 0.5
9 0 1 0 0 0 1 0 0 0 1 -9.25 -29.476 12.75 0.5 3 1
9 0 1 0 0 0 1 0 0 0 1 -9.25 -35.976 4.75 0.5 1.5 2
9 0 1 0 0 0 1 0 0 0 1 -13.25 -41.476 10.25 0.5 2 1.5
9 0 1 0 0 0 1 0 0 0 1 31.75 -39.476 4.25 0.5 1 2.5
9 0 1 0 0 0 1 0 0 0 1 29.75 -35.976 13.75 0.5 2.5 1
9 0 1 0 0 0 1 0 0 0 1 6.25 -24.976 -8.75 1 2.5 0.5
9 0 1 0 0 0 1 0 0 0 1 6.25 -35.976 -9.75 1 2.5 0.5
9 0 1 0 0 0 1 0 0 0 1 28.75 -25.976 14.25 0.5 1.5 1.5
9 0 1 0 0 0 1 0 0 0 1 14.75 -26.976 -8.75 1.5 1.5 0.5
9 0 1 0 0 0 1 0 0 0 1 29.75 -36.476 5.75 0.5 2 1
9 0 1 0 0 0 1 0 0 0 1 17.25 -39.476 31.25 2 1 0.5
9 0 1 0 0 0 1 0 0 0 1 14.25 -36.476 -9.75 1 2 0.5
9 0 1 0 0 0 1 0 0 0 1 15.25 -41.476 32.25 2 1 0.5
9 0 1 0 0 0 1 0 0 0 1 13.25 -29.476 29.25 1 2 0.5
9 0 1 0 0 0 1 0 0 0 1 4.25 -23.476 28.25 1 2 0.5
9 0 1 0 0 0 1 0 0 0 1 -8.25 -7.476002 10.25 0.5 4 0.5
9 0 1 0 0 0 1 0 0 0 1 -8.25 -23.476 15.75 0.5 2 1
9 0 1 0 0 0 1 0 0 0 1 -12.25 -41.476 4.75 0.5 1 2
9 0 1 0 0 0 1 0 0 0 1 16.75 -26.976 28.25 0.5 3.5 0.5
9 0 1 0 0 0 1 0 0 0 1 2.75 -29.976 28.25 0.5 3.5 0.5
9 0 1 0 0 0 1 0 0 0 1 -8.25 -26.976 3.25 0.5 3.5 0.5
9 0 1 0 0 0 1 0 0 0 1 32.75 -42.976 14.75 0.5 1.5 1
9 0 1 0 0 0 1 0 0 0 1 31.75 -41.476 17.25 0.5 1 1.5
9 0 1 0 0 0 1 0 0 0 1 28.75 -22.476 7.25 0.5 3 0.5
9 0 1 0 0 0 1 0 0 0 1 28.75 -35.976 16.75 0.5 1.5 1
9 0 1 0 0 0 1 0 0 0 1 17.75 -35.476 -8.75 0.5 3 0.5
9 0 1 0 0 0 1 0 0 0 1 13.25 -23.976 -8.75 1 1.5 0.5
9 0 1 0 0 0 1 0 0 0 1 4.75 -41.476 32.25 1.5 1 0.5
9 0 1 0 0 0 1 0 0 0 1 3.25 -35.976 -8.75 1 1.5 0.5
9 0 1 0 0 0 1 0 0 0 1 2.75 -39.476 31.25 1.5 1 0.5
9 0 1 0 0 0 1 0 0 0 1 -8.25 -21.976 4.75 0.5 1.5 1
9 0 1 0 0 0 1 0 0 0 1 -8.25 -29.476 17.25 0.5 3 0.5
9 0 1 0 0 0 1 0 0 0 1 -11.25 -39.476 2.25 0.5 1 1.5
9 0 1 0 0 0 1 0 0 0 1 -11.25 -39.476 17.25 0.5 1 1.5
9 0 1 0 0 0 1 0 0 0 1 -12.25 -41.476 15.25 0.5 1 1.5
9 0 1 0 0 0 1 0 0 0 1 28.75 -20.976 12.25 0.5 2.5 0.5
9 0 1 0 0 0 1 0 0 0 1 28.75 -25.976 6.25 0.5 2.5 0.5
9 0 1 0 0 0 1 0 0 0 1 26.75 -35.976 -0.75 0.5 2.5 0.5
9 0 1 0 0 0 1 0 0 0 1 25.75 -32.976 -1.75 0.5 2.5 0.5
9 0 1 0 0 0 1 0 0 0 1 25.75 -35.976 22.25 0.5 2.5 0.5
9 0 1 0 0 0 1 0 0 0 1 21.75 -32.976 -5.75 0.5 2.5 0.5
9 0 1 0 0 0 1 0 0 0 1 20.75 -35.976 -6.75 0.5 2.5 0.5
9 0 1 0 0 0 1 0 0 0 1 19.75 -34.976 27.25 0.5 2.5 0.5
9 0 1 0 0 0 1 0 0 0 1 16.75 -35.976 29.25 0.5 2.5 0.5
9 0 1 0 0 0 1 0 0 0 1 15.75 -23.976 28.25 0.5 2.5 0.5
9 0 1 0 0 0 1 0 0 0 1 14.75 -3.976002 27.25 0.5 2.5 0.5
9 0 1 0 0 0 1 0 0 0 1 7.75 -20.976 -8.75 0.5 2.5 0.5
9 0 1 0 0 0 1 0 0 0 1 -2.25 -35.976 -5.75 0.5 2.5 0.5
9 0 1 0 0 0 1 0 0 0 1 -7.25 -3.976002 5.25 0.5 2.5 0.5
9 0 1 0 0 0 1 0 0 0 1 -7.25 -34.976 0.25 0.5 2.5 0.5
9 0 1 0 0 0 1 0 0 0 1 33.75 -44.476 9.75 0.5 1 1
9 0 1 0 0 0 1 0 0 0 1 32.75 -41.476 6.25 0.5 2 0.5
9 0 1 0 0 0 1 0 0 0 1 31.75 -41.476 2.75 0.5 1 1
9 0 1 0 0 0 1 0 0 0 1 30.75 -37.476 9.75 0.5 1 1
9 0 1 0 0 0 1 0 0 0 1 30.75 -38.976 1.75 0.5 0.5 2
9 0 1 0 0 0 1 0 0 0 1 30.75 -39.476 18.75 0.5 1 1
9 0 1 0 0 0 1 0 0 0 1 28.75 -19.476 8.25 0.5 2 0.5
9 0 1 0 0 0 1 0 0 0 1 27.75 -19.476 3.25 0.5 2 0.5
9 0 1 0 0 0 1 0 0 0 1 27.75 -34.476 19.25 0.5 2 0.5
9 0 1 0 0 0 1 0 0 0 1 27.75 -39.476 23.75 0.5 1 1
9 0 1 0 0 0 1 0 0 0 1 26.75 -31.476 20.25 0.5 2 0.5
9 0 1 0 0 0 1 0 0 0 1 25.75 -28.476 21.25 0.5 2 0.5
9 0 1 0 0 0 1 0 0 0 1 24.75 -35.476 -3.75 0.5 2 0.5
9 0 1 0 0 0 1 0 0 0 1 23.75 -35.476 -4.75 0.5 2 0.5
9 0 1 0 0 0 1 0 0 0 1 22.75 -34.476 25.25 0.5 2 0.5
9 0 1 0 0 0 1 0 0 0 1 21.75 -36.476 26.25 0.5 2 0.5
9 0 1 0 0 0 1 0 0 0 1 18.75 -36.476 28.25 0.5 2 0.5
9 0 1 0 0 0 1 0 0 0 1 19.25 -39.476 -10.75 1 1 0.5
9 0 1 0 0 0 1 0 0 0 1 17.75 -31.476 28.25 0.5 2 0.5
9 0 1 0 0 0 1 0 0 0 1 16.75 -19.476 -7.75 0.5 2 0.5
9 0 1 0 0 0 1 0 0 0 1 14.75 -21.476 28.25 0.5 2 0.5
9 0 1 0 0 0 1 0 0 0 1 14.75 -30.476 -8.75 0.5 2 0.5
9 0 1 0 0 0 1 0 0 0 1 13.75 -18.476 28.25 0.5 2 0.5
9 0 1 0 0 0 1 0 0 0 1 14.25 -39.476 -11.75 1 1 0.5
9 0 1 0 0 0 1 0 0 0 1 14.25 -42.476 -12.75 1 1 0.5
9 0 1 0 0 0 1 0 0 0 1 12.25 -20.476 -8.75 1 1 0.5
9 0 1 0 0 0 1 0 0 0 1 12.25 -43.476 33.25 1 1 0.5
9 0 1 0 0 0 1 0 0 0 1 10.25 -21.476 29.25 1 1 0.5
9 0 1 0 0 0 1 0 0 0 1 10.25 -32.476 30.25 1 1 0.5
9 0 1 0 0 0 1 0 0 0 1 10.25 -37.476 -10.75 1 1 0.5
9 0 1 0 0 0 1 0 0 0 1 10.25 -44.476 -13.75 1 1 0.5
9 0 1 0 0 0 1 0 0 0 1 7.75 -36.476 30.25 0.5 2 0.5
9 0 1 0 0 0 1 0 0 0 1 5.75 -19.476 28.25 0.5 2 0.5
9 0 1 0 0 0 1 0 0 0 1 5.75 -30.476 29.25 0.5 2 0.5
9 0 1 0 0 0 1 0 0 0 1 5.75 -42.476 -12.75 0.5 2 0.5
9 0 1 0 0 0 1 0 0 0 1 4.75 -26.476 -8.75 0.5 2 0.5
9 0 1 0 0 0 1 0 0 0 1 2.75 -22.476 -7.75 0.5 2 0.5
9 0 1 0 0 0 1 0 0 0 1 2.75 -36.476 29.25 0.5 2 0.5
9 0 1 0 0 0 1 0 0 0 1 3.25 -40.976 -11.75 2 0.5 0.5
9 0 1 0 0 0 1 0 0 0 1 1.25 -39.476 -10.75 1 1 0.5
9 0 1 0 0 0 1 0 0 0 1 -0.25 -36.476 27.25 0.5 2 0.5
9 0 1 0 0 0 1 0 0 0 1 -1.25 -28.476 -5.75 0.5 2 0.5
9 0 1 0 0 0 1 0 0 0 1 -1.75 -39.476 29.25 1 1 0.5
9 0 1 0 0 0 1 0 0 0 1 -3.25 -36.476 25.25 0.5 2 0.5
9 0 1 0 0 0 1 0 0 0 1 -4.25 -33.476 24.25 0.5 2 0.5
9 0 1 0 0 0 1 0 0 0 1 -5.25 -34.476 -2.75 0.5 2 0.5
9 0 1 0 0 0 1 0 0 0 1 -5.25 -36.476 23.25 0.5 2 0.5
9 0 1 0 0 0 1 0 0 0 1 -7.25 -30.476 19.25 0.5 2 0.5
9 0 1 0 0 0 1 0 0 0 1 -7.25 -36.476 20.25 0.5 2 0.5
9 0 1 0 0 0 1 0 0 0 1 -8.25 -18.476 6.25 0.5 2 0.5
9 0 1 0 0 0 1 0 0 0 1 -8.25 -19.476 14.25 0.5 2 0.5
9 0 1 0 0 0 1 0 0 0 1 -8.25 -31.476 2.25 0.5 2 0.5
9 0 1 0 0 0 1 0 0 0 1 -8.25 -36.476 1.25 0.5 2 0.5
9 0 1 0 0 0 1 0 0 0 1 -9.25 -21.476 9.75 0.5 1 1
9 0 1 0 0 0 1 0 0 0 1 -9.25 -30.476 14.25 0.5 2 0.5
9 0 1 0 0 0 1 0 0 0 1 -9.25 -37.976 3.75 0.5 0.5 2
9 0 1 0 0 0 1 0 0 0 1 -9.25 -36.476 17.25 0.5 2 0.5
9 0 1 0 0 0 1 0 0 0 1 -9.25 -39.476 21.75 0.5 1 1
9 0 1 0 0 0 1 0 0 0 1 -10.25 -32.476 9.75 0.5 1 1
9 0 1 0 0 0 1 0 0 0 1 -10.25 -36.476 12.25 0.5 2 0.5
9 0 1 0 0 0 1 0 0 0 1 -13.25 -42.476 8.25 0.5 2 0.5
9 0 1 0 0 0 1 0 0 0 1 32.75 -42.976 5.25 0.5 1.5 0.5
9 0 1 0 0 0 1 0 0 0 1 30.75 -40.976 20.25 0.5 1.5 0.5
9 0 1 0 0 0 1 0 0 0 1 29.75 -36.976 15.25 0.5 1.5 0.5
9 0 1 0 0 0 1 0 0 0 1 29.75 -39.976 21.25 0.5 1.5 0.5
9 0 1 0 0 0 1 0 0 0 1 28.75 -22.976 13.25 0.5 1.5 0.5
9 0 1 0 0 0 1 0 0 0 1 28.75 -27.976 15.25 0.5 0.5 1.5
9 0 1 0 0 0 1 0 0 0 1 28.75 -29.976 3.25 0.5 1.5 0.5
9 0 1 0 0 0 1 0 0 0 1 28.75 -33.976 4.25 0.5 1.5 0.5
9 0 1 0 0 0 1 0 0 0 1 27.75 -16.976 4.25 0.5 1.5 0.5
9 0 1 0 0 0 1 0 0 0 1 27.75 -17.976 16.25 0.5 1.5 0.5
9 0 1 0 0 0 1 0 0 0 1 27.75 -21.976 17.25 0.5 1.5 0.5
9 0 1 0 0 0 1 0 0 0 1 27.75 -24.976 2.25 0.5 1.5 0.5
9 0 1 0 0 0 1 0 0 0 1 26.75 -36.976 21.25 0.5 1.5 0.5
9 0 1 0 0 0 1 0 0 0 1 24.75 -31.976 23.25 0.5 1.5 0.5
9 0 1 0 0 0 1 0 0 0 1 24.75 -39.976 27.25 0.5 1.5 0.5
9 0 1 0 0 0 1 0 0 0 1 21.75 -39.976 29.25 0.5 1.5 0.5
9 0 1 0 0 0 1 0 0 0 1 18.75 -25.976 27.25 0.5 1.5 0.5
9 0 1 0 0 0 1 0 0 0 1 16.75 -36.976 -8.75 0.5 1.5 0.5
9 0 1 0 0 0 1 0 0 0 1 15.75 -16.976 -7.75 0.5 1.5 0.5
9 0 1 0 0 0 1 0 0 0 1 16.75 -42.976 32.25 1.5 0.5 0.5
9 0 1 0 0 0 1 0 0 0 1 12.75 -25.976 29.25 0.5 1.5 0.5
9 0 1 0 0 0 1 0 0 0 1 12.75 -32.976 29.25 0.5 1.5 0.5
9 0 1 0 0 0 1 0 0 0 1 12.75 -36.976 30.25 0.5 1.5 0.5
9 0 1 0 0 0 1 0 0 0 1 9.75 -2.976002 28.25 0.5 1.5 0.5
9 0 1 0 0 0 1 0 0 0 1 7.75 -42.976 33.25 0.5 1.5 0.5
9 0 1 0 0 0 1 0 0 0 1 6.75 -16.976 28.25 0.5 1.5 0.5
9 0 1 0 0 0 1 0 0 0 1 6.75 -33.976 29.25 0.5 1.5 0.5
9 0 1 0 0 0 1 0 0 0 1 5.75 -28.976 -8.75 0.5 1.5 0.5
9 0 1 0 0 0 1 0 0 0 1 4.75 -15.976 -7.75 0.5 1.5 0.5
9 0 1 0 0 0 1 0 0 0 1 4.75 -36.976 -9.75 0.5 1.5 0.5
9 0 1 0 0 0 1 0 0 0 1 3.75 -17.976 -7.75 0.5 1.5 0.5
9 0 1 0 0 0 1 0 0 0 1 3.75 -26.976 28.25 0.5 1.5 0.5
9 0 1 0 0 0 1 0 0 0 1 3.75 -42.976 32.25 1.5 0.5 0.5
9 0 1 0 0 0 1 0 0 0 1 1.75 -33.976 28.25 0.5 1.5 0.5
9 0 1 0 0 0 1 0 0 0 1 1.75 -36.976 -8.75 0.5 1.5 0.5
9 0 1 0 0 0 1 0 0 0 1 0.75 -30.976 27.25 0.5 1.5 0.5
9 0 1 0 0 0 1 0 0 0 1 0.75 -34.976 -7.75 0.5 1.5 0.5
9 0 1 0 0 0 1 0 0 0 1 1.75 -40.976 31.25 1.5 0.5 0.5
9 0 1 0 0 0 1 0 0 0 1 -0.25 -31.976 -6.75 0.5 1.5 0.5
9 0 1 0 0 0 1 0 0 0 1 -0.25 -40.976 -10.75 0.5 1.5 0.5
9 0 1 0 0 0 1 0 0 0 1 -1.25 -32.976 26.25 0.5 1.5 0.5
9 0 1 0 0 0 1 0 0 0 1 -1.25 -36.976 -6.75 0.5 1.5 0.5
9 0 1 0 0 0 1 0 0 0 1 -1.25 -39.976 -9.75 0.5 1.5 0.5
9 0 1 0 0 0 1 0 0 0 1 -2.25 -29.976 25.25 0.5 1.5 0.5
9 0 1 0 0 0 1 0 0 0 1 -3.25 -39.976 28.25 0.5 1.5 0.5
9 0 1 0 0 0 1 0 0 0 1 -4.25 -39.976 -7.75 0.5 1.5 0.5
9 0 1 0 0 0 1 0 0 0 1 -5.25 -29.976 22.25 0.5 1.5 0.5
9 0 1 0 0 0 1 0 0 0 1 -5.25 -40.976 27.25 0.5 1.5 0.5
9 0 1 0 0 0 1 0 0 0 1 -6.25 -32.976 21.25 0.5 1.5 0.5
9 0 1 0 0 0 1 0 0 0 1 -6.25 -36.976 -1.75 0.5 1.5 0.5
9 0 1 0 0 0 1 0 0 0 1 -7.25 -25.976 1.25 0.5 1.5 0.5
9 0 1 0 0 0 1 0 0 0 1 -7.25 -39.976 -4.75 0.5 1.5 0.5
9 0 1 0 0 0 1 0 0 0 1 -8.25 -16.976 13.25 0.5 1.5 0.5
9 0 1 0 0 0 1 0 0 0 1 -8.25 -24.976 4.25 0.5 1.5 0.5
9 0 1 0 0 0 1 0 0 0 1 -8.25 -26.976 16.25 0.5 1.5 0.5
9 0 1 0 0 0 1 0 0 0 1 -8.25 -33.976 18.25 0.5 1.5 0.5
9 0 1 0 0 0 1 0 0 0 1 -8.25 -39.976 23.25 0.5 1.5 0.5
9 0 1 0 0 0 1 0 0 0 1 -8.25 -40.976 -3.75 0.5 1.5 0.5
9 0 1 0 0 0 1 0 0 0 1 -9.25 -26.976 7.25 0.5 1.5 0.5
9 0 1 0 0 0 1 0 0 0 1 -9.25 -32.976 4.25 0.5 1.5 0.5
9 0 1 0 0 0 1 0 0 0 1 -9.25 -33.976 13.25 0.5 1.5 0.5
9 0 1 0 0 0 1 0 0 0 1 -9.25 -39.976 -1.75 0.5 1.5 0.5
9 0 1 0 0 0 1 0 0 0 1 -11.25 -40.976 19.25 0.5 1.5 0.5
9 0 1 0 0 0 1 0 0 0 1 -12.25 -42.976 3.25 0.5 0.5 1.5
9 0 1 0 0 0 1 0 0 0 1 -12.25 -42.976 16.25 0.5 0.5 1.5
9 0 1 0 0 0 1 0 0 0 1 -13.25 -42.976 12.25 0.5 1.5 0.5
