9 0 1 0 0 0 1 0 0 0 1 78 17.5 0 0.5 16 8.5
9 0 1 0 0 0 1 0 0 0 1 -78 17.5 0 0.5 16 8.5
9 0 1 0 0 0 1 0 0 0 1 98 37.5 0 0.5 12 8.5
9 0 1 0 0 0 1 0 0 0 1 -98 37.5 0 0.5 12 8.5
9 0 1 0 0 0 1 0 0 0 1 118 60 0 0.5 10.5 8.5
9 0 1 0 0 0 1 0 0 0 1 102 60 0 0.5 10.5 8.5
9 0 1 0 0 0 1 0 0 0 1 -102 60 0 0.5 10.5 8.5
9 0 1 0 0 0 1 0 0 0 1 -118 60 0 0.5 10.5 8.5
9 0 1 0 0 0 1 0 0 0 1 110 60 -8 7.5 10.5 0.5
9 0 1 0 0 0 1 0 0 0 1 110 60 8 7.5 10.5 0.5
9 0 1 0 0 0 1 0 0 0 1 -110 60 -8 7.5 10.5 0.5
9 0 1 0 0 0 1 0 0 0 1 -110 60 8 7.5 10.5 0.5
9 0 1 0 0 0 1 0 0 0 1 41 8.5 0 0.5 7 8.5
9 0 1 0 0 0 1 0 0 0 1 -41 8.5 0 0.5 7 8.5
9 0 1 0 0 0 1 0 0 0 1 0 8 0 0.5 6.5 8.5
9 0 1 0 0 0 1 0 0 0 1 110 46 0 3.5 0.5 2.5
9 0 1 0 0 0 1 0 0 0 1 90 22 0 3.5 0.5 2.5
9 0 1 0 0 0 1 0 0 0 1 70 -2 0 3.5 0.5 2.5
9 0 1 0 0 0 1 0 0 0 1 50 -2 0 3.5 0.5 2.5
9 0 1 0 0 0 1 0 0 0 1 30 -2 0 3.5 0.5 2.5
9 0 1 0 0 0 1 0 0 0 1 10 -2 0 3.5 0.5 2.5
9 0 1 0 0 0 1 0 0 0 1 -10 -2 0 3.5 0.5 2.5
9 0 1 0 0 0 1 0 0 0 1 -30 -2 0 3.5 0.5 2.5
9 0 1 0 0 0 1 0 0 0 1 -50 -2 0 3.5 0.5 2.5
9 0 1 0 0 0 1 0 0 0 1 -70 -2 0 3.5 0.5 2.5
9 0 1 0 0 0 1 0 0 0 1 -90 22 0 3.5 0.5 2.5
9 0 1 0 0 0 1 0 0 0 1 -110 46 0 3.5 0.5 2.5
9 0 1 0 0 0 1 0 0 0 1 110 46 -3 2.5 0.5 0.5
9 0 1 0 0 0 1 0 0 0 1 110 46 3 2.5 0.5 0.5
9 0 1 0 0 0 1 0 0 0 1 90 22 -3 2.5 0.5 0.5
9 0 1 0 0 0 1 0 0 0 1 90 22 3 2.5 0.5 0.5
9 0 1 0 0 0 1 0 0 0 1 70 -2 -3 2.5 0.5 0.5
9 0 1 0 0 0 1 0 0 0 1 70 -2 3 2.5 0.5 0.5
9 0 1 0 0 0 1 0 0 0 1 50 -2 -3 2.5 0.5 0.5
9 0 1 0 0 0 1 0 0 0 1 50 -2 3 2.5 0.5 0.5
9 0 1 0 0 0 1 0 0 0 1 30 -2 -3 2.5 0.5 0.5
9 0 1 0 0 0 1 0 0 0 1 30 -2 3 2.5 0.5 0.5
9 0 1 0 0 0 1 0 0 0 1 10 -2 -3 2.5 0.5 0.5
9 0 1 0 0 0 1 0 0 0 1 10 -2 3 2.5 0.5 0.5
9 0 1 0 0 0 1 0 0 0 1 -10 -2 -3 2.5 0.5 0.5
9 0 1 0 0 0 1 0 0 0 1 -10 -2 3 2.5 0.5 0.5
9 0 1 0 0 0 1 0 0 0 1 -30 -2 -3 2.5 0.5 0.5
9 0 1 0 0 0 1 0 0 0 1 -30 -2 3 2.5 0.5 0.5
9 0 1 0 0 0 1 0 0 0 1 -50 -2 -3 2.5 0.5 0.5
9 0 1 0 0 0 1 0 0 0 1 -50 -2 3 2.5 0.5 0.5
9 0 1 0 0 0 1 0 0 0 1 -70 -2 -3 2.5 0.5 0.5
9 0 1 0 0 0 1 0 0 0 1 -70 -2 3 2.5 0.5 0.5
9 0 1 0 0 0 1 0 0 0 1 -90 22 -3 2.5 0.5 0.5
9 0 1 0 0 0 1 0 0 0 1 -90 22 3 2.5 0.5 0.5
9 0 1 0 0 0 1 0 0 0 1 -110 46 -3 2.5 0.5 0.5
9 0 1 0 0 0 1 0 0 0 1 -110 46 3 2.5 0.5 0.5
