9 0 1 0 0 0 1 0 0 0 1 0.1380005 17.042 16.824 6 7 2
9 0 1 0 0 0 1 0 0 0 1 -9.362 22.042 14.324 2.5 11 1.5
9 0 1 0 0 0 1 0 0 0 1 9.138 19.542 15.324 2 5.5 2.5
9 0 1 0 0 0 1 0 0 0 1 -2.362 30.042 15.824 4.5 6 1
9 0 1 0 0 0 1 0 0 0 1 -13.362 12.542 10.324 1.5 6.5 2.5
9 0 1 0 0 0 1 0 0 0 1 -0.3619995 7.042 16.324 4.5 3 1.5
9 0 1 0 0 0 1 0 0 0 1 5.138 20.042 14.324 2 18 0.5
9 0 1 0 0 0 1 0 0 0 1 -4.862 18.542 14.324 2 16.5 0.5
9 0 1 0 0 0 1 0 0 0 1 -8.362 18.042 16.824 2.5 5 1
9 0 1 0 0 0 1 0 0 0 1 -14.862 9.042 5.324001 1 5 2.5
9 0 1 0 0 0 1 0 0 0 1 0.6380005 18.042 19.324 5.5 4 0.5
9 0 1 0 0 0 1 0 0 0 1 5.138 32.042 15.324 3 7 0.5
9 0 1 0 0 0 1 0 0 0 1 14.638 13.542 2.324001 0.5 5.5 3.5
9 0 1 0 0 0 1 0 0 0 1 13.138 16.542 9.824001 1 4.5 2
9 0 1 0 0 0 1 0 0 0 1 -10.862 12.542 11.824 1 8.5 1
9 0 1 0 0 0 1 0 0 0 1 12.138 21.042 13.824 1 4 2
9 0 1 0 0 0 1 0 0 0 1 8.638 11.042 14.324 1.5 3 1.5
9 0 1 0 0 0 1 0 0 0 1 0.1380005 -2.958 8.824001 6 1 1
9 0 1 0 0 0 1 0 0 0 1 -8.362 7.042 13.824 1.5 4 1
9 0 1 0 0 0 1 0 0 0 1 6.638 17.542 16.324 0.5 7.5 1.5
9 0 1 0 0 0 1 0 0 0 1 -12.362 23.542 14.324 0.5 7.5 1.5
9 0 1 0 0 0 1 0 0 0 1 10.138 16.042 12.324 1 11 0.5
9 0 1 0 0 0 1 0 0 0 1 -0.3619995 -2.958 -8.675999 3.5 1 1.5
9 0 1 0 0 0 1 0 0 0 1 -8.862 -2.958 1.824001 1 1 5
9 0 1 0 0 0 1 0 0 0 1 -1.362 30.042 17.324 1.5 6 0.5
9 0 1 0 0 0 1 0 0 0 1 -15.362 14.542 9.324001 0.5 5.5 1.5
9 0 1 0 0 0 1 0 0 0 1 9.138 27.042 13.824 2 2 1
9 0 1 0 0 0 1 0 0 0 1 -6.862 8.042 15.824 2 2 1
9 0 1 0 0 0 1 0 0 0 1 11.138 13.542 11.324 1 7.5 0.5
9 0 1 0 0 0 1 0 0 0 1 -8.862 8.542 12.324 1 7.5 0.5
9 0 1 0 0 0 1 0 0 0 1 -12.862 3.542 9.324001 1 2.5 1.5
9 0 1 0 0 0 1 0 0 0 1 14.138 16.542 6.824001 1 3.5 1
9 0 1 0 0 0 1 0 0 0 1 -7.862 17.542 18.324 2 3.5 0.5
9 0 1 0 0 0 1 0 0 0 1 1.638 25.542 18.324 1.5 1.5 1.5
9 0 1 0 0 0 1 0 0 0 1 -1.362 2.542 15.324 4.5 1.5 0.5
9 0 1 0 0 0 1 0 0 0 1 -8.362 34.542 15.324 1.5 1.5 1.5
9 0 1 0 0 0 1 0 0 0 1 8.138 -2.458 1.324001 1 0.5 6.5
9 0 1 0 0 0 1 0 0 0 1 0.1380005 1.042 14.324 3 2 0.5
9 0 1 0 0 0 1 0 0 0 1 -5.862 33.042 17.324 3 2 0.5
9 0 1 0 0 0 1 0 0 0 1 -14.362 17.042 5.824001 0.5 3 2
9 0 1 0 0 0 1 0 0 0 1 5.638 26.542 16.324 3.5 1.5 0.5
9 0 1 0 0 0 1 0 0 0 1 2.638 19.542 20.324 1.5 3.5 0.5
9 0 1 0 0 0 1 0 0 0 1 -1.362 -2.458 11.324 3.5 0.5 1.5
9 0 1 0 0 0 1 0 0 0 1 5.138 7.542 15.824 1 2.5 1
9 0 1 0 0 0 1 0 0 0 1 1.638 37.042 16.824 2.5 1 1
9 0 1 0 0 0 1 0 0 0 1 0.1380005 9.042 18.324 5 1 0.5
9 0 1 0 0 0 1 0 0 0 1 -10.862 23.542 12.324 2 2.5 0.5
9 0 1 0 0 0 1 0 0 0 1 -13.362 19.042 13.324 0.5 11 0.5
9 0 1 0 0 0 1 0 0 0 1 -13.362 10.042 7.324001 0.5 10 0.5
9 0 1 0 0 0 1 0 0 0 1 -11.362 9.542 10.324 0.5 9.5 0.5
9 0 1 0 0 0 1 0 0 0 1 8.138 33.542 14.324 1 4.5 0.5
9 0 1 0 0 0 1 0 0 0 1 -7.362 11.542 16.824 1.5 1.5 1
9 0 1 0 0 0 1 0 0 0 1 8.638 10.542 12.324 0.5 8.5 0.5
9 0 1 0 0 0 1 0 0 0 1 15.638 19.042 4.824001 0.5 1 4
9 0 1 0 0 0 1 0 0 0 1 8.138 6.042 13.824 1 2 1
9 0 1 0 0 0 1 0 0 0 1 7.138 18.042 18.324 1 4 0.5
9 0 1 0 0 0 1 0 0 0 1 0.1380005 12.042 19.324 2 2 0.5
9 0 1 0 0 0 1 0 0 0 1 -10.862 9.042 13.824 1 2 1
9 0 1 0 0 0 1 0 0 0 1 14.638 6.542 2.324001 0.5 1.5 2.5
9 0 1 0 0 0 1 0 0 0 1 12.638 9.542 9.324001 0.5 2.5 1.5
9 0 1 0 0 0 1 0 0 0 1 11.638 12.542 10.324 0.5 7.5 0.5
9 0 1 0 0 0 1 0 0 0 1 -4.362 -3.458 7.324001 2.5 1.5 0.5
9 0 1 0 0 0 1 0 0 0 1 -7.362 -3.458 4.324001 0.5 1.5 2.5
9 0 1 0 0 0 1 0 0 0 1 0.1380005 15.542 20.324 1 3.5 0.5
9 0 1 0 0 0 1 0 0 0 1 -1.362 -0.9580002 13.324 3.5 1 0.5
9 0 1 0 0 0 1 0 0 0 1 -6.362 17.042 15.324 0.5 7 0.5
9 0 1 0 0 0 1 0 0 0 1 -14.362 3.042 5.324001 0.5 1 3.5
9 0 1 0 0 0 1 0 0 0 1 -15.362 17.542 6.824001 0.5 3.5 1
9 0 1 0 0 0 1 0 0 0 1 14.638 21.042 6.824001 0.5 1 3
9 0 1 0 0 0 1 0 0 0 1 11.638 20.042 16.824 0.5 3 1
9 0 1 0 0 0 1 0 0 0 1 11.638 15.542 13.824 0.5 1.5 2
9 0 1 0 0 0 1 0 0 0 1 8.638 31.042 13.324 1.5 2 0.5
9 0 1 0 0 0 1 0 0 0 1 8.638 12.042 16.324 1.5 2 0.5
9 0 1 0 0 0 1 0 0 0 1 5.638 -2.958 6.824001 1.5 1 1
9 0 1 0 0 0 1 0 0 0 1 4.638 24.542 16.824 1.5 0.5 2
9 0 1 0 0 0 1 0 0 0 1 0.6380005 38.042 15.324 1.5 2 0.5
9 0 1 0 0 0 1 0 0 0 1 -0.8619995 -4.458 8.824001 3 0.5 1
9 0 1 0 0 0 1 0 0 0 1 -2.862 3.042 16.324 3 1 0.5
9 0 1 0 0 0 1 0 0 0 1 -4.862 -2.958 -7.675999 1 1 1.5
9 0 1 0 0 0 1 0 0 0 1 -11.362 19.042 16.324 0.5 6 0.5
9 0 1 0 0 0 1 0 0 0 1 -13.862 20.042 10.324 1 1 1.5
9 0 1 0 0 0 1 0 0 0 1 -16.362 12.042 7.824001 0.5 3 1
9 0 1 0 0 0 1 0 0 0 1 15.638 15.542 5.824001 0.5 2.5 1
9 0 1 0 0 0 1 0 0 0 1 13.638 11.042 8.324001 0.5 1 2.5
9 0 1 0 0 0 1 0 0 0 1 7.638 -3.458 -0.1759987 0.5 0.5 5
9 0 1 0 0 0 1 0 0 0 1 -7.362 28.042 16.324 0.5 5 0.5
9 0 1 0 0 0 1 0 0 0 1 -7.362 -2.958 -4.675999 0.5 1 2.5
9 0 1 0 0 0 1 0 0 0 1 -12.362 13.542 13.824 0.5 2.5 1
9 0 1 0 0 0 1 0 0 0 1 10.638 36.542 14.324 1.5 1.5 0.5
9 0 1 0 0 0 1 0 0 0 1 5.638 36.542 16.324 1.5 1.5 0.5
9 0 1 0 0 0 1 0 0 0 1 2.638 -3.458 7.324001 1.5 1.5 0.5
9 0 1 0 0 0 1 0 0 0 1 -6.362 1.542 13.324 1.5 1.5 0.5
9 0 1 0 0 0 1 0 0 0 1 -10.362 -2.458 2.324001 0.5 0.5 4.5
9 0 1 0 0 0 1 0 0 0 1 14.638 18.042 8.824001 0.5 2 1
9 0 1 0 0 0 1 0 0 0 1 12.138 26.042 12.824 1 1 1
9 0 1 0 0 0 1 0 0 0 1 11.638 7.042 9.324001 0.5 4 0.5
9 0 1 0 0 0 1 0 0 0 1 10.638 13.042 14.824 0.5 1 2
9 0 1 0 0 0 1 0 0 0 1 10.138 26.042 15.324 2 1 0.5
9 0 1 0 0 0 1 0 0 0 1 5.138 1.042 13.324 2 1 0.5
9 0 1 0 0 0 1 0 0 0 1 2.138 28.042 17.324 2 1 0.5
9 0 1 0 0 0 1 0 0 0 1 2.138 23.042 19.324 2 1 0.5
9 0 1 0 0 0 1 0 0 0 1 1.138 -2.958 -10.676 2 1 0.5
9 0 1 0 0 0 1 0 0 0 1 0.1380005 -4.458 -8.175999 2 0.5 1
9 0 1 0 0 0 1 0 0 0 1 -1.862 37.042 15.824 1 1 1
9 0 1 0 0 0 1 0 0 0 1 -1.862 -3.458 10.824 2 0.5 1
9 0 1 0 0 0 1 0 0 0 1 -4.862 25.042 17.324 2 1 0.5
9 0 1 0 0 0 1 0 0 0 1 -5.862 5.042 15.824 1 1 1
9 0 1 0 0 0 1 0 0 0 1 -8.362 -4.458 1.824001 0.5 0.5 4
9 0 1 0 0 0 1 0 0 0 1 -10.862 3.042 11.324 2 1 0.5
9 0 1 0 0 0 1 0 0 0 1 -11.862 0.04199982 8.824001 1 1 1
9 0 1 0 0 0 1 0 0 0 1 -13.362 27.042 14.324 0.5 4 0.5
9 0 1 0 0 0 1 0 0 0 1 -12.862 5.042 11.824 1 1 1
9 0 1 0 0 0 1 0 0 0 1 -13.362 1.042 4.824001 0.5 1 2
9 0 1 0 0 0 1 0 0 0 1 -14.362 5.042 9.824001 0.5 1 2
9 0 1 0 0 0 1 0 0 0 1 -15.362 10.042 2.324001 0.5 4 0.5
9 0 1 0 0 0 1 0 0 0 1 -16.362 9.042 4.824001 0.5 1 2
9 0 1 0 0 0 1 0 0 0 1 2.638 6.542 14.324 0.5 3.5 0.5
9 0 1 0 0 0 1 0 0 0 1 -14.362 13.542 13.324 0.5 3.5 0.5
9 0 1 0 0 0 1 0 0 0 1 14.638 20.042 2.324001 0.5 1 1.5
9 0 1 0 0 0 1 0 0 0 1 13.638 21.542 8.824001 0.5 0.5 3
9 0 1 0 0 0 1 0 0 0 1 12.638 14.042 12.324 0.5 3 0.5
9 0 1 0 0 0 1 0 0 0 1 11.638 11.042 12.324 0.5 3 0.5
9 0 1 0 0 0 1 0 0 0 1 9.638 38.542 14.824 1.5 0.5 1
9 0 1 0 0 0 1 0 0 0 1 8.638 30.042 15.324 0.5 3 0.5
9 0 1 0 0 0 1 0 0 0 1 7.638 7.042 15.324 1.5 1 0.5
9 0 1 0 0 0 1 0 0 0 1 6.138 -2.458 -6.675999 1 0.5 1.5
9 0 1 0 0 0 1 0 0 0 1 4.638 26.042 17.324 1.5 1 0.5
9 0 1 0 0 0 1 0 0 0 1 4.138 -2.458 -8.675999 1 0.5 1.5
9 0 1 0 0 0 1 0 0 0 1 0.6380005 28.042 18.324 1.5 1 0.5
9 0 1 0 0 0 1 0 0 0 1 1.138 38.542 16.324 3 0.5 0.5
9 0 1 0 0 0 1 0 0 0 1 -0.3619995 7.042 18.324 1.5 1 0.5
9 0 1 0 0 0 1 0 0 0 1 -1.862 17.542 20.324 1 1.5 0.5
9 0 1 0 0 0 1 0 0 0 1 -3.862 0.5419998 14.324 1 1.5 0.5
9 0 1 0 0 0 1 0 0 0 1 -6.362 -2.958 -6.675999 0.5 1 1.5
9 0 1 0 0 0 1 0 0 0 1 -5.862 -3.458 6.324001 1 1.5 0.5
9 0 1 0 0 0 1 0 0 0 1 -6.862 -2.458 9.324001 1 0.5 1.5
9 0 1 0 0 0 1 0 0 0 1 -7.362 13.042 18.324 1.5 1 0.5
9 0 1 0 0 0 1 0 0 0 1 -8.362 34.042 13.324 1.5 1 0.5
9 0 1 0 0 0 1 0 0 0 1 -9.362 24.042 16.324 1.5 1 0.5
9 0 1 0 0 0 1 0 0 0 1 -9.862 11.542 16.324 1 1.5 0.5
9 0 1 0 0 0 1 0 0 0 1 -9.862 9.542 15.324 1 1.5 0.5
9 0 1 0 0 0 1 0 0 0 1 -12.362 -0.9580002 6.324001 0.5 1 1.5
9 0 1 0 0 0 1 0 0 0 1 -13.362 22.042 12.324 0.5 3 0.5
9 0 1 0 0 0 1 0 0 0 1 -15.362 20.542 2.824001 0.5 0.5 3
9 0 1 0 0 0 1 0 0 0 1 -15.362 21.042 9.324001 0.5 1 1.5
9 0 1 0 0 0 1 0 0 0 1 -16.362 19.542 7.824001 0.5 1.5 1
9 0 1 0 0 0 1 0 0 0 1 13.638 7.542 6.324001 0.5 2.5 0.5
9 0 1 0 0 0 1 0 0 0 1 12.638 19.542 16.324 0.5 2.5 0.5
9 0 1 0 0 0 1 0 0 0 1 6.638 29.542 13.324 0.5 2.5 0.5
9 0 1 0 0 0 1 0 0 0 1 -2.362 3.542 17.324 2.5 0.5 0.5
9 0 1 0 0 0 1 0 0 0 1 -2.362 0.5419998 15.324 2.5 0.5 0.5
9 0 1 0 0 0 1 0 0 0 1 -5.362 19.542 19.324 0.5 2.5 0.5
9 0 1 0 0 0 1 0 0 0 1 -5.362 7.542 17.324 0.5 2.5 0.5
9 0 1 0 0 0 1 0 0 0 1 -15.362 6.542 8.324001 0.5 2.5 0.5
9 0 1 0 0 0 1 0 0 0 1 14.638 22.542 8.824001 0.5 0.5 2
9 0 1 0 0 0 1 0 0 0 1 9.138 37.042 15.324 1 1 0.5
9 0 1 0 0 0 1 0 0 0 1 8.138 13.042 17.324 1 1 0.5
9 0 1 0 0 0 1 0 0 0 1 7.638 2.042 12.824 0.5 1 1
9 0 1 0 0 0 1 0 0 0 1 7.138 9.042 16.324 1 1 0.5
9 0 1 0 0 0 1 0 0 0 1 5.138 9.042 17.324 1 1 0.5
9 0 1 0 0 0 1 0 0 0 1 3.138 35.542 16.824 1 0.5 1
9 0 1 0 0 0 1 0 0 0 1 3.138 29.042 16.324 1 1 0.5
9 0 1 0 0 0 1 0 0 0 1 4.138 -2.458 10.324 2 0.5 0.5
9 0 1 0 0 0 1 0 0 0 1 2.138 24.042 20.324 1 1 0.5
9 0 1 0 0 0 1 0 0 0 1 2.138 15.042 20.324 1 1 0.5
9 0 1 0 0 0 1 0 0 0 1 2.138 3.542 16.324 2 0.5 0.5
9 0 1 0 0 0 1 0 0 0 1 -0.8619995 30.042 18.324 1 1 0.5
9 0 1 0 0 0 1 0 0 0 1 -2.862 13.042 19.324 1 1 0.5
9 0 1 0 0 0 1 0 0 0 1 -6.862 0.04199982 12.324 1 1 0.5
9 0 1 0 0 0 1 0 0 0 1 -7.862 5.042 15.324 1 1 0.5
9 0 1 0 0 0 1 0 0 0 1 -7.862 -0.9580002 11.324 1 1 0.5
9 0 1 0 0 0 1 0 0 0 1 -8.362 -2.458 -5.175999 0.5 0.5 2
9 0 1 0 0 0 1 0 0 0 1 -7.862 -2.958 7.324001 1 1 0.5
9 0 1 0 0 0 1 0 0 0 1 -8.862 32.042 16.324 1 1 0.5
9 0 1 0 0 0 1 0 0 0 1 -9.362 18.042 12.324 0.5 2 0.5
9 0 1 0 0 0 1 0 0 0 1 -9.362 0.04199982 10.824 0.5 1 1
9 0 1 0 0 0 1 0 0 0 1 -10.362 34.042 14.824 0.5 1 1
9 0 1 0 0 0 1 0 0 0 1 -10.362 6.042 13.824 0.5 1 1
9 0 1 0 0 0 1 0 0 0 1 -10.362 -3.458 2.824001 0.5 0.5 2
9 0 1 0 0 0 1 0 0 0 1 -11.362 -2.458 3.824001 0.5 0.5 2
9 0 1 0 0 0 1 0 0 0 1 -12.362 20.042 11.824 0.5 1 1
9 0 1 0 0 0 1 0 0 0 1 -12.362 9.042 13.324 0.5 2 0.5
9 0 1 0 0 0 1 0 0 0 1 -14.362 27.042 13.324 0.5 2 0.5
9 0 1 0 0 0 1 0 0 0 1 14.638 11.542 6.324001 0.5 1.5 0.5
9 0 1 0 0 0 1 0 0 0 1 13.638 23.542 11.324 0.5 1.5 0.5
9 0 1 0 0 0 1 0 0 0 1 12.638 10.542 11.324 0.5 1.5 0.5
9 0 1 0 0 0 1 0 0 0 1 10.638 10.542 13.324 0.5 1.5 0.5
9 0 1 0 0 0 1 0 0 0 1 7.638 3.542 13.324 1.5 0.5 0.5
9 0 1 0 0 0 1 0 0 0 1 6.638 -3.458 5.324001 0.5 1.5 0.5
9 0 1 0 0 0 1 0 0 0 1 5.638 4.542 15.324 1.5 0.5 0.5
9 0 1 0 0 0 1 0 0 0 1 5.638 -4.458 6.324001 1.5 0.5 0.5
9 0 1 0 0 0 1 0 0 0 1 4.638 1.542 14.324 1.5 0.5 0.5
9 0 1 0 0 0 1 0 0 0 1 3.638 2.542 15.324 0.5 1.5 0.5
9 0 1 0 0 0 1 0 0 0 1 3.638 13.542 19.324 1.5 0.5 0.5
9 0 1 0 0 0 1 0 0 0 1 3.638 -0.4580002 13.324 1.5 0.5 0.5
9 0 1 0 0 0 1 0 0 0 1 3.638 -4.458 8.324001 1.5 0.5 0.5
9 0 1 0 0 0 1 0 0 0 1 1.638 -2.458 -11.676 1.5 0.5 0.5
9 0 1 0 0 0 1 0 0 0 1 -0.3619995 25.542 18.324 0.5 1.5 0.5
9 0 1 0 0 0 1 0 0 0 1 -0.3619995 8.542 19.324 0.5 1.5 0.5
9 0 1 0 0 0 1 0 0 0 1 -1.362 1.542 16.324 1.5 0.5 0.5
9 0 1 0 0 0 1 0 0 0 1 -3.362 18.542 20.324 0.5 1.5 0.5
9 0 1 0 0 0 1 0 0 0 1 -2.362 -1.458 14.324 1.5 0.5 0.5
9 0 1 0 0 0 1 0 0 0 1 -2.362 -2.458 -10.676 1.5 0.5 0.5
9 0 1 0 0 0 1 0 0 0 1 -3.362 7.542 18.324 1.5 0.5 0.5
9 0 1 0 0 0 1 0 0 0 1 -3.362 0.5419998 13.324 1.5 0.5 0.5
9 0 1 0 0 0 1 0 0 0 1 -4.362 36.542 15.324 1.5 0.5 0.5
9 0 1 0 0 0 1 0 0 0 1 -6.362 -3.458 5.324001 0.5 1.5 0.5
9 0 1 0 0 0 1 0 0 0 1 -9.362 -4.458 2.324001 0.5 0.5 1.5
9 0 1 0 0 0 1 0 0 0 1 -11.362 2.542 9.324001 0.5 1.5 0.5
9 0 1 0 0 0 1 0 0 0 1 -12.362 32.542 14.324 0.5 1.5 0.5
9 0 1 0 0 0 1 0 0 0 1 -12.362 1.542 7.324001 0.5 1.5 0.5
9 0 1 0 0 0 1 0 0 0 1 -14.362 23.542 12.324 0.5 1.5 0.5
