9 0 1 0 0 0 1 0 0 0 1 2.88875 -27.25 -0.2650003 3.5 2.5 3
9 0 1 0 0 0 1 0 0 0 1 -4.11125 -13.25 0.2349997 5.5 4.5 0.5
9 0 1 0 0 0 1 0 0 0 1 -0.1112499 -22.75 -0.2650003 1.5 2 3
9 0 1 0 0 0 1 0 0 0 1 2.88875 -26.75 3.235 3.5 2 0.5
9 0 1 0 0 0 1 0 0 0 1 -7.11125 -13.25 -0.7650003 1.5 4.5 0.5
9 0 1 0 0 0 1 0 0 0 1 -7.11125 -13.25 1.235 1.5 4.5 0.5
9 0 1 0 0 0 1 0 0 0 1 2.88875 -30.75 0.2349997 1.5 1 1.5
9 0 1 0 0 0 1 0 0 0 1 2.88875 -27.25 -3.765 1.5 2.5 0.5
9 0 1 0 0 0 1 0 0 0 1 -1.11125 -27.25 0.2349997 0.5 2.5 1.5
9 0 1 0 0 0 1 0 0 0 1 -1.11125 -19.25 0.2349997 2.5 1.5 0.5
9 0 1 0 0 0 1 0 0 0 1 6.88875 -26.75 0.2349997 0.5 2 1.5
9 0 1 0 0 0 1 0 0 0 1 -2.11125 -22.75 0.2349997 0.5 2 1.5
9 0 1 0 0 0 1 0 0 0 1 -1.11125 -7.75 0.2349997 2.5 1 0.5
9 0 1 0 0 0 1 0 0 0 1 -7.11125 -13.25 -1.765 0.5 4.5 0.5
9 0 1 0 0 0 1 0 0 0 1 0.8887501 -22.75 3.735 0.5 2 1
9 0 1 0 0 0 1 0 0 0 1 2.88875 -32.25 -0.2650003 1.5 0.5 1
9 0 1 0 0 0 1 0 0 0 1 2.88875 -27.25 4.235 0.5 2.5 0.5
9 0 1 0 0 0 1 0 0 0 1 0.8887501 -23.25 -3.765 0.5 2.5 0.5
9 0 1 0 0 0 1 0 0 0 1 2.88875 -29.25 3.235 2.5 0.5 0.5
9 0 1 0 0 0 1 0 0 0 1 3.38875 -30.75 -1.765 1 1 0.5
9 0 1 0 0 0 1 0 0 0 1 -0.1112499 -22.75 3.235 0.5 2 0.5
9 0 1 0 0 0 1 0 0 0 1 2.88875 -34.25 0.2349997 0.5 1.5 0.5
