9 0 1 0 0 0 1 0 0 0 1 -30 -2 -30 3.35 0.5 3.35
9 0 1 0 0 0 1 0 0 0 1 -10 -2 -30 3.35 0.5 3.35
9 0 1 0 0 0 1 0 0 0 1 -30 -2 -10 3.35 0.5 3.35
9 0 1 0 0 0 1 0 0 0 1 -10 -2 -10 3.35 0.5 3.35
9 0 1 0 0 0 1 0 0 0 1 -30 -2 10 3.35 0.5 3.35
9 0 1 0 0 0 1 0 0 0 1 -10 -2 10 3.35 0.5 3.35
9 0 1 0 0 0 1 0 0 0 1 -30 -2 30 3.35 0.5 3.35
9 0 1 0 0 0 1 0 0 0 1 -10 -2 30 3.35 0.5 3.35
9 0 1 0 0 0 1 0 0 0 1 10 -2 10 3.35 0.5 3.35
9 0 1 0 0 0 1 0 0 0 1 30 -2 10 3.35 0.5 3.35
9 0 1 0 0 0 1 0 0 0 1 10 -2 30 3.35 0.5 3.35
9 0 1 0 0 0 1 0 0 0 1 30 -2 30 3.35 0.5 3.35
9 0 1 0 0 0 1 0 0 0 1 10 -2 -30 3.35 0.5 3.35
9 0 1 0 0 0 1 0 0 0 1 30 -2 -30 3.35 0.5 3.35
9 0 1 0 0 0 1 0 0 0 1 10 -2 -10 3.35 0.5 3.35
9 0 1 0 0 0 1 0 0 0 1 30 -2 -10 3.35 0.5 3.35
9 0 1 0 0 0 1 0 0 0 1 0 2 27 36.5 0.49 18.5
9 0 1 0 0 0 1 0 0 0 1 0 2 -28.5 32.5 0.49 20
9 0 1 0 0 0 1 0 0 0 1 -32.5 2 0 24 0.49 8.5
9 0 1 0 0 0 1 0 0 0 1 45.5 2 0 9 0.49 21.5
9 0 1 0 0 0 1 0 0 0 1 22.5 2 0 14 0.5 8.5
9 0 1 0 0 0 1 0 0 0 1 0 2 50 21.5 0.5 4.5
9 0 1 0 0 0 1 0 0 0 1 -40.5 2 -20.5 8 0.5 12
9 0 1 0 0 0 1 0 0 0 1 -43.5 2 19 7 0.5 10.5
9 0 1 0 0 0 1 0 0 0 1 0 2 -52.5 15.5 0.5 4
9 0 1 0 0 0 1 0 0 0 1 39.5 2 -28.5 7 0.5 7
9 0 1 0 0 0 1 0 0 0 1 41.5 2 28.5 5 0.5 7
9 0 1 0 0 0 1 0 0 0 1 -51.5 2 -15 3 0.5 6.5
9 0 1 0 0 0 1 0 0 0 1 -36.5 2 -37 4 0.5 4.5
9 0 1 0 0 0 1 0 0 0 1 -40.5 2 33.5 4 0.5 4
9 0 1 0 0 0 1 0 0 0 1 55.5 2 0 1 0.5 15.5
9 0 1 0 0 0 1 0 0 0 1 0 2 55.5 15.5 0.5 1
9 0 1 0 0 0 1 0 0 0 1 34.5 2 -15 2 0.5 6.5
9 0 1 0 0 0 1 0 0 0 1 -52.5 2 15 2 0.5 6.5
9 0 1 0 0 0 1 0 0 0 1 36 2 -39 3.5 0.5 3.5
9 0 1 0 0 0 1 0 0 0 1 25.5 2 48 4 0.5 2.5
9 0 1 0 0 0 1 0 0 0 1 20.5 2 -50.5 5 0.5 2
9 0 1 0 0 0 1 0 0 0 1 -19.5 2 -51 4 0.5 2.5
9 0 1 0 0 0 1 0 0 0 1 -25.5 2 48 4 0.5 2.5
9 0 1 0 0 0 1 0 0 0 1 58 21 0 0.5 1.5 6.5
9 0 1 0 0 0 1 0 0 0 1 0 21 -58 6.5 1.5 0.5
9 0 1 0 0 0 1 0 0 0 1 0 21 58 6.5 1.5 0.5
9 0 1 0 0 0 1 0 0 0 1 -58 21 0 0.5 1.5 6.5
9 0 1 0 0 0 1 0 0 0 1 57 10 -10.5 0.5 8.5 1
9 0 1 0 0 0 1 0 0 0 1 57 10 10.5 0.5 8.5 1
9 0 1 0 0 0 1 0 0 0 1 10.5 10 -57 1 8.5 0.5
9 0 1 0 0 0 1 0 0 0 1 10.5 10 57 1 8.5 0.5
9 0 1 0 0 0 1 0 0 0 1 -10.5 10 -57 1 8.5 0.5
9 0 1 0 0 0 1 0 0 0 1 -10.5 10 57 1 8.5 0.5
9 0 1 0 0 0 1 0 0 0 1 -56 10 -14.5 0.5 8.5 1
9 0 1 0 0 0 1 0 0 0 1 -56 10 14.5 0.5 8.5 1
9 0 1 0 0 0 1 0 0 0 1 -57 10 -10.5 0.5 8.5 1
9 0 1 0 0 0 1 0 0 0 1 -57 10 10.5 0.5 8.5 1
9 0 1 0 0 0 1 0 0 0 1 56 10.5 -14.5 0.5 8 1
9 0 1 0 0 0 1 0 0 0 1 56 10.5 14.5 0.5 8 1
9 0 1 0 0 0 1 0 0 0 1 48.5 2 -25.5 2 0.5 4
9 0 1 0 0 0 1 0 0 0 1 48.5 2 25.5 2 0.5 4
9 0 1 0 0 0 1 0 0 0 1 14.5 10.5 -56 1 8 0.5
9 0 1 0 0 0 1 0 0 0 1 14.5 10.5 56 1 8 0.5
9 0 1 0 0 0 1 0 0 0 1 -14.5 10.5 -56 1 8 0.5
9 0 1 0 0 0 1 0 0 0 1 -14.5 10.5 56 1 8 0.5
9 0 1 0 0 0 1 0 0 0 1 39 2 38 2.5 0.5 2.5
9 0 1 0 0 0 1 0 0 0 1 55 12 -18 0.5 10.5 0.5
9 0 1 0 0 0 1 0 0 0 1 55 12 18 0.5 10.5 0.5
9 0 1 0 0 0 1 0 0 0 1 21 12 -54 0.5 10.5 0.5
9 0 1 0 0 0 1 0 0 0 1 18 12 -55 0.5 10.5 0.5
9 0 1 0 0 0 1 0 0 0 1 18 12 55 0.5 10.5 0.5
9 0 1 0 0 0 1 0 0 0 1 -18 12 -55 0.5 10.5 0.5
9 0 1 0 0 0 1 0 0 0 1 -18 12 55 0.5 10.5 0.5
9 0 1 0 0 0 1 0 0 0 1 -21 12 -54 0.5 10.5 0.5
9 0 1 0 0 0 1 0 0 0 1 -55 12 -18 0.5 10.5 0.5
9 0 1 0 0 0 1 0 0 0 1 -55 12 18 0.5 10.5 0.5
9 0 1 0 0 0 1 0 0 0 1 54 12.5 -21 0.5 10 0.5
9 0 1 0 0 0 1 0 0 0 1 54 12.5 21 0.5 10 0.5
9 0 1 0 0 0 1 0 0 0 1 21 12.5 54 0.5 10 0.5
9 0 1 0 0 0 1 0 0 0 1 -21 12.5 54 0.5 10 0.5
9 0 1 0 0 0 1 0 0 0 1 -42.5 2 -35 2 0.5 2.5
9 0 1 0 0 0 1 0 0 0 1 -54 12.5 -21 0.5 10 0.5
9 0 1 0 0 0 1 0 0 0 1 -54 12.5 21 0.5 10 0.5
9 0 1 0 0 0 1 0 0 0 1 -50 2 -24.5 1.5 0.5 3
9 0 1 0 0 0 1 0 0 0 1 -34.5 2 -43.5 2 0.5 2
9 0 1 0 0 0 1 0 0 0 1 -38.5 2 39.5 2 0.5 2
9 0 1 0 0 0 1 0 0 0 1 50 6 -7 6.5 0.5 0.5
9 0 1 0 0 0 1 0 0 0 1 50 6 7 6.5 0.5 0.5
9 0 1 0 0 0 1 0 0 0 1 7 6 -50 0.5 0.5 6.5
9 0 1 0 0 0 1 0 0 0 1 7 6 50 0.5 0.5 6.5
9 0 1 0 0 0 1 0 0 0 1 -7 6 -50 0.5 0.5 6.5
9 0 1 0 0 0 1 0 0 0 1 -7 6 50 0.5 0.5 6.5
9 0 1 0 0 0 1 0 0 0 1 -50 6 -7 6.5 0.5 0.5
9 0 1 0 0 0 1 0 0 0 1 -50 6 7 6.5 0.5 0.5
9 0 1 0 0 0 1 0 0 0 1 41.5 2 -37 2 0.5 1.5
9 0 1 0 0 0 1 0 0 0 1 34.5 2 -44 2 0.5 1.5
9 0 1 0 0 0 1 0 0 0 1 -25.5 2 -50 2 0.5 1.5
9 0 1 0 0 0 1 0 0 0 1 -45.5 2 32.5 1 0.5 3
9 0 1 0 0 0 1 0 0 0 1 18 2 -53.5 2.5 0.5 1
9 0 1 0 0 0 1 0 0 0 1 -55.5 2 -11 1 0.5 2.5
9 0 1 0 0 0 1 0 0 0 1 -55.5 2 11 1 0.5 2.5
9 0 1 0 0 0 1 0 0 0 1 31 2 47 1.5 0.5 1.5
9 0 1 0 0 0 1 0 0 0 1 -31 2 47 1.5 0.5 1.5
9 0 1 0 0 0 1 0 0 0 1 51.5 2 -23.5 1 0.5 2
9 0 1 0 0 0 1 0 0 0 1 51.5 2 23.5 1 0.5 2
9 0 1 0 0 0 1 0 0 0 1 27.5 2 -49.5 2 0.5 1
9 0 1 0 0 0 1 0 0 0 1 23.5 2 51.5 2 0.5 1
9 0 1 0 0 0 1 0 0 0 1 -23.5 2 51.5 2 0.5 1
9 0 1 0 0 0 1 0 0 0 1 -51.5 2 23.5 1 0.5 2
9 0 1 0 0 0 1 0 0 0 1 47.5 2 -31 1 0.5 1.5
9 0 1 0 0 0 1 0 0 0 1 47.5 2 31 1 0.5 1.5
9 0 1 0 0 0 1 0 0 0 1 43 2 36.5 1.5 0.5 1
9 0 1 0 0 0 1 0 0 0 1 38 2 41.5 1.5 0.5 1
9 0 1 0 0 0 1 0 0 0 1 7.5 2 -7 1 0.5 1.5
9 0 1 0 0 0 1 0 0 0 1 7.5 2 7 1 0.5 1.5
9 0 1 0 0 0 1 0 0 0 1 -7 2 -7.5 1.5 0.5 1
9 0 1 0 0 0 1 0 0 0 1 -7.5 2 7 1 0.5 1.5
9 0 1 0 0 0 1 0 0 0 1 -45.5 2 -34 1 0.5 1.5
9 0 1 0 0 0 1 0 0 0 1 -47.5 2 31 1 0.5 1.5
9 0 1 0 0 0 1 0 0 0 1 -18 2 -54 2.5 0.5 0.5
9 0 1 0 0 0 1 0 0 0 1 57 16.5 -9 0.5 2 0.5
9 0 1 0 0 0 1 0 0 0 1 57 16.5 9 0.5 2 0.5
9 0 1 0 0 0 1 0 0 0 1 57 3.5 -9 0.5 2 0.5
9 0 1 0 0 0 1 0 0 0 1 57 3.5 9 0.5 2 0.5
9 0 1 0 0 0 1 0 0 0 1 40.5 2 -39.5 1 0.5 1
9 0 1 0 0 0 1 0 0 0 1 9 16.5 -57 0.5 2 0.5
9 0 1 0 0 0 1 0 0 0 1 9 16.5 57 0.5 2 0.5
9 0 1 0 0 0 1 0 0 0 1 9 3.5 -57 0.5 2 0.5
9 0 1 0 0 0 1 0 0 0 1 9 3.5 57 0.5 2 0.5
9 0 1 0 0 0 1 0 0 0 1 -9 16.5 -57 0.5 2 0.5
9 0 1 0 0 0 1 0 0 0 1 -9 16.5 57 0.5 2 0.5
9 0 1 0 0 0 1 0 0 0 1 -7.5 2 -57 2 0.5 0.5
9 0 1 0 0 0 1 0 0 0 1 -7.5 2 57 2 0.5 0.5
9 0 1 0 0 0 1 0 0 0 1 -28.5 2 -49.5 1 0.5 1
9 0 1 0 0 0 1 0 0 0 1 -37.5 2 -42.5 1 0.5 1
9 0 1 0 0 0 1 0 0 0 1 -37.5 2 42.5 1 0.5 1
9 0 1 0 0 0 1 0 0 0 1 -41.5 2 -38.5 1 0.5 1
9 0 1 0 0 0 1 0 0 0 1 -41.5 2 38.5 1 0.5 1
9 0 1 0 0 0 1 0 0 0 1 -49.5 2 -28.5 1 0.5 1
9 0 1 0 0 0 1 0 0 0 1 -52 2 -23.5 0.5 0.5 2
9 0 1 0 0 0 1 0 0 0 1 -55 2 -15.5 0.5 0.5 2
9 0 1 0 0 0 1 0 0 0 1 -55 2 15.5 0.5 0.5 2
9 0 1 0 0 0 1 0 0 0 1 -57 16.5 -9 0.5 2 0.5
9 0 1 0 0 0 1 0 0 0 1 -57 16.5 9 0.5 2 0.5
9 0 1 0 0 0 1 0 0 0 1 -57 3.5 -9 0.5 2 0.5
9 0 1 0 0 0 1 0 0 0 1 -57 3.5 9 0.5 2 0.5
9 0 1 0 0 0 1 0 0 0 1 57 2 -7 0.5 0.5 1.5
9 0 1 0 0 0 1 0 0 0 1 57 2 7 0.5 0.5 1.5
9 0 1 0 0 0 1 0 0 0 1 34 2 -46 1.5 0.5 0.5
9 0 1 0 0 0 1 0 0 0 1 34 2 46 1.5 0.5 0.5
9 0 1 0 0 0 1 0 0 0 1 22 2 -53 1.5 0.5 0.5
9 0 1 0 0 0 1 0 0 0 1 7 2 -57 1.5 0.5 0.5
9 0 1 0 0 0 1 0 0 0 1 7 2 57 1.5 0.5 0.5
9 0 1 0 0 0 1 0 0 0 1 5 2 -8 1.5 0.5 0.5
9 0 1 0 0 0 1 0 0 0 1 -5 2 8 1.5 0.5 0.5
9 0 1 0 0 0 1 0 0 0 1 -8 2 -5 0.5 0.5 1.5
9 0 1 0 0 0 1 0 0 0 1 -9 4 -57 0.5 1.5 0.5
9 0 1 0 0 0 1 0 0 0 1 -9 4 57 0.5 1.5 0.5
9 0 1 0 0 0 1 0 0 0 1 -34 2 -46 1.5 0.5 0.5
9 0 1 0 0 0 1 0 0 0 1 -34 2 46 1.5 0.5 0.5
9 0 1 0 0 0 1 0 0 0 1 -57 2 -7 0.5 0.5 1.5
9 0 1 0 0 0 1 0 0 0 1 -57 2 7 0.5 0.5 1.5
