9 0 1 0 0 0 1 0 0 0 1 -0.001537323 138 -35.99953 29.5 0.5 14.5
9 0 1 0 0 0 1 0 0 0 1 38.99846 138 -16.99953 9.5 0.5 15.5
9 0 1 0 0 0 1 0 0 0 1 -39.00154 138 -16.99953 9.5 0.5 15.5
9 0 1 0 0 0 1 0 0 0 1 -0.001537323 138 -53.49953 15.5 0.5 3
9 0 1 0 0 0 1 0 0 0 1 -0.001537323 140.5 -21.99953 21.5 2 0.5
9 0 1 0 0 0 1 0 0 0 1 -0.001537323 2 -11.99953 9.5 0.5 4.5
9 0 1 0 0 0 1 0 0 0 1 25.49846 138 -11.49953 4 0.5 10
9 0 1 0 0 0 1 0 0 0 1 -25.50154 138 -11.49953 4 0.5 10
9 0 1 0 0 0 1 0 0 0 1 39.99846 140.5 -1.999535 18.5 2 0.5
9 0 1 0 0 0 1 0 0 0 1 -40.00154 140.5 -1.999535 18.5 2 0.5
9 0 1 0 0 0 1 0 0 0 1 51.49846 138 -11.49953 3 0.5 10
9 0 1 0 0 0 1 0 0 0 1 -51.50154 138 -11.49953 3 0.5 10
9 0 1 0 0 0 1 0 0 0 1 34.49846 138 -37.49953 5 0.5 5
9 0 1 0 0 0 1 0 0 0 1 -34.50154 138 -37.49953 5 0.5 5
9 0 1 0 0 0 1 0 0 0 1 21.99846 140.5 -11.99953 0.5 2 9.5
9 0 1 0 0 0 1 0 0 0 1 -22.00154 140.5 -11.99953 0.5 2 9.5
9 0 1 0 0 0 1 0 0 0 1 12.49846 2 -6.499535 3 0.5 5
9 0 1 0 0 0 1 0 0 0 1 -13.00154 2 -5.499535 3.5 0.5 4
9 0 1 0 0 0 1 0 0 0 1 -0.001537323 140 -57.99953 4.5 2.5 0.5
9 0 1 0 0 0 1 0 0 0 1 -0.5015373 126.5 -56.99953 5 2 0.5
9 0 1 0 0 0 1 0 0 0 1 -0.001537323 114 -55.99953 5.5 1.5 0.5
9 0 1 0 0 0 1 0 0 0 1 55.99846 138 -6.499535 1.5 0.5 5
9 0 1 0 0 0 1 0 0 0 1 -56.00154 138 -6.499535 1.5 0.5 5
9 0 1 0 0 0 1 0 0 0 1 41.99846 138 -34.99953 2.5 0.5 2.5
9 0 1 0 0 0 1 0 0 0 1 -42.00154 138 -34.99953 2.5 0.5 2.5
9 0 1 0 0 0 1 0 0 0 1 32.49846 138 -44.49953 3 0.5 2
9 0 1 0 0 0 1 0 0 0 1 19.49846 138 -51.99953 4 0.5 1.5
9 0 1 0 0 0 1 0 0 0 1 -18.50154 138 -52.49953 3 0.5 2
9 0 1 0 0 0 1 0 0 0 1 -32.50154 138 -44.49953 3 0.5 2
9 0 1 0 0 0 1 0 0 0 1 -0.001537323 138 -56.99953 11.5 0.5 0.5
9 0 1 0 0 0 1 0 0 0 1 -0.001537323 82.5 -50.99953 5.5 1 0.5
9 0 1 0 0 0 1 0 0 0 1 56.99846 127.5 -3.999535 0.5 2 2.5
9 0 1 0 0 0 1 0 0 0 1 49.99846 138 -24.49953 1.5 0.5 3
9 0 1 0 0 0 1 0 0 0 1 -0.001537323 76.5 -49.99953 4.5 1 0.5
9 0 1 0 0 0 1 0 0 0 1 -0.001537323 2 -17.49953 4.5 0.5 1
9 0 1 0 0 0 1 0 0 0 1 -50.00154 138 -24.49953 1.5 0.5 3
9 0 1 0 0 0 1 0 0 0 1 55.99846 115.5 -4.499535 0.5 2 2
9 0 1 0 0 0 1 0 0 0 1 -11.50154 2 -11.49953 2 0.5 2
9 0 1 0 0 0 1 0 0 0 1 -56.00154 115.5 -4.499535 0.5 2 2
9 0 1 0 0 0 1 0 0 0 1 -57.00154 128.5 -4.499535 0.5 2 2
9 0 1 0 0 0 1 0 0 0 1 57.99846 141 -4.499535 0.5 1.5 2
9 0 1 0 0 0 1 0 0 0 1 16.49846 2 -4.499535 1 0.5 3
9 0 1 0 0 0 1 0 0 0 1 8.498463 2 -4.499535 1 0.5 3
9 0 1 0 0 0 1 0 0 0 1 5.998463 129.5 -56.99953 1.5 2 0.5
9 0 1 0 0 0 1 0 0 0 1 -8.001537 2 -5.499535 1.5 0.5 2
9 0 1 0 0 0 1 0 0 0 1 -58.00154 141 -4.499535 0.5 1.5 2
9 0 1 0 0 0 1 0 0 0 1 -0.001537323 88 -51.99953 5.5 0.5 0.5
9 0 1 0 0 0 1 0 0 0 1 6.498463 117 -55.99953 1 2.5 0.5
9 0 1 0 0 0 1 0 0 0 1 -0.001537323 136.5 -57.99953 2.5 1 0.5
9 0 1 0 0 0 1 0 0 0 1 -0.001537323 123.5 -56.99953 2.5 1 0.5
9 0 1 0 0 0 1 0 0 0 1 -5.001537 116.5 -55.99953 2.5 1 0.5
9 0 1 0 0 0 1 0 0 0 1 10.99846 2 -12.99953 1.5 0.5 1.5
9 0 1 0 0 0 1 0 0 0 1 -0.001537323 94 -52.99953 4.5 0.5 0.5
9 0 1 0 0 0 1 0 0 0 1 -6.001537 130 -56.99953 1.5 1.5 0.5
9 0 1 0 0 0 1 0 0 0 1 55.49846 138 -13.49953 1 0.5 2
9 0 1 0 0 0 1 0 0 0 1 51.99846 88.5 -3.499535 0.5 1 2
9 0 1 0 0 0 1 0 0 0 1 50.99846 82.5 -3.499535 0.5 1 2
9 0 1 0 0 0 1 0 0 0 1 49.99846 77.5 -4.499535 0.5 1 2
9 0 1 0 0 0 1 0 0 0 1 -0.5015373 100 -53.99953 4 0.5 0.5
9 0 1 0 0 0 1 0 0 0 1 -23.50154 138 -51.49953 2 0.5 1
9 0 1 0 0 0 1 0 0 0 1 -50.00154 77.5 -4.499535 0.5 1 2
9 0 1 0 0 0 1 0 0 0 1 -51.00154 82.5 -3.499535 0.5 1 2
9 0 1 0 0 0 1 0 0 0 1 -52.00154 88.5 -3.499535 0.5 1 2
9 0 1 0 0 0 1 0 0 0 1 -55.50154 138 -13.49953 1 0.5 2
9 0 1 0 0 0 1 0 0 0 1 -0.001537323 106 -54.99953 3.5 0.5 0.5
9 0 1 0 0 0 1 0 0 0 1 -0.001537323 81 -50.99953 3.5 0.5 0.5
9 0 1 0 0 0 1 0 0 0 1 56.99846 132 -7.499535 0.5 1.5 1
9 0 1 0 0 0 1 0 0 0 1 55.99846 119 -7.499535 0.5 1.5 1
9 0 1 0 0 0 1 0 0 0 1 45.49846 138 -33.99953 1 0.5 1.5
9 0 1 0 0 0 1 0 0 0 1 40.99846 138 -38.49953 1.5 0.5 1
9 0 1 0 0 0 1 0 0 0 1 30.99846 138 -47.49953 1.5 0.5 1
9 0 1 0 0 0 1 0 0 0 1 18.49846 138 -53.99953 3 0.5 0.5
9 0 1 0 0 0 1 0 0 0 1 5.498463 141 -57.99953 1 1.5 0.5
9 0 1 0 0 0 1 0 0 0 1 4.998463 89.5 -51.99953 1.5 1 0.5
9 0 1 0 0 0 1 0 0 0 1 3.998463 116.5 -55.99953 1.5 1 0.5
9 0 1 0 0 0 1 0 0 0 1 0.4984627 69 -47.99953 3 0.5 0.5
9 0 1 0 0 0 1 0 0 0 1 -5.501537 141 -57.99953 1 1.5 0.5
9 0 1 0 0 0 1 0 0 0 1 -7.001537 118.5 -55.99953 1.5 1 0.5
9 0 1 0 0 0 1 0 0 0 1 -17.00154 2 -4.499535 0.5 0.5 3
9 0 1 0 0 0 1 0 0 0 1 -31.00154 138 -47.49953 1.5 0.5 1
9 0 1 0 0 0 1 0 0 0 1 -40.50154 138 -38.99953 1 0.5 1.5
9 0 1 0 0 0 1 0 0 0 1 -45.50154 138 -33.99953 1 0.5 1.5
9 0 1 0 0 0 1 0 0 0 1 -56.00154 119 -7.499535 0.5 1.5 1
9 0 1 0 0 0 1 0 0 0 1 -57.00154 132 -7.499535 0.5 1.5 1
9 0 1 0 0 0 1 0 0 0 1 -57.00154 125.5 -2.999535 0.5 1 1.5
9 0 1 0 0 0 1 0 0 0 1 56.99846 135 -8.999535 0.5 2.5 0.5
9 0 1 0 0 0 1 0 0 0 1 54.99846 140 -17.99953 0.5 2.5 0.5
9 0 1 0 0 0 1 0 0 0 1 17.99846 140 -54.99953 0.5 2.5 0.5
9 0 1 0 0 0 1 0 0 0 1 13.99846 135 -55.99953 0.5 2.5 0.5
9 0 1 0 0 0 1 0 0 0 1 -0.001537323 112 -55.99953 2.5 0.5 0.5
9 0 1 0 0 0 1 0 0 0 1 -0.001537323 87 -51.99953 2.5 0.5 0.5
9 0 1 0 0 0 1 0 0 0 1 -4.001537 89 -51.99953 2.5 0.5 0.5
9 0 1 0 0 0 1 0 0 0 1 -5.001537 78 -49.99953 2.5 0.5 0.5
9 0 1 0 0 0 1 0 0 0 1 -9.001537 135 -56.99953 0.5 2.5 0.5
9 0 1 0 0 0 1 0 0 0 1 -18.00154 140 -54.99953 0.5 2.5 0.5
9 0 1 0 0 0 1 0 0 0 1 -55.00154 140 -17.99953 0.5 2.5 0.5
9 0 1 0 0 0 1 0 0 0 1 -56.00154 135 -13.99953 0.5 2.5 0.5
9 0 1 0 0 0 1 0 0 0 1 -56.00154 114 -1.999535 0.5 2.5 0.5
9 0 1 0 0 0 1 0 0 0 1 57.99846 138.5 -3.499535 0.5 1 1
9 0 1 0 0 0 1 0 0 0 1 56.99846 130.5 -5.499535 0.5 1 1
9 0 1 0 0 0 1 0 0 0 1 56.99846 125 -3.499535 0.5 0.5 2
9 0 1 0 0 0 1 0 0 0 1 55.99846 135.5 -13.99953 0.5 2 0.5
9 0 1 0 0 0 1 0 0 0 1 55.99846 126.5 -10.99953 0.5 2 0.5
9 0 1 0 0 0 1 0 0 0 1 55.99846 113 -3.499535 0.5 0.5 2
9 0 1 0 0 0 1 0 0 0 1 54.99846 118.5 -12.99953 0.5 2 0.5
9 0 1 0 0 0 1 0 0 0 1 53.99846 140.5 -20.99953 0.5 2 0.5
9 0 1 0 0 0 1 0 0 0 1 53.99846 101 -4.499535 0.5 0.5 2
9 0 1 0 0 0 1 0 0 0 1 52.99846 95.5 -5.499535 0.5 1 1
9 0 1 0 0 0 1 0 0 0 1 52.99846 94.5 -3.499535 0.5 1 1
9 0 1 0 0 0 1 0 0 0 1 52.49846 138 -22.49953 1 0.5 1
9 0 1 0 0 0 1 0 0 0 1 50.99846 84 -5.499535 0.5 0.5 2
9 0 1 0 0 0 1 0 0 0 1 49.49846 138 -28.49953 1 0.5 1
9 0 1 0 0 0 1 0 0 0 1 48.99846 73 -3.499535 0.5 0.5 2
9 0 1 0 0 0 1 0 0 0 1 36.49846 138 -43.49953 1 0.5 1
9 0 1 0 0 0 1 0 0 0 1 25.49846 138 -50.99953 2 0.5 0.5
9 0 1 0 0 0 1 0 0 0 1 20.99846 140.5 -53.99953 0.5 2 0.5
9 0 1 0 0 0 1 0 0 0 1 9.498463 136.5 -56.99953 1 1 0.5
9 0 1 0 0 0 1 0 0 0 1 7.998463 132.5 -56.99953 0.5 2 0.5
9 0 1 0 0 0 1 0 0 0 1 6.998463 2 -5.499535 0.5 0.5 2
9 0 1 0 0 0 1 0 0 0 1 6.498463 78.5 -49.99953 1 1 0.5
9 0 1 0 0 0 1 0 0 0 1 5.498463 95.5 -52.99953 1 1 0.5
9 0 1 0 0 0 1 0 0 0 1 5.498463 84 -50.99953 2 0.5 0.5
9 0 1 0 0 0 1 0 0 0 1 3.498463 129.5 -56.99953 1 1 0.5
9 0 1 0 0 0 1 0 0 0 1 4.498463 101 -53.99953 2 0.5 0.5
9 0 1 0 0 0 1 0 0 0 1 3.498463 73 -48.99953 2 0.5 0.5
9 0 1 0 0 0 1 0 0 0 1 0.4984627 93 -52.99953 2 0.5 0.5
9 0 1 0 0 0 1 0 0 0 1 -3.501537 73 -48.99953 2 0.5 0.5
9 0 1 0 0 0 1 0 0 0 1 -4.501537 101 -53.99953 2 0.5 0.5
9 0 1 0 0 0 1 0 0 0 1 -4.501537 95 -52.99953 2 0.5 0.5
9 0 1 0 0 0 1 0 0 0 1 -5.501537 84 -50.99953 2 0.5 0.5
9 0 1 0 0 0 1 0 0 0 1 -7.501537 132.5 -56.99953 1 1 0.5
9 0 1 0 0 0 1 0 0 0 1 -8.501537 2 -2.499535 1 0.5 1
9 0 1 0 0 0 1 0 0 0 1 -11.00154 126.5 -55.99953 0.5 2 0.5
9 0 1 0 0 0 1 0 0 0 1 -10.50154 2 -14.49953 1 0.5 1
9 0 1 0 0 0 1 0 0 0 1 -14.00154 135.5 -55.99953 0.5 2 0.5
9 0 1 0 0 0 1 0 0 0 1 -21.00154 140.5 -53.99953 0.5 2 0.5
9 0 1 0 0 0 1 0 0 0 1 -36.50154 138 -43.49953 1 0.5 1
9 0 1 0 0 0 1 0 0 0 1 -49.00154 73 -3.499535 0.5 0.5 2
9 0 1 0 0 0 1 0 0 0 1 -49.50154 138 -28.49953 1 0.5 1
9 0 1 0 0 0 1 0 0 0 1 -51.00154 84 -5.499535 0.5 0.5 2
9 0 1 0 0 0 1 0 0 0 1 -52.00154 138 -23.49953 0.5 0.5 2
9 0 1 0 0 0 1 0 0 0 1 -52.00154 90 -5.499535 0.5 0.5 2
9 0 1 0 0 0 1 0 0 0 1 -53.00154 95.5 -5.499535 0.5 1 1
9 0 1 0 0 0 1 0 0 0 1 -53.00154 94.5 -3.499535 0.5 1 1
9 0 1 0 0 0 1 0 0 0 1 -54.00154 140.5 -20.99953 0.5 2 0.5
9 0 1 0 0 0 1 0 0 0 1 -54.00154 101 -4.499535 0.5 0.5 2
9 0 1 0 0 0 1 0 0 0 1 -57.00154 136.5 -9.499535 0.5 1 1
9 0 1 0 0 0 1 0 0 0 1 -58.00154 138.5 -3.499535 0.5 1 1
9 0 1 0 0 0 1 0 0 0 1 57.99846 137 -1.999535 0.5 1.5 0.5
9 0 1 0 0 0 1 0 0 0 1 56.99846 129 -6.999535 0.5 1.5 0.5
9 0 1 0 0 0 1 0 0 0 1 55.99846 131 -12.99953 0.5 1.5 0.5
9 0 1 0 0 0 1 0 0 0 1 55.99846 129 -11.99953 0.5 1.5 0.5
9 0 1 0 0 0 1 0 0 0 1 55.99846 121 -8.999535 0.5 1.5 0.5
9 0 1 0 0 0 1 0 0 0 1 55.99846 116 -6.999535 0.5 1.5 0.5
9 0 1 0 0 0 1 0 0 0 1 54.99846 116 -11.99953 0.5 1.5 0.5
9 0 1 0 0 0 1 0 0 0 1 53.99846 100 -2.999535 0.5 0.5 1.5
9 0 1 0 0 0 1 0 0 0 1 51.99846 90 -5.999535 0.5 0.5 1.5
9 0 1 0 0 0 1 0 0 0 1 49.99846 79 -6.999535 0.5 0.5 1.5
9 0 1 0 0 0 1 0 0 0 1 49.99846 76 -2.999535 0.5 0.5 1.5
9 0 1 0 0 0 1 0 0 0 1 46.99846 66 -2.999535 0.5 0.5 1.5
9 0 1 0 0 0 1 0 0 0 1 17.99846 2 -2.999535 0.5 0.5 1.5
9 0 1 0 0 0 1 0 0 0 1 13.99846 121 -54.99953 0.5 1.5 0.5
9 0 1 0 0 0 1 0 0 0 1 12.99846 119 -54.99953 0.5 1.5 0.5
9 0 1 0 0 0 1 0 0 0 1 9.998463 124 -55.99953 0.5 1.5 0.5
9 0 1 0 0 0 1 0 0 0 1 8.998463 121 -55.99953 0.5 1.5 0.5
9 0 1 0 0 0 1 0 0 0 1 7.998463 119 -55.99953 0.5 1.5 0.5
9 0 1 0 0 0 1 0 0 0 1 5.998463 2 -16.99953 1.5 0.5 0.5
9 0 1 0 0 0 1 0 0 0 1 4.998463 70 -47.99953 1.5 0.5 0.5
9 0 1 0 0 0 1 0 0 0 1 4.998463 2 -6.999535 1.5 0.5 0.5
9 0 1 0 0 0 1 0 0 0 1 -0.001537323 122 -56.99953 1.5 0.5 0.5
9 0 1 0 0 0 1 0 0 0 1 -0.001537323 99 -53.99953 1.5 0.5 0.5
9 0 1 0 0 0 1 0 0 0 1 -0.001537323 72 -48.99953 1.5 0.5 0.5
9 0 1 0 0 0 1 0 0 0 1 -3.001537 129 -56.99953 1.5 0.5 0.5
9 0 1 0 0 0 1 0 0 0 1 -3.001537 66 -46.99953 1.5 0.5 0.5
9 0 1 0 0 0 1 0 0 0 1 -6.001537 127 -56.99953 0.5 1.5 0.5
9 0 1 0 0 0 1 0 0 0 1 -5.001537 2 -6.999535 1.5 0.5 0.5
9 0 1 0 0 0 1 0 0 0 1 -6.001537 96 -52.99953 1.5 0.5 0.5
9 0 1 0 0 0 1 0 0 0 1 -6.001537 90 -51.99953 1.5 0.5 0.5
9 0 1 0 0 0 1 0 0 0 1 -6.001537 2 -16.99953 1.5 0.5 0.5
9 0 1 0 0 0 1 0 0 0 1 -7.001537 79 -49.99953 1.5 0.5 0.5
9 0 1 0 0 0 1 0 0 0 1 -8.001537 120 -55.99953 1.5 0.5 0.5
9 0 1 0 0 0 1 0 0 0 1 -12.00154 129 -55.99953 0.5 1.5 0.5
9 0 1 0 0 0 1 0 0 0 1 -12.00154 116 -54.99953 0.5 1.5 0.5
9 0 1 0 0 0 1 0 0 0 1 -13.00154 131 -55.99953 0.5 1.5 0.5
9 0 1 0 0 0 1 0 0 0 1 -13.00154 119 -54.99953 0.5 1.5 0.5
9 0 1 0 0 0 1 0 0 0 1 -14.00154 2 -10.99953 0.5 0.5 1.5
9 0 1 0 0 0 1 0 0 0 1 -18.00154 2 -2.999535 0.5 0.5 1.5
9 0 1 0 0 0 1 0 0 0 1 -47.00154 66 -2.999535 0.5 0.5 1.5
9 0 1 0 0 0 1 0 0 0 1 -48.00154 70 -4.999535 0.5 0.5 1.5
9 0 1 0 0 0 1 0 0 0 1 -50.00154 79 -6.999535 0.5 0.5 1.5
9 0 1 0 0 0 1 0 0 0 1 -50.00154 76 -2.999535 0.5 0.5 1.5
9 0 1 0 0 0 1 0 0 0 1 -55.00154 121 -13.99953 0.5 1.5 0.5
9 0 1 0 0 0 1 0 0 0 1 -55.00154 119 -12.99953 0.5 1.5 0.5
9 0 1 0 0 0 1 0 0 0 1 -56.00154 124 -9.999535 0.5 1.5 0.5
9 0 1 0 0 0 1 0 0 0 1 -56.00154 121 -8.999535 0.5 1.5 0.5
9 0 1 0 0 0 1 0 0 0 1 -56.00154 116 -6.999535 0.5 1.5 0.5
9 0 1 0 0 0 1 0 0 0 1 -56.00154 113 -3.999535 0.5 0.5 1.5
9 0 1 0 0 0 1 0 0 0 1 -58.00154 137 -1.999535 0.5 1.5 0.5
