9 0 1 0 0 0 1 0 0 0 1 -14.886 8.377998 5.84 1 5.5 3
9 0 1 0 0 0 1 0 0 0 1 15.614 5.377998 5.84 1.5 4.5 2
9 0 1 0 0 0 1 0 0 0 1 16.114 9.377998 8.84 1 7.5 1
9 0 1 0 0 0 1 0 0 0 1 -16.386 5.877998 6.84 0.5 5 3
9 0 1 0 0 0 1 0 0 0 1 14.614 5.877998 2.34 0.5 9 1.5
9 0 1 0 0 0 1 0 0 0 1 -15.886 -1.622002 3.84 1 2.5 2
9 0 1 0 0 0 1 0 0 0 1 17.614 -0.1220016 5.84 0.5 4 2
9 0 1 0 0 0 1 0 0 0 1 15.114 13.878 6.84 1 4 1
9 0 1 0 0 0 1 0 0 0 1 -17.386 -0.1220016 5.84 0.5 4 2
9 0 1 0 0 0 1 0 0 0 1 16.114 -1.622002 4.34 1 2.5 1.5
9 0 1 0 0 0 1 0 0 0 1 -17.386 6.877998 9.34 0.5 5 1.5
9 0 1 0 0 0 1 0 0 0 1 -14.886 15.878 6.34 1 2 1.5
9 0 1 0 0 0 1 0 0 0 1 17.614 6.377998 9.84 0.5 5.5 1
9 0 1 0 0 0 1 0 0 0 1 18.614 6.377998 11.34 0.5 3.5 1.5
9 0 1 0 0 0 1 0 0 0 1 -14.886 1.877998 4.34 1 1 2.5
9 0 1 0 0 0 1 0 0 0 1 -13.886 -0.6220016 1.84 1 1.5 2
9 0 1 0 0 0 1 0 0 0 1 14.614 14.378 4.84 0.5 4.5 1
9 0 1 0 0 0 1 0 0 0 1 14.114 11.378 8.34 1 4.5 0.5
9 0 1 0 0 0 1 0 0 0 1 13.614 8.377998 6.84 0.5 4.5 1
9 0 1 0 0 0 1 0 0 0 1 -13.386 11.378 7.84 0.5 4.5 1
9 0 1 0 0 0 1 0 0 0 1 -18.386 6.377998 10.84 0.5 4.5 1
9 0 1 0 0 0 1 0 0 0 1 13.614 -0.1220016 1.84 0.5 2 2
9 0 1 0 0 0 1 0 0 0 1 15.614 4.377998 2.84 0.5 3.5 1
9 0 1 0 0 0 1 0 0 0 1 -19.386 4.377998 11.84 0.5 3.5 1
9 0 1 0 0 0 1 0 0 0 1 19.614 5.877998 12.84 0.5 3 1
9 0 1 0 0 0 1 0 0 0 1 15.614 -2.122002 1.84 0.5 3 1
9 0 1 0 0 0 1 0 0 0 1 -14.386 16.878 3.84 0.5 3 1
9 0 1 0 0 0 1 0 0 0 1 -14.886 11.878 9.34 1 3 0.5
9 0 1 0 0 0 1 0 0 0 1 -14.886 5.877998 2.34 1 3 0.5
9 0 1 0 0 0 1 0 0 0 1 -16.386 13.878 8.84 0.5 3 1
9 0 1 0 0 0 1 0 0 0 1 -17.386 -4.122002 2.84 0.5 3 1
9 0 1 0 0 0 1 0 0 0 1 -18.386 1.877998 8.84 0.5 3 1
9 0 1 0 0 0 1 0 0 0 1 -20.386 0.8779984 12.34 0.5 2 1.5
9 0 1 0 0 0 1 0 0 0 1 22.614 -7.622002 11.84 0.5 2.5 1
9 0 1 0 0 0 1 0 0 0 1 19.614 1.377998 10.84 0.5 2.5 1
9 0 1 0 0 0 1 0 0 0 1 18.614 0.3779984 8.84 0.5 2.5 1
9 0 1 0 0 0 1 0 0 0 1 18.614 -3.622002 6.84 0.5 2.5 1
9 0 1 0 0 0 1 0 0 0 1 17.614 2.877998 8.34 0.5 5 0.5
9 0 1 0 0 0 1 0 0 0 1 16.614 6.877998 10.34 0.5 5 0.5
9 0 1 0 0 0 1 0 0 0 1 14.614 17.378 2.84 0.5 2.5 1
9 0 1 0 0 0 1 0 0 0 1 -15.886 -3.622002 1.34 1 2.5 0.5
9 0 1 0 0 0 1 0 0 0 1 -18.386 -2.622002 6.84 0.5 2.5 1
9 0 1 0 0 0 1 0 0 0 1 -19.386 -0.6220016 9.84 0.5 2.5 1
9 0 1 0 0 0 1 0 0 0 1 -21.386 -5.622002 10.84 0.5 2.5 1
9 0 1 0 0 0 1 0 0 0 1 21.614 -5.622002 11.34 0.5 1.5 1.5
9 0 1 0 0 0 1 0 0 0 1 20.614 0.3779984 12.34 0.5 1.5 1.5
9 0 1 0 0 0 1 0 0 0 1 15.614 11.378 4.34 0.5 1.5 1.5
9 0 1 0 0 0 1 0 0 0 1 14.614 -1.622002 0.3400002 0.5 4.5 0.5
9 0 1 0 0 0 1 0 0 0 1 8.613998 19.378 -12.66 0.5 4.5 0.5
9 0 1 0 0 0 1 0 0 0 1 -22.386 -6.622002 12.34 0.5 1.5 1.5
9 0 1 0 0 0 1 0 0 0 1 24.614 -10.122 13.84 0.5 2 1
9 0 1 0 0 0 1 0 0 0 1 21.614 -0.1220016 13.84 0.5 2 1
9 0 1 0 0 0 1 0 0 0 1 20.614 -5.122002 9.84 0.5 2 1
9 0 1 0 0 0 1 0 0 0 1 19.614 -4.122002 8.84 0.5 2 1
9 0 1 0 0 0 1 0 0 0 1 16.114 -0.1220016 6.84 1 1 1
9 0 1 0 0 0 1 0 0 0 1 14.614 11.878 9.34 0.5 4 0.5
9 0 1 0 0 0 1 0 0 0 1 13.614 -2.122002 -0.6599998 0.5 4 0.5
9 0 1 0 0 0 1 0 0 0 1 12.614 -2.122002 -0.1599998 0.5 1 2
9 0 1 0 0 0 1 0 0 0 1 -13.886 -3.122002 -0.1599998 1 1 1
9 0 1 0 0 0 1 0 0 0 1 -15.886 8.877998 10.34 1 2 0.5
9 0 1 0 0 0 1 0 0 0 1 -16.386 2.877998 2.84 0.5 2 1
9 0 1 0 0 0 1 0 0 0 1 -19.886 6.877998 13.34 1 2 0.5
9 0 1 0 0 0 1 0 0 0 1 -21.386 -1.122002 12.84 0.5 2 1
9 0 1 0 0 0 1 0 0 0 1 -23.386 -7.122002 13.84 0.5 2 1
9 0 1 0 0 0 1 0 0 0 1 -8.386002 18.378 -12.66 0.5 3.5 0.5
9 0 1 0 0 0 1 0 0 0 1 -13.386 5.377998 6.34 0.5 3.5 0.5
9 0 1 0 0 0 1 0 0 0 1 23.614 -7.622002 13.84 0.5 1.5 1
9 0 1 0 0 0 1 0 0 0 1 22.614 -3.122002 14.34 0.5 3 0.5
9 0 1 0 0 0 1 0 0 0 1 20.614 3.377998 13.84 0.5 1.5 1
9 0 1 0 0 0 1 0 0 0 1 17.614 -5.122002 4.34 0.5 1 1.5
9 0 1 0 0 0 1 0 0 0 1 16.614 -3.122002 2.34 0.5 3 0.5
9 0 1 0 0 0 1 0 0 0 1 13.614 1.377998 4.84 0.5 1.5 1
9 0 1 0 0 0 1 0 0 0 1 12.614 9.877998 8.34 0.5 3 0.5
9 0 1 0 0 0 1 0 0 0 1 -12.386 -3.622002 -2.16 0.5 1.5 1
9 0 1 0 0 0 1 0 0 0 1 -14.886 15.378 8.34 1 1.5 0.5
9 0 1 0 0 0 1 0 0 0 1 -15.386 5.877998 9.34 0.5 3 0.5
9 0 1 0 0 0 1 0 0 0 1 -15.886 -0.6220016 6.34 1 1.5 0.5
9 0 1 0 0 0 1 0 0 0 1 -18.886 -2.622002 8.34 1 1.5 0.5
9 0 1 0 0 0 1 0 0 0 1 -20.386 -4.622002 9.84 0.5 1.5 1
9 0 1 0 0 0 1 0 0 0 1 -22.386 -2.622002 13.84 0.5 1.5 1
9 0 1 0 0 0 1 0 0 0 1 22.614 -5.622002 13.34 0.5 2.5 0.5
9 0 1 0 0 0 1 0 0 0 1 16.614 3.377998 3.34 0.5 2.5 0.5
9 0 1 0 0 0 1 0 0 0 1 15.614 9.377998 10.34 0.5 2.5 0.5
9 0 1 0 0 0 1 0 0 0 1 13.614 15.378 7.34 0.5 2.5 0.5
9 0 1 0 0 0 1 0 0 0 1 -18.386 7.377998 12.34 0.5 2.5 0.5
9 0 1 0 0 0 1 0 0 0 1 -20.386 4.377998 14.34 0.5 2.5 0.5
9 0 1 0 0 0 1 0 0 0 1 -21.386 1.377998 14.34 0.5 2.5 0.5
9 0 1 0 0 0 1 0 0 0 1 25.614 -11.122 14.84 0.5 1 1
9 0 1 0 0 0 1 0 0 0 1 25.614 -14.122 13.34 0.5 2 0.5
9 0 1 0 0 0 1 0 0 0 1 23.614 -4.122002 15.34 0.5 2 0.5
9 0 1 0 0 0 1 0 0 0 1 23.614 -10.122 12.84 0.5 1 1
9 0 1 0 0 0 1 0 0 0 1 20.614 -3.122002 11.34 0.5 2 0.5
9 0 1 0 0 0 1 0 0 0 1 18.614 1.877998 10.84 0.5 1 1
9 0 1 0 0 0 1 0 0 0 1 18.614 -5.122002 5.34 0.5 2 0.5
9 0 1 0 0 0 1 0 0 0 1 17.614 8.877998 11.34 0.5 2 0.5
9 0 1 0 0 0 1 0 0 0 1 17.614 -6.122002 2.34 0.5 2 0.5
9 0 1 0 0 0 1 0 0 0 1 14.614 4.877998 8.34 0.5 2 0.5
9 0 1 0 0 0 1 0 0 0 1 14.614 -0.1220016 4.84 0.5 1 1
9 0 1 0 0 0 1 0 0 0 1 13.614 -4.122002 -1.66 0.5 2 0.5
9 0 1 0 0 0 1 0 0 0 1 12.614 -1.122002 2.84 0.5 1 1
9 0 1 0 0 0 1 0 0 0 1 12.614 -4.122002 -2.16 0.5 1 1
9 0 1 0 0 0 1 0 0 0 1 0.1139984 13.378 -16.16 1 0.5 1
9 0 1 0 0 0 1 0 0 0 1 -13.386 -4.122002 -1.66 0.5 2 0.5
9 0 1 0 0 0 1 0 0 0 1 -14.386 1.877998 0.8400002 0.5 1 1
9 0 1 0 0 0 1 0 0 0 1 -13.886 -0.1220016 4.34 1 1 0.5
9 0 1 0 0 0 1 0 0 0 1 -15.386 10.878 2.34 0.5 2 0.5
9 0 1 0 0 0 1 0 0 0 1 -15.386 1.877998 7.84 0.5 1 1
9 0 1 0 0 0 1 0 0 0 1 -15.386 0.8779984 1.34 0.5 2 0.5
9 0 1 0 0 0 1 0 0 0 1 -16.386 4.877998 10.34 0.5 2 0.5
9 0 1 0 0 0 1 0 0 0 1 -16.386 -4.622002 3.84 0.5 0.5 2
9 0 1 0 0 0 1 0 0 0 1 -17.386 8.877998 11.34 0.5 2 0.5
9 0 1 0 0 0 1 0 0 0 1 -17.386 4.877998 6.84 0.5 1 1
9 0 1 0 0 0 1 0 0 0 1 -17.386 0.8779984 8.84 0.5 1 1
9 0 1 0 0 0 1 0 0 0 1 -17.386 -5.122002 4.84 0.5 1 1
9 0 1 0 0 0 1 0 0 0 1 -18.386 -4.622002 5.34 0.5 2.5 0.5
9 0 1 0 0 0 1 0 0 0 1 -19.386 -5.122002 7.84 0.5 1 1
9 0 1 0 0 0 1 0 0 0 1 -20.386 -2.122002 10.84 0.5 1 1
9 0 1 0 0 0 1 0 0 0 1 -22.386 -9.122002 10.84 0.5 1 1
9 0 1 0 0 0 1 0 0 0 1 -23.386 -4.122002 14.84 0.5 1 1
9 0 1 0 0 0 1 0 0 0 1 -23.386 -10.122 12.34 0.5 2 0.5
9 0 1 0 0 0 1 0 0 0 1 -24.386 -9.122002 14.34 0.5 2 0.5
9 0 1 0 0 0 1 0 0 0 1 -24.386 -11.122 13.34 0.5 2 0.5
9 0 1 0 0 0 1 0 0 0 1 -25.386 -11.122 14.34 0.5 2 0.5
9 0 1 0 0 0 1 0 0 0 1 24.614 -13.622 12.34 0.5 1.5 0.5
9 0 1 0 0 0 1 0 0 0 1 23.614 -11.622 11.34 0.5 1.5 0.5
9 0 1 0 0 0 1 0 0 0 1 21.614 -2.622002 12.34 0.5 1.5 0.5
9 0 1 0 0 0 1 0 0 0 1 20.614 -7.622002 8.34 0.5 1.5 0.5
9 0 1 0 0 0 1 0 0 0 1 19.614 1.377998 12.34 0.5 1.5 0.5
9 0 1 0 0 0 1 0 0 0 1 19.614 -5.622002 7.34 0.5 1.5 0.5
9 0 1 0 0 0 1 0 0 0 1 17.614 -2.622002 3.34 0.5 1.5 0.5
9 0 1 0 0 0 1 0 0 0 1 16.614 11.378 7.34 0.5 1.5 0.5
9 0 1 0 0 0 1 0 0 0 1 16.614 0.3779984 8.34 0.5 1.5 0.5
9 0 1 0 0 0 1 0 0 0 1 16.614 -2.622002 6.34 0.5 1.5 0.5
9 0 1 0 0 0 1 0 0 0 1 16.614 -4.622002 4.34 0.5 0.5 1.5
9 0 1 0 0 0 1 0 0 0 1 16.614 -5.622002 1.34 0.5 1.5 0.5
9 0 1 0 0 0 1 0 0 0 1 15.614 -5.622002 0.3400002 0.5 1.5 0.5
9 0 1 0 0 0 1 0 0 0 1 14.614 -4.622002 -0.6599998 0.5 1.5 0.5
9 0 1 0 0 0 1 0 0 0 1 13.614 -2.622002 1.34 0.5 0.5 1.5
9 0 1 0 0 0 1 0 0 0 1 -9.386002 15.378 -11.66 0.5 1.5 0.5
9 0 1 0 0 0 1 0 0 0 1 -12.386 8.377998 8.34 0.5 1.5 0.5
9 0 1 0 0 0 1 0 0 0 1 -13.386 5.377998 7.34 0.5 1.5 0.5
9 0 1 0 0 0 1 0 0 0 1 -13.386 1.377998 4.34 0.5 0.5 1.5
9 0 1 0 0 0 1 0 0 0 1 -13.386 -0.6220016 -0.6599998 0.5 1.5 0.5
9 0 1 0 0 0 1 0 0 0 1 -14.386 -2.622002 2.34 0.5 0.5 1.5
9 0 1 0 0 0 1 0 0 0 1 -16.386 12.378 7.34 0.5 1.5 0.5
9 0 1 0 0 0 1 0 0 0 1 -16.386 -0.6220016 7.34 0.5 1.5 0.5
9 0 1 0 0 0 1 0 0 0 1 -20.386 -6.622002 8.34 0.5 1.5 0.5
9 0 1 0 0 0 1 0 0 0 1 -21.386 -4.622002 12.34 0.5 1.5 0.5
9 0 1 0 0 0 1 0 0 0 1 -21.386 -7.622002 9.34 0.5 1.5 0.5
9 0 1 0 0 0 1 0 0 0 1 -24.386 -12.622 12.34 0.5 1.5 0.5
9 0 1 0 0 0 1 0 0 0 1 -25.386 -13.622 13.34 0.5 1.5 0.5
