9 0 1 0 0 0 1 0 0 0 1 -0.243 -11.946 0.25 1.5 10 1
9 0 1 0 0 0 1 0 0 0 1 0.257 -29.946 3.25 3 3 1
9 0 1 0 0 0 1 0 0 0 1 0.257 -11.946 -1.25 1 10 0.5
9 0 1 0 0 0 1 0 0 0 1 0.257 -10.446 1.75 1 8.5 0.5
9 0 1 0 0 0 1 0 0 0 1 1.757 -11.946 -0.25 0.5 10 0.5
9 0 1 0 0 0 1 0 0 0 1 -1.243 -6.445999 -1.25 0.5 4.5 0.5
9 0 1 0 0 0 1 0 0 0 1 3.757 -29.946 3.25 0.5 2 1
9 0 1 0 0 0 1 0 0 0 1 0.257 -26.446 3.25 2 0.5 1
9 0 1 0 0 0 1 0 0 0 1 0.257 -33.446 3.25 2 0.5 1
9 0 1 0 0 0 1 0 0 0 1 -3.243 -29.946 3.25 0.5 2 1
9 0 1 0 0 0 1 0 0 0 1 1.757 -6.445999 0.75 0.5 1.5 0.5
9 0 1 0 0 0 1 0 0 0 1 1.757 -12.446 0.75 0.5 1.5 0.5
9 0 1 0 0 0 1 0 0 0 1 -0.243 -20.446 1.75 0.5 1.5 0.5
9 0 1 0 0 0 1 0 0 0 1 -1.243 -20.446 -1.25 0.5 1.5 0.5
