9 0 1 0 0 0 1 0 0 0 1 10.004 -8.648001 5.514 1 2 1.5
9 0 1 0 0 0 1 0 0 0 1 0.00399971 5.351999 14.514 1 5 0.5
9 0 1 0 0 0 1 0 0 0 1 -9.496 -8.148001 4.014 1.5 0.5 3
9 0 1 0 0 0 1 0 0 0 1 -9.996 -9.648001 5.514 1 1 1.5
9 0 1 0 0 0 1 0 0 0 1 8.004 -8.148001 5.514 1 0.5 2.5
9 0 1 0 0 0 1 0 0 0 1 -10.996 -7.148001 3.514 1 0.5 2.5
9 0 1 0 0 0 1 0 0 0 1 11.504 -7.648001 4.014 0.5 1 2
9 0 1 0 0 0 1 0 0 0 1 -5.996 -8.148001 7.514 4 0.5 0.5
9 0 1 0 0 0 1 0 0 0 1 10.504 -7.648001 2.514 0.5 1 1.5
9 0 1 0 0 0 1 0 0 0 1 4.504 -8.148001 7.514 2.5 0.5 0.5
9 0 1 0 0 0 1 0 0 0 1 0.5039997 -8.148001 8.514 2.5 0.5 0.5
9 0 1 0 0 0 1 0 0 0 1 10.504 -11.648 5.014 0.5 1 1
9 0 1 0 0 0 1 0 0 0 1 9.004 -8.148001 2.014 1 0.5 1
9 0 1 0 0 0 1 0 0 0 1 8.004 -7.148001 8.014 1 0.5 1
9 0 1 0 0 0 1 0 0 0 1 6.004 -7.148001 9.514 2 0.5 0.5
9 0 1 0 0 0 1 0 0 0 1 4.004 -1.648001 13.514 1 1 0.5
9 0 1 0 0 0 1 0 0 0 1 -5.996 -7.148001 9.514 2 0.5 0.5
9 0 1 0 0 0 1 0 0 0 1 -7.496 -8.148001 5.014 0.5 0.5 2
9 0 1 0 0 0 1 0 0 0 1 -7.996 -7.148001 8.014 1 0.5 1
9 0 1 0 0 0 1 0 0 0 1 -9.496 -7.148001 6.014 0.5 0.5 2
9 0 1 0 0 0 1 0 0 0 1 -11.496 -8.148001 4.014 0.5 0.5 2
9 0 1 0 0 0 1 0 0 0 1 11.504 -5.148001 6.514 0.5 1.5 0.5
9 0 1 0 0 0 1 0 0 0 1 10.504 -10.148 3.514 0.5 1.5 0.5
9 0 1 0 0 0 1 0 0 0 1 9.504 -8.148001 7.514 0.5 1.5 0.5
9 0 1 0 0 0 1 0 0 0 1 1.504 3.851999 14.514 0.5 1.5 0.5
9 0 1 0 0 0 1 0 0 0 1 -10.496 -10.148 3.514 0.5 1.5 0.5
9 0 1 0 0 0 1 0 0 0 1 -11.496 -5.148001 6.514 0.5 1.5 0.5
