9 0 1 0 0 0 1 0 0 0 1 -9.126999 9.909 21.106 1 11 3.5
9 0 1 0 0 0 1 0 0 0 1 8.873001 9.909 21.606 1 9 3
9 0 1 0 0 0 1 0 0 0 1 -8.126999 6.409 26.106 1 11.5 1.5
9 0 1 0 0 0 1 0 0 0 1 7.373001 5.409 25.606 0.5 12.5 2
9 0 1 0 0 0 1 0 0 0 1 -6.626999 10.409 28.106 0.5 16.5 1.5
9 0 1 0 0 0 1 0 0 0 1 -10.627 2.909 23.106 0.5 7 3.5
9 0 1 0 0 0 1 0 0 0 1 -3.126999 14.409 31.606 2 5.5 1
9 0 1 0 0 0 1 0 0 0 1 -5.126999 15.909 29.606 1 10 1
9 0 1 0 0 0 1 0 0 0 1 10.873 9.409 20.606 1 4.5 2
9 0 1 0 0 0 1 0 0 0 1 8.373001 6.409 15.606 0.5 5.5 3
9 0 1 0 0 0 1 0 0 0 1 8.873001 -3.591 24.106 1 1.5 4.5
9 0 1 0 0 0 1 0 0 0 1 9.373001 21.909 19.606 1.5 2 2
9 0 1 0 0 0 1 0 0 0 1 6.373001 5.909 27.606 0.5 12 1
9 0 1 0 0 0 1 0 0 0 1 -0.1269989 27.909 31.106 2 6 0.5
9 0 1 0 0 0 1 0 0 0 1 -2.126999 -2.091 33.106 2 2 1.5
9 0 1 0 0 0 1 0 0 0 1 -8.126999 12.909 29.106 1 4 1.5
9 0 1 0 0 0 1 0 0 0 1 5.373001 0.4090004 30.106 1.5 2.5 1.5
9 0 1 0 0 0 1 0 0 0 1 8.873001 14.409 26.106 1 3.5 1.5
9 0 1 0 0 0 1 0 0 0 1 -7.626999 2.409 23.606 0.5 10.5 1
9 0 1 0 0 0 1 0 0 0 1 7.373001 28.909 25.606 0.5 5 2
9 0 1 0 0 0 1 0 0 0 1 -9.126999 -3.091 22.106 1 2 2.5
9 0 1 0 0 0 1 0 0 0 1 -10.627 14.909 21.606 0.5 5 2
9 0 1 0 0 0 1 0 0 0 1 -1.626999 -4.091 31.106 4.5 2 0.5
9 0 1 0 0 0 1 0 0 0 1 -9.626999 22.409 19.606 1.5 1.5 2
9 0 1 0 0 0 1 0 0 0 1 -8.626999 10.409 15.106 0.5 3.5 2.5
9 0 1 0 0 0 1 0 0 0 1 -2.626999 16.409 33.106 1.5 5.5 0.5
9 0 1 0 0 0 1 0 0 0 1 -5.626999 9.409 28.106 0.5 16.5 0.5
9 0 1 0 0 0 1 0 0 0 1 0.8730011 1.909 32.606 1 4 1
9 0 1 0 0 0 1 0 0 0 1 -5.126999 -2.091 29.606 1 4 1
9 0 1 0 0 0 1 0 0 0 1 -9.626999 2.909 25.606 0.5 8 1
9 0 1 0 0 0 1 0 0 0 1 8.373001 -0.5909996 23.606 0.5 1.5 5
9 0 1 0 0 0 1 0 0 0 1 -10.627 7.409 18.606 0.5 7.5 1
9 0 1 0 0 0 1 0 0 0 1 15.373 4.909 2.105999 0.5 2 3.5
9 0 1 0 0 0 1 0 0 0 1 9.373001 10.909 15.106 0.5 2 3.5
9 0 1 0 0 0 1 0 0 0 1 1.373001 17.409 32.106 2.5 2.5 0.5
9 0 1 0 0 0 1 0 0 0 1 8.373001 22.909 23.106 0.5 4 1.5
9 0 1 0 0 0 1 0 0 0 1 -6.626999 12.909 31.606 1.5 2 1
9 0 1 0 0 0 1 0 0 0 1 2.373001 3.409 31.606 0.5 5.5 1
9 0 1 0 0 0 1 0 0 0 1 -0.1269989 29.409 32.106 1 5.5 0.5
9 0 1 0 0 0 1 0 0 0 1 14.373 5.409 4.605999 0.5 2.5 2
9 0 1 0 0 0 1 0 0 0 1 10.373 16.409 20.606 0.5 2.5 2
9 0 1 0 0 0 1 0 0 0 1 10.873 11.409 17.606 1 2.5 1
9 0 1 0 0 0 1 0 0 0 1 9.873001 3.909 18.106 1 5 0.5
9 0 1 0 0 0 1 0 0 0 1 5.373001 3.909 28.106 0.5 10 0.5
9 0 1 0 0 0 1 0 0 0 1 -7.626999 22.909 25.606 0.5 5 1
9 0 1 0 0 0 1 0 0 0 1 -0.6269989 15.909 35.106 1.5 1 1.5
9 0 1 0 0 0 1 0 0 0 1 -3.626999 22.909 31.106 1.5 3 0.5
9 0 1 0 0 0 1 0 0 0 1 -9.626999 24.909 21.106 1.5 1 1.5
9 0 1 0 0 0 1 0 0 0 1 8.373001 15.909 17.606 0.5 4 1
9 0 1 0 0 0 1 0 0 0 1 6.873001 14.909 29.106 2 2 0.5
9 0 1 0 0 0 1 0 0 0 1 4.873001 15.909 30.606 1 2 1
9 0 1 0 0 0 1 0 0 0 1 2.873001 16.909 31.106 1 4 0.5
9 0 1 0 0 0 1 0 0 0 1 -6.626999 -0.0909996 26.106 0.5 8 0.5
9 0 1 0 0 0 1 0 0 0 1 -11.627 6.909 24.606 0.5 2 2
9 0 1 0 0 0 1 0 0 0 1 8.373001 14.409 28.106 1.5 2.5 0.5
9 0 1 0 0 0 1 0 0 0 1 -1.626999 36.409 31.106 1.5 2.5 0.5
9 0 1 0 0 0 1 0 0 0 1 -7.626999 -2.591 29.106 0.5 2.5 1.5
9 0 1 0 0 0 1 0 0 0 1 -8.626999 2.409 15.106 0.5 1.5 2.5
9 0 1 0 0 0 1 0 0 0 1 -14.627 10.409 -3.894001 0.5 2.5 1.5
9 0 1 0 0 0 1 0 0 0 1 13.373 5.409 -7.394001 0.5 3.5 1
9 0 1 0 0 0 1 0 0 0 1 10.373 1.409 19.606 0.5 3.5 1
9 0 1 0 0 0 1 0 0 0 1 -0.1269989 11.409 32.106 1 3.5 0.5
9 0 1 0 0 0 1 0 0 0 1 -10.127 11.409 17.106 1 3.5 0.5
9 0 1 0 0 0 1 0 0 0 1 -3.626999 -0.5909996 30.106 0.5 6.5 0.5
9 0 1 0 0 0 1 0 0 0 1 12.373 10.909 21.106 0.5 2 1.5
9 0 1 0 0 0 1 0 0 0 1 8.873001 25.409 20.606 1 1.5 1
9 0 1 0 0 0 1 0 0 0 1 7.373001 20.909 24.606 0.5 3 1
9 0 1 0 0 0 1 0 0 0 1 7.373001 -0.0909996 29.106 0.5 2 1.5
9 0 1 0 0 0 1 0 0 0 1 4.373001 -0.0909996 32.106 1.5 2 0.5
9 0 1 0 0 0 1 0 0 0 1 3.373001 0.9090004 31.106 0.5 6 0.5
9 0 1 0 0 0 1 0 0 0 1 -1.126999 0.9090004 33.106 1 1 1.5
9 0 1 0 0 0 1 0 0 0 1 -2.626999 21.909 32.106 1.5 2 0.5
9 0 1 0 0 0 1 0 0 0 1 -7.626999 -3.591 20.606 0.5 1.5 2
9 0 1 0 0 0 1 0 0 0 1 -12.627 5.909 -9.394001 0.5 3 1
9 0 1 0 0 0 1 0 0 0 1 -13.627 7.909 -7.394001 0.5 3 1
9 0 1 0 0 0 1 0 0 0 1 6.373001 28.409 27.106 0.5 5.5 0.5
9 0 1 0 0 0 1 0 0 0 1 -6.626999 12.409 30.106 0.5 5.5 0.5
9 0 1 0 0 0 1 0 0 0 1 -7.626999 18.409 24.106 0.5 5.5 0.5
9 0 1 0 0 0 1 0 0 0 1 13.873 8.409 7.105999 1 2.5 0.5
9 0 1 0 0 0 1 0 0 0 1 8.373001 5.909 25.106 0.5 5 0.5
9 0 1 0 0 0 1 0 0 0 1 1.373001 16.909 33.106 2.5 1 0.5
9 0 1 0 0 0 1 0 0 0 1 -2.626999 17.909 34.106 0.5 5 0.5
9 0 1 0 0 0 1 0 0 0 1 -1.626999 -5.091 32.106 2.5 1 0.5
9 0 1 0 0 0 1 0 0 0 1 -3.626999 -1.091 31.106 2.5 1 0.5
9 0 1 0 0 0 1 0 0 0 1 -8.626999 18.909 17.106 0.5 5 0.5
9 0 1 0 0 0 1 0 0 0 1 -8.626999 -6.091 23.106 0.5 1 2.5
9 0 1 0 0 0 1 0 0 0 1 -9.626999 17.409 25.606 0.5 2.5 1
9 0 1 0 0 0 1 0 0 0 1 -9.626999 13.409 29.606 0.5 2.5 1
9 0 1 0 0 0 1 0 0 0 1 -9.626999 10.909 14.106 0.5 1 2.5
9 0 1 0 0 0 1 0 0 0 1 -10.127 6.409 27.106 1 2.5 0.5
9 0 1 0 0 0 1 0 0 0 1 11.373 9.409 23.106 1.5 1.5 0.5
9 0 1 0 0 0 1 0 0 0 1 9.373001 -0.5909996 20.106 0.5 1.5 1.5
9 0 1 0 0 0 1 0 0 0 1 9.373001 -0.5909996 26.106 0.5 1.5 1.5
9 0 1 0 0 0 1 0 0 0 1 9.373001 19.409 20.106 1.5 0.5 1.5
9 0 1 0 0 0 1 0 0 0 1 -1.626999 -11.591 24.106 1.5 0.5 1.5
9 0 1 0 0 0 1 0 0 0 1 -4.626999 -2.591 33.106 0.5 1.5 1.5
9 0 1 0 0 0 1 0 0 0 1 -7.626999 4.409 28.106 0.5 4.5 0.5
9 0 1 0 0 0 1 0 0 0 1 -14.627 7.409 -6.894001 0.5 1.5 1.5
9 0 1 0 0 0 1 0 0 0 1 14.373 9.909 5.605999 0.5 2 1
9 0 1 0 0 0 1 0 0 0 1 14.373 6.909 -5.394001 0.5 2 1
9 0 1 0 0 0 1 0 0 0 1 12.373 4.909 -8.894001 0.5 4 0.5
9 0 1 0 0 0 1 0 0 0 1 11.373 1.909 -10.394 0.5 2 1
9 0 1 0 0 0 1 0 0 0 1 8.373001 28.909 26.606 0.5 2 1
9 0 1 0 0 0 1 0 0 0 1 8.373001 1.909 27.606 0.5 1 2
9 0 1 0 0 0 1 0 0 0 1 5.873001 3.909 29.606 1 1 1
9 0 1 0 0 0 1 0 0 0 1 4.873001 -3.091 29.606 1 1 1
9 0 1 0 0 0 1 0 0 0 1 3.873001 4.909 30.106 1 2 0.5
9 0 1 0 0 0 1 0 0 0 1 1.373001 7.909 32.606 0.5 2 1
9 0 1 0 0 0 1 0 0 0 1 1.873001 -3.091 32.106 2 1 0.5
9 0 1 0 0 0 1 0 0 0 1 -1.126999 33.909 33.606 1 1 1
9 0 1 0 0 0 1 0 0 0 1 -3.626999 12.909 30.106 0.5 4 0.5
9 0 1 0 0 0 1 0 0 0 1 -3.126999 7.909 31.106 2 1 0.5
9 0 1 0 0 0 1 0 0 0 1 -5.126999 3.909 29.106 1 2 0.5
9 0 1 0 0 0 1 0 0 0 1 -6.626999 -3.091 30.606 0.5 2 1
9 0 1 0 0 0 1 0 0 0 1 -9.626999 5.909 12.106 0.5 4 0.5
9 0 1 0 0 0 1 0 0 0 1 -11.627 15.909 22.606 0.5 2 1
9 0 1 0 0 0 1 0 0 0 1 9.373001 22.409 22.106 0.5 3.5 0.5
9 0 1 0 0 0 1 0 0 0 1 9.373001 16.409 18.106 0.5 3.5 0.5
9 0 1 0 0 0 1 0 0 0 1 9.373001 5.409 12.106 0.5 3.5 0.5
9 0 1 0 0 0 1 0 0 0 1 8.373001 -5.591 24.106 0.5 0.5 3.5
9 0 1 0 0 0 1 0 0 0 1 -3.626999 24.409 30.106 0.5 3.5 0.5
9 0 1 0 0 0 1 0 0 0 1 15.373 7.909 5.105999 0.5 1 1.5
9 0 1 0 0 0 1 0 0 0 1 14.373 2.909 -3.894001 0.5 3 0.5
9 0 1 0 0 0 1 0 0 0 1 11.373 22.409 19.606 0.5 1.5 1
9 0 1 0 0 0 1 0 0 0 1 11.373 1.409 18.606 0.5 1.5 1
9 0 1 0 0 0 1 0 0 0 1 10.373 -1.591 26.606 0.5 1.5 1
9 0 1 0 0 0 1 0 0 0 1 8.373001 27.409 22.606 0.5 0.5 3
9 0 1 0 0 0 1 0 0 0 1 8.373001 12.909 15.106 0.5 1 1.5
9 0 1 0 0 0 1 0 0 0 1 7.373001 34.909 25.106 0.5 1 1.5
9 0 1 0 0 0 1 0 0 0 1 7.373001 3.409 28.606 0.5 1.5 1
9 0 1 0 0 0 1 0 0 0 1 7.373001 -5.591 22.606 0.5 1.5 1
9 0 1 0 0 0 1 0 0 0 1 7.373001 29.909 28.106 1.5 1 0.5
9 0 1 0 0 0 1 0 0 0 1 6.373001 -5.091 26.106 0.5 3 0.5
9 0 1 0 0 0 1 0 0 0 1 -0.6269989 12.909 33.106 0.5 3 0.5
9 0 1 0 0 0 1 0 0 0 1 -1.626999 35.909 32.106 1.5 1 0.5
9 0 1 0 0 0 1 0 0 0 1 -1.626999 22.909 33.106 1.5 1 0.5
9 0 1 0 0 0 1 0 0 0 1 -2.626999 0.9090004 32.106 0.5 1 1.5
9 0 1 0 0 0 1 0 0 0 1 -2.626999 -4.591 33.606 1.5 0.5 1
9 0 1 0 0 0 1 0 0 0 1 -6.626999 17.909 26.106 0.5 3 0.5
9 0 1 0 0 0 1 0 0 0 1 -8.626999 23.909 23.106 0.5 3 0.5
9 0 1 0 0 0 1 0 0 0 1 -8.626999 19.409 25.606 0.5 1.5 1
9 0 1 0 0 0 1 0 0 0 1 -8.626999 -1.591 28.606 0.5 1.5 1
9 0 1 0 0 0 1 0 0 0 1 -9.126999 22.409 22.106 1 1.5 0.5
9 0 1 0 0 0 1 0 0 0 1 -9.126999 13.409 31.106 1 1.5 0.5
9 0 1 0 0 0 1 0 0 0 1 -10.627 17.409 24.606 0.5 1.5 1
9 0 1 0 0 0 1 0 0 0 1 -10.627 -4.591 23.606 0.5 0.5 3
9 0 1 0 0 0 1 0 0 0 1 -11.627 5.909 21.106 0.5 1 1.5
9 0 1 0 0 0 1 0 0 0 1 -11.627 3.409 24.606 0.5 1.5 1
9 0 1 0 0 0 1 0 0 0 1 13.373 0.4090004 -5.894001 0.5 2.5 0.5
9 0 1 0 0 0 1 0 0 0 1 10.373 11.409 16.106 0.5 2.5 0.5
9 0 1 0 0 0 1 0 0 0 1 2.373001 29.409 31.106 0.5 2.5 0.5
9 0 1 0 0 0 1 0 0 0 1 2.373001 5.409 33.106 0.5 2.5 0.5
9 0 1 0 0 0 1 0 0 0 1 1.373001 29.409 32.106 0.5 2.5 0.5
9 0 1 0 0 0 1 0 0 0 1 -1.626999 26.409 32.106 0.5 2.5 0.5
9 0 1 0 0 0 1 0 0 0 1 -9.626999 -5.591 23.106 0.5 0.5 2.5
9 0 1 0 0 0 1 0 0 0 1 -11.627 5.409 -9.894001 0.5 2.5 0.5
9 0 1 0 0 0 1 0 0 0 1 -11.627 1.409 19.106 0.5 2.5 0.5
9 0 1 0 0 0 1 0 0 0 1 15.373 2.409 1.605999 0.5 0.5 2
9 0 1 0 0 0 1 0 0 0 1 11.873 14.909 21.106 1 1 0.5
9 0 1 0 0 0 1 0 0 0 1 11.373 15.909 22.106 0.5 2 0.5
9 0 1 0 0 0 1 0 0 0 1 10.873 24.409 20.606 1 0.5 1
9 0 1 0 0 0 1 0 0 0 1 10.873 8.909 24.106 1 1 0.5
9 0 1 0 0 0 1 0 0 0 1 10.373 5.909 11.106 0.5 2 0.5
9 0 1 0 0 0 1 0 0 0 1 10.373 5.909 23.106 0.5 2 0.5
9 0 1 0 0 0 1 0 0 0 1 10.373 3.909 21.606 0.5 1 1
9 0 1 0 0 0 1 0 0 0 1 10.373 0.9090004 -10.894 0.5 2 0.5
9 0 1 0 0 0 1 0 0 0 1 9.373001 13.909 16.606 0.5 1 1
9 0 1 0 0 0 1 0 0 0 1 9.373001 9.909 25.606 0.5 1 1
9 0 1 0 0 0 1 0 0 0 1 8.873001 21.909 17.106 1 1 0.5
9 0 1 0 0 0 1 0 0 0 1 8.373001 8.909 26.106 0.5 2 0.5
9 0 1 0 0 0 1 0 0 0 1 7.873001 18.409 26.606 1 0.5 1
9 0 1 0 0 0 1 0 0 0 1 6.873001 15.409 30.606 1 0.5 1
9 0 1 0 0 0 1 0 0 0 1 5.873001 11.909 29.106 1 1 0.5
9 0 1 0 0 0 1 0 0 0 1 4.873001 15.909 32.106 1 1 0.5
9 0 1 0 0 0 1 0 0 0 1 4.873001 12.909 30.106 1 1 0.5
9 0 1 0 0 0 1 0 0 0 1 -0.6269989 21.909 32.106 0.5 2 0.5
9 0 1 0 0 0 1 0 0 0 1 -0.1269989 -2.091 -13.894 1 1 0.5
9 0 1 0 0 0 1 0 0 0 1 -1.126999 17.409 34.606 1 0.5 1
9 0 1 0 0 0 1 0 0 0 1 -0.1269989 -6.591 31.106 2 0.5 0.5
9 0 1 0 0 0 1 0 0 0 1 -2.626999 -7.591 0.605999 0.5 0.5 2
9 0 1 0 0 0 1 0 0 0 1 -3.626999 19.909 34.106 0.5 2 0.5
9 0 1 0 0 0 1 0 0 0 1 -5.626999 23.909 31.106 0.5 2 0.5
9 0 1 0 0 0 1 0 0 0 1 -6.126999 15.909 31.106 1 1 0.5
9 0 1 0 0 0 1 0 0 0 1 -6.126999 10.409 31.606 1 0.5 1
9 0 1 0 0 0 1 0 0 0 1 -7.126999 27.409 27.606 1 0.5 1
9 0 1 0 0 0 1 0 0 0 1 -7.626999 0.9090004 -12.894 0.5 2 0.5
9 0 1 0 0 0 1 0 0 0 1 -7.626999 -6.091 21.606 0.5 1 1
9 0 1 0 0 0 1 0 0 0 1 -7.626999 -6.091 25.606 0.5 1 1
9 0 1 0 0 0 1 0 0 0 1 -8.626999 26.909 20.606 0.5 1 1
9 0 1 0 0 0 1 0 0 0 1 -9.126999 -2.091 19.106 1 1 0.5
9 0 1 0 0 0 1 0 0 0 1 -9.626999 -2.091 27.106 0.5 2 0.5
9 0 1 0 0 0 1 0 0 0 1 -10.627 5.909 11.106 0.5 2 0.5
9 0 1 0 0 0 1 0 0 0 1 -11.627 22.909 19.606 0.5 1 1
9 0 1 0 0 0 1 0 0 0 1 -12.627 5.909 25.106 0.5 2 0.5
9 0 1 0 0 0 1 0 0 0 1 16.373 3.409 1.105999 0.5 0.5 1.5
9 0 1 0 0 0 1 0 0 0 1 15.373 5.409 -2.894001 0.5 0.5 1.5
9 0 1 0 0 0 1 0 0 0 1 15.373 5.409 6.105999 0.5 1.5 0.5
9 0 1 0 0 0 1 0 0 0 1 14.373 2.409 3.105999 0.5 0.5 1.5
9 0 1 0 0 0 1 0 0 0 1 11.373 0.4090004 -8.894001 0.5 1.5 0.5
9 0 1 0 0 0 1 0 0 0 1 10.373 17.409 23.106 0.5 1.5 0.5
9 0 1 0 0 0 1 0 0 0 1 9.373001 26.409 23.106 0.5 0.5 1.5
9 0 1 0 0 0 1 0 0 0 1 9.373001 0.4090004 -11.894 0.5 1.5 0.5
9 0 1 0 0 0 1 0 0 0 1 9.373001 24.409 19.106 1.5 0.5 0.5
9 0 1 0 0 0 1 0 0 0 1 8.373001 19.409 25.106 0.5 1.5 0.5
9 0 1 0 0 0 1 0 0 0 1 7.373001 -3.591 28.106 0.5 1.5 0.5
9 0 1 0 0 0 1 0 0 0 1 3.373001 -3.591 30.106 0.5 1.5 0.5
9 0 1 0 0 0 1 0 0 0 1 1.373001 3.409 34.106 0.5 1.5 0.5
9 0 1 0 0 0 1 0 0 0 1 0.3730011 32.409 33.106 0.5 1.5 0.5
9 0 1 0 0 0 1 0 0 0 1 0.3730011 1.409 34.106 0.5 1.5 0.5
9 0 1 0 0 0 1 0 0 0 1 0.3730011 -11.591 19.106 0.5 0.5 1.5
9 0 1 0 0 0 1 0 0 0 1 -0.6269989 3.409 32.106 0.5 1.5 0.5
9 0 1 0 0 0 1 0 0 0 1 0.3730011 -3.591 -12.894 1.5 0.5 0.5
9 0 1 0 0 0 1 0 0 0 1 0.3730011 -4.591 -11.894 1.5 0.5 0.5
9 0 1 0 0 0 1 0 0 0 1 0.3730011 -5.591 -10.894 1.5 0.5 0.5
9 0 1 0 0 0 1 0 0 0 1 0.3730011 -7.591 11.106 1.5 0.5 0.5
9 0 1 0 0 0 1 0 0 0 1 -1.626999 13.409 34.106 0.5 1.5 0.5
9 0 1 0 0 0 1 0 0 0 1 -1.626999 1.409 31.106 0.5 1.5 0.5
9 0 1 0 0 0 1 0 0 0 1 -2.626999 27.409 31.106 0.5 1.5 0.5
9 0 1 0 0 0 1 0 0 0 1 -2.626999 15.409 35.106 0.5 1.5 0.5
9 0 1 0 0 0 1 0 0 0 1 -2.626999 -11.591 26.106 1.5 0.5 0.5
9 0 1 0 0 0 1 0 0 0 1 -4.626999 19.409 33.106 0.5 1.5 0.5
9 0 1 0 0 0 1 0 0 0 1 -4.626999 12.409 33.106 0.5 1.5 0.5
9 0 1 0 0 0 1 0 0 0 1 -5.626999 0.4090004 -13.894 1.5 0.5 0.5
9 0 1 0 0 0 1 0 0 0 1 -5.626999 -5.591 -9.894001 1.5 0.5 0.5
9 0 1 0 0 0 1 0 0 0 1 -6.626999 -2.591 -11.894 1.5 0.5 0.5
9 0 1 0 0 0 1 0 0 0 1 -7.626999 -2.591 31.106 0.5 1.5 0.5
9 0 1 0 0 0 1 0 0 0 1 -8.626999 7.409 28.106 0.5 1.5 0.5
9 0 1 0 0 0 1 0 0 0 1 -8.626999 5.409 13.106 0.5 1.5 0.5
9 0 1 0 0 0 1 0 0 0 1 -9.626999 13.409 16.106 0.5 1.5 0.5
9 0 1 0 0 0 1 0 0 0 1 -9.626999 10.409 28.106 0.5 0.5 1.5
9 0 1 0 0 0 1 0 0 0 1 -9.626999 24.409 19.106 1.5 0.5 0.5
9 0 1 0 0 0 1 0 0 0 1 -10.627 20.409 20.106 0.5 0.5 1.5
9 0 1 0 0 0 1 0 0 0 1 -10.627 11.409 16.106 0.5 1.5 0.5
9 0 1 0 0 0 1 0 0 0 1 -11.627 14.409 21.106 0.5 1.5 0.5
9 0 1 0 0 0 1 0 0 0 1 -11.627 10.409 17.106 0.5 1.5 0.5
9 0 1 0 0 0 1 0 0 0 1 -11.627 9.409 24.106 0.5 0.5 1.5
9 0 1 0 0 0 1 0 0 0 1 -11.627 6.409 27.106 0.5 1.5 0.5
9 0 1 0 0 0 1 0 0 0 1 -11.627 0.4090004 25.106 0.5 1.5 0.5
9 0 1 0 0 0 1 0 0 0 1 -13.627 12.409 -6.894001 0.5 1.5 0.5
9 0 1 0 0 0 1 0 0 0 1 -13.627 6.409 -8.894001 0.5 1.5 0.5
9 0 1 0 0 0 1 0 0 0 1 -13.627 3.409 -4.894001 0.5 1.5 0.5
9 0 1 0 0 0 1 0 0 0 1 -14.627 6.409 -4.894001 0.5 1.5 0.5
9 0 1 0 0 0 1 0 0 0 1 -15.627 11.409 -2.894001 0.5 1.5 0.5
