9 0 1 0 0 0 1 0 0 0 1 0.3050003 -8.383 -1.384001 6 0.5 4
9 0 1 0 0 0 1 0 0 0 1 0.3050003 -9.383 -1.884001 4 0.5 2.5
9 0 1 0 0 0 1 0 0 0 1 0.3050003 -8.383 4.115999 3 0.5 1.5
9 0 1 0 0 0 1 0 0 0 1 0.3050003 -8.383 -6.384001 3 0.5 1
9 0 1 0 0 0 1 0 0 0 1 6.805 14.117 -14.384 0.5 2 1
9 0 1 0 0 0 1 0 0 0 1 -6.695 -8.383 -1.384001 1 0.5 2
9 0 1 0 0 0 1 0 0 0 1 14.305 9.617 -6.884001 1 1.5 0.5
9 0 1 0 0 0 1 0 0 0 1 6.805 -8.383 -1.384001 0.5 0.5 3
9 0 1 0 0 0 1 0 0 0 1 -0.1949997 -9.383 -5.384001 1.5 0.5 1
9 0 1 0 0 0 1 0 0 0 1 -0.1949997 -9.383 1.615999 1.5 0.5 1
9 0 1 0 0 0 1 0 0 0 1 -7.195 13.617 -14.384 0.5 1.5 1
9 0 1 0 0 0 1 0 0 0 1 7.805 12.117 -13.384 0.5 1 1
9 0 1 0 0 0 1 0 0 0 1 -14.195 9.117 -6.884001 0.5 2 0.5
9 0 1 0 0 0 1 0 0 0 1 4.805 -9.383 -1.884001 0.5 0.5 1.5
9 0 1 0 0 0 1 0 0 0 1 -0.1949997 -8.383 -7.884001 1.5 0.5 0.5
9 0 1 0 0 0 1 0 0 0 1 -4.195 -9.383 -1.884001 0.5 0.5 1.5
9 0 1 0 0 0 1 0 0 0 1 -6.195 15.617 -15.884 0.5 1.5 0.5
