9 0 1 0 0 0 1 0 0 0 1 29 0.04399967 0.04800034 5.5 3.5 3.5
9 0 1 0 0 0 1 0 0 0 1 19.5 0.04399967 0.04800034 4 2.5 2.5
9 0 1 0 0 0 1 0 0 0 1 8.5 0.04399967 0.04800034 7 1.5 1.5
9 0 1 0 0 0 1 0 0 0 1 29 0.04399967 -3.952 5.5 2.5 0.5
9 0 1 0 0 0 1 0 0 0 1 29 0.04399967 4.048 5.5 2.5 0.5
9 0 1 0 0 0 1 0 0 0 1 29.5 -3.956 0.04800034 5 0.5 2.5
9 0 1 0 0 0 1 0 0 0 1 30 4.044 0.04800034 4.5 0.5 2.5
9 0 1 0 0 0 1 0 0 0 1 32 0.04399967 -4.952 2.5 2.5 0.5
9 0 1 0 0 0 1 0 0 0 1 21 0.04399967 -2.952 2.5 2.5 0.5
9 0 1 0 0 0 1 0 0 0 1 21 -2.956 0.04800034 2.5 0.5 2.5
9 0 1 0 0 0 1 0 0 0 1 20 3.044 0.04800034 3.5 0.5 1.5
9 0 1 0 0 0 1 0 0 0 1 20 0.04399967 3.048 3.5 1.5 0.5
9 0 1 0 0 0 1 0 0 0 1 31.5 -4.956 0.04800034 3 0.5 1.5
9 0 1 0 0 0 1 0 0 0 1 32.5 -0.4560003 5.048 2 2 0.5
9 0 1 0 0 0 1 0 0 0 1 31 5.044 -0.4519997 3.5 0.5 1
9 0 1 0 0 0 1 0 0 0 1 8.5 2.044 0.04800034 7 0.5 0.5
9 0 1 0 0 0 1 0 0 0 1 8.5 0.04399967 -1.952 7 0.5 0.5
9 0 1 0 0 0 1 0 0 0 1 8.5 0.04399967 2.048 7 0.5 0.5
9 0 1 0 0 0 1 0 0 0 1 8.5 -1.956 0.04800034 7 0.5 0.5
9 0 1 0 0 0 1 0 0 0 1 39.5 0.04399967 -5.952 2 1.5 0.5
9 0 1 0 0 0 1 0 0 0 1 36 -4.956 2.048 5.5 0.5 0.5
9 0 1 0 0 0 1 0 0 0 1 39 -2.456 5.048 2.5 1 0.5
9 0 1 0 0 0 1 0 0 0 1 36.5 5.044 -1.952 5 0.5 0.5
9 0 1 0 0 0 1 0 0 0 1 36.5 2.044 5.048 5 0.5 0.5
9 0 1 0 0 0 1 0 0 0 1 37 -4.956 -1.952 4.5 0.5 0.5
9 0 1 0 0 0 1 0 0 0 1 24 4.044 0.04800034 1.5 0.5 1.5
9 0 1 0 0 0 1 0 0 0 1 39.5 2.544 -4.952 2 1 0.5
9 0 1 0 0 0 1 0 0 0 1 39.5 -0.4560003 6.048 2 1 0.5
9 0 1 0 0 0 1 0 0 0 1 30.5 -2.956 -3.952 4 0.5 0.5
9 0 1 0 0 0 1 0 0 0 1 23.5 -3.956 -0.4519997 1 0.5 2
9 0 1 0 0 0 1 0 0 0 1 38 5.044 2.048 3.5 0.5 0.5
9 0 1 0 0 0 1 0 0 0 1 38 -1.956 -4.952 3.5 0.5 0.5
9 0 1 0 0 0 1 0 0 0 1 31 -3.956 -2.952 3.5 0.5 0.5
9 0 1 0 0 0 1 0 0 0 1 31 -3.956 3.048 3.5 0.5 0.5
9 0 1 0 0 0 1 0 0 0 1 39 6.044 -0.4519997 1.5 0.5 1
9 0 1 0 0 0 1 0 0 0 1 39 -5.956 0.5480003 1.5 0.5 1
9 0 1 0 0 0 1 0 0 0 1 28 0.5439997 -4.952 1.5 1 0.5
9 0 1 0 0 0 1 0 0 0 1 22.5 0.04399967 4.048 1 1.5 0.5
9 0 1 0 0 0 1 0 0 0 1 17.5 0.04399967 -2.952 1 1.5 0.5
9 0 1 0 0 0 1 0 0 0 1 17.5 -2.956 0.04800034 1 0.5 1.5
9 0 1 0 0 0 1 0 0 0 1 39 4.044 -3.952 2.5 0.5 0.5
9 0 1 0 0 0 1 0 0 0 1 39 -3.956 4.048 2.5 0.5 0.5
9 0 1 0 0 0 1 0 0 0 1 39 -4.956 3.048 2.5 0.5 0.5
9 0 1 0 0 0 1 0 0 0 1 38 -3.956 -3.952 2.5 0.5 0.5
9 0 1 0 0 0 1 0 0 0 1 32 4.044 -2.952 2.5 0.5 0.5
9 0 1 0 0 0 1 0 0 0 1 32 3.044 -3.952 2.5 0.5 0.5
9 0 1 0 0 0 1 0 0 0 1 32 3.044 4.048 2.5 0.5 0.5
9 0 1 0 0 0 1 0 0 0 1 32 -2.956 4.048 2.5 0.5 0.5
9 0 1 0 0 0 1 0 0 0 1 21 3.044 -1.952 2.5 0.5 0.5
9 0 1 0 0 0 1 0 0 0 1 13 -0.9560003 2.048 2.5 0.5 0.5
9 0 1 0 0 0 1 0 0 0 1 13 -1.956 1.048 2.5 0.5 0.5
9 0 1 0 0 0 1 0 0 0 1 39.5 5.044 -2.952 2 0.5 0.5
9 0 1 0 0 0 1 0 0 0 1 32.5 4.044 3.048 2 0.5 0.5
9 0 1 0 0 0 1 0 0 0 1 29.5 -0.4560003 5.048 1 1 0.5
9 0 1 0 0 0 1 0 0 0 1 22.5 -0.4560003 -3.952 1 1 0.5
9 0 1 0 0 0 1 0 0 0 1 21.5 3.044 2.048 2 0.5 0.5
9 0 1 0 0 0 1 0 0 0 1 21.5 2.044 3.048 2 0.5 0.5
9 0 1 0 0 0 1 0 0 0 1 21.5 -1.956 3.048 2 0.5 0.5
9 0 1 0 0 0 1 0 0 0 1 14.5 2.044 -1.452 1 0.5 1
9 0 1 0 0 0 1 0 0 0 1 13.5 1.044 -1.952 2 0.5 0.5
9 0 1 0 0 0 1 0 0 0 1 13.5 -0.9560003 -1.952 2 0.5 0.5
9 0 1 0 0 0 1 0 0 0 1 13.5 -1.956 -0.9519997 2 0.5 0.5
9 0 1 0 0 0 1 0 0 0 1 38 -2.956 -4.952 1.5 0.5 0.5
9 0 1 0 0 0 1 0 0 0 1 36 2.044 -4.952 1.5 0.5 0.5
9 0 1 0 0 0 1 0 0 0 1 33 5.044 1.048 1.5 0.5 0.5
9 0 1 0 0 0 1 0 0 0 1 21 4.044 0.04800034 1.5 0.5 0.5
9 0 1 0 0 0 1 0 0 0 1 21 -3.956 0.04800034 1.5 0.5 0.5
9 0 1 0 0 0 1 0 0 0 1 15 3.044 0.04800034 1.5 0.5 0.5
9 0 1 0 0 0 1 0 0 0 1 15 -2.956 0.04800034 1.5 0.5 0.5
9 0 1 0 0 0 1 0 0 0 1 14 2.044 1.048 1.5 0.5 0.5
