9 0 1 0 0 0 1 0 0 0 1 0.08410263 -18 7.625 5 0.5 8
9 0 1 0 0 0 1 0 0 0 1 0.08410263 -16 32.625 3 0.5 12
9 0 1 0 0 0 1 0 0 0 1 0.08410263 -25 -12.875 2 1.5 4.5
9 0 1 0 0 0 1 0 0 0 1 0.08410263 -8 -0.375 2 6.5 1
9 0 1 0 0 0 1 0 0 0 1 -12.4159 -27 17.625 0.5 3.5 5
9 0 1 0 0 0 1 0 0 0 1 9.584103 -26 22.125 2.5 6.5 0.5
9 0 1 0 0 0 1 0 0 0 1 -9.415897 -26 22.125 2.5 6.5 0.5
9 0 1 0 0 0 1 0 0 0 1 -12.4159 -23.5 26.125 0.5 4 3.5
9 0 1 0 0 0 1 0 0 0 1 12.5841 -27 17.625 0.5 2.5 5
9 0 1 0 0 0 1 0 0 0 1 32.0841 -26 12.625 2 1.5 2
9 0 1 0 0 0 1 0 0 0 1 0.08410263 -20.5 -16.375 2 3 1
9 0 1 0 0 0 1 0 0 0 1 0.08410263 -14 22.625 3 1.5 1
9 0 1 0 0 0 1 0 0 0 1 12.5841 -23 25.125 0.5 3.5 2.5
9 0 1 0 0 0 1 0 0 0 1 -32.9159 -25.5 12.625 2 1 2
9 0 1 0 0 0 1 0 0 0 1 0.08410263 -8 -1.875 1 6.5 0.5
9 0 1 0 0 0 1 0 0 0 1 0.08410263 -8 1.125 1 6.5 0.5
9 0 1 0 0 0 1 0 0 0 1 0.08410263 -14.5 42.625 3 1 1
9 0 1 0 0 0 1 0 0 0 1 10.5841 -34.5 17.625 0.5 1 5
9 0 1 0 0 0 1 0 0 0 1 4.584103 -19.5 5.625 0.5 1 5
9 0 1 0 0 0 1 0 0 0 1 0.08410263 -18 -2.375 2 0.5 2
9 0 1 0 0 0 1 0 0 0 1 0.08410263 -14.5 21.125 3 1 0.5
9 0 1 0 0 0 1 0 0 0 1 0.08410263 -15.5 20.125 3 1 0.5
9 0 1 0 0 0 1 0 0 0 1 -31.9159 -27 12.125 2 0.5 1.5
9 0 1 0 0 0 1 0 0 0 1 -10.4159 -34 17.625 0.5 0.5 5
9 0 1 0 0 0 1 0 0 0 1 11.5841 -23.5 23.125 0.5 4 0.5
9 0 1 0 0 0 1 0 0 0 1 0.08410263 -15 44.625 2 0.5 1
9 0 1 0 0 0 1 0 0 0 1 -11.4159 -23.5 23.125 0.5 4 0.5
9 0 1 0 0 0 1 0 0 0 1 -1.415897 -5 1.125 0.5 3.5 0.5
9 0 1 0 0 0 1 0 0 0 1 34.5841 -26 12.625 0.5 1.5 1
9 0 1 0 0 0 1 0 0 0 1 32.5841 -24 12.625 1.5 0.5 1
9 0 1 0 0 0 1 0 0 0 1 32.5841 -28 12.625 1.5 0.5 1
9 0 1 0 0 0 1 0 0 0 1 0.08410263 -13 42.125 3 0.5 0.5
9 0 1 0 0 0 1 0 0 0 1 0.08410263 -16 19.125 3 0.5 0.5
9 0 1 0 0 0 1 0 0 0 1 -32.4159 -24 12.625 1.5 0.5 1
9 0 1 0 0 0 1 0 0 0 1 -32.4159 -28 12.625 1.5 0.5 1
9 0 1 0 0 0 1 0 0 0 1 12.5841 -22 22.125 0.5 2.5 0.5
9 0 1 0 0 0 1 0 0 0 1 12.5841 -23 28.125 0.5 2.5 0.5
9 0 1 0 0 0 1 0 0 0 1 -0.4158974 -12 23.125 2.5 0.5 0.5
9 0 1 0 0 0 1 0 0 0 1 12.5841 -27 24.625 0.5 0.5 2
9 0 1 0 0 0 1 0 0 0 1 9.084103 -33 22.125 2 0.5 0.5
9 0 1 0 0 0 1 0 0 0 1 3.084103 -18 -1.375 1 0.5 1
9 0 1 0 0 0 1 0 0 0 1 0.08410263 -16 45.125 2 0.5 0.5
9 0 1 0 0 0 1 0 0 0 1 -2.915897 -18 -1.375 1 0.5 1
9 0 1 0 0 0 1 0 0 0 1 -9.915897 -33 22.125 2 0.5 0.5
9 0 1 0 0 0 1 0 0 0 1 -12.4159 -21.5 22.125 0.5 2 0.5
9 0 1 0 0 0 1 0 0 0 1 -30.4159 -25.5 12.625 0.5 1 1
9 0 1 0 0 0 1 0 0 0 1 32.5841 -26 10.125 1.5 0.5 0.5
9 0 1 0 0 0 1 0 0 0 1 32.5841 -26 15.125 1.5 0.5 0.5
9 0 1 0 0 0 1 0 0 0 1 29.5841 -26 13.125 0.5 0.5 1.5
9 0 1 0 0 0 1 0 0 0 1 -0.4158974 -14 44.125 1.5 0.5 0.5
9 0 1 0 0 0 1 0 0 0 1 -32.4159 -26 10.125 1.5 0.5 0.5
9 0 1 0 0 0 1 0 0 0 1 -32.4159 -26 15.125 1.5 0.5 0.5
9 0 1 0 0 0 1 0 0 0 1 -32.4159 -27 14.125 1.5 0.5 0.5
