9 0 1 0 0 0 1 0 0 0 1 -6.9 -13.3 5.4 2.5 8 2
9 0 1 0 0 0 1 0 0 0 1 -7.4 -42.3 2.9 2 8 2.5
9 0 1 0 0 0 1 0 0 0 1 7.1 -18.3 4.4 1.5 13 2
9 0 1 0 0 0 1 0 0 0 1 7.6 -44.8 2.9 2 5.5 3.5
9 0 1 0 0 0 1 0 0 0 1 0.1000004 -54.8 3.9 2.5 2.5 4.5
9 0 1 0 0 0 1 0 0 0 1 0.1000004 -46.3 8.4 2.5 6 1
9 0 1 0 0 0 1 0 0 0 1 7.1 -10.8 7.4 2.5 5.5 1
9 0 1 0 0 0 1 0 0 0 1 11.1 -6.299995 1.4 2.5 1 5
9 0 1 0 0 0 1 0 0 0 1 -9.9 -6.299995 -0.1000004 3.5 1 3.5
9 0 1 0 0 0 1 0 0 0 1 5.1 -18.3 4.9 0.5 13 1.5
9 0 1 0 0 0 1 0 0 0 1 -6.4 -43.8 -1.1 1 6.5 1.5
9 0 1 0 0 0 1 0 0 0 1 -0.3999996 -41.8 4.4 2 1.5 3
9 0 1 0 0 0 1 0 0 0 1 -6.4 -42.8 6.4 1 8.5 1
9 0 1 0 0 0 1 0 0 0 1 -6.9 -10.3 8.4 1.5 5 1
9 0 1 0 0 0 1 0 0 0 1 -6.4 -23.8 4.9 2 2.5 1.5
9 0 1 0 0 0 1 0 0 0 1 -6.9 -16.8 2.9 1.5 9.5 0.5
9 0 1 0 0 0 1 0 0 0 1 7.1 -43.3 -1.6 1.5 4 1
9 0 1 0 0 0 1 0 0 0 1 10.1 -42.8 2.9 0.5 4.5 2.5
9 0 1 0 0 0 1 0 0 0 1 7.1 -38.3 2.4 1.5 1 4
9 0 1 0 0 0 1 0 0 0 1 9.1 -14.8 4.9 0.5 7.5 1.5
9 0 1 0 0 0 1 0 0 0 1 6.6 -43.8 7.4 1 5.5 1
9 0 1 0 0 0 1 0 0 0 1 0.1000004 -34.3 2.9 0.5 2 5.5
9 0 1 0 0 0 1 0 0 0 1 7.1 -6.799995 0.3999996 1.5 1.5 2
9 0 1 0 0 0 1 0 0 0 1 7.1 -51.3 2.4 1.5 1 3
9 0 1 0 0 0 1 0 0 0 1 -6.9 -33.3 3.4 1.5 1 3
9 0 1 0 0 0 1 0 0 0 1 -9.9 -9.799995 5.4 0.5 4.5 2
9 0 1 0 0 0 1 0 0 0 1 4.1 -13.3 5.4 0.5 8 1
9 0 1 0 0 0 1 0 0 0 1 7.1 -7.799995 9.4 1.5 2.5 1
9 0 1 0 0 0 1 0 0 0 1 -6.4 -51.8 2.9 1 1.5 2.5
9 0 1 0 0 0 1 0 0 0 1 6.6 -19.8 6.9 2 3.5 0.5
9 0 1 0 0 0 1 0 0 0 1 -1.4 -34.8 -2.6 1 3.5 1
9 0 1 0 0 0 1 0 0 0 1 -9.9 -42.8 2.9 0.5 4.5 1.5
9 0 1 0 0 0 1 0 0 0 1 11.1 -7.799995 3.4 1.5 0.5 4
9 0 1 0 0 0 1 0 0 0 1 -0.3999996 -47.3 -2.1 2 3 0.5
9 0 1 0 0 0 1 0 0 0 1 -7.9 -43.3 -0.6000004 0.5 6 1
9 0 1 0 0 0 1 0 0 0 1 -8.4 -7.799995 0.3999996 3 0.5 2
9 0 1 0 0 0 1 0 0 0 1 -11.4 -6.799995 5.4 1 1.5 2
9 0 1 0 0 0 1 0 0 0 1 0.1000004 -36.8 -0.1000004 3.5 0.5 1.5
9 0 1 0 0 0 1 0 0 0 1 -3.9 -8.799995 5.9 0.5 3.5 1.5
9 0 1 0 0 0 1 0 0 0 1 -5.4 -6.299995 0.8999996 1 1 2.5
9 0 1 0 0 0 1 0 0 0 1 -7.4 -27.3 3.9 1 1 2.5
9 0 1 0 0 0 1 0 0 0 1 -7.9 -43.3 6.4 0.5 5 1
9 0 1 0 0 0 1 0 0 0 1 14.6 -5.799995 0.3999996 1 0.5 4
9 0 1 0 0 0 1 0 0 0 1 10.1 -10.3 5.4 0.5 2 2
9 0 1 0 0 0 1 0 0 0 1 6.6 -49.3 -1.6 1 2 1
9 0 1 0 0 0 1 0 0 0 1 -0.3999996 -42.3 0.3999996 2 1 1
9 0 1 0 0 0 1 0 0 0 1 -6.4 -42.3 7.9 1 4 0.5
9 0 1 0 0 0 1 0 0 0 1 -14.4 -5.799995 0.3999996 1 0.5 4
9 0 1 0 0 0 1 0 0 0 1 9.1 -37.8 2.9 0.5 1.5 2.5
9 0 1 0 0 0 1 0 0 0 1 -6.9 -7.799995 9.9 1.5 2.5 0.5
9 0 1 0 0 0 1 0 0 0 1 -6.9 -17.8 7.9 1.5 2.5 0.5
9 0 1 0 0 0 1 0 0 0 1 8.6 -41.8 6.9 1 3.5 0.5
9 0 1 0 0 0 1 0 0 0 1 10.1 -5.799995 -4.6 3.5 0.5 1
9 0 1 0 0 0 1 0 0 0 1 6.6 -13.8 8.9 1 3.5 0.5
9 0 1 0 0 0 1 0 0 0 1 -8.9 -8.799995 8.4 0.5 3.5 1
9 0 1 0 0 0 1 0 0 0 1 -9.9 -5.799995 -4.6 3.5 0.5 1
9 0 1 0 0 0 1 0 0 0 1 11.1 -6.299995 7.4 1.5 1 1
9 0 1 0 0 0 1 0 0 0 1 9.1 -28.3 3.4 0.5 3 1
9 0 1 0 0 0 1 0 0 0 1 7.1 -29.3 1.9 1.5 2 0.5
9 0 1 0 0 0 1 0 0 0 1 6.1 -32.3 3.9 0.5 1 3.5
9 0 1 0 0 0 1 0 0 0 1 5.1 -6.799995 1.4 0.5 1.5 2
9 0 1 0 0 0 1 0 0 0 1 -4.4 -33.8 4.4 1 1.5 1
9 0 1 0 0 0 1 0 0 0 1 -8.9 -24.3 4.4 0.5 3 1
9 0 1 0 0 0 1 0 0 0 1 -4.9 -10.8 7.9 0.5 5.5 0.5
9 0 1 0 0 0 1 0 0 0 1 -8.9 -42.8 -0.1000004 0.5 5.5 0.5
9 0 1 0 0 0 1 0 0 0 1 7.6 -10.8 1.9 1 2.5 0.5
9 0 1 0 0 0 1 0 0 0 1 6.6 -18.8 7.9 1 2.5 0.5
9 0 1 0 0 0 1 0 0 0 1 6.1 -42.3 8.9 0.5 5 0.5
9 0 1 0 0 0 1 0 0 0 1 4.1 -10.3 6.9 0.5 5 0.5
9 0 1 0 0 0 1 0 0 0 1 -0.8999996 -33.8 -0.6000004 0.5 2.5 1
9 0 1 0 0 0 1 0 0 0 1 0.1000004 -53.3 8.9 2.5 1 0.5
9 0 1 0 0 0 1 0 0 0 1 -6.4 -23.8 6.9 1 2.5 0.5
9 0 1 0 0 0 1 0 0 0 1 -7.4 -10.8 1.9 1 2.5 0.5
9 0 1 0 0 0 1 0 0 0 1 -7.9 -51.3 2.9 0.5 1 2.5
9 0 1 0 0 0 1 0 0 0 1 7.1 -52.8 2.9 1.5 0.5 1.5
9 0 1 0 0 0 1 0 0 0 1 4.1 -6.799995 2.9 0.5 1.5 1.5
9 0 1 0 0 0 1 0 0 0 1 4.1 -25.8 4.9 0.5 4.5 0.5
9 0 1 0 0 0 1 0 0 0 1 -0.8999996 -51.8 5.9 1.5 0.5 1.5
9 0 1 0 0 0 1 0 0 0 1 -5.9 -42.8 -3.1 0.5 4.5 0.5
9 0 1 0 0 0 1 0 0 0 1 -8.9 -42.8 5.9 0.5 4.5 0.5
9 0 1 0 0 0 1 0 0 0 1 7.6 -6.299995 -2.6 1 1 1
9 0 1 0 0 0 1 0 0 0 1 6.1 -27.3 6.9 0.5 4 0.5
9 0 1 0 0 0 1 0 0 0 1 3.1 -6.299995 5.4 0.5 1 2
9 0 1 0 0 0 1 0 0 0 1 1.6 -36.3 -2.1 1 2 0.5
9 0 1 0 0 0 1 0 0 0 1 -0.3999996 -39.8 7.4 2 0.5 1
9 0 1 0 0 0 1 0 0 0 1 -0.3999996 -43.3 -1.1 2 1 0.5
9 0 1 0 0 0 1 0 0 0 1 -3.9 -6.299995 2.4 0.5 1 2
9 0 1 0 0 0 1 0 0 0 1 -3.9 -16.3 5.9 0.5 4 0.5
9 0 1 0 0 0 1 0 0 0 1 -6.4 -51.3 -0.6000004 1 1 1
9 0 1 0 0 0 1 0 0 0 1 -8.9 -33.3 3.4 0.5 1 2
9 0 1 0 0 0 1 0 0 0 1 -10.4 -6.299995 8.4 1 1 1
9 0 1 0 0 0 1 0 0 0 1 8.1 -41.8 7.9 0.5 3.5 0.5
9 0 1 0 0 0 1 0 0 0 1 6.1 -45.8 -3.1 0.5 3.5 0.5
9 0 1 0 0 0 1 0 0 0 1 5.1 -8.799995 8.9 0.5 3.5 0.5
9 0 1 0 0 0 1 0 0 0 1 14.1 -6.799995 2.4 0.5 0.5 3
9 0 1 0 0 0 1 0 0 0 1 10.1 -13.8 5.4 0.5 1.5 1
9 0 1 0 0 0 1 0 0 0 1 10.1 -48.3 2.9 0.5 1 1.5
9 0 1 0 0 0 1 0 0 0 1 10.1 -6.299995 8.9 1.5 1 0.5
9 0 1 0 0 0 1 0 0 0 1 9.6 -8.799995 1.9 1 0.5 1.5
9 0 1 0 0 0 1 0 0 0 1 9.1 -23.8 4.4 0.5 1.5 1
9 0 1 0 0 0 1 0 0 0 1 9.6 -6.799995 -4.1 3 0.5 0.5
9 0 1 0 0 0 1 0 0 0 1 7.1 -6.299995 10.9 1.5 1 0.5
9 0 1 0 0 0 1 0 0 0 1 5.1 -29.3 2.9 0.5 3 0.5
9 0 1 0 0 0 1 0 0 0 1 0.1000004 -38.3 -4.1 1.5 1 0.5
9 0 1 0 0 0 1 0 0 0 1 0.1000004 -47.3 2.9 1.5 1 0.5
9 0 1 0 0 0 1 0 0 0 1 -3.9 -23.3 4.9 0.5 3 0.5
9 0 1 0 0 0 1 0 0 0 1 -4.9 -34.8 2.4 0.5 1.5 1
9 0 1 0 0 0 1 0 0 0 1 -6.9 -6.299995 10.9 1.5 1 0.5
9 0 1 0 0 0 1 0 0 0 1 -8.9 -11.3 2.9 0.5 3 0.5
9 0 1 0 0 0 1 0 0 0 1 -9.9 -15.8 5.4 0.5 1.5 1
9 0 1 0 0 0 1 0 0 0 1 -9.9 -35.3 2.9 0.5 3 0.5
9 0 1 0 0 0 1 0 0 0 1 -10.9 -9.299995 4.9 0.5 1 1.5
9 0 1 0 0 0 1 0 0 0 1 -12.9 -6.299995 4.9 0.5 1 1.5
9 0 1 0 0 0 1 0 0 0 1 -12.4 -7.799995 1.9 1 0.5 1.5
9 0 1 0 0 0 1 0 0 0 1 -13.9 -6.799995 2.4 0.5 0.5 3
9 0 1 0 0 0 1 0 0 0 1 11.1 -8.799995 4.9 0.5 0.5 2.5
9 0 1 0 0 0 1 0 0 0 1 9.1 -7.799995 0.8999996 0.5 0.5 2.5
9 0 1 0 0 0 1 0 0 0 1 9.1 -50.8 2.9 0.5 0.5 2.5
9 0 1 0 0 0 1 0 0 0 1 8.1 -47.8 6.9 0.5 2.5 0.5
9 0 1 0 0 0 1 0 0 0 1 0.1000004 -35.8 -3.1 0.5 2.5 0.5
9 0 1 0 0 0 1 0 0 0 1 0.1000004 -46.8 -3.1 2.5 0.5 0.5
9 0 1 0 0 0 1 0 0 0 1 -4.9 -7.799995 8.9 0.5 2.5 0.5
9 0 1 0 0 0 1 0 0 0 1 -5.9 -36.8 -0.1000004 2.5 0.5 0.5
9 0 1 0 0 0 1 0 0 0 1 -7.9 -8.799995 0.8999996 2.5 0.5 0.5
9 0 1 0 0 0 1 0 0 0 1 -9.9 -40.8 4.9 0.5 2.5 0.5
9 0 1 0 0 0 1 0 0 0 1 -9.9 -6.799995 -4.1 2.5 0.5 0.5
9 0 1 0 0 0 1 0 0 0 1 10.1 -9.299995 7.9 0.5 2 0.5
9 0 1 0 0 0 1 0 0 0 1 10.1 -40.3 5.9 0.5 2 0.5
9 0 1 0 0 0 1 0 0 0 1 9.1 -11.3 2.9 0.5 2 0.5
9 0 1 0 0 0 1 0 0 0 1 9.1 -41.3 -1.1 0.5 2 0.5
9 0 1 0 0 0 1 0 0 0 1 8.1 -12.3 8.9 0.5 2 0.5
9 0 1 0 0 0 1 0 0 0 1 7.6 -8.799995 0.3999996 1 0.5 1
9 0 1 0 0 0 1 0 0 0 1 7.1 -25.3 1.9 0.5 2 0.5
9 0 1 0 0 0 1 0 0 0 1 6.6 -50.3 6.9 1 1 0.5
9 0 1 0 0 0 1 0 0 0 1 6.6 -51.3 5.9 1 1 0.5
9 0 1 0 0 0 1 0 0 0 1 4.1 -6.299995 8.4 0.5 1 1
9 0 1 0 0 0 1 0 0 0 1 4.6 -37.8 -2.1 2 0.5 0.5
9 0 1 0 0 0 1 0 0 0 1 0.6000004 -51.3 -1.1 1 1 0.5
9 0 1 0 0 0 1 0 0 0 1 -0.3999996 -43.8 6.9 2 0.5 0.5
9 0 1 0 0 0 1 0 0 0 1 -0.3999996 -50.8 6.9 2 0.5 0.5
9 0 1 0 0 0 1 0 0 0 1 -0.3999996 -51.8 -0.1000004 2 0.5 0.5
9 0 1 0 0 0 1 0 0 0 1 -2.9 -5.799995 4.4 0.5 0.5 2
9 0 1 0 0 0 1 0 0 0 1 -2.4 -30.8 -2.6 1 0.5 1
9 0 1 0 0 0 1 0 0 0 1 -4.9 -7.799995 1.4 0.5 0.5 2
9 0 1 0 0 0 1 0 0 0 1 -4.4 -35.8 4.4 1 0.5 1
9 0 1 0 0 0 1 0 0 0 1 -4.9 -34.3 5.9 0.5 2 0.5
9 0 1 0 0 0 1 0 0 0 1 -5.9 -48.3 7.9 0.5 2 0.5
9 0 1 0 0 0 1 0 0 0 1 -7.9 -36.3 5.9 0.5 2 0.5
9 0 1 0 0 0 1 0 0 0 1 -8.9 -14.3 7.9 0.5 2 0.5
9 0 1 0 0 0 1 0 0 0 1 -9.9 -9.299995 2.9 0.5 2 0.5
9 0 1 0 0 0 1 0 0 0 1 -9.9 -9.299995 7.9 0.5 2 0.5
9 0 1 0 0 0 1 0 0 0 1 -9.9 -40.3 0.8999996 0.5 2 0.5
9 0 1 0 0 0 1 0 0 0 1 13.1 -7.799995 2.9 0.5 0.5 1.5
9 0 1 0 0 0 1 0 0 0 1 10.1 -5.799995 -6.1 1.5 0.5 0.5
9 0 1 0 0 0 1 0 0 0 1 9.1 -6.799995 9.9 0.5 1.5 0.5
9 0 1 0 0 0 1 0 0 0 1 9.1 -8.799995 8.9 0.5 1.5 0.5
9 0 1 0 0 0 1 0 0 0 1 8.1 -17.8 7.9 0.5 1.5 0.5
9 0 1 0 0 0 1 0 0 0 1 8.1 -48.8 -1.1 0.5 1.5 0.5
9 0 1 0 0 0 1 0 0 0 1 7.1 -24.8 6.9 0.5 1.5 0.5
9 0 1 0 0 0 1 0 0 0 1 6.1 -5.799995 -3.1 0.5 0.5 1.5
9 0 1 0 0 0 1 0 0 0 1 5.1 -6.799995 9.9 0.5 1.5 0.5
9 0 1 0 0 0 1 0 0 0 1 5.1 -9.799995 2.9 0.5 1.5 0.5
9 0 1 0 0 0 1 0 0 0 1 4.1 -5.799995 -0.1000004 0.5 0.5 1.5
9 0 1 0 0 0 1 0 0 0 1 1.1 -34.8 -1.1 0.5 1.5 0.5
9 0 1 0 0 0 1 0 0 0 1 0.1000004 -47.8 1.9 1.5 0.5 0.5
9 0 1 0 0 0 1 0 0 0 1 -3.9 -6.799995 7.9 0.5 1.5 0.5
9 0 1 0 0 0 1 0 0 0 1 -3.9 -37.8 -2.1 1.5 0.5 0.5
9 0 1 0 0 0 1 0 0 0 1 -5.9 -5.799995 -3.1 0.5 0.5 1.5
9 0 1 0 0 0 1 0 0 0 1 -6.9 -16.8 8.9 0.5 1.5 0.5
9 0 1 0 0 0 1 0 0 0 1 -7.9 -22.8 6.9 0.5 1.5 0.5
9 0 1 0 0 0 1 0 0 0 1 -7.9 -52.8 2.9 0.5 0.5 1.5
9 0 1 0 0 0 1 0 0 0 1 -8.9 -6.799995 9.9 0.5 1.5 0.5
9 0 1 0 0 0 1 0 0 0 1 -8.9 -25.8 2.9 0.5 1.5 0.5
9 0 1 0 0 0 1 0 0 0 1 -8.9 -50.8 2.9 0.5 0.5 1.5
9 0 1 0 0 0 1 0 0 0 1 -9.9 -36.8 1.9 0.5 1.5 0.5
9 0 1 0 0 0 1 0 0 0 1 -9.9 -5.799995 -6.1 1.5 0.5 0.5
9 0 1 0 0 0 1 0 0 0 1 -15.9 -5.799995 0.8999996 0.5 0.5 1.5
