9 0 1 0 0 0 1 0 0 0 1 -0.03699875 -6.804 -0.6650009 5 1 7.5
9 0 1 0 0 0 1 0 0 0 1 -0.03699875 2.196 -15.165 3 4 1
9 0 1 0 0 0 1 0 0 0 1 -0.03699875 -8.304 -0.6650009 4 0.5 5.5
9 0 1 0 0 0 1 0 0 0 1 6.463001 -6.804 -0.1650009 1.5 1 4
9 0 1 0 0 0 1 0 0 0 1 -6.536999 -6.804 -0.1650009 1.5 1 4
9 0 1 0 0 0 1 0 0 0 1 -0.03699875 8.696 -15.665 3 2.5 0.5
9 0 1 0 0 0 1 0 0 0 1 -0.03699875 -2.304 -13.665 5 1.5 0.5
9 0 1 0 0 0 1 0 0 0 1 0.4630013 -6.304 -9.665001 4.5 0.5 1.5
9 0 1 0 0 0 1 0 0 0 1 -14.537 14.196 0.8349991 0.5 2 3
9 0 1 0 0 0 1 0 0 0 1 -0.03699875 18.696 -18.665 2 2.5 0.5
9 0 1 0 0 0 1 0 0 0 1 -0.03699875 -6.304 8.334999 3 0.5 1.5
9 0 1 0 0 0 1 0 0 0 1 -0.03699875 21.196 -19.665 2 2 0.5
9 0 1 0 0 0 1 0 0 0 1 -0.03699875 12.196 -16.665 2 2 0.5
9 0 1 0 0 0 1 0 0 0 1 -0.03699875 -9.304 0.3349991 1 0.5 3.5
9 0 1 0 0 0 1 0 0 0 1 9.463001 25.196 -18.165 1.5 1 1
9 0 1 0 0 0 1 0 0 0 1 5.963001 0.6960001 -14.165 1 1.5 1
9 0 1 0 0 0 1 0 0 0 1 3.963001 1.696 -14.665 1 3.5 0.5
9 0 1 0 0 0 1 0 0 0 1 -0.03699875 14.696 -17.665 2 1.5 0.5
9 0 1 0 0 0 1 0 0 0 1 -0.03699875 1.696 -16.665 2 1.5 0.5
9 0 1 0 0 0 1 0 0 0 1 -0.03699875 -2.804 -14.665 3 1 0.5
9 0 1 0 0 0 1 0 0 0 1 -0.03699875 -7.304 -9.165001 3 0.5 1
9 0 1 0 0 0 1 0 0 0 1 -4.036999 1.696 -15.165 1 1.5 1
9 0 1 0 0 0 1 0 0 0 1 -6.036999 0.6960001 -14.165 1 1.5 1
9 0 1 0 0 0 1 0 0 0 1 -9.036999 24.696 -18.165 1 1.5 1
9 0 1 0 0 0 1 0 0 0 1 14.463 13.696 3.334999 0.5 1.5 1.5
9 0 1 0 0 0 1 0 0 0 1 8.463001 -6.304 -0.6650009 0.5 0.5 4.5
9 0 1 0 0 0 1 0 0 0 1 6.463001 -6.304 -5.665001 1.5 0.5 1.5
9 0 1 0 0 0 1 0 0 0 1 -6.536999 -6.304 -5.665001 1.5 0.5 1.5
9 0 1 0 0 0 1 0 0 0 1 -8.536999 -6.304 -0.6650009 0.5 0.5 4.5
9 0 1 0 0 0 1 0 0 0 1 14.463 14.196 -2.165001 0.5 2 1
9 0 1 0 0 0 1 0 0 0 1 10.963 24.196 -16.165 1 1 1
9 0 1 0 0 0 1 0 0 0 1 7.963001 23.196 -18.165 1 1 1
9 0 1 0 0 0 1 0 0 0 1 4.963001 -8.304 0.8349991 1 0.5 2
9 0 1 0 0 0 1 0 0 0 1 3.963001 13.196 14.335 1 2 0.5
9 0 1 0 0 0 1 0 0 0 1 -4.036999 13.196 14.335 1 2 0.5
9 0 1 0 0 0 1 0 0 0 1 -4.536999 -8.304 -0.1650009 0.5 0.5 4
9 0 1 0 0 0 1 0 0 0 1 -11.037 24.196 -16.165 1 1 1
9 0 1 0 0 0 1 0 0 0 1 -14.537 16.196 -3.165001 0.5 2 1
9 0 1 0 0 0 1 0 0 0 1 -14.537 11.196 0.8349991 0.5 1 2
9 0 1 0 0 0 1 0 0 0 1 0.4630013 -7.304 7.334999 3.5 0.5 0.5
9 0 1 0 0 0 1 0 0 0 1 7.963001 0.6960001 -12.665 1 1.5 0.5
9 0 1 0 0 0 1 0 0 0 1 6.463001 -6.304 4.834999 1.5 0.5 1
9 0 1 0 0 0 1 0 0 0 1 4.463001 1.196 -15.665 1.5 1 0.5
9 0 1 0 0 0 1 0 0 0 1 3.463001 21.196 -18.665 1.5 1 0.5
9 0 1 0 0 0 1 0 0 0 1 -0.03699875 -4.304 -13.665 3 0.5 0.5
9 0 1 0 0 0 1 0 0 0 1 -0.03699875 -8.304 5.334999 3 0.5 0.5
9 0 1 0 0 0 1 0 0 0 1 -3.036999 20.696 -18.665 1 1.5 0.5
9 0 1 0 0 0 1 0 0 0 1 -2.536999 7.196 -14.665 1.5 1 0.5
9 0 1 0 0 0 1 0 0 0 1 -6.036999 -6.304 5.334999 1 0.5 1.5
9 0 1 0 0 0 1 0 0 0 1 -6.536999 23.196 -18.665 1.5 1 0.5
9 0 1 0 0 0 1 0 0 0 1 -7.036999 -1.304 -12.665 1 1.5 0.5
9 0 1 0 0 0 1 0 0 0 1 -7.536999 22.196 -17.665 1.5 1 0.5
9 0 1 0 0 0 1 0 0 0 1 -12.537 13.696 8.334999 0.5 2.5 0.5
9 0 1 0 0 0 1 0 0 0 1 14.463 17.196 -4.165001 0.5 1 1
9 0 1 0 0 0 1 0 0 0 1 11.963 22.196 -13.665 1 1 0.5
9 0 1 0 0 0 1 0 0 0 1 10.963 22.696 -15.165 1 0.5 1
9 0 1 0 0 0 1 0 0 0 1 9.463001 23.196 -17.165 0.5 1 1
9 0 1 0 0 0 1 0 0 0 1 9.463001 1.196 -11.665 0.5 2 0.5
9 0 1 0 0 0 1 0 0 0 1 6.963001 -1.804 -12.665 1 1 0.5
9 0 1 0 0 0 1 0 0 0 1 5.963001 23.196 -18.665 1 1 0.5
9 0 1 0 0 0 1 0 0 0 1 5.963001 -1.804 -13.665 1 1 0.5
9 0 1 0 0 0 1 0 0 0 1 3.463001 7.196 -14.665 0.5 2 0.5
9 0 1 0 0 0 1 0 0 0 1 -0.03699875 15.196 -18.665 1 1 0.5
9 0 1 0 0 0 1 0 0 0 1 -0.03699875 12.196 -17.665 1 1 0.5
9 0 1 0 0 0 1 0 0 0 1 -0.03699875 -5.304 -12.665 2 0.5 0.5
9 0 1 0 0 0 1 0 0 0 1 -0.03699875 -8.304 -6.665001 2 0.5 0.5
9 0 1 0 0 0 1 0 0 0 1 -4.036999 4.196 -14.665 1 1 0.5
9 0 1 0 0 0 1 0 0 0 1 -4.036999 -0.3039999 -14.165 1 0.5 1
9 0 1 0 0 0 1 0 0 0 1 -4.036999 -3.804 -12.665 1 1 0.5
9 0 1 0 0 0 1 0 0 0 1 -7.536999 1.196 -13.165 0.5 1 1
9 0 1 0 0 0 1 0 0 0 1 -8.536999 1.196 -12.665 0.5 2 0.5
9 0 1 0 0 0 1 0 0 0 1 -8.036999 -1.804 -11.665 1 1 0.5
9 0 1 0 0 0 1 0 0 0 1 -9.036999 22.196 -16.665 1 1 0.5
9 0 1 0 0 0 1 0 0 0 1 -9.536999 1.196 -11.665 0.5 2 0.5
9 0 1 0 0 0 1 0 0 0 1 -10.537 25.196 -18.165 0.5 1 1
9 0 1 0 0 0 1 0 0 0 1 -10.037 22.196 -15.665 1 1 0.5
9 0 1 0 0 0 1 0 0 0 1 -12.037 22.196 -13.665 1 1 0.5
9 0 1 0 0 0 1 0 0 0 1 13.463 13.696 7.334999 0.5 1.5 0.5
9 0 1 0 0 0 1 0 0 0 1 10.463 13.696 11.335 0.5 1.5 0.5
9 0 1 0 0 0 1 0 0 0 1 10.463 0.6960001 -10.665 0.5 1.5 0.5
9 0 1 0 0 0 1 0 0 0 1 9.463001 13.696 12.335 0.5 1.5 0.5
9 0 1 0 0 0 1 0 0 0 1 8.463001 -1.304 -11.665 0.5 1.5 0.5
9 0 1 0 0 0 1 0 0 0 1 7.463001 13.696 13.335 0.5 1.5 0.5
9 0 1 0 0 0 1 0 0 0 1 7.463001 0.6960001 -13.665 0.5 1.5 0.5
9 0 1 0 0 0 1 0 0 0 1 7.463001 21.696 -17.665 1.5 0.5 0.5
9 0 1 0 0 0 1 0 0 0 1 5.463001 -6.304 -8.665001 0.5 0.5 1.5
9 0 1 0 0 0 1 0 0 0 1 5.463001 -3.304 -12.665 1.5 0.5 0.5
9 0 1 0 0 0 1 0 0 0 1 4.463001 -8.304 -2.665001 0.5 0.5 1.5
9 0 1 0 0 0 1 0 0 0 1 4.463001 -6.304 7.334999 1.5 0.5 0.5
9 0 1 0 0 0 1 0 0 0 1 1.463001 -9.304 0.3349991 0.5 0.5 1.5
9 0 1 0 0 0 1 0 0 0 1 -1.536999 -9.304 0.3349991 0.5 0.5 1.5
9 0 1 0 0 0 1 0 0 0 1 -4.536999 21.696 -18.665 0.5 1.5 0.5
9 0 1 0 0 0 1 0 0 0 1 -4.536999 -6.304 7.334999 1.5 0.5 0.5
9 0 1 0 0 0 1 0 0 0 1 -7.536999 13.696 13.335 0.5 1.5 0.5
9 0 1 0 0 0 1 0 0 0 1 -6.536999 2.696 -13.665 1.5 0.5 0.5
9 0 1 0 0 0 1 0 0 0 1 -10.537 21.696 -14.665 0.5 1.5 0.5
9 0 1 0 0 0 1 0 0 0 1 -10.537 0.6960001 -10.665 0.5 1.5 0.5
9 0 1 0 0 0 1 0 0 0 1 -13.537 13.696 7.334999 0.5 1.5 0.5
