9 0 1 0 0 0 1 0 0 0 1 0.198 -5.17 8.970999 3.5 2 1.5
9 0 1 0 0 0 1 0 0 0 1 0.198 5.33 14.971 3.5 3.5 0.5
9 0 1 0 0 0 1 0 0 0 1 0.198 -7.67 6.470999 3.5 0.5 3
9 0 1 0 0 0 1 0 0 0 1 0.198 -4.17 11.471 3.5 1 1
9 0 1 0 0 0 1 0 0 0 1 0.198 -8.67 4.970999 3.5 0.5 1.5
9 0 1 0 0 0 1 0 0 0 1 -4.302 -4.67 7.970999 1 1.5 1.5
9 0 1 0 0 0 1 0 0 0 1 -3.802 -8.17 1.470999 0.5 1 4
9 0 1 0 0 0 1 0 0 0 1 0.198 -2.17 12.971 3.5 1 0.5
9 0 1 0 0 0 1 0 0 0 1 4.198 -5.17 7.970999 0.5 2 1.5
9 0 1 0 0 0 1 0 0 0 1 4.198 -8.17 0.4709988 0.5 1 3
9 0 1 0 0 0 1 0 0 0 1 -4.802 7.33 13.971 0.5 4.5 0.5
9 0 1 0 0 0 1 0 0 0 1 -4.802 -7.67 0.9709988 0.5 0.5 4.5
9 0 1 0 0 0 1 0 0 0 1 -0.302 9.83 14.971 2 1 0.5
9 0 1 0 0 0 1 0 0 0 1 0.198 -0.6700001 13.971 3.5 0.5 0.5
9 0 1 0 0 0 1 0 0 0 1 8.698 -3.67 2.970999 1 0.5 1.5
9 0 1 0 0 0 1 0 0 0 1 -0.302 -5.67 10.971 3 0.5 0.5
9 0 1 0 0 0 1 0 0 0 1 -7.802 -3.67 2.470999 0.5 0.5 3
9 0 1 0 0 0 1 0 0 0 1 4.198 10.83 13.971 0.5 2 0.5
9 0 1 0 0 0 1 0 0 0 1 4.198 -4.17 10.471 0.5 1 1
9 0 1 0 0 0 1 0 0 0 1 3.198 -5.17 6.970999 0.5 2 0.5
9 0 1 0 0 0 1 0 0 0 1 -3.802 -4.17 10.471 0.5 1 1
9 0 1 0 0 0 1 0 0 0 1 -3.802 -7.17 7.470999 0.5 1 1
9 0 1 0 0 0 1 0 0 0 1 4.198 -7.67 4.970999 0.5 0.5 1.5
9 0 1 0 0 0 1 0 0 0 1 3.198 -2.67 11.971 1.5 0.5 0.5
9 0 1 0 0 0 1 0 0 0 1 0.198 21.33 -15.029 1.5 0.5 0.5
9 0 1 0 0 0 1 0 0 0 1 -3.802 -2.67 11.971 1.5 0.5 0.5
9 0 1 0 0 0 1 0 0 0 1 -4.802 -8.67 -2.029001 0.5 0.5 1.5
9 0 1 0 0 0 1 0 0 0 1 -8.802 -3.67 2.970999 0.5 0.5 1.5
