9 0 1 0 0 0 1 0 0 0 1 0 2 8 47.5 0.5 30.5
9 0 1 0 0 0 1 0 0 0 1 58 2 20 10.5 0.5 18.5
9 0 1 0 0 0 1 0 0 0 1 -58 2 20 10.5 0.5 18.5
9 0 1 0 0 0 1 0 0 0 1 0 4.5 38 78.5 2 0.5
9 0 1 0 0 0 1 0 0 0 1 0 2 -29 21.5 0.5 6.5
9 0 1 0 0 0 1 0 0 0 1 52 2 -6.5 4.5 0.5 8
9 0 1 0 0 0 1 0 0 0 1 -52 2 -6.5 4.5 0.5 8
9 0 1 0 0 0 1 0 0 0 1 72 2 28.5 3.5 0.5 10
9 0 1 0 0 0 1 0 0 0 1 -72 2 28.5 3.5 0.5 10
9 0 1 0 0 0 1 0 0 0 1 29 2 -26 7.5 0.5 3.5
9 0 1 0 0 0 1 0 0 0 1 -29 2 -26 7.5 0.5 3.5
9 0 1 0 0 0 1 0 0 0 1 0 4 -38 6.5 2.5 0.5
9 0 1 0 0 0 1 0 0 0 1 59.5 2 -3 3 0.5 4.5
9 0 1 0 0 0 1 0 0 0 1 0 2 -36.5 13.5 0.5 1
9 0 1 0 0 0 1 0 0 0 1 -59.5 2 -3 3 0.5 4.5
9 0 1 0 0 0 1 0 0 0 1 70.5 2 14 2 0.5 4.5
9 0 1 0 0 0 1 0 0 0 1 -70.5 2 14 2 0.5 4.5
9 0 1 0 0 0 1 0 0 0 1 70 -2 30 3.5 0.5 2.5
9 0 1 0 0 0 1 0 0 0 1 50 -2 -10 3.5 0.5 2.5
9 0 1 0 0 0 1 0 0 0 1 50 -2 10 3.5 0.5 2.5
9 0 1 0 0 0 1 0 0 0 1 50 -2 30 3.5 0.5 2.5
9 0 1 0 0 0 1 0 0 0 1 30 -2 -10 3.5 0.5 2.5
9 0 1 0 0 0 1 0 0 0 1 30 -2 10 3.5 0.5 2.5
9 0 1 0 0 0 1 0 0 0 1 30 -2 30 3.5 0.5 2.5
9 0 1 0 0 0 1 0 0 0 1 10 -2 -30 3.5 0.5 2.5
9 0 1 0 0 0 1 0 0 0 1 10 -2 -10 3.5 0.5 2.5
9 0 1 0 0 0 1 0 0 0 1 10 -2 10 3.5 0.5 2.5
9 0 1 0 0 0 1 0 0 0 1 10 -2 30 3.5 0.5 2.5
9 0 1 0 0 0 1 0 0 0 1 -10 -2 -30 3.5 0.5 2.5
9 0 1 0 0 0 1 0 0 0 1 -10 -2 -10 3.5 0.5 2.5
9 0 1 0 0 0 1 0 0 0 1 -10 -2 10 3.5 0.5 2.5
9 0 1 0 0 0 1 0 0 0 1 -10 -2 30 3.5 0.5 2.5
9 0 1 0 0 0 1 0 0 0 1 -30 -2 -10 3.5 0.5 2.5
9 0 1 0 0 0 1 0 0 0 1 -30 -2 10 3.5 0.5 2.5
9 0 1 0 0 0 1 0 0 0 1 -30 -2 30 3.5 0.5 2.5
9 0 1 0 0 0 1 0 0 0 1 -50 -2 -10 3.5 0.5 2.5
9 0 1 0 0 0 1 0 0 0 1 -50 -2 10 3.5 0.5 2.5
9 0 1 0 0 0 1 0 0 0 1 -50 -2 30 3.5 0.5 2.5
9 0 1 0 0 0 1 0 0 0 1 -70 -2 30 3.5 0.5 2.5
9 0 1 0 0 0 1 0 0 0 1 26 2 -31 4.5 0.5 1.5
9 0 1 0 0 0 1 0 0 0 1 -26 2 -31 4.5 0.5 1.5
9 0 1 0 0 0 1 0 0 0 1 76.5 2 32.5 1 0.5 6
9 0 1 0 0 0 1 0 0 0 1 -76.5 2 32.5 1 0.5 6
9 0 1 0 0 0 1 0 0 0 1 78 4 35.5 0.5 2.5 2
9 0 1 0 0 0 1 0 0 0 1 39 2 -24.5 2.5 0.5 2
9 0 1 0 0 0 1 0 0 0 1 -39 2 -24.5 2.5 0.5 2
9 0 1 0 0 0 1 0 0 0 1 -78 4 35.5 0.5 2.5 2
9 0 1 0 0 0 1 0 0 0 1 49.5 2 -16.5 2 0.5 2
9 0 1 0 0 0 1 0 0 0 1 -49.5 2 -16.5 2 0.5 2
9 0 1 0 0 0 1 0 0 0 1 64.5 2 0 2 0.5 1.5
9 0 1 0 0 0 1 0 0 0 1 -63.5 2 -1.5 1 0.5 3
9 0 1 0 0 0 1 0 0 0 1 76 4 22.5 0.5 2.5 1
9 0 1 0 0 0 1 0 0 0 1 17.5 4 -36 1 2.5 0.5
9 0 1 0 0 0 1 0 0 0 1 -17.5 4 -36 1 2.5 0.5
9 0 1 0 0 0 1 0 0 0 1 -76 4 22.5 0.5 2.5 1
9 0 1 0 0 0 1 0 0 0 1 58 2 -9 1.5 0.5 1.5
9 0 1 0 0 0 1 0 0 0 1 -58 2 -9 1.5 0.5 1.5
9 0 1 0 0 0 1 0 0 0 1 69.5 2 7.5 1 0.5 2
9 0 1 0 0 0 1 0 0 0 1 -69.5 2 7.5 1 0.5 2
9 0 1 0 0 0 1 0 0 0 1 73.5 2 17 1 0.5 1.5
9 0 1 0 0 0 1 0 0 0 1 63.5 2 -3 1 0.5 1.5
9 0 1 0 0 0 1 0 0 0 1 53 2 -15.5 1.5 0.5 1
9 0 1 0 0 0 1 0 0 0 1 43 2 -23.5 1.5 0.5 1
9 0 1 0 0 0 1 0 0 0 1 24.5 2 -33 3 0.5 0.5
9 0 1 0 0 0 1 0 0 0 1 -23 2 -33.5 1.5 0.5 1
9 0 1 0 0 0 1 0 0 0 1 -43 2 -23.5 1.5 0.5 1
9 0 1 0 0 0 1 0 0 0 1 -53 2 -15.5 1.5 0.5 1
9 0 1 0 0 0 1 0 0 0 1 -65.5 2 0 1 0.5 1.5
9 0 1 0 0 0 1 0 0 0 1 -73 2 15.5 0.5 0.5 3
9 0 1 0 0 0 1 0 0 0 1 70 -2 27 2.5 0.5 0.5
9 0 1 0 0 0 1 0 0 0 1 70 -2 33 2.5 0.5 0.5
9 0 1 0 0 0 1 0 0 0 1 50 -2 -13 2.5 0.5 0.5
9 0 1 0 0 0 1 0 0 0 1 50 -2 -7 2.5 0.5 0.5
9 0 1 0 0 0 1 0 0 0 1 50 -2 7 2.5 0.5 0.5
9 0 1 0 0 0 1 0 0 0 1 50 -2 13 2.5 0.5 0.5
9 0 1 0 0 0 1 0 0 0 1 50 -2 27 2.5 0.5 0.5
9 0 1 0 0 0 1 0 0 0 1 50 -2 33 2.5 0.5 0.5
9 0 1 0 0 0 1 0 0 0 1 30 -2 -13 2.5 0.5 0.5
9 0 1 0 0 0 1 0 0 0 1 30 -2 -7 2.5 0.5 0.5
9 0 1 0 0 0 1 0 0 0 1 30 -2 7 2.5 0.5 0.5
9 0 1 0 0 0 1 0 0 0 1 30 -2 13 2.5 0.5 0.5
9 0 1 0 0 0 1 0 0 0 1 30 -2 27 2.5 0.5 0.5
9 0 1 0 0 0 1 0 0 0 1 30 -2 33 2.5 0.5 0.5
9 0 1 0 0 0 1 0 0 0 1 10 -2 -33 2.5 0.5 0.5
9 0 1 0 0 0 1 0 0 0 1 10 -2 -27 2.5 0.5 0.5
9 0 1 0 0 0 1 0 0 0 1 10 -2 -13 2.5 0.5 0.5
9 0 1 0 0 0 1 0 0 0 1 10 -2 -7 2.5 0.5 0.5
9 0 1 0 0 0 1 0 0 0 1 10 -2 7 2.5 0.5 0.5
9 0 1 0 0 0 1 0 0 0 1 10 -2 13 2.5 0.5 0.5
9 0 1 0 0 0 1 0 0 0 1 10 -2 27 2.5 0.5 0.5
9 0 1 0 0 0 1 0 0 0 1 10 -2 33 2.5 0.5 0.5
9 0 1 0 0 0 1 0 0 0 1 -10 -2 -33 2.5 0.5 0.5
9 0 1 0 0 0 1 0 0 0 1 -10 -2 -27 2.5 0.5 0.5
9 0 1 0 0 0 1 0 0 0 1 -10 -2 -13 2.5 0.5 0.5
9 0 1 0 0 0 1 0 0 0 1 -10 -2 -7 2.5 0.5 0.5
9 0 1 0 0 0 1 0 0 0 1 -10 -2 7 2.5 0.5 0.5
9 0 1 0 0 0 1 0 0 0 1 -10 -2 13 2.5 0.5 0.5
9 0 1 0 0 0 1 0 0 0 1 -10 -2 27 2.5 0.5 0.5
9 0 1 0 0 0 1 0 0 0 1 -10 -2 33 2.5 0.5 0.5
9 0 1 0 0 0 1 0 0 0 1 -30 -2 -13 2.5 0.5 0.5
9 0 1 0 0 0 1 0 0 0 1 -30 -2 -7 2.5 0.5 0.5
9 0 1 0 0 0 1 0 0 0 1 -30 -2 7 2.5 0.5 0.5
9 0 1 0 0 0 1 0 0 0 1 -30 -2 13 2.5 0.5 0.5
9 0 1 0 0 0 1 0 0 0 1 -30 -2 27 2.5 0.5 0.5
9 0 1 0 0 0 1 0 0 0 1 -30 -2 33 2.5 0.5 0.5
9 0 1 0 0 0 1 0 0 0 1 -48 4 -21 0.5 2.5 0.5
9 0 1 0 0 0 1 0 0 0 1 -50 -2 -13 2.5 0.5 0.5
9 0 1 0 0 0 1 0 0 0 1 -50 -2 -7 2.5 0.5 0.5
9 0 1 0 0 0 1 0 0 0 1 -50 -2 7 2.5 0.5 0.5
9 0 1 0 0 0 1 0 0 0 1 -50 -2 13 2.5 0.5 0.5
9 0 1 0 0 0 1 0 0 0 1 -50 -2 27 2.5 0.5 0.5
9 0 1 0 0 0 1 0 0 0 1 -50 -2 33 2.5 0.5 0.5
9 0 1 0 0 0 1 0 0 0 1 -70 -2 27 2.5 0.5 0.5
9 0 1 0 0 0 1 0 0 0 1 -70 -2 33 2.5 0.5 0.5
9 0 1 0 0 0 1 0 0 0 1 75 4.5 19 0.5 2 0.5
9 0 1 0 0 0 1 0 0 0 1 48.5 2 -19.5 1 0.5 1
9 0 1 0 0 0 1 0 0 0 1 37.5 2 -27.5 1 0.5 1
9 0 1 0 0 0 1 0 0 0 1 32.5 2 -30 2 0.5 0.5
9 0 1 0 0 0 1 0 0 0 1 21 4.5 -35 0.5 2 0.5
9 0 1 0 0 0 1 0 0 0 1 -21 4.5 -35 0.5 2 0.5
9 0 1 0 0 0 1 0 0 0 1 -31.5 2 -30.5 1 0.5 1
9 0 1 0 0 0 1 0 0 0 1 -37.5 2 -27.5 1 0.5 1
9 0 1 0 0 0 1 0 0 0 1 -48.5 2 -19.5 1 0.5 1
9 0 1 0 0 0 1 0 0 0 1 -75 4.5 19 0.5 2 0.5
9 0 1 0 0 0 1 0 0 0 1 76 2 25 0.5 0.5 1.5
9 0 1 0 0 0 1 0 0 0 1 73 2 14 0.5 0.5 1.5
9 0 1 0 0 0 1 0 0 0 1 23 2 -34 1.5 0.5 0.5
9 0 1 0 0 0 1 0 0 0 1 15 2 -36 1.5 0.5 0.5
9 0 1 0 0 0 1 0 0 0 1 -15 2 -36 1.5 0.5 0.5
9 0 1 0 0 0 1 0 0 0 1 -26 2 -33 1.5 0.5 0.5
9 0 1 0 0 0 1 0 0 0 1 -74 2 17 0.5 0.5 1.5
9 0 1 0 0 0 1 0 0 0 1 -76 2 25 0.5 0.5 1.5
