9 0 1 0 0 0 1 0 0 0 1 71.49997 -3.051758E-05 45.5 1 7.5 5
9 0 1 0 0 0 1 0 0 0 1 -3.051758E-05 71.49997 45.5 7.5 1 5
9 0 1 0 0 0 1 0 0 0 1 -3.051758E-05 -71.50003 45.5 7.5 1 5
9 0 1 0 0 0 1 0 0 0 1 -71.50003 -3.051758E-05 45.5 1 7.5 5
9 0 1 0 0 0 1 0 0 0 1 -57.50003 15.49997 -37 6 1 3.5
9 0 1 0 0 0 1 0 0 0 1 -64.00003 -3.051758E-05 -27.5 0.5 9.5 3
9 0 1 0 0 0 1 0 0 0 1 -59.00003 15.99997 -43.5 7.5 0.5 3
9 0 1 0 0 0 1 0 0 0 1 73.99997 -3.051758E-05 41 1.5 12.5 0.5
9 0 1 0 0 0 1 0 0 0 1 73.99997 -3.051758E-05 50 1.5 12.5 0.5
9 0 1 0 0 0 1 0 0 0 1 -3.051758E-05 73.99997 41 12.5 1.5 0.5
9 0 1 0 0 0 1 0 0 0 1 -3.051758E-05 73.99997 50 12.5 1.5 0.5
9 0 1 0 0 0 1 0 0 0 1 -3.051758E-05 -74.00003 41 12.5 1.5 0.5
9 0 1 0 0 0 1 0 0 0 1 -3.051758E-05 -74.00003 50 12.5 1.5 0.5
9 0 1 0 0 0 1 0 0 0 1 -74.00003 -3.051758E-05 41 1.5 12.5 0.5
9 0 1 0 0 0 1 0 0 0 1 -74.00003 -3.051758E-05 50 1.5 12.5 0.5
9 0 1 0 0 0 1 0 0 0 1 3.999969 63.99997 -27.5 5.5 0.5 3
9 0 1 0 0 0 1 0 0 0 1 3.999969 -64.00003 -27.5 5.5 0.5 3
9 0 1 0 0 0 1 0 0 0 1 70.99997 10.49997 45.5 0.5 3 5
9 0 1 0 0 0 1 0 0 0 1 70.99997 -10.50003 45.5 0.5 3 5
9 0 1 0 0 0 1 0 0 0 1 69.99997 14.49997 45.5 0.5 3 5
9 0 1 0 0 0 1 0 0 0 1 69.99997 -14.50003 45.5 0.5 3 5
9 0 1 0 0 0 1 0 0 0 1 14.49997 69.99997 45.5 3 0.5 5
9 0 1 0 0 0 1 0 0 0 1 14.49997 -70.00003 45.5 3 0.5 5
9 0 1 0 0 0 1 0 0 0 1 10.49997 70.99997 45.5 3 0.5 5
9 0 1 0 0 0 1 0 0 0 1 10.49997 -71.00003 45.5 3 0.5 5
9 0 1 0 0 0 1 0 0 0 1 -10.50003 70.99997 45.5 3 0.5 5
9 0 1 0 0 0 1 0 0 0 1 -10.50003 -71.00003 45.5 3 0.5 5
9 0 1 0 0 0 1 0 0 0 1 -14.50003 69.99997 45.5 3 0.5 5
9 0 1 0 0 0 1 0 0 0 1 -14.50003 -70.00003 45.5 3 0.5 5
9 0 1 0 0 0 1 0 0 0 1 -70.00003 14.49997 45.5 0.5 3 5
9 0 1 0 0 0 1 0 0 0 1 -70.00003 -14.50003 45.5 0.5 3 5
9 0 1 0 0 0 1 0 0 0 1 -71.00003 10.49997 45.5 0.5 3 5
9 0 1 0 0 0 1 0 0 0 1 -71.00003 -10.50003 45.5 0.5 3 5
9 0 1 0 0 0 1 0 0 0 1 -55.00003 13.99997 -35 8.5 0.5 1.5
9 0 1 0 0 0 1 0 0 0 1 68.99997 18.49997 45.5 0.5 2 5
9 0 1 0 0 0 1 0 0 0 1 68.99997 -18.50003 45.5 0.5 2 5
9 0 1 0 0 0 1 0 0 0 1 18.49997 68.99997 45.5 2 0.5 5
9 0 1 0 0 0 1 0 0 0 1 18.49997 -69.00003 45.5 2 0.5 5
9 0 1 0 0 0 1 0 0 0 1 -18.50003 68.99997 45.5 2 0.5 5
9 0 1 0 0 0 1 0 0 0 1 -18.50003 -69.00003 45.5 2 0.5 5
9 0 1 0 0 0 1 0 0 0 1 -34.00003 10.99997 -33.5 2.5 0.5 4
9 0 1 0 0 0 1 0 0 0 1 -49.00003 14.99997 -37.5 2.5 0.5 4
9 0 1 0 0 0 1 0 0 0 1 -63.00003 12.99997 -28.5 0.5 2.5 4
9 0 1 0 0 0 1 0 0 0 1 -69.00003 18.49997 45.5 0.5 2 5
9 0 1 0 0 0 1 0 0 0 1 -69.00003 -18.50003 45.5 0.5 2 5
9 0 1 0 0 0 1 0 0 0 1 -40.50003 12.99997 -34.5 3 0.5 3
9 0 1 0 0 0 1 0 0 0 1 -13.00003 -63.00003 -28 2.5 0.5 3.5
9 0 1 0 0 0 1 0 0 0 1 41.49997 -48.50003 -36.5 2 1 2
9 0 1 0 0 0 1 0 0 0 1 18.49997 -25.50003 -30.5 1 1 4
9 0 1 0 0 0 1 0 0 0 1 -37.50003 11.99997 -34.5 2 0.5 4
9 0 1 0 0 0 1 0 0 0 1 -44.50003 13.99997 -36.5 2 0.5 4
9 0 1 0 0 0 1 0 0 0 1 67.99997 21.99997 45.5 0.5 1.5 5
9 0 1 0 0 0 1 0 0 0 1 67.99997 -22.00003 45.5 0.5 1.5 5
9 0 1 0 0 0 1 0 0 0 1 66.99997 24.99997 45.5 0.5 1.5 5
9 0 1 0 0 0 1 0 0 0 1 66.99997 -25.00003 45.5 0.5 1.5 5
9 0 1 0 0 0 1 0 0 0 1 24.99997 66.99997 45.5 1.5 0.5 5
9 0 1 0 0 0 1 0 0 0 1 24.99997 -67.00003 45.5 1.5 0.5 5
9 0 1 0 0 0 1 0 0 0 1 21.99997 67.99997 45.5 1.5 0.5 5
9 0 1 0 0 0 1 0 0 0 1 21.99997 -68.00003 45.5 1.5 0.5 5
9 0 1 0 0 0 1 0 0 0 1 12.99997 62.99997 -27.5 2.5 0.5 3
9 0 1 0 0 0 1 0 0 0 1 12.99997 -63.00003 -27.5 2.5 0.5 3
9 0 1 0 0 0 1 0 0 0 1 -22.00003 67.99997 45.5 1.5 0.5 5
9 0 1 0 0 0 1 0 0 0 1 -22.00003 -68.00003 45.5 1.5 0.5 5
9 0 1 0 0 0 1 0 0 0 1 -25.00003 66.99997 45.5 1.5 0.5 5
9 0 1 0 0 0 1 0 0 0 1 -25.00003 -67.00003 45.5 1.5 0.5 5
9 0 1 0 0 0 1 0 0 0 1 -27.50003 -67.00003 -41 5 1.5 0.5
9 0 1 0 0 0 1 0 0 0 1 -67.00003 24.99997 45.5 0.5 1.5 5
9 0 1 0 0 0 1 0 0 0 1 -67.00003 -25.00003 45.5 0.5 1.5 5
9 0 1 0 0 0 1 0 0 0 1 -68.00003 21.99997 45.5 0.5 1.5 5
9 0 1 0 0 0 1 0 0 0 1 -68.00003 -22.00003 45.5 0.5 1.5 5
9 0 1 0 0 0 1 0 0 0 1 -23.00003 7.999969 -28 1.5 0.5 4.5
9 0 1 0 0 0 1 0 0 0 1 -62.00003 16.99997 -29 0.5 1.5 4.5
9 0 1 0 0 0 1 0 0 0 1 16.49997 -23.00003 -30 1 0.5 6.5
9 0 1 0 0 0 1 0 0 0 1 -24.00003 -7.500031 -30 0.5 1 6.5
9 0 1 0 0 0 1 0 0 0 1 -60.00003 16.99997 -36 2.5 0.5 2.5
9 0 1 0 0 0 1 0 0 0 1 71.99997 17.49997 41 1.5 4 0.5
9 0 1 0 0 0 1 0 0 0 1 71.99997 17.49997 50 1.5 4 0.5
9 0 1 0 0 0 1 0 0 0 1 71.99997 -17.50003 41 1.5 4 0.5
9 0 1 0 0 0 1 0 0 0 1 71.99997 -17.50003 50 1.5 4 0.5
9 0 1 0 0 0 1 0 0 0 1 38.49997 -47.50003 -36.5 1 1 3
9 0 1 0 0 0 1 0 0 0 1 17.49997 71.99997 41 4 1.5 0.5
9 0 1 0 0 0 1 0 0 0 1 17.49997 71.99997 50 4 1.5 0.5
9 0 1 0 0 0 1 0 0 0 1 17.49997 -72.00003 41 4 1.5 0.5
9 0 1 0 0 0 1 0 0 0 1 17.49997 -72.00003 50 4 1.5 0.5
9 0 1 0 0 0 1 0 0 0 1 -17.50003 71.99997 41 4 1.5 0.5
9 0 1 0 0 0 1 0 0 0 1 -17.50003 71.99997 50 4 1.5 0.5
9 0 1 0 0 0 1 0 0 0 1 -17.50003 -72.00003 41 4 1.5 0.5
9 0 1 0 0 0 1 0 0 0 1 -17.50003 -72.00003 50 4 1.5 0.5
9 0 1 0 0 0 1 0 0 0 1 -63.00003 -12.00003 -28.5 0.5 1.5 4
9 0 1 0 0 0 1 0 0 0 1 -64.50003 15.49997 -39 1 2 1.5
9 0 1 0 0 0 1 0 0 0 1 -63.50003 -36.50003 -41 2 3 0.5
9 0 1 0 0 0 1 0 0 0 1 -72.00003 17.49997 41 1.5 4 0.5
9 0 1 0 0 0 1 0 0 0 1 -72.00003 17.49997 50 1.5 4 0.5
9 0 1 0 0 0 1 0 0 0 1 -72.00003 -17.50003 41 1.5 4 0.5
9 0 1 0 0 0 1 0 0 0 1 -72.00003 -17.50003 50 1.5 4 0.5
9 0 1 0 0 0 1 0 0 0 1 17.49997 -24.00003 -31 1 0.5 5.5
9 0 1 0 0 0 1 0 0 0 1 66.99997 29.99997 41 1.5 3.5 0.5
9 0 1 0 0 0 1 0 0 0 1 66.99997 29.99997 50 1.5 3.5 0.5
9 0 1 0 0 0 1 0 0 0 1 66.99997 -30.00003 41 1.5 3.5 0.5
9 0 1 0 0 0 1 0 0 0 1 66.99997 -30.00003 50 1.5 3.5 0.5
9 0 1 0 0 0 1 0 0 0 1 63.99997 35.99997 41 1.5 3.5 0.5
9 0 1 0 0 0 1 0 0 0 1 63.99997 -36.00003 41 1.5 3.5 0.5
9 0 1 0 0 0 1 0 0 0 1 35.99997 63.99997 41 3.5 1.5 0.5
9 0 1 0 0 0 1 0 0 0 1 35.99997 -64.00003 41 3.5 1.5 0.5
9 0 1 0 0 0 1 0 0 0 1 31.99997 -66.00003 50 3.5 1.5 0.5
9 0 1 0 0 0 1 0 0 0 1 29.99997 66.99997 41 3.5 1.5 0.5
9 0 1 0 0 0 1 0 0 0 1 29.99997 66.99997 50 3.5 1.5 0.5
9 0 1 0 0 0 1 0 0 0 1 29.99997 -67.00003 41 3.5 1.5 0.5
9 0 1 0 0 0 1 0 0 0 1 -30.00003 66.99997 41 3.5 1.5 0.5
9 0 1 0 0 0 1 0 0 0 1 -30.00003 66.99997 50 3.5 1.5 0.5
9 0 1 0 0 0 1 0 0 0 1 -30.00003 -67.00003 41 3.5 1.5 0.5
9 0 1 0 0 0 1 0 0 0 1 -30.00003 -67.00003 50 3.5 1.5 0.5
9 0 1 0 0 0 1 0 0 0 1 -36.00003 63.99997 41 3.5 1.5 0.5
9 0 1 0 0 0 1 0 0 0 1 -36.00003 -64.00003 41 3.5 1.5 0.5
9 0 1 0 0 0 1 0 0 0 1 -64.00003 35.99997 41 1.5 3.5 0.5
9 0 1 0 0 0 1 0 0 0 1 -65.00003 0.9999695 -25 0.5 10.5 0.5
9 0 1 0 0 0 1 0 0 0 1 -64.00003 -36.00003 41 1.5 3.5 0.5
9 0 1 0 0 0 1 0 0 0 1 -66.00003 -32.00003 50 1.5 3.5 0.5
9 0 1 0 0 0 1 0 0 0 1 -67.00003 29.99997 41 1.5 3.5 0.5
9 0 1 0 0 0 1 0 0 0 1 -67.00003 29.99997 50 1.5 3.5 0.5
9 0 1 0 0 0 1 0 0 0 1 -67.00003 -30.00003 41 1.5 3.5 0.5
9 0 1 0 0 0 1 0 0 0 1 64.99997 29.49997 45.5 0.5 1 5
9 0 1 0 0 0 1 0 0 0 1 60.99997 37.49997 45.5 0.5 1 5
9 0 1 0 0 0 1 0 0 0 1 60.99997 -37.50003 45.5 0.5 1 5
9 0 1 0 0 0 1 0 0 0 1 58.99997 40.49997 45.5 0.5 1 5
9 0 1 0 0 0 1 0 0 0 1 58.99997 -40.50003 45.5 0.5 1 5
9 0 1 0 0 0 1 0 0 0 1 42.99997 -59.50003 41 2.5 2 0.5
9 0 1 0 0 0 1 0 0 0 1 40.49997 58.99997 45.5 1 0.5 5
9 0 1 0 0 0 1 0 0 0 1 37.49997 60.99997 45.5 1 0.5 5
9 0 1 0 0 0 1 0 0 0 1 37.49997 -61.00003 45.5 1 0.5 5
9 0 1 0 0 0 1 0 0 0 1 19.99997 -27.50003 -33.5 0.5 1 5
9 0 1 0 0 0 1 0 0 0 1 -29.50003 64.99997 45.5 1 0.5 5
9 0 1 0 0 0 1 0 0 0 1 -37.50003 60.99997 45.5 1 0.5 5
9 0 1 0 0 0 1 0 0 0 1 -37.50003 -61.00003 45.5 1 0.5 5
9 0 1 0 0 0 1 0 0 0 1 -40.50003 58.99997 45.5 1 0.5 5
9 0 1 0 0 0 1 0 0 0 1 -40.50003 -59.00003 45.5 1 0.5 5
9 0 1 0 0 0 1 0 0 0 1 -59.00003 40.49997 45.5 0.5 1 5
9 0 1 0 0 0 1 0 0 0 1 -59.00003 -40.50003 45.5 0.5 1 5
9 0 1 0 0 0 1 0 0 0 1 -58.50003 -44.00003 -41 2 2.5 0.5
9 0 1 0 0 0 1 0 0 0 1 -61.00003 37.49997 45.5 0.5 1 5
9 0 1 0 0 0 1 0 0 0 1 -61.00003 -37.50003 45.5 0.5 1 5
9 0 1 0 0 0 1 0 0 0 1 69.99997 24.49997 41 1.5 3 0.5
9 0 1 0 0 0 1 0 0 0 1 69.99997 24.49997 50 1.5 3 0.5
9 0 1 0 0 0 1 0 0 0 1 69.99997 -24.50003 41 1.5 3 0.5
9 0 1 0 0 0 1 0 0 0 1 69.99997 -24.50003 50 1.5 3 0.5
9 0 1 0 0 0 1 0 0 0 1 64.99997 -29.50003 45 0.5 1 4.5
9 0 1 0 0 0 1 0 0 0 1 63.99997 36.49997 50 1.5 3 0.5
9 0 1 0 0 0 1 0 0 0 1 63.99997 -36.50003 50 1.5 3 0.5
9 0 1 0 0 0 1 0 0 0 1 40.49997 -59.00003 46 1 0.5 4.5
9 0 1 0 0 0 1 0 0 0 1 36.99997 -46.00003 -36.5 1.5 0.5 3
9 0 1 0 0 0 1 0 0 0 1 36.49997 63.99997 50 3 1.5 0.5
9 0 1 0 0 0 1 0 0 0 1 29.49997 64.99997 45 1 0.5 4.5
9 0 1 0 0 0 1 0 0 0 1 29.49997 -65.00003 45 1 0.5 4.5
9 0 1 0 0 0 1 0 0 0 1 27.49997 -66.00003 46 1 0.5 4.5
9 0 1 0 0 0 1 0 0 0 1 26.49997 -69.00003 50 3 1.5 0.5
9 0 1 0 0 0 1 0 0 0 1 24.49997 69.99997 41 3 1.5 0.5
9 0 1 0 0 0 1 0 0 0 1 24.49997 69.99997 50 3 1.5 0.5
9 0 1 0 0 0 1 0 0 0 1 24.49997 -70.00003 41 3 1.5 0.5
9 0 1 0 0 0 1 0 0 0 1 20.99997 -29.00003 -32.5 0.5 1.5 3
9 0 1 0 0 0 1 0 0 0 1 16.99997 61.99997 -27.5 1.5 0.5 3
9 0 1 0 0 0 1 0 0 0 1 16.99997 -62.00003 -27.5 1.5 0.5 3
9 0 1 0 0 0 1 0 0 0 1 -17.00003 -62.00003 -27.5 1.5 0.5 3
9 0 1 0 0 0 1 0 0 0 1 -24.50003 69.99997 41 3 1.5 0.5
9 0 1 0 0 0 1 0 0 0 1 -24.50003 69.99997 50 3 1.5 0.5
9 0 1 0 0 0 1 0 0 0 1 -24.50003 -70.00003 41 3 1.5 0.5
9 0 1 0 0 0 1 0 0 0 1 -24.50003 -70.00003 50 3 1.5 0.5
9 0 1 0 0 0 1 0 0 0 1 -29.50003 -65.00003 45 1 0.5 4.5
9 0 1 0 0 0 1 0 0 0 1 -36.50003 63.99997 50 3 1.5 0.5
9 0 1 0 0 0 1 0 0 0 1 -36.50003 -64.00003 50 3 1.5 0.5
9 0 1 0 0 0 1 0 0 0 1 -49.50003 -54.00003 -41 3 1.5 0.5
9 0 1 0 0 0 1 0 0 0 1 -64.00003 36.49997 50 1.5 3 0.5
9 0 1 0 0 0 1 0 0 0 1 -65.00003 29.49997 45 0.5 1 4.5
9 0 1 0 0 0 1 0 0 0 1 -65.00003 -29.50003 45 0.5 1 4.5
9 0 1 0 0 0 1 0 0 0 1 -66.00003 -27.50003 46 0.5 1 4.5
9 0 1 0 0 0 1 0 0 0 1 -69.50003 24.99997 41 1 4.5 0.5
9 0 1 0 0 0 1 0 0 0 1 -69.50003 24.99997 50 1 4.5 0.5
9 0 1 0 0 0 1 0 0 0 1 -69.50003 -25.00003 41 1 4.5 0.5
9 0 1 0 0 0 1 0 0 0 1 -69.00003 -26.50003 50 1.5 3 0.5
9 0 1 0 0 0 1 0 0 0 1 65.99997 27.49997 45.5 0.5 1 4
9 0 1 0 0 0 1 0 0 0 1 65.99997 -27.50003 45.5 0.5 1 4
9 0 1 0 0 0 1 0 0 0 1 63.99997 31.49997 44.5 0.5 1 4
9 0 1 0 0 0 1 0 0 0 1 61.99997 35.49997 44.5 0.5 1 4
9 0 1 0 0 0 1 0 0 0 1 59.49997 43.49997 41 2 2 0.5
9 0 1 0 0 0 1 0 0 0 1 59.49997 43.49997 50 2 2 0.5
9 0 1 0 0 0 1 0 0 0 1 59.49997 -43.50003 41 2 2 0.5
9 0 1 0 0 0 1 0 0 0 1 59.49997 -43.50003 50 2 2 0.5
9 0 1 0 0 0 1 0 0 0 1 53.49997 50.49997 41 2 2 0.5
9 0 1 0 0 0 1 0 0 0 1 53.49997 50.49997 50 2 2 0.5
9 0 1 0 0 0 1 0 0 0 1 53.49997 -50.50003 41 2 2 0.5
9 0 1 0 0 0 1 0 0 0 1 53.49997 -50.50003 50 2 2 0.5
9 0 1 0 0 0 1 0 0 0 1 45.49997 57.49997 41 2 2 0.5
9 0 1 0 0 0 1 0 0 0 1 44.49997 58.49997 50 2 2 0.5
9 0 1 0 0 0 1 0 0 0 1 44.49997 -58.50003 50 2 2 0.5
9 0 1 0 0 0 1 0 0 0 1 37.49997 -63.50003 50 2 2 0.5
9 0 1 0 0 0 1 0 0 0 1 35.49997 -62.00003 44.5 1 0.5 4
9 0 1 0 0 0 1 0 0 0 1 31.49997 -64.00003 44.5 1 0.5 4
9 0 1 0 0 0 1 0 0 0 1 27.49997 65.99997 45.5 1 0.5 4
9 0 1 0 0 0 1 0 0 0 1 23.49997 -32.50003 -32.5 1 1 2
9 0 1 0 0 0 1 0 0 0 1 22.49997 -31.00003 -33.5 1 0.5 4
9 0 1 0 0 0 1 0 0 0 1 -22.50003 -8.000031 -27.5 1 0.5 4
9 0 1 0 0 0 1 0 0 0 1 -27.50003 65.99997 45.5 1 0.5 4
9 0 1 0 0 0 1 0 0 0 1 -27.50003 -66.00003 45.5 1 0.5 4
9 0 1 0 0 0 1 0 0 0 1 -31.50003 63.99997 44.5 1 0.5 4
9 0 1 0 0 0 1 0 0 0 1 -35.50003 61.99997 44.5 1 0.5 4
9 0 1 0 0 0 1 0 0 0 1 -43.50003 59.49997 41 2 2 0.5
9 0 1 0 0 0 1 0 0 0 1 -43.50003 59.49997 50 2 2 0.5
9 0 1 0 0 0 1 0 0 0 1 -43.50003 -59.50003 41 2 2 0.5
9 0 1 0 0 0 1 0 0 0 1 -43.50003 -59.50003 50 2 2 0.5
9 0 1 0 0 0 1 0 0 0 1 -50.50003 53.49997 41 2 2 0.5
9 0 1 0 0 0 1 0 0 0 1 -50.50003 53.49997 50 2 2 0.5
9 0 1 0 0 0 1 0 0 0 1 -50.50003 -53.50003 41 2 2 0.5
9 0 1 0 0 0 1 0 0 0 1 -50.50003 -53.50003 50 2 2 0.5
9 0 1 0 0 0 1 0 0 0 1 -53.50003 -50.50003 -41 2 2 0.5
9 0 1 0 0 0 1 0 0 0 1 -57.50003 45.49997 41 2 2 0.5
9 0 1 0 0 0 1 0 0 0 1 -57.50003 -45.50003 41 2 2 0.5
9 0 1 0 0 0 1 0 0 0 1 -58.50003 44.49997 50 2 2 0.5
9 0 1 0 0 0 1 0 0 0 1 -58.50003 -44.50003 50 2 2 0.5
9 0 1 0 0 0 1 0 0 0 1 -62.00003 -35.50003 44.5 0.5 1 4
9 0 1 0 0 0 1 0 0 0 1 -61.50003 -40.50003 50 2 2 0.5
9 0 1 0 0 0 1 0 0 0 1 -64.00003 -31.50003 44.5 0.5 1 4
9 0 1 0 0 0 1 0 0 0 1 -66.00003 27.49997 45.5 0.5 1 4
9 0 1 0 0 0 1 0 0 0 1 49.99997 53.99997 41 2.5 1.5 0.5
9 0 1 0 0 0 1 0 0 0 1 49.99997 53.99997 50 2.5 1.5 0.5
9 0 1 0 0 0 1 0 0 0 1 49.99997 -54.00003 41 2.5 1.5 0.5
9 0 1 0 0 0 1 0 0 0 1 49.99997 -54.00003 50 2.5 1.5 0.5
9 0 1 0 0 0 1 0 0 0 1 -61.00003 40.99997 41 1.5 2.5 0.5
9 0 1 0 0 0 1 0 0 0 1 -61.00003 -41.00003 41 1.5 2.5 0.5
9 0 1 0 0 0 1 0 0 0 1 -64.00003 14.99997 -42 2.5 0.5 1.5
9 0 1 0 0 0 1 0 0 0 1 63.99997 -31.50003 44 0.5 1 3.5
9 0 1 0 0 0 1 0 0 0 1 61.99997 -35.50003 44 0.5 1 3.5
9 0 1 0 0 0 1 0 0 0 1 42.99997 -49.00003 -39.5 3.5 0.5 1
9 0 1 0 0 0 1 0 0 0 1 41.99997 60.49997 41 3.5 1 0.5
9 0 1 0 0 0 1 0 0 0 1 35.49997 61.99997 44 1 0.5 3.5
9 0 1 0 0 0 1 0 0 0 1 35.49997 -45.00003 -37 1 0.5 3.5
9 0 1 0 0 0 1 0 0 0 1 31.49997 63.99997 44 1 0.5 3.5
9 0 1 0 0 0 1 0 0 0 1 -19.00003 -68.00003 -41.5 3.5 0.5 1
9 0 1 0 0 0 1 0 0 0 1 -31.50003 -64.00003 44 1 0.5 3.5
9 0 1 0 0 0 1 0 0 0 1 -35.50003 -62.00003 44 1 0.5 3.5
9 0 1 0 0 0 1 0 0 0 1 -62.00003 35.49997 44 0.5 1 3.5
9 0 1 0 0 0 1 0 0 0 1 -64.00003 31.49997 44 0.5 1 3.5
9 0 1 0 0 0 1 0 0 0 1 75.99997 -3.051758E-05 41 0.5 6.5 0.5
9 0 1 0 0 0 1 0 0 0 1 75.99997 -3.051758E-05 50 0.5 6.5 0.5
9 0 1 0 0 0 1 0 0 0 1 4.999969 64.99997 -25 6.5 0.5 0.5
9 0 1 0 0 0 1 0 0 0 1 -3.051758E-05 75.99997 41 6.5 0.5 0.5
9 0 1 0 0 0 1 0 0 0 1 -3.051758E-05 75.99997 50 6.5 0.5 0.5
9 0 1 0 0 0 1 0 0 0 1 -3.051758E-05 -76.00003 41 6.5 0.5 0.5
9 0 1 0 0 0 1 0 0 0 1 -3.051758E-05 -76.00003 50 6.5 0.5 0.5
9 0 1 0 0 0 1 0 0 0 1 -24.00003 6.999969 -30 0.5 0.5 6.5
9 0 1 0 0 0 1 0 0 0 1 -76.00003 -3.051758E-05 41 0.5 6.5 0.5
9 0 1 0 0 0 1 0 0 0 1 -76.00003 -3.051758E-05 50 0.5 6.5 0.5
9 0 1 0 0 0 1 0 0 0 1 56.49997 46.99997 41 2 1.5 0.5
9 0 1 0 0 0 1 0 0 0 1 56.49997 46.99997 50 2 1.5 0.5
9 0 1 0 0 0 1 0 0 0 1 56.49997 -47.00003 41 2 1.5 0.5
9 0 1 0 0 0 1 0 0 0 1 56.49997 -47.00003 50 2 1.5 0.5
9 0 1 0 0 0 1 0 0 0 1 46.49997 -56.50003 41 3 1 0.5
9 0 1 0 0 0 1 0 0 0 1 40.99997 61.49997 50 1.5 2 0.5
9 0 1 0 0 0 1 0 0 0 1 42.49997 -47.00003 -34.5 3 0.5 1
9 0 1 0 0 0 1 0 0 0 1 34.49997 -44.00003 -36.5 1 0.5 3
9 0 1 0 0 0 1 0 0 0 1 23.49997 59.99997 -27.5 1 0.5 3
9 0 1 0 0 0 1 0 0 0 1 23.49997 -60.00003 -27.5 1 0.5 3
9 0 1 0 0 0 1 0 0 0 1 20.49997 60.99997 -27.5 1 0.5 3
9 0 1 0 0 0 1 0 0 0 1 20.49997 -61.00003 -27.5 1 0.5 3
9 0 1 0 0 0 1 0 0 0 1 -20.50003 -61.00003 -27.5 1 0.5 3
9 0 1 0 0 0 1 0 0 0 1 -23.50003 -60.00003 -27.5 1 0.5 3
9 0 1 0 0 0 1 0 0 0 1 -47.00003 56.49997 50 1.5 2 0.5
9 0 1 0 0 0 1 0 0 0 1 -47.00003 -56.50003 50 1.5 2 0.5
9 0 1 0 0 0 1 0 0 0 1 -46.50003 56.49997 41 3 1 0.5
9 0 1 0 0 0 1 0 0 0 1 -46.50003 -56.50003 41 3 1 0.5
9 0 1 0 0 0 1 0 0 0 1 -53.50003 49.99997 41 2 1.5 0.5
9 0 1 0 0 0 1 0 0 0 1 -53.50003 49.99997 50 2 1.5 0.5
9 0 1 0 0 0 1 0 0 0 1 -53.50003 -50.00003 41 2 1.5 0.5
9 0 1 0 0 0 1 0 0 0 1 -53.50003 -50.00003 50 2 1.5 0.5
9 0 1 0 0 0 1 0 0 0 1 -60.00003 23.49997 -27.5 0.5 1 3
9 0 1 0 0 0 1 0 0 0 1 -60.00003 -23.50003 -27.5 0.5 1 3
9 0 1 0 0 0 1 0 0 0 1 -61.00003 20.49997 -27.5 0.5 1 3
9 0 1 0 0 0 1 0 0 0 1 -61.00003 -20.50003 -27.5 0.5 1 3
9 0 1 0 0 0 1 0 0 0 1 -61.00003 40.49997 50 1.5 2 0.5
9 0 1 0 0 0 1 0 0 0 1 -65.00003 -31.50003 -41 1.5 2 0.5
9 0 1 0 0 0 1 0 0 0 1 21.99997 -30.00003 -35 0.5 0.5 5.5
9 0 1 0 0 0 1 0 0 0 1 3.999969 -65.00003 -25 5.5 0.5 0.5
9 0 1 0 0 0 1 0 0 0 1 -69.00003 -8.000031 -41 0.5 5.5 0.5
9 0 1 0 0 0 1 0 0 0 1 62.99997 33.49997 44 0.5 1 2.5
9 0 1 0 0 0 1 0 0 0 1 59.99997 38.99997 45.5 0.5 0.5 5
9 0 1 0 0 0 1 0 0 0 1 59.99997 -39.00003 45.5 0.5 0.5 5
9 0 1 0 0 0 1 0 0 0 1 56.99997 42.99997 45.5 0.5 0.5 5
9 0 1 0 0 0 1 0 0 0 1 56.99997 -43.00003 45.5 0.5 0.5 5
9 0 1 0 0 0 1 0 0 0 1 55.99997 44.99997 45.5 0.5 0.5 5
9 0 1 0 0 0 1 0 0 0 1 55.99997 -45.00003 45.5 0.5 0.5 5
9 0 1 0 0 0 1 0 0 0 1 53.99997 46.99997 45.5 0.5 0.5 5
9 0 1 0 0 0 1 0 0 0 1 53.99997 -47.00003 45.5 0.5 0.5 5
9 0 1 0 0 0 1 0 0 0 1 52.99997 47.99997 45.5 0.5 0.5 5
9 0 1 0 0 0 1 0 0 0 1 52.99997 -48.00003 45.5 0.5 0.5 5
9 0 1 0 0 0 1 0 0 0 1 50.99997 49.99997 45.5 0.5 0.5 5
9 0 1 0 0 0 1 0 0 0 1 50.99997 -50.00003 45.5 0.5 0.5 5
9 0 1 0 0 0 1 0 0 0 1 49.99997 50.99997 45.5 0.5 0.5 5
9 0 1 0 0 0 1 0 0 0 1 49.99997 -51.00003 45.5 0.5 0.5 5
9 0 1 0 0 0 1 0 0 0 1 48.99997 51.99997 45.5 0.5 0.5 5
9 0 1 0 0 0 1 0 0 0 1 48.99997 -52.00003 45.5 0.5 0.5 5
9 0 1 0 0 0 1 0 0 0 1 46.99997 53.99997 45.5 0.5 0.5 5
9 0 1 0 0 0 1 0 0 0 1 46.99997 -54.00003 45.5 0.5 0.5 5
9 0 1 0 0 0 1 0 0 0 1 45.99997 54.99997 45.5 0.5 0.5 5
9 0 1 0 0 0 1 0 0 0 1 45.99997 -55.00003 45.5 0.5 0.5 5
9 0 1 0 0 0 1 0 0 0 1 41.99997 57.99997 45.5 0.5 0.5 5
9 0 1 0 0 0 1 0 0 0 1 38.99997 -60.00003 45.5 0.5 0.5 5
9 0 1 0 0 0 1 0 0 0 1 33.49997 -43.00003 -36 1 0.5 2.5
9 0 1 0 0 0 1 0 0 0 1 33.49997 -63.00003 44 1 0.5 2.5
9 0 1 0 0 0 1 0 0 0 1 28.99997 -39.00003 -37.5 0.5 0.5 5
9 0 1 0 0 0 1 0 0 0 1 27.99997 -38.00003 -37.5 0.5 0.5 5
9 0 1 0 0 0 1 0 0 0 1 24.99997 -34.00003 -36.5 0.5 0.5 5
9 0 1 0 0 0 1 0 0 0 1 18.99997 -27.00003 -31.5 0.5 0.5 5
9 0 1 0 0 0 1 0 0 0 1 -24.00003 -67.00003 -42.5 2.5 0.5 1
9 0 1 0 0 0 1 0 0 0 1 -28.00003 6.499969 -19 0.5 1 2.5
9 0 1 0 0 0 1 0 0 0 1 -28.00003 -6.500031 -19 0.5 1 2.5
9 0 1 0 0 0 1 0 0 0 1 -28.00003 -65.00003 -41.5 2.5 0.5 1
9 0 1 0 0 0 1 0 0 0 1 -33.50003 62.99997 44 1 0.5 2.5
9 0 1 0 0 0 1 0 0 0 1 -39.00003 59.99997 45.5 0.5 0.5 5
9 0 1 0 0 0 1 0 0 0 1 -39.00003 -60.00003 45.5 0.5 0.5 5
9 0 1 0 0 0 1 0 0 0 1 -43.00003 56.99997 45.5 0.5 0.5 5
9 0 1 0 0 0 1 0 0 0 1 -43.00003 -57.00003 45.5 0.5 0.5 5
9 0 1 0 0 0 1 0 0 0 1 -47.00003 53.99997 45.5 0.5 0.5 5
9 0 1 0 0 0 1 0 0 0 1 -47.00003 -54.00003 45.5 0.5 0.5 5
9 0 1 0 0 0 1 0 0 0 1 -48.00003 52.99997 45.5 0.5 0.5 5
9 0 1 0 0 0 1 0 0 0 1 -48.00003 -53.00003 45.5 0.5 0.5 5
9 0 1 0 0 0 1 0 0 0 1 -50.00003 50.99997 45.5 0.5 0.5 5
9 0 1 0 0 0 1 0 0 0 1 -50.00003 -51.00003 45.5 0.5 0.5 5
9 0 1 0 0 0 1 0 0 0 1 -51.00003 49.99997 45.5 0.5 0.5 5
9 0 1 0 0 0 1 0 0 0 1 -51.00003 -50.00003 45.5 0.5 0.5 5
9 0 1 0 0 0 1 0 0 0 1 -53.00003 47.99997 45.5 0.5 0.5 5
9 0 1 0 0 0 1 0 0 0 1 -53.00003 -48.00003 45.5 0.5 0.5 5
9 0 1 0 0 0 1 0 0 0 1 -54.00003 46.99997 45.5 0.5 0.5 5
9 0 1 0 0 0 1 0 0 0 1 -54.00003 -47.00003 45.5 0.5 0.5 5
9 0 1 0 0 0 1 0 0 0 1 -55.00003 45.99997 45.5 0.5 0.5 5
9 0 1 0 0 0 1 0 0 0 1 -55.00003 -46.00003 45.5 0.5 0.5 5
9 0 1 0 0 0 1 0 0 0 1 -58.00003 41.99997 45.5 0.5 0.5 5
9 0 1 0 0 0 1 0 0 0 1 -58.00003 -42.00003 45.5 0.5 0.5 5
9 0 1 0 0 0 1 0 0 0 1 -56.00003 -47.50003 -41 2.5 1 0.5
9 0 1 0 0 0 1 0 0 0 1 -63.00003 -33.50003 44 0.5 1 2.5
9 0 1 0 0 0 1 0 0 0 1 -63.50003 -36.00003 50 1 2.5 0.5
9 0 1 0 0 0 1 0 0 0 1 44.99997 55.99997 46 0.5 0.5 4.5
9 0 1 0 0 0 1 0 0 0 1 44.99997 -46.00003 -29 0.5 0.5 4.5
9 0 1 0 0 0 1 0 0 0 1 44.99997 -56.00003 46 0.5 0.5 4.5
9 0 1 0 0 0 1 0 0 0 1 43.99997 -47.00003 -29 0.5 0.5 4.5
9 0 1 0 0 0 1 0 0 0 1 42.99997 56.99997 45 0.5 0.5 4.5
9 0 1 0 0 0 1 0 0 0 1 42.99997 -57.00003 45 0.5 0.5 4.5
9 0 1 0 0 0 1 0 0 0 1 41.99997 -58.00003 46 0.5 0.5 4.5
9 0 1 0 0 0 1 0 0 0 1 40.99997 -62.00003 50 1.5 1.5 0.5
9 0 1 0 0 0 1 0 0 0 1 38.99997 59.99997 46 0.5 0.5 4.5
9 0 1 0 0 0 1 0 0 0 1 16.99997 -22.00003 -28 0.5 0.5 4.5
9 0 1 0 0 0 1 0 0 0 1 11.99997 -3.051758E-05 -39 0.5 4.5 0.5
9 0 1 0 0 0 1 0 0 0 1 -27.00003 -66.00003 -43 1.5 0.5 1.5
9 0 1 0 0 0 1 0 0 0 1 -30.00003 -57.00003 -29 0.5 0.5 4.5
9 0 1 0 0 0 1 0 0 0 1 -31.00003 -64.00003 -42 1.5 0.5 1.5
9 0 1 0 0 0 1 0 0 0 1 -45.00003 55.99997 46 0.5 0.5 4.5
9 0 1 0 0 0 1 0 0 0 1 -45.00003 -56.00003 46 0.5 0.5 4.5
9 0 1 0 0 0 1 0 0 0 1 -46.00003 54.99997 45 0.5 0.5 4.5
9 0 1 0 0 0 1 0 0 0 1 -46.00003 -55.00003 45 0.5 0.5 4.5
9 0 1 0 0 0 1 0 0 0 1 -56.00003 44.99997 46 0.5 0.5 4.5
9 0 1 0 0 0 1 0 0 0 1 -56.00003 -45.00003 46 0.5 0.5 4.5
9 0 1 0 0 0 1 0 0 0 1 -57.00003 42.99997 45 0.5 0.5 4.5
9 0 1 0 0 0 1 0 0 0 1 -57.00003 -43.00003 45 0.5 0.5 4.5
9 0 1 0 0 0 1 0 0 0 1 -62.00003 -41.00003 -41 1.5 1.5 0.5
9 0 1 0 0 0 1 0 0 0 1 -64.00003 5.999969 -31 0.5 4.5 0.5
9 0 1 0 0 0 1 0 0 0 1 62.99997 -33.50003 43.5 0.5 1 2
9 0 1 0 0 0 1 0 0 0 1 61.99997 -39.50003 50 0.5 4 0.5
9 0 1 0 0 0 1 0 0 0 1 61.49997 40.49997 41 2 1 0.5
9 0 1 0 0 0 1 0 0 0 1 61.49997 40.49997 50 2 1 0.5
9 0 1 0 0 0 1 0 0 0 1 57.99997 41.99997 45.5 0.5 0.5 4
9 0 1 0 0 0 1 0 0 0 1 57.99997 -42.00003 45.5 0.5 0.5 4
9 0 1 0 0 0 1 0 0 0 1 54.99997 45.99997 45.5 0.5 0.5 4
9 0 1 0 0 0 1 0 0 0 1 54.99997 -46.00003 45.5 0.5 0.5 4
9 0 1 0 0 0 1 0 0 0 1 51.99997 48.99997 45.5 0.5 0.5 4
9 0 1 0 0 0 1 0 0 0 1 51.99997 -49.00003 45.5 0.5 0.5 4
9 0 1 0 0 0 1 0 0 0 1 47.99997 52.99997 45.5 0.5 0.5 4
9 0 1 0 0 0 1 0 0 0 1 47.99997 -53.00003 45.5 0.5 0.5 4
9 0 1 0 0 0 1 0 0 0 1 44.99997 45.99997 -29.5 0.5 0.5 4
9 0 1 0 0 0 1 0 0 0 1 40.49997 -49.00003 -42.5 1 0.5 2
9 0 1 0 0 0 1 0 0 0 1 37.99997 51.99997 -28.5 0.5 0.5 4
9 0 1 0 0 0 1 0 0 0 1 37.99997 -52.00003 -28.5 0.5 0.5 4
9 0 1 0 0 0 1 0 0 0 1 36.99997 -47.00003 -37.5 0.5 0.5 4
9 0 1 0 0 0 1 0 0 0 1 33.99997 62.99997 45.5 0.5 0.5 4
9 0 1 0 0 0 1 0 0 0 1 29.99997 -40.00003 -36.5 0.5 0.5 4
9 0 1 0 0 0 1 0 0 0 1 27.49997 -37.00003 -34.5 1 0.5 2
9 0 1 0 0 0 1 0 0 0 1 26.49997 -36.00003 -33.5 1 0.5 2
9 0 1 0 0 0 1 0 0 0 1 25.49997 -35.00003 -33.5 1 0.5 2
9 0 1 0 0 0 1 0 0 0 1 -30.50003 10.99997 -29.5 1 0.5 2
9 0 1 0 0 0 1 0 0 0 1 -33.50003 -63.00003 43.5 1 0.5 2
9 0 1 0 0 0 1 0 0 0 1 -34.50003 11.99997 -31.5 1 0.5 2
9 0 1 0 0 0 1 0 0 0 1 -38.00003 -52.00003 -28.5 0.5 0.5 4
9 0 1 0 0 0 1 0 0 0 1 -40.50003 -61.50003 41 1 2 0.5
9 0 1 0 0 0 1 0 0 0 1 -42.00003 57.99997 45.5 0.5 0.5 4
9 0 1 0 0 0 1 0 0 0 1 -42.00003 -58.00003 45.5 0.5 0.5 4
9 0 1 0 0 0 1 0 0 0 1 -39.50003 61.99997 50 4 0.5 0.5
9 0 1 0 0 0 1 0 0 0 1 -39.50003 -62.00003 50 4 0.5 0.5
9 0 1 0 0 0 1 0 0 0 1 -46.00003 14.99997 -36.5 0.5 0.5 4
9 0 1 0 0 0 1 0 0 0 1 -49.00003 51.99997 45.5 0.5 0.5 4
9 0 1 0 0 0 1 0 0 0 1 -49.00003 -52.00003 45.5 0.5 0.5 4
9 0 1 0 0 0 1 0 0 0 1 -52.00003 48.99997 45.5 0.5 0.5 4
9 0 1 0 0 0 1 0 0 0 1 -52.00003 -49.00003 45.5 0.5 0.5 4
9 0 1 0 0 0 1 0 0 0 1 -56.50003 47.49997 50 2 1 0.5
9 0 1 0 0 0 1 0 0 0 1 -56.50003 -47.50003 50 2 1 0.5
9 0 1 0 0 0 1 0 0 0 1 -60.00003 38.99997 45.5 0.5 0.5 4
9 0 1 0 0 0 1 0 0 0 1 -60.00003 -39.00003 45.5 0.5 0.5 4
9 0 1 0 0 0 1 0 0 0 1 -63.00003 33.99997 45.5 0.5 0.5 4
9 0 1 0 0 0 1 0 0 0 1 -61.50003 13.99997 -37.5 2 0.5 1
9 0 1 0 0 0 1 0 0 0 1 -64.00003 14.49997 -36.5 0.5 2 1
9 0 1 0 0 0 1 0 0 0 1 -64.00003 -5.500031 -31 0.5 4 0.5
9 0 1 0 0 0 1 0 0 0 1 -65.00003 -3.051758E-05 -29.5 0.5 0.5 4
9 0 1 0 0 0 1 0 0 0 1 -70.50003 -22.50003 50 2 1 0.5
9 0 1 0 0 0 1 0 0 0 1 51.99997 -38.00003 -28 0.5 0.5 3.5
9 0 1 0 0 0 1 0 0 0 1 39.99997 -62.00003 41 3.5 0.5 0.5
9 0 1 0 0 0 1 0 0 0 1 31.99997 -42.00003 -37 0.5 0.5 3.5
9 0 1 0 0 0 1 0 0 0 1 30.99997 -41.00003 -36 0.5 0.5 3.5
9 0 1 0 0 0 1 0 0 0 1 18.99997 -26.00003 -38 0.5 0.5 3.5
9 0 1 0 0 0 1 0 0 0 1 17.99997 -23.00003 -28 0.5 0.5 3.5
9 0 1 0 0 0 1 0 0 0 1 12.99997 -64.00003 -25 3.5 0.5 0.5
9 0 1 0 0 0 1 0 0 0 1 -3.051758E-05 64.99997 -29 0.5 0.5 3.5
9 0 1 0 0 0 1 0 0 0 1 -24.00003 8.999969 -27 0.5 0.5 3.5
9 0 1 0 0 0 1 0 0 0 1 -24.00003 -9.000031 -27 0.5 0.5 3.5
9 0 1 0 0 0 1 0 0 0 1 -26.00003 -59.00003 -28 0.5 0.5 3.5
9 0 1 0 0 0 1 0 0 0 1 -28.00003 -58.00003 -28 0.5 0.5 3.5
9 0 1 0 0 0 1 0 0 0 1 -40.00003 61.99997 41 3.5 0.5 0.5
9 0 1 0 0 0 1 0 0 0 1 73.99997 15.49997 41 0.5 3 0.5
9 0 1 0 0 0 1 0 0 0 1 73.99997 -15.50003 41 0.5 3 0.5
9 0 1 0 0 0 1 0 0 0 1 71.99997 10.49997 41 0.5 3 0.5
9 0 1 0 0 0 1 0 0 0 1 71.99997 10.49997 50 0.5 3 0.5
9 0 1 0 0 0 1 0 0 0 1 71.99997 -10.50003 41 0.5 3 0.5
9 0 1 0 0 0 1 0 0 0 1 71.99997 -10.50003 50 0.5 3 0.5
9 0 1 0 0 0 1 0 0 0 1 69.99997 10.99997 43.5 0.5 0.5 3
9 0 1 0 0 0 1 0 0 0 1 62.49997 -41.00003 41 1 1.5 0.5
9 0 1 0 0 0 1 0 0 0 1 47.99997 56.49997 50 1.5 1 0.5
9 0 1 0 0 0 1 0 0 0 1 46.99997 43.99997 -27.5 0.5 0.5 3
9 0 1 0 0 0 1 0 0 0 1 46.99997 -44.00003 -27.5 0.5 0.5 3
9 0 1 0 0 0 1 0 0 0 1 47.99997 -56.50003 50 1.5 1 0.5
9 0 1 0 0 0 1 0 0 0 1 44.49997 -48.00003 -37 1 0.5 1.5
9 0 1 0 0 0 1 0 0 0 1 40.99997 62.49997 41 1.5 1 0.5
9 0 1 0 0 0 1 0 0 0 1 40.99997 -48.50003 -34 1.5 1 0.5
9 0 1 0 0 0 1 0 0 0 1 39.49997 -48.00003 -41 1 0.5 1.5
9 0 1 0 0 0 1 0 0 0 1 34.99997 53.99997 -27.5 0.5 0.5 3
9 0 1 0 0 0 1 0 0 0 1 34.99997 -54.00003 -27.5 0.5 0.5 3
9 0 1 0 0 0 1 0 0 0 1 31.99997 55.99997 -27.5 0.5 0.5 3
9 0 1 0 0 0 1 0 0 0 1 31.99997 -56.00003 -27.5 0.5 0.5 3
9 0 1 0 0 0 1 0 0 0 1 29.99997 56.99997 -27.5 0.5 0.5 3
9 0 1 0 0 0 1 0 0 0 1 29.99997 -57.00003 -27.5 0.5 0.5 3
9 0 1 0 0 0 1 0 0 0 1 27.99997 57.99997 -27.5 0.5 0.5 3
9 0 1 0 0 0 1 0 0 0 1 27.99997 -58.00003 -27.5 0.5 0.5 3
9 0 1 0 0 0 1 0 0 0 1 25.99997 58.99997 -27.5 0.5 0.5 3
9 0 1 0 0 0 1 0 0 0 1 25.99997 -59.00003 -27.5 0.5 0.5 3
9 0 1 0 0 0 1 0 0 0 1 21.99997 -29.00003 -31.5 0.5 0.5 3
9 0 1 0 0 0 1 0 0 0 1 24.49997 -71.00003 50 3 0.5 0.5
9 0 1 0 0 0 1 0 0 0 1 20.99997 -29.00003 -38.5 0.5 0.5 3
9 0 1 0 0 0 1 0 0 0 1 21.99997 -69.50003 50 1.5 1 0.5
9 0 1 0 0 0 1 0 0 0 1 19.99997 -26.00003 -29.5 0.5 0.5 3
9 0 1 0 0 0 1 0 0 0 1 16.99997 -25.00003 -28.5 0.5 0.5 3
9 0 1 0 0 0 1 0 0 0 1 15.49997 73.99997 41 3 0.5 0.5
9 0 1 0 0 0 1 0 0 0 1 15.49997 -74.00003 41 3 0.5 0.5
9 0 1 0 0 0 1 0 0 0 1 10.99997 -70.00003 43.5 0.5 0.5 3
9 0 1 0 0 0 1 0 0 0 1 10.49997 71.99997 41 3 0.5 0.5
9 0 1 0 0 0 1 0 0 0 1 10.49997 71.99997 50 3 0.5 0.5
9 0 1 0 0 0 1 0 0 0 1 10.49997 -72.00003 41 3 0.5 0.5
9 0 1 0 0 0 1 0 0 0 1 10.49997 -72.00003 50 3 0.5 0.5
9 0 1 0 0 0 1 0 0 0 1 -3.051758E-05 -65.00003 -28.5 0.5 0.5 3
9 0 1 0 0 0 1 0 0 0 1 -11.00003 69.99997 43.5 0.5 0.5 3
9 0 1 0 0 0 1 0 0 0 1 -10.50003 71.99997 41 3 0.5 0.5
9 0 1 0 0 0 1 0 0 0 1 -10.50003 71.99997 50 3 0.5 0.5
9 0 1 0 0 0 1 0 0 0 1 -10.50003 -72.00003 41 3 0.5 0.5
9 0 1 0 0 0 1 0 0 0 1 -10.50003 -72.00003 50 3 0.5 0.5
9 0 1 0 0 0 1 0 0 0 1 -15.50003 73.99997 41 3 0.5 0.5
9 0 1 0 0 0 1 0 0 0 1 -15.50003 -74.00003 41 3 0.5 0.5
9 0 1 0 0 0 1 0 0 0 1 -21.00003 7.999969 -26.5 0.5 0.5 3
9 0 1 0 0 0 1 0 0 0 1 -22.50003 -68.00003 -44 1 0.5 1.5
9 0 1 0 0 0 1 0 0 0 1 -23.50003 7.999969 -34 1 0.5 1.5
9 0 1 0 0 0 1 0 0 0 1 -33.50003 10.99997 -39 1 0.5 1.5
9 0 1 0 0 0 1 0 0 0 1 -40.50003 12.99997 -39 1 0.5 1.5
9 0 1 0 0 0 1 0 0 0 1 -41.00003 13.99997 -32.5 1.5 0.5 1
9 0 1 0 0 0 1 0 0 0 1 -44.00003 46.99997 -27.5 0.5 0.5 3
9 0 1 0 0 0 1 0 0 0 1 -44.00003 -47.00003 -27.5 0.5 0.5 3
9 0 1 0 0 0 1 0 0 0 1 -47.00003 43.99997 -27.5 0.5 0.5 3
9 0 1 0 0 0 1 0 0 0 1 -47.00003 -44.00003 -27.5 0.5 0.5 3
9 0 1 0 0 0 1 0 0 0 1 -48.00003 14.99997 -42.5 1.5 0.5 1
9 0 1 0 0 0 1 0 0 0 1 -48.00003 14.49997 -33 1.5 1 0.5
9 0 1 0 0 0 1 0 0 0 1 -47.50003 -56.00003 -41 3 0.5 0.5
9 0 1 0 0 0 1 0 0 0 1 -50.50003 15.99997 -35 1 0.5 1.5
9 0 1 0 0 0 1 0 0 0 1 -52.00003 37.99997 -27.5 0.5 0.5 3
9 0 1 0 0 0 1 0 0 0 1 -52.00003 -38.00003 -27.5 0.5 0.5 3
9 0 1 0 0 0 1 0 0 0 1 -54.00003 34.99997 -27.5 0.5 0.5 3
9 0 1 0 0 0 1 0 0 0 1 -54.00003 -35.00003 -27.5 0.5 0.5 3
9 0 1 0 0 0 1 0 0 0 1 -56.00003 31.99997 -27.5 0.5 0.5 3
9 0 1 0 0 0 1 0 0 0 1 -56.00003 -32.00003 -27.5 0.5 0.5 3
9 0 1 0 0 0 1 0 0 0 1 -57.00003 29.99997 -27.5 0.5 0.5 3
9 0 1 0 0 0 1 0 0 0 1 -56.50003 16.99997 -35 1 0.5 1.5
9 0 1 0 0 0 1 0 0 0 1 -57.00003 -30.00003 -27.5 0.5 0.5 3
9 0 1 0 0 0 1 0 0 0 1 -58.00003 27.99997 -27.5 0.5 0.5 3
9 0 1 0 0 0 1 0 0 0 1 -58.00003 -28.00003 -27.5 0.5 0.5 3
9 0 1 0 0 0 1 0 0 0 1 -59.00003 25.99997 -27.5 0.5 0.5 3
9 0 1 0 0 0 1 0 0 0 1 -59.00003 -26.00003 -27.5 0.5 0.5 3
9 0 1 0 0 0 1 0 0 0 1 -59.00003 -40.50003 -42 0.5 1 1.5
9 0 1 0 0 0 1 0 0 0 1 -61.00003 -37.50003 -42 0.5 1 1.5
9 0 1 0 0 0 1 0 0 0 1 -63.00003 16.99997 -37.5 0.5 0.5 3
9 0 1 0 0 0 1 0 0 0 1 -65.00003 16.99997 -41.5 1.5 0.5 1
9 0 1 0 0 0 1 0 0 0 1 -65.00003 15.99997 -47.5 1.5 0.5 1
9 0 1 0 0 0 1 0 0 0 1 -66.00003 13.99997 -39.5 0.5 1.5 1
9 0 1 0 0 0 1 0 0 0 1 -66.00003 -27.00003 -41.5 0.5 1.5 1
9 0 1 0 0 0 1 0 0 0 1 -70.00003 -11.00003 43.5 0.5 0.5 3
9 0 1 0 0 0 1 0 0 0 1 -71.00003 24.49997 41 0.5 3 0.5
9 0 1 0 0 0 1 0 0 0 1 -71.00003 24.49997 50 0.5 3 0.5
9 0 1 0 0 0 1 0 0 0 1 -71.00003 -24.50003 41 0.5 3 0.5
9 0 1 0 0 0 1 0 0 0 1 -72.00003 10.49997 41 0.5 3 0.5
9 0 1 0 0 0 1 0 0 0 1 -72.00003 10.49997 50 0.5 3 0.5
9 0 1 0 0 0 1 0 0 0 1 -72.00003 -10.50003 41 0.5 3 0.5
9 0 1 0 0 0 1 0 0 0 1 -72.00003 -10.50003 50 0.5 3 0.5
9 0 1 0 0 0 1 0 0 0 1 -74.00003 15.49997 41 0.5 3 0.5
9 0 1 0 0 0 1 0 0 0 1 -74.00003 -15.50003 41 0.5 3 0.5
9 0 1 0 0 0 1 0 0 0 1 73.99997 14.99997 50 0.5 2.5 0.5
9 0 1 0 0 0 1 0 0 0 1 73.99997 -15.00003 50 0.5 2.5 0.5
9 0 1 0 0 0 1 0 0 0 1 35.99997 -46.00003 -42 0.5 0.5 2.5
9 0 1 0 0 0 1 0 0 0 1 23.99997 -33.00003 -37 0.5 0.5 2.5
9 0 1 0 0 0 1 0 0 0 1 22.99997 -32.00003 -37 0.5 0.5 2.5
9 0 1 0 0 0 1 0 0 0 1 19.99997 -29.00003 -31 0.5 0.5 2.5
9 0 1 0 0 0 1 0 0 0 1 17.99997 -25.00003 -37 0.5 0.5 2.5
9 0 1 0 0 0 1 0 0 0 1 14.99997 73.99997 50 2.5 0.5 0.5
9 0 1 0 0 0 1 0 0 0 1 14.99997 -74.00003 50 2.5 0.5 0.5
9 0 1 0 0 0 1 0 0 0 1 11.99997 63.99997 -25 2.5 0.5 0.5
9 0 1 0 0 0 1 0 0 0 1 -15.00003 73.99997 50 2.5 0.5 0.5
9 0 1 0 0 0 1 0 0 0 1 -15.00003 -74.00003 50 2.5 0.5 0.5
9 0 1 0 0 0 1 0 0 0 1 -21.00003 -8.000031 -26 0.5 0.5 2.5
9 0 1 0 0 0 1 0 0 0 1 -20.00003 -67.00003 -41 2.5 0.5 0.5
9 0 1 0 0 0 1 0 0 0 1 -37.00003 11.99997 -41 0.5 0.5 2.5
9 0 1 0 0 0 1 0 0 0 1 -37.00003 10.99997 -32 0.5 0.5 2.5
9 0 1 0 0 0 1 0 0 0 1 -40.00003 11.99997 -33 0.5 0.5 2.5
9 0 1 0 0 0 1 0 0 0 1 -56.00003 47.99997 41 2.5 0.5 0.5
9 0 1 0 0 0 1 0 0 0 1 -56.00003 -48.00003 41 2.5 0.5 0.5
9 0 1 0 0 0 1 0 0 0 1 -64.00003 11.99997 -25 0.5 2.5 0.5
9 0 1 0 0 0 1 0 0 0 1 -69.00003 -11.00003 -42 0.5 2.5 0.5
9 0 1 0 0 0 1 0 0 0 1 -74.00003 14.99997 50 0.5 2.5 0.5
9 0 1 0 0 0 1 0 0 0 1 -74.00003 -15.00003 50 0.5 2.5 0.5
9 0 1 0 0 0 1 0 0 0 1 69.99997 19.49997 41 0.5 2 0.5
9 0 1 0 0 0 1 0 0 0 1 69.99997 19.49997 50 0.5 2 0.5
9 0 1 0 0 0 1 0 0 0 1 69.99997 -11.00003 42.5 0.5 0.5 2
9 0 1 0 0 0 1 0 0 0 1 69.99997 -18.00003 42.5 0.5 0.5 2
9 0 1 0 0 0 1 0 0 0 1 69.99997 -19.50003 50 0.5 2 0.5
9 0 1 0 0 0 1 0 0 0 1 69.49997 28.49997 41 1 1 0.5
9 0 1 0 0 0 1 0 0 0 1 69.49997 28.49997 50 1 1 0.5
9 0 1 0 0 0 1 0 0 0 1 68.99997 -16.00003 42.5 0.5 0.5 2
9 0 1 0 0 0 1 0 0 0 1 69.49997 -28.50003 41 1 1 0.5
9 0 1 0 0 0 1 0 0 0 1 69.49997 -28.50003 50 1 1 0.5
9 0 1 0 0 0 1 0 0 0 1 66.49997 34.49997 41 1 1 0.5
9 0 1 0 0 0 1 0 0 0 1 66.49997 34.49997 50 1 1 0.5
9 0 1 0 0 0 1 0 0 0 1 66.49997 -34.50003 41 1 1 0.5
9 0 1 0 0 0 1 0 0 0 1 66.49997 -34.50003 50 1 1 0.5
9 0 1 0 0 0 1 0 0 0 1 64.99997 -31.50003 50 0.5 2 0.5
9 0 1 0 0 0 1 0 0 0 1 64.49997 32.49997 50 1 1 0.5
9 0 1 0 0 0 1 0 0 0 1 62.99997 -34.00003 47.5 0.5 0.5 2
9 0 1 0 0 0 1 0 0 0 1 61.99997 37.49997 50 0.5 2 0.5
9 0 1 0 0 0 1 0 0 0 1 60.49997 -40.50003 41 1 1 0.5
9 0 1 0 0 0 1 0 0 0 1 60.49997 -40.50003 50 1 1 0.5
9 0 1 0 0 0 1 0 0 0 1 48.49997 56.49997 41 1 1 0.5
9 0 1 0 0 0 1 0 0 0 1 45.99997 44.99997 -30.5 0.5 0.5 2
9 0 1 0 0 0 1 0 0 0 1 46.49997 -58.50003 41 1 1 0.5
9 0 1 0 0 0 1 0 0 0 1 40.49997 -47.00003 -36.5 1 0.5 1
9 0 1 0 0 0 1 0 0 0 1 38.99997 -46.00003 -35.5 0.5 0.5 2
9 0 1 0 0 0 1 0 0 0 1 38.99997 -49.00003 -35.5 0.5 0.5 2
9 0 1 0 0 0 1 0 0 0 1 38.49997 -47.00003 -40.5 1 0.5 1
9 0 1 0 0 0 1 0 0 0 1 36.99997 -45.00003 -35.5 0.5 0.5 2
9 0 1 0 0 0 1 0 0 0 1 36.99997 -47.00003 -43.5 0.5 0.5 2
9 0 1 0 0 0 1 0 0 0 1 37.49997 61.99997 50 2 0.5 0.5
9 0 1 0 0 0 1 0 0 0 1 34.99997 -45.00003 -42.5 0.5 0.5 2
9 0 1 0 0 0 1 0 0 0 1 35.49997 65.99997 41 2 0.5 0.5
9 0 1 0 0 0 1 0 0 0 1 35.49997 65.99997 50 2 0.5 0.5
9 0 1 0 0 0 1 0 0 0 1 33.99997 -63.00003 48.5 0.5 0.5 2
9 0 1 0 0 0 1 0 0 0 1 35.49997 -66.00003 41 2 0.5 0.5
9 0 1 0 0 0 1 0 0 0 1 32.99997 62.99997 43.5 0.5 0.5 2
9 0 1 0 0 0 1 0 0 0 1 32.49997 64.49997 50 1 1 0.5
9 0 1 0 0 0 1 0 0 0 1 33.49997 -64.00003 50 2 0.5 0.5
9 0 1 0 0 0 1 0 0 0 1 31.49997 -68.00003 50 2 0.5 0.5
9 0 1 0 0 0 1 0 0 0 1 29.49997 68.99997 41 2 0.5 0.5
9 0 1 0 0 0 1 0 0 0 1 29.49997 68.99997 50 2 0.5 0.5
9 0 1 0 0 0 1 0 0 0 1 29.49997 -69.00003 41 2 0.5 0.5
9 0 1 0 0 0 1 0 0 0 1 26.99997 -37.00003 -38.5 0.5 0.5 2
9 0 1 0 0 0 1 0 0 0 1 24.99997 -33.00003 -32.5 0.5 0.5 2
9 0 1 0 0 0 1 0 0 0 1 18.99997 -28.00003 -29.5 0.5 0.5 2
9 0 1 0 0 0 1 0 0 0 1 20.49997 -62.00003 -25 2 0.5 0.5
9 0 1 0 0 0 1 0 0 0 1 19.49997 69.99997 41 2 0.5 0.5
9 0 1 0 0 0 1 0 0 0 1 19.49997 69.99997 50 2 0.5 0.5
9 0 1 0 0 0 1 0 0 0 1 19.49997 -70.00003 41 2 0.5 0.5
9 0 1 0 0 0 1 0 0 0 1 17.99997 -70.00003 48.5 0.5 0.5 2
9 0 1 0 0 0 1 0 0 0 1 15.99997 68.99997 42.5 0.5 0.5 2
9 0 1 0 0 0 1 0 0 0 1 17.49997 62.99997 -25 2 0.5 0.5
9 0 1 0 0 0 1 0 0 0 1 15.99997 -24.00003 -26.5 0.5 0.5 2
9 0 1 0 0 0 1 0 0 0 1 10.99997 69.99997 42.5 0.5 0.5 2
9 0 1 0 0 0 1 0 0 0 1 -6.500031 10.99997 -39 2 0.5 0.5
9 0 1 0 0 0 1 0 0 0 1 -6.500031 -11.00003 -39 2 0.5 0.5
9 0 1 0 0 0 1 0 0 0 1 -11.00003 -70.00003 42.5 0.5 0.5 2
9 0 1 0 0 0 1 0 0 0 1 -16.00003 -69.00003 42.5 0.5 0.5 2
9 0 1 0 0 0 1 0 0 0 1 -18.00003 69.99997 48.5 0.5 0.5 2
9 0 1 0 0 0 1 0 0 0 1 -18.00003 -70.00003 42.5 0.5 0.5 2
9 0 1 0 0 0 1 0 0 0 1 -17.50003 -63.00003 -25 2 0.5 0.5
9 0 1 0 0 0 1 0 0 0 1 -19.50003 69.99997 41 2 0.5 0.5
9 0 1 0 0 0 1 0 0 0 1 -19.50003 -70.00003 50 2 0.5 0.5
9 0 1 0 0 0 1 0 0 0 1 -23.00003 -8.000031 -33.5 0.5 0.5 2
9 0 1 0 0 0 1 0 0 0 1 -25.50003 -67.00003 -44.5 1 0.5 1
9 0 1 0 0 0 1 0 0 0 1 -28.50003 69.49997 41 1 1 0.5
9 0 1 0 0 0 1 0 0 0 1 -28.50003 69.49997 50 1 1 0.5
9 0 1 0 0 0 1 0 0 0 1 -28.50003 -69.50003 41 1 1 0.5
9 0 1 0 0 0 1 0 0 0 1 -28.50003 -69.50003 50 1 1 0.5
9 0 1 0 0 0 1 0 0 0 1 -29.50003 -65.00003 -43.5 1 0.5 1
9 0 1 0 0 0 1 0 0 0 1 -30.50003 -63.00003 -41 2 0.5 0.5
9 0 1 0 0 0 1 0 0 0 1 -32.50003 64.49997 50 1 1 0.5
9 0 1 0 0 0 1 0 0 0 1 -31.50003 -65.00003 50 2 0.5 0.5
9 0 1 0 0 0 1 0 0 0 1 -33.50003 11.49997 -29 1 1 0.5
9 0 1 0 0 0 1 0 0 0 1 -34.00003 -63.00003 47.5 0.5 0.5 2
9 0 1 0 0 0 1 0 0 0 1 -34.50003 66.49997 41 1 1 0.5
9 0 1 0 0 0 1 0 0 0 1 -34.50003 66.49997 50 1 1 0.5
9 0 1 0 0 0 1 0 0 0 1 -34.50003 -66.50003 41 1 1 0.5
9 0 1 0 0 0 1 0 0 0 1 -34.50003 -66.50003 50 1 1 0.5
9 0 1 0 0 0 1 0 0 0 1 -37.00003 12.99997 -32.5 0.5 0.5 2
9 0 1 0 0 0 1 0 0 0 1 -40.50003 60.49997 41 1 1 0.5
9 0 1 0 0 0 1 0 0 0 1 -40.50003 60.49997 50 1 1 0.5
9 0 1 0 0 0 1 0 0 0 1 -40.50003 -60.50003 50 1 1 0.5
9 0 1 0 0 0 1 0 0 0 1 -44.00003 13.99997 -42.5 0.5 0.5 2
9 0 1 0 0 0 1 0 0 0 1 -44.50003 12.99997 -33.5 1 0.5 1
9 0 1 0 0 0 1 0 0 0 1 -45.50003 -55.00003 -41.5 1 0.5 1
9 0 1 0 0 0 1 0 0 0 1 -46.50003 58.49997 41 1 1 0.5
9 0 1 0 0 0 1 0 0 0 1 -46.50003 -58.50003 41 1 1 0.5
9 0 1 0 0 0 1 0 0 0 1 -50.50003 -51.50003 -41 1 1 0.5
9 0 1 0 0 0 1 0 0 0 1 -53.50003 52.49997 41 1 1 0.5
9 0 1 0 0 0 1 0 0 0 1 -53.50003 52.49997 50 1 1 0.5
9 0 1 0 0 0 1 0 0 0 1 -53.50003 -52.50003 41 1 1 0.5
9 0 1 0 0 0 1 0 0 0 1 -53.50003 -52.50003 50 1 1 0.5
9 0 1 0 0 0 1 0 0 0 1 -53.50003 14.99997 -41 2 0.5 0.5
9 0 1 0 0 0 1 0 0 0 1 -54.50003 -46.00003 -41.5 1 0.5 1
9 0 1 0 0 0 1 0 0 0 1 -55.50003 -45.00003 -41.5 1 0.5 1
9 0 1 0 0 0 1 0 0 0 1 -60.00003 -38.50003 -41.5 0.5 1 1
9 0 1 0 0 0 1 0 0 0 1 -60.50003 44.49997 41 1 1 0.5
9 0 1 0 0 0 1 0 0 0 1 -60.50003 -44.50003 41 1 1 0.5
9 0 1 0 0 0 1 0 0 0 1 -63.00003 32.99997 43.5 0.5 0.5 2
9 0 1 0 0 0 1 0 0 0 1 -63.00003 17.49997 -25 0.5 2 0.5
9 0 1 0 0 0 1 0 0 0 1 -62.50003 12.99997 -34.5 1 0.5 1
9 0 1 0 0 0 1 0 0 0 1 -63.00003 13.49997 -33 0.5 2 0.5
9 0 1 0 0 0 1 0 0 0 1 -62.50003 -13.00003 -34.5 1 0.5 1
9 0 1 0 0 0 1 0 0 0 1 -64.00003 -11.50003 -25 0.5 2 0.5
9 0 1 0 0 0 1 0 0 0 1 -64.50003 32.49997 50 1 1 0.5
9 0 1 0 0 0 1 0 0 0 1 -65.00003 13.49997 -37 0.5 2 0.5
9 0 1 0 0 0 1 0 0 0 1 -65.00003 -37.50003 50 0.5 2 0.5
9 0 1 0 0 0 1 0 0 0 1 -66.00003 35.49997 41 0.5 2 0.5
9 0 1 0 0 0 1 0 0 0 1 -66.00003 35.49997 50 0.5 2 0.5
9 0 1 0 0 0 1 0 0 0 1 -66.00003 -35.50003 -41 0.5 2 0.5
9 0 1 0 0 0 1 0 0 0 1 -66.00003 -35.50003 41 0.5 2 0.5
9 0 1 0 0 0 1 0 0 0 1 -67.50003 -13.00003 -41.5 1 0.5 1
9 0 1 0 0 0 1 0 0 0 1 -68.00003 -31.50003 50 0.5 2 0.5
9 0 1 0 0 0 1 0 0 0 1 -69.00003 15.99997 42.5 0.5 0.5 2
9 0 1 0 0 0 1 0 0 0 1 -70.00003 17.99997 42.5 0.5 0.5 2
9 0 1 0 0 0 1 0 0 0 1 -70.00003 10.99997 42.5 0.5 0.5 2
9 0 1 0 0 0 1 0 0 0 1 -70.00003 -18.00003 48.5 0.5 0.5 2
9 0 1 0 0 0 1 0 0 0 1 -71.00003 -25.50003 50 0.5 2 0.5
9 0 1 0 0 0 1 0 0 0 1 71.99997 22.99997 41 0.5 1.5 0.5
9 0 1 0 0 0 1 0 0 0 1 71.99997 22.99997 50 0.5 1.5 0.5
9 0 1 0 0 0 1 0 0 0 1 71.99997 -23.00003 41 0.5 1.5 0.5
9 0 1 0 0 0 1 0 0 0 1 71.99997 -23.00003 50 0.5 1.5 0.5
9 0 1 0 0 0 1 0 0 0 1 69.99997 17.99997 48 0.5 0.5 1.5
9 0 1 0 0 0 1 0 0 0 1 69.99997 -20.00003 41 0.5 1.5 0.5
9 0 1 0 0 0 1 0 0 0 1 67.99997 24.99997 41 0.5 1.5 0.5
9 0 1 0 0 0 1 0 0 0 1 67.99997 24.99997 50 0.5 1.5 0.5
9 0 1 0 0 0 1 0 0 0 1 67.99997 -25.00003 41 0.5 1.5 0.5
9 0 1 0 0 0 1 0 0 0 1 67.99997 -25.00003 50 0.5 1.5 0.5
9 0 1 0 0 0 1 0 0 0 1 63.99997 -32.00003 49 0.5 0.5 1.5
9 0 1 0 0 0 1 0 0 0 1 62.99997 33.99997 48 0.5 0.5 1.5
9 0 1 0 0 0 1 0 0 0 1 62.99997 -41.00003 50 0.5 1.5 0.5
9 0 1 0 0 0 1 0 0 0 1 61.99997 37.99997 41 0.5 1.5 0.5
9 0 1 0 0 0 1 0 0 0 1 61.99997 -38.00003 41 0.5 1.5 0.5
9 0 1 0 0 0 1 0 0 0 1 45.99997 -45.00003 -30 0.5 0.5 1.5
9 0 1 0 0 0 1 0 0 0 1 43.99997 -49.00003 -37 0.5 0.5 1.5
9 0 1 0 0 0 1 0 0 0 1 43.99997 60.99997 50 1.5 0.5 0.5
9 0 1 0 0 0 1 0 0 0 1 43.99997 -61.00003 50 1.5 0.5 0.5
9 0 1 0 0 0 1 0 0 0 1 40.99997 -60.00003 50 1.5 0.5 0.5
9 0 1 0 0 0 1 0 0 0 1 39.99997 -60.00003 41 0.5 1.5 0.5
9 0 1 0 0 0 1 0 0 0 1 40.99997 -63.00003 41 1.5 0.5 0.5
9 0 1 0 0 0 1 0 0 0 1 37.99997 61.99997 41 1.5 0.5 0.5
9 0 1 0 0 0 1 0 0 0 1 35.99997 -44.00003 -35 0.5 0.5 1.5
9 0 1 0 0 0 1 0 0 0 1 33.99997 -44.00003 -41 0.5 0.5 1.5
9 0 1 0 0 0 1 0 0 0 1 32.99997 -42.00003 -35 0.5 0.5 1.5
9 0 1 0 0 0 1 0 0 0 1 32.99997 -43.00003 -40 0.5 0.5 1.5
9 0 1 0 0 0 1 0 0 0 1 31.99997 -41.00003 -34 0.5 0.5 1.5
9 0 1 0 0 0 1 0 0 0 1 30.99997 -40.00003 -34 0.5 0.5 1.5
9 0 1 0 0 0 1 0 0 0 1 29.99997 -39.00003 -34 0.5 0.5 1.5
9 0 1 0 0 0 1 0 0 0 1 28.99997 -38.00003 -34 0.5 0.5 1.5
9 0 1 0 0 0 1 0 0 0 1 27.99997 -59.00003 -25 1.5 0.5 0.5
9 0 1 0 0 0 1 0 0 0 1 25.99997 -35.00003 -37 0.5 0.5 1.5
9 0 1 0 0 0 1 0 0 0 1 25.99997 59.99997 -25 1.5 0.5 0.5
9 0 1 0 0 0 1 0 0 0 1 24.99997 67.99997 41 1.5 0.5 0.5
9 0 1 0 0 0 1 0 0 0 1 24.99997 67.99997 50 1.5 0.5 0.5
9 0 1 0 0 0 1 0 0 0 1 23.99997 -34.00003 -33 0.5 0.5 1.5
9 0 1 0 0 0 1 0 0 0 1 24.99997 -68.00003 41 1.5 0.5 0.5
9 0 1 0 0 0 1 0 0 0 1 22.99997 -30.00003 -31 0.5 0.5 1.5
9 0 1 0 0 0 1 0 0 0 1 22.99997 71.99997 41 1.5 0.5 0.5
9 0 1 0 0 0 1 0 0 0 1 22.99997 71.99997 50 1.5 0.5 0.5
9 0 1 0 0 0 1 0 0 0 1 22.99997 60.99997 -25 1.5 0.5 0.5
9 0 1 0 0 0 1 0 0 0 1 22.99997 -61.00003 -25 1.5 0.5 0.5
9 0 1 0 0 0 1 0 0 0 1 22.99997 -72.00003 41 1.5 0.5 0.5
9 0 1 0 0 0 1 0 0 0 1 22.99997 -72.00003 50 1.5 0.5 0.5
9 0 1 0 0 0 1 0 0 0 1 20.99997 -27.00003 -29 0.5 0.5 1.5
9 0 1 0 0 0 1 0 0 0 1 19.99997 61.99997 -25 1.5 0.5 0.5
9 0 1 0 0 0 1 0 0 0 1 18.99997 -24.00003 -27 0.5 0.5 1.5
9 0 1 0 0 0 1 0 0 0 1 17.99997 69.99997 43 0.5 0.5 1.5
9 0 1 0 0 0 1 0 0 0 1 -1.000031 63.99997 -32 0.5 0.5 1.5
9 0 1 0 0 0 1 0 0 0 1 -1.000031 -64.00003 -32 0.5 0.5 1.5
9 0 1 0 0 0 1 0 0 0 1 -14.00003 -68.00003 -41 1.5 0.5 0.5
9 0 1 0 0 0 1 0 0 0 1 -20.00003 69.99997 50 1.5 0.5 0.5
9 0 1 0 0 0 1 0 0 0 1 -20.00003 -62.00003 -25 1.5 0.5 0.5
9 0 1 0 0 0 1 0 0 0 1 -20.00003 -68.00003 -43 1.5 0.5 0.5
9 0 1 0 0 0 1 0 0 0 1 -20.00003 -70.00003 41 1.5 0.5 0.5
9 0 1 0 0 0 1 0 0 0 1 -23.00003 8.999969 -25 0.5 0.5 1.5
9 0 1 0 0 0 1 0 0 0 1 -23.00003 -9.000031 -25 0.5 0.5 1.5
9 0 1 0 0 0 1 0 0 0 1 -23.00003 71.99997 41 1.5 0.5 0.5
9 0 1 0 0 0 1 0 0 0 1 -23.00003 71.99997 50 1.5 0.5 0.5
9 0 1 0 0 0 1 0 0 0 1 -23.00003 -61.00003 -25 1.5 0.5 0.5
9 0 1 0 0 0 1 0 0 0 1 -23.00003 -72.00003 41 1.5 0.5 0.5
9 0 1 0 0 0 1 0 0 0 1 -23.00003 -72.00003 50 1.5 0.5 0.5
9 0 1 0 0 0 1 0 0 0 1 -24.00003 -66.00003 -42 1.5 0.5 0.5
9 0 1 0 0 0 1 0 0 0 1 -25.00003 67.99997 41 1.5 0.5 0.5
9 0 1 0 0 0 1 0 0 0 1 -25.00003 67.99997 50 1.5 0.5 0.5
9 0 1 0 0 0 1 0 0 0 1 -25.00003 -68.00003 41 1.5 0.5 0.5
9 0 1 0 0 0 1 0 0 0 1 -25.00003 -68.00003 50 1.5 0.5 0.5
9 0 1 0 0 0 1 0 0 0 1 -26.00003 -60.00003 -25 1.5 0.5 0.5
9 0 1 0 0 0 1 0 0 0 1 -28.00003 -64.00003 -41 1.5 0.5 0.5
9 0 1 0 0 0 1 0 0 0 1 -31.00003 10.99997 -33 0.5 0.5 1.5
9 0 1 0 0 0 1 0 0 0 1 -32.00003 -64.00003 49 0.5 0.5 1.5
9 0 1 0 0 0 1 0 0 0 1 -34.00003 62.99997 48 0.5 0.5 1.5
9 0 1 0 0 0 1 0 0 0 1 -34.00003 10.99997 -42 0.5 0.5 1.5
9 0 1 0 0 0 1 0 0 0 1 -35.00003 11.99997 -35 0.5 0.5 1.5
9 0 1 0 0 0 1 0 0 0 1 -38.00003 -62.00003 41 1.5 0.5 0.5
9 0 1 0 0 0 1 0 0 0 1 -41.00003 62.99997 41 1.5 0.5 0.5
9 0 1 0 0 0 1 0 0 0 1 -41.00003 62.99997 50 1.5 0.5 0.5
9 0 1 0 0 0 1 0 0 0 1 -42.00003 13.99997 -35 0.5 0.5 1.5
9 0 1 0 0 0 1 0 0 0 1 -41.00003 -63.00003 50 1.5 0.5 0.5
9 0 1 0 0 0 1 0 0 0 1 -45.00003 -46.00003 -26 0.5 0.5 1.5
9 0 1 0 0 0 1 0 0 0 1 -46.00003 45.99997 -25 0.5 1.5 0.5
9 0 1 0 0 0 1 0 0 0 1 -46.00003 -45.00003 -29 0.5 0.5 1.5
9 0 1 0 0 0 1 0 0 0 1 -49.00003 -52.00003 -42 0.5 0.5 1.5
9 0 1 0 0 0 1 0 0 0 1 -53.00003 -48.00003 -42 0.5 0.5 1.5
9 0 1 0 0 0 1 0 0 0 1 -59.00003 -28.00003 -25 0.5 1.5 0.5
9 0 1 0 0 0 1 0 0 0 1 -60.00003 25.99997 -25 0.5 1.5 0.5
9 0 1 0 0 0 1 0 0 0 1 -61.00003 43.99997 50 0.5 1.5 0.5
9 0 1 0 0 0 1 0 0 0 1 -61.00003 22.99997 -25 0.5 1.5 0.5
9 0 1 0 0 0 1 0 0 0 1 -60.00003 14.99997 -41 1.5 0.5 0.5
9 0 1 0 0 0 1 0 0 0 1 -61.00003 -23.00003 -25 0.5 1.5 0.5
9 0 1 0 0 0 1 0 0 0 1 -61.00003 -44.00003 -41 0.5 1.5 0.5
9 0 1 0 0 0 1 0 0 0 1 -61.00003 -44.00003 50 0.5 1.5 0.5
9 0 1 0 0 0 1 0 0 0 1 -62.00003 36.99997 50 0.5 1.5 0.5
9 0 1 0 0 0 1 0 0 0 1 -62.00003 19.99997 -25 0.5 1.5 0.5
9 0 1 0 0 0 1 0 0 0 1 -62.00003 -36.00003 -43 0.5 0.5 1.5
9 0 1 0 0 0 1 0 0 0 1 -62.00003 -37.00003 50 0.5 1.5 0.5
9 0 1 0 0 0 1 0 0 0 1 -63.00003 40.99997 41 0.5 1.5 0.5
9 0 1 0 0 0 1 0 0 0 1 -63.00003 40.99997 50 0.5 1.5 0.5
9 0 1 0 0 0 1 0 0 0 1 -63.00003 -34.00003 48 0.5 0.5 1.5
9 0 1 0 0 0 1 0 0 0 1 -63.00003 -41.00003 41 0.5 1.5 0.5
9 0 1 0 0 0 1 0 0 0 1 -64.00003 17.99997 -38 0.5 0.5 1.5
9 0 1 0 0 0 1 0 0 0 1 -64.00003 12.99997 -35 0.5 1.5 0.5
9 0 1 0 0 0 1 0 0 0 1 -64.00003 -32.00003 -43 0.5 0.5 1.5
9 0 1 0 0 0 1 0 0 0 1 -65.00003 14.99997 -44 1.5 0.5 0.5
9 0 1 0 0 0 1 0 0 0 1 -66.00003 -13.00003 -39 0.5 0.5 1.5
9 0 1 0 0 0 1 0 0 0 1 -68.00003 24.99997 41 0.5 1.5 0.5
9 0 1 0 0 0 1 0 0 0 1 -68.00003 24.99997 50 0.5 1.5 0.5
9 0 1 0 0 0 1 0 0 0 1 -68.00003 -25.00003 41 0.5 1.5 0.5
9 0 1 0 0 0 1 0 0 0 1 -70.00003 18.99997 50 0.5 1.5 0.5
9 0 1 0 0 0 1 0 0 0 1 -70.00003 -19.00003 41 0.5 1.5 0.5
9 0 1 0 0 0 1 0 0 0 1 -70.00003 -20.00003 50 0.5 1.5 0.5
9 0 1 0 0 0 1 0 0 0 1 -72.00003 22.99997 41 0.5 1.5 0.5
9 0 1 0 0 0 1 0 0 0 1 -72.00003 22.99997 50 0.5 1.5 0.5
9 0 1 0 0 0 1 0 0 0 1 -72.00003 -23.00003 41 0.5 1.5 0.5
