9 0 1 0 0 0 1 0 0 0 1 0 -10 11.5 0.5 12.5 67
9 0 1 0 0 0 1 0 0 0 1 0 -33.5 35.5 0.5 11 33
9 0 1 0 0 0 1 0 0 0 1 4.5 2 0 4 0.5 78.5
9 0 1 0 0 0 1 0 0 0 1 -4.5 2 0 4 0.5 78.5
9 0 1 0 0 0 1 0 0 0 1 8 4.5 0 0.5 2 78.5
9 0 1 0 0 0 1 0 0 0 1 -8 4.5 0 0.5 2 78.5
9 0 1 0 0 0 1 0 0 0 1 0 -3.5 -62 0.5 6 6.5
9 0 1 0 0 0 1 0 0 0 1 0 -28 -3 0.5 5.5 5.5
9 0 1 0 0 0 1 0 0 0 1 0 -45.5 33.5 0.5 1 29
9 0 1 0 0 0 1 0 0 0 1 0 -29.5 72.5 0.5 7 4
9 0 1 0 0 0 1 0 0 0 1 0 4.5 -78 7.5 2 0.5
9 0 1 0 0 0 1 0 0 0 1 0 4.5 78 7.5 2 0.5
9 0 1 0 0 0 1 0 0 0 1 0 -12.5 -59 0.5 3 3.5
9 0 1 0 0 0 1 0 0 0 1 0 -0.5 -71.5 0.5 3 3
9 0 1 0 0 0 1 0 0 0 1 0 -25 -11.5 0.5 2.5 3
9 0 1 0 0 0 1 0 0 0 1 0 -36 -0.5 0.5 2.5 3
9 0 1 0 0 0 1 0 0 0 1 0 -38.5 71 0.5 2 2.5
9 0 1 0 0 0 1 0 0 0 1 0 -26.5 77.5 0.5 4 1
9 0 1 0 0 0 1 0 0 0 1 0 -17 -57.5 0.5 1.5 2
9 0 1 0 0 0 1 0 0 0 1 0 1 -76 0.5 1.5 1.5
9 0 1 0 0 0 1 0 0 0 1 0 -5 -70 0.5 1.5 1.5
9 0 1 0 0 0 1 0 0 0 1 0 -11 -64 0.5 1.5 1.5
9 0 1 0 0 0 1 0 0 0 1 0 -29 -10 0.5 1.5 1.5
9 0 1 0 0 0 1 0 0 0 1 0 -40 1 0.5 1.5 1.5
9 0 1 0 0 0 1 0 0 0 1 0 6 -60 1.5 0.5 1.5
9 0 1 0 0 0 1 0 0 0 1 0 6 -40 1.5 0.5 1.5
9 0 1 0 0 0 1 0 0 0 1 0 6 -20 1.5 0.5 1.5
9 0 1 0 0 0 1 0 0 0 1 0 6 0 1.5 0.5 1.5
9 0 1 0 0 0 1 0 0 0 1 0 6 20 1.5 0.5 1.5
9 0 1 0 0 0 1 0 0 0 1 0 6 40 1.5 0.5 1.5
9 0 1 0 0 0 1 0 0 0 1 0 6 60 1.5 0.5 1.5
9 0 1 0 0 0 1 0 0 0 1 0 -23.5 -16 0.5 1 1.5
9 0 1 0 0 0 1 0 0 0 1 0 -34.5 -5 0.5 1 1.5
9 0 1 0 0 0 1 0 0 0 1 0 -41.5 70 0.5 1 1.5
9 0 1 0 0 0 1 0 0 0 1 0 -19.5 -56.5 0.5 1 1
9 0 1 0 0 0 1 0 0 0 1 0 -32.5 77 0.5 2 0.5
9 0 1 0 0 0 1 0 0 0 1 0 -45 64.5 0.5 0.5 2
9 0 1 0 0 0 1 0 0 0 1 0 -38 74 0.5 1.5 0.5
