9 0 1 0 0 0 1 0 0 0 1 0 -13.92 9.358 5.5 3 1.5
9 0 1 0 0 0 1 0 0 0 1 0 -21.92 0.3579998 5.5 1 4.5
9 0 1 0 0 0 1 0 0 0 1 -1.5 -13.92 -8.642 4 4 1.5
9 0 1 0 0 0 1 0 0 0 1 -9 -13.92 -0.1420002 1.5 4 4
9 0 1 0 0 0 1 0 0 0 1 9 -14.42 -0.1420002 1.5 2.5 5
9 0 1 0 0 0 1 0 0 0 1 -15.5 -14.92 0.3579998 5 5 0.5
9 0 1 0 0 0 1 0 0 0 1 12.5 -12.92 -0.1420002 2 2 2
9 0 1 0 0 0 1 0 0 0 1 4 -14.92 -8.642 1.5 3 1.5
9 0 1 0 0 0 1 0 0 0 1 -6.5 -13.92 -6.642 1 4 1.5
9 0 1 0 0 0 1 0 0 0 1 -7.5 -13.92 5.358 1 4 1.5
9 0 1 0 0 0 1 0 0 0 1 0 -14.42 -10.642 4.5 2.5 0.5
9 0 1 0 0 0 1 0 0 0 1 6.5 -14.42 -7.142 1 2.5 2
9 0 1 0 0 0 1 0 0 0 1 5 -13.92 7.358 2.5 4 0.5
9 0 1 0 0 0 1 0 0 0 1 -4.5 -13.92 7.358 2 5 0.5
9 0 1 0 0 0 1 0 0 0 1 9 -10.92 -1.142 1.5 1 3
9 0 1 0 0 0 1 0 0 0 1 8 -13.92 5.858 1.5 3 1
9 0 1 0 0 0 1 0 0 0 1 0 -9.92 8.858 4.5 1 1
9 0 1 0 0 0 1 0 0 0 1 8.5 -17.92 -0.1420002 1 1 4
9 0 1 0 0 0 1 0 0 0 1 -0.5 -17.92 8.858 4 1 1
9 0 1 0 0 0 1 0 0 0 1 0 -13.92 11.358 2.5 3 0.5
9 0 1 0 0 0 1 0 0 0 1 0 -18.92 -8.142 3.5 1 1
9 0 1 0 0 0 1 0 0 0 1 0 -21.92 -5.142 3.5 1 1
9 0 1 0 0 0 1 0 0 0 1 -20 -15.42 -0.6420002 1.5 4.5 0.5
9 0 1 0 0 0 1 0 0 0 1 15.5 -13.42 -0.1420002 1 1.5 2
9 0 1 0 0 0 1 0 0 0 1 0.5 -9.42 -8.642 4 0.5 1.5
9 0 1 0 0 0 1 0 0 0 1 -0.5 -21.92 5.858 3 1 1
9 0 1 0 0 0 1 0 0 0 1 -8.5 -13.92 -5.642 1 2 1.5
9 0 1 0 0 0 1 0 0 0 1 0 -13.42 -11.642 3.5 1.5 0.5
9 0 1 0 0 0 1 0 0 0 1 -8.5 -18.92 0.3579998 1 1 2.5
9 0 1 0 0 0 1 0 0 0 1 -9.5 -14.42 4.858 1 2.5 1
9 0 1 0 0 0 1 0 0 0 1 8.5 -9.42 0.3579998 1 0.5 4.5
9 0 1 0 0 0 1 0 0 0 1 4 -10.92 -8.642 1.5 1 1.5
9 0 1 0 0 0 1 0 0 0 1 -8.5 -9.42 0.3579998 1 0.5 4.5
9 0 1 0 0 0 1 0 0 0 1 -11 -13.92 -1.642 0.5 3 1.5
9 0 1 0 0 0 1 0 0 0 1 -20.5 -15.42 1.358 1 4.5 0.5
9 0 1 0 0 0 1 0 0 0 1 8.5 -13.92 -6.142 1 2 1
9 0 1 0 0 0 1 0 0 0 1 6 -21.92 0.3579998 0.5 1 3.5
9 0 1 0 0 0 1 0 0 0 1 -6.5 -21.42 0.3579998 1 0.5 3.5
9 0 1 0 0 0 1 0 0 0 1 12.5 -13.42 2.358 2 1.5 0.5
9 0 1 0 0 0 1 0 0 0 1 13.5 -15.42 -0.1420002 3 0.5 1
9 0 1 0 0 0 1 0 0 0 1 9 -10.92 2.858 1.5 1 1
9 0 1 0 0 0 1 0 0 0 1 8 -10.92 -5.142 1.5 1 1
9 0 1 0 0 0 1 0 0 0 1 6.5 -13.92 8.358 1 3 0.5
9 0 1 0 0 0 1 0 0 0 1 -6 -13.92 8.858 0.5 3 1
9 0 1 0 0 0 1 0 0 0 1 -7 -13.92 7.858 0.5 3 1
9 0 1 0 0 0 1 0 0 0 1 -7 -14.92 -4.642 0.5 6 0.5
9 0 1 0 0 0 1 0 0 0 1 -11 -13.92 1.858 0.5 3 1
9 0 1 0 0 0 1 0 0 0 1 7 -15.42 4.358 0.5 5.5 0.5
9 0 1 0 0 0 1 0 0 0 1 6 -14.42 6.358 0.5 5.5 0.5
9 0 1 0 0 0 1 0 0 0 1 5 -14.42 -6.642 0.5 5.5 0.5
9 0 1 0 0 0 1 0 0 0 1 -5 -14.42 -6.642 0.5 5.5 0.5
9 0 1 0 0 0 1 0 0 0 1 0 -10.92 -10.642 2.5 1 0.5
9 0 1 0 0 0 1 0 0 0 1 -5.5 -11.42 6.358 1 2.5 0.5
9 0 1 0 0 0 1 0 0 0 1 -6 -14.42 -9.142 0.5 2.5 1
9 0 1 0 0 0 1 0 0 0 1 -21 -15.92 0.3579998 0.5 5 0.5
9 0 1 0 0 0 1 0 0 0 1 12 -10.42 0.3579998 1.5 0.5 1.5
9 0 1 0 0 0 1 0 0 0 1 12 -13.42 -2.642 1.5 1.5 0.5
9 0 1 0 0 0 1 0 0 0 1 0 -19.42 8.358 4.5 0.5 0.5
9 0 1 0 0 0 1 0 0 0 1 -14 -9.42 0.3579998 4.5 0.5 0.5
9 0 1 0 0 0 1 0 0 0 1 8.5 -19.42 -0.1420002 1 0.5 2
9 0 1 0 0 0 1 0 0 0 1 7 -15.92 -4.642 0.5 4 0.5
9 0 1 0 0 0 1 0 0 0 1 6.5 -10.92 -7.142 1 1 1
9 0 1 0 0 0 1 0 0 0 1 0.5 -8.42 -8.142 2 0.5 1
9 0 1 0 0 0 1 0 0 0 1 -8.5 -16.92 -5.142 1 1 1
9 0 1 0 0 0 1 0 0 0 1 -10 -13.92 -5.142 0.5 2 1
9 0 1 0 0 0 1 0 0 0 1 -17.5 -20.92 0.3579998 2 1 0.5
9 0 1 0 0 0 1 0 0 0 1 8 -8.42 0.3579998 0.5 0.5 3.5
9 0 1 0 0 0 1 0 0 0 1 0 -18.42 -9.642 3.5 0.5 0.5
9 0 1 0 0 0 1 0 0 0 1 0 -20.42 -7.642 3.5 0.5 0.5
9 0 1 0 0 0 1 0 0 0 1 0 -21.42 -6.642 3.5 0.5 0.5
9 0 1 0 0 0 1 0 0 0 1 -8 -8.42 0.3579998 0.5 0.5 3.5
9 0 1 0 0 0 1 0 0 0 1 11 -13.42 3.858 0.5 1.5 1
9 0 1 0 0 0 1 0 0 0 1 10 -17.42 -0.1420002 0.5 0.5 3
9 0 1 0 0 0 1 0 0 0 1 8 -13.92 7.358 0.5 3 0.5
9 0 1 0 0 0 1 0 0 0 1 7 -21.42 -0.1420002 0.5 0.5 3
9 0 1 0 0 0 1 0 0 0 1 7 -9.92 5.358 1.5 1 0.5
9 0 1 0 0 0 1 0 0 0 1 7 -17.92 -5.642 1.5 1 0.5
9 0 1 0 0 0 1 0 0 0 1 7 -17.92 5.358 1.5 1 0.5
9 0 1 0 0 0 1 0 0 0 1 4 -18.92 7.358 1.5 1 0.5
9 0 1 0 0 0 1 0 0 0 1 0 -9.92 10.358 1.5 1 0.5
9 0 1 0 0 0 1 0 0 0 1 0 -15.92 -11.642 1.5 1 0.5
9 0 1 0 0 0 1 0 0 0 1 -6 -16.42 5.858 0.5 1.5 1
9 0 1 0 0 0 1 0 0 0 1 -6 -22.42 -0.1420002 0.5 0.5 3
9 0 1 0 0 0 1 0 0 0 1 -8 -10.42 -5.142 0.5 1.5 1
9 0 1 0 0 0 1 0 0 0 1 -8 -20.42 -0.1420002 0.5 0.5 3
9 0 1 0 0 0 1 0 0 0 1 -12 -11.92 -0.6420002 0.5 3 0.5
9 0 1 0 0 0 1 0 0 0 1 11 -16.42 0.3579998 0.5 0.5 2.5
9 0 1 0 0 0 1 0 0 0 1 10 -13.42 5.358 0.5 2.5 0.5
9 0 1 0 0 0 1 0 0 0 1 0 -8.42 8.358 2.5 0.5 0.5
9 0 1 0 0 0 1 0 0 0 1 0 -13.42 12.358 2.5 0.5 0.5
9 0 1 0 0 0 1 0 0 0 1 0 -17.42 10.358 2.5 0.5 0.5
9 0 1 0 0 0 1 0 0 0 1 -7 -14.42 -8.642 0.5 2.5 0.5
9 0 1 0 0 0 1 0 0 0 1 -8 -14.42 -7.642 0.5 2.5 0.5
9 0 1 0 0 0 1 0 0 0 1 -8 -14.42 7.358 0.5 2.5 0.5
9 0 1 0 0 0 1 0 0 0 1 -9 -14.42 6.358 0.5 2.5 0.5
9 0 1 0 0 0 1 0 0 0 1 15.5 -11.42 -0.1420002 1 0.5 1
9 0 1 0 0 0 1 0 0 0 1 11 -13.92 -4.142 0.5 1 1
9 0 1 0 0 0 1 0 0 0 1 10 -13.92 -5.642 0.5 2 0.5
9 0 1 0 0 0 1 0 0 0 1 8.5 -10.92 4.358 1 1 0.5
9 0 1 0 0 0 1 0 0 0 1 8 -13.92 -7.642 0.5 2 0.5
9 0 1 0 0 0 1 0 0 0 1 8 -20.42 -0.1420002 0.5 0.5 2
9 0 1 0 0 0 1 0 0 0 1 7.5 -9.42 -5.142 1 0.5 1
9 0 1 0 0 0 1 0 0 0 1 7 -9.92 -3.642 0.5 2 0.5
9 0 1 0 0 0 1 0 0 0 1 6 -9.92 -5.642 0.5 2 0.5
9 0 1 0 0 0 1 0 0 0 1 6 -13.92 -9.642 0.5 2 0.5
9 0 1 0 0 0 1 0 0 0 1 6 -14.92 9.358 0.5 2 0.5
9 0 1 0 0 0 1 0 0 0 1 6 -17.92 -7.142 0.5 1 1
9 0 1 0 0 0 1 0 0 0 1 5 -9.92 6.358 0.5 2 0.5
9 0 1 0 0 0 1 0 0 0 1 4.5 -17.42 8.858 1 0.5 1
9 0 1 0 0 0 1 0 0 0 1 4.5 -18.42 -8.142 1 0.5 1
9 0 1 0 0 0 1 0 0 0 1 4.5 -9.42 7.358 2 0.5 0.5
9 0 1 0 0 0 1 0 0 0 1 3.5 -13.92 11.358 1 1 0.5
9 0 1 0 0 0 1 0 0 0 1 3.5 -21.92 5.358 1 1 0.5
9 0 1 0 0 0 1 0 0 0 1 0.5 -21.42 7.358 2 0.5 0.5
9 0 1 0 0 0 1 0 0 0 1 -3 -13.92 11.358 0.5 2 0.5
9 0 1 0 0 0 1 0 0 0 1 -3.5 -19.92 7.358 1 1 0.5
9 0 1 0 0 0 1 0 0 0 1 -4.5 -9.42 -8.142 1 0.5 1
9 0 1 0 0 0 1 0 0 0 1 -5 -13.92 -10.642 0.5 2 0.5
9 0 1 0 0 0 1 0 0 0 1 -4.5 -18.42 -8.142 1 0.5 1
9 0 1 0 0 0 1 0 0 0 1 -5 -18.92 6.358 0.5 2 0.5
9 0 1 0 0 0 1 0 0 0 1 -6 -9.92 5.358 0.5 2 0.5
9 0 1 0 0 0 1 0 0 0 1 -6.5 -9.42 -6.142 1 0.5 1
9 0 1 0 0 0 1 0 0 0 1 -6.5 -18.42 -6.142 1 0.5 1
9 0 1 0 0 0 1 0 0 0 1 -7 -18.92 4.858 0.5 1 1
9 0 1 0 0 0 1 0 0 0 1 -8 -18.42 -4.142 0.5 0.5 2
9 0 1 0 0 0 1 0 0 0 1 -8 -18.92 3.858 0.5 1 1
9 0 1 0 0 0 1 0 0 0 1 -9 -10.92 4.858 0.5 1 1
9 0 1 0 0 0 1 0 0 0 1 -10 -18.42 -0.1420002 0.5 0.5 2
9 0 1 0 0 0 1 0 0 0 1 -20 -12.92 -1.642 0.5 2 0.5
9 0 1 0 0 0 1 0 0 0 1 11 -15.42 -2.642 0.5 0.5 1.5
9 0 1 0 0 0 1 0 0 0 1 11 -15.42 2.358 0.5 0.5 1.5
9 0 1 0 0 0 1 0 0 0 1 5 -14.42 -10.642 0.5 1.5 0.5
9 0 1 0 0 0 1 0 0 0 1 5 -16.42 6.358 0.5 1.5 0.5
9 0 1 0 0 0 1 0 0 0 1 0 -11.42 -11.642 1.5 0.5 0.5
9 0 1 0 0 0 1 0 0 0 1 0 -17.42 -10.642 1.5 0.5 0.5
9 0 1 0 0 0 1 0 0 0 1 0 -20.42 8.358 1.5 0.5 0.5
9 0 1 0 0 0 1 0 0 0 1 0 -22.42 -6.642 1.5 0.5 0.5
9 0 1 0 0 0 1 0 0 0 1 -3 -8.42 -7.642 1.5 0.5 0.5
9 0 1 0 0 0 1 0 0 0 1 -7 -9.42 5.358 0.5 0.5 1.5
9 0 1 0 0 0 1 0 0 0 1 -11 -13.42 -3.642 0.5 1.5 0.5
9 0 1 0 0 0 1 0 0 0 1 -11 -13.42 3.358 0.5 1.5 0.5
9 0 1 0 0 0 1 0 0 0 1 -20 -20.42 0.3579998 0.5 0.5 1.5
