9 0 1 0 0 0 1 0 0 0 1 -0.1379995 -65.923 0.3709998 10 1.5 1.5
9 0 1 0 0 0 1 0 0 0 1 -0.1379995 -33.923 0.3709998 4 1.5 1.5
9 0 1 0 0 0 1 0 0 0 1 -0.1379995 -4.922997 -0.1290002 2 3.5 1
9 0 1 0 0 0 1 0 0 0 1 -0.1379995 -20.423 -0.1290002 1 3 1
9 0 1 0 0 0 1 0 0 0 1 0.3620005 -65.923 -1.629 10.5 0.5 0.5
9 0 1 0 0 0 1 0 0 0 1 0.3620005 -67.923 0.3709998 10.5 0.5 0.5
9 0 1 0 0 0 1 0 0 0 1 -0.1379995 -35.923 -0.1290002 5 0.5 1
9 0 1 0 0 0 1 0 0 0 1 2.362 -63.923 0.3709998 7.5 0.5 0.5
9 0 1 0 0 0 1 0 0 0 1 -0.1379995 -4.922997 -1.629 1 3.5 0.5
9 0 1 0 0 0 1 0 0 0 1 -0.1379995 -4.922997 1.371 1 3.5 0.5
9 0 1 0 0 0 1 0 0 0 1 0.3620005 -33.923 -1.629 4.5 0.5 0.5
9 0 1 0 0 0 1 0 0 0 1 10.362 -66.423 0.3709998 0.5 1 1.5
9 0 1 0 0 0 1 0 0 0 1 4.362 -34.423 0.3709998 0.5 1 1.5
9 0 1 0 0 0 1 0 0 0 1 1.362 -21.923 -0.1290002 0.5 1.5 1
9 0 1 0 0 0 1 0 0 0 1 -1.638 -22.423 -0.1290002 0.5 1 1
9 0 1 0 0 0 1 0 0 0 1 -4.638 -34.923 0.3709998 0.5 0.5 1.5
