9 0 1 0 0 0 1 0 0 0 1 0 -10 -134 7.5 2.5 0.5
9 0 1 0 0 0 1 0 0 0 1 0 -10 134 7.5 2.5 0.5
9 0 1 0 0 0 1 0 0 0 1 7 -25.5 -140 0.5 2 6.5
9 0 1 0 0 0 1 0 0 0 1 7 -25.5 140 0.5 2 6.5
9 0 1 0 0 0 1 0 0 0 1 5 -27 -140 1.5 0.5 6.5
9 0 1 0 0 0 1 0 0 0 1 5 -27 140 1.5 0.5 6.5
9 0 1 0 0 0 1 0 0 0 1 4.5 -29 -145.5 3 1.5 1
9 0 1 0 0 0 1 0 0 0 1 4.5 -29 145.5 3 1.5 1
9 0 1 0 0 0 1 0 0 0 1 4.5 -70 -8 3 0.5 2.5
9 0 1 0 0 0 1 0 0 0 1 4.5 -70 8 3 0.5 2.5
9 0 1 0 0 0 1 0 0 0 1 7 -4 -140 0.5 0.5 6.5
9 0 1 0 0 0 1 0 0 0 1 7 -4 140 0.5 0.5 6.5
9 0 1 0 0 0 1 0 0 0 1 7 -16 -140 0.5 0.5 6.5
9 0 1 0 0 0 1 0 0 0 1 7 -16 140 0.5 0.5 6.5
9 0 1 0 0 0 1 0 0 0 1 6 -26 -140 0.5 0.5 6.5
9 0 1 0 0 0 1 0 0 0 1 6 -26 140 0.5 0.5 6.5
9 0 1 0 0 0 1 0 0 0 1 4.5 -31 -145 3 0.5 0.5
9 0 1 0 0 0 1 0 0 0 1 4.5 -31 145 3 0.5 0.5
9 0 1 0 0 0 1 0 0 0 1 -7 -4 -136 0.5 0.5 2.5
9 0 1 0 0 0 1 0 0 0 1 -7 -4 136 0.5 0.5 2.5
9 0 1 0 0 0 1 0 0 0 1 -7 -16 -136 0.5 0.5 2.5
9 0 1 0 0 0 1 0 0 0 1 -7 -16 136 0.5 0.5 2.5
9 0 1 0 0 0 1 0 0 0 1 6.5 -6.5 -134 1 1 0.5
9 0 1 0 0 0 1 0 0 0 1 6.5 -6.5 134 1 1 0.5
9 0 1 0 0 0 1 0 0 0 1 6.5 -13.5 -134 1 1 0.5
9 0 1 0 0 0 1 0 0 0 1 6.5 -13.5 134 1 1 0.5
9 0 1 0 0 0 1 0 0 0 1 6.5 -28.5 -147 1 1 0.5
9 0 1 0 0 0 1 0 0 0 1 6.5 -28.5 147 1 1 0.5
9 0 1 0 0 0 1 0 0 0 1 4 -63 -73.5 0.5 0.5 2
9 0 1 0 0 0 1 0 0 0 1 4 -63 73.5 0.5 0.5 2
9 0 1 0 0 0 1 0 0 0 1 -5.5 -7 -134 2 0.5 0.5
9 0 1 0 0 0 1 0 0 0 1 -5.5 -7 134 2 0.5 0.5
9 0 1 0 0 0 1 0 0 0 1 -5.5 -13 -134 2 0.5 0.5
9 0 1 0 0 0 1 0 0 0 1 -5.5 -13 134 2 0.5 0.5
9 0 1 0 0 0 1 0 0 0 1 -7.5 -75 -112 2 0.5 0.5
9 0 1 0 0 0 1 0 0 0 1 -7.5 -75 112 2 0.5 0.5
9 0 1 0 0 0 1 0 0 0 1 -1 -65 -120 1.5 0.5 0.5
9 0 1 0 0 0 1 0 0 0 1 -7 -4 -145 0.5 0.5 1.5
9 0 1 0 0 0 1 0 0 0 1 -7 -4 145 0.5 0.5 1.5
9 0 1 0 0 0 1 0 0 0 1 -7 -16 -145 0.5 0.5 1.5
9 0 1 0 0 0 1 0 0 0 1 -7 -16 145 0.5 0.5 1.5
