9 0 1 0 0 0 1 0 0 0 1 -0.5 -14 -14.8 6.5 4.5 1.5
9 0 1 0 0 0 1 0 0 0 1 0 -14 15.2 9 2.5 1.5
9 0 1 0 0 0 1 0 0 0 1 -10.5 -13.5 -10.3 2.5 3 3
9 0 1 0 0 0 1 0 0 0 1 -10.5 -14 10.2 1.5 5.5 2.5
9 0 1 0 0 0 1 0 0 0 1 11.5 -14.5 9.199999 2.5 5 1.5
9 0 1 0 0 0 1 0 0 0 1 10 -14.5 -11.3 2 3 3
9 0 1 0 0 0 1 0 0 0 1 10.5 -14.5 12.2 1.5 4 1.5
9 0 1 0 0 0 1 0 0 0 1 0 -20 -14.3 6 1.5 1
9 0 1 0 0 0 1 0 0 0 1 -13.5 -13.5 9.199999 1.5 4 1.5
9 0 1 0 0 0 1 0 0 0 1 14 -14 -8.800001 2 2.5 1.5
9 0 1 0 0 0 1 0 0 0 1 0 -14 -16.8 6 2.5 0.5
9 0 1 0 0 0 1 0 0 0 1 -9.5 -18.5 -10.8 1.5 2 2.5
9 0 1 0 0 0 1 0 0 0 1 -8.5 -14 13.2 2.5 5.5 0.5
9 0 1 0 0 0 1 0 0 0 1 7 -15 -13.8 1 4.5 1.5
9 0 1 0 0 0 1 0 0 0 1 -8.5 -13.5 -14.8 1.5 3 1.5
9 0 1 0 0 0 1 0 0 0 1 0 -13 17.2 5 2.5 0.5
9 0 1 0 0 0 1 0 0 0 1 9.5 -19.5 -10.3 1.5 2 2
9 0 1 0 0 0 1 0 0 0 1 0 -10.5 15.7 6 1 1
9 0 1 0 0 0 1 0 0 0 1 -14 -13.5 -9.300001 1 3 2
9 0 1 0 0 0 1 0 0 0 1 22.5 -27 0.1999989 1.5 1.5 2.5
9 0 1 0 0 0 1 0 0 0 1 -7.5 -16 -11.8 0.5 7.5 1.5
9 0 1 0 0 0 1 0 0 0 1 11.5 -10.5 -8.800001 3.5 1 1.5
9 0 1 0 0 0 1 0 0 0 1 7.5 -15.5 13.2 1.5 7 0.5
9 0 1 0 0 0 1 0 0 0 1 0 -17 15.2 7 0.5 1.5
9 0 1 0 0 0 1 0 0 0 1 5 -54 -0.3000011 2 0.5 5
9 0 1 0 0 0 1 0 0 0 1 -5 -54 -0.3000011 2 0.5 5
9 0 1 0 0 0 1 0 0 0 1 -10 -9.5 -9.800001 2 1 2.5
9 0 1 0 0 0 1 0 0 0 1 7.5 -17 -11.3 0.5 8.5 1
9 0 1 0 0 0 1 0 0 0 1 0 -25.5 -12.8 4 2 0.5
9 0 1 0 0 0 1 0 0 0 1 0 -9 -14.3 8 0.5 1
9 0 1 0 0 0 1 0 0 0 1 0 -54 -5.800001 3 0.5 2.5
9 0 1 0 0 0 1 0 0 0 1 -12 -19 -8.800001 1 2.5 1.5
9 0 1 0 0 0 1 0 0 0 1 -23 -27 0.1999989 1 1.5 2.5
9 0 1 0 0 0 1 0 0 0 1 -25 -24 0.1999989 1 2.5 1.5
9 0 1 0 0 0 1 0 0 0 1 10.5 -21 9.199999 1.5 1.5 1.5
9 0 1 0 0 0 1 0 0 0 1 9.5 -10 -11.8 1.5 1.5 1.5
9 0 1 0 0 0 1 0 0 0 1 -10.5 -21 9.199999 1.5 1.5 1.5
9 0 1 0 0 0 1 0 0 0 1 25 -24.5 0.1999989 1 2 1.5
9 0 1 0 0 0 1 0 0 0 1 15 -13.5 9.199999 1 2 1.5
9 0 1 0 0 0 1 0 0 0 1 13 -13.5 -11.8 1 2 1.5
9 0 1 0 0 0 1 0 0 0 1 12 -19.5 -8.800001 1 2 1.5
9 0 1 0 0 0 1 0 0 0 1 10 -13.5 14.7 1 3 1
9 0 1 0 0 0 1 0 0 0 1 9.5 -13.5 -15.3 1.5 2 1
9 0 1 0 0 0 1 0 0 0 1 0 -13.5 -17.8 3 2 0.5
9 0 1 0 0 0 1 0 0 0 1 0 -54 6.699999 3 0.5 2
9 0 1 0 0 0 1 0 0 0 1 0 -23 -13.8 4 1.5 0.5
9 0 1 0 0 0 1 0 0 0 1 -9 -22 -10.3 1 1.5 2
9 0 1 0 0 0 1 0 0 0 1 -10 -13.5 14.7 1 3 1
9 0 1 0 0 0 1 0 0 0 1 -5.5 -21 -12.8 1.5 3.5 0.5
9 0 1 0 0 0 1 0 0 0 1 13 -13 11.7 1 2.5 1
9 0 1 0 0 0 1 0 0 0 1 10 -14 -7.800001 2 2.5 0.5
9 0 1 0 0 0 1 0 0 0 1 9 -24 -9.300001 1 2.5 1
9 0 1 0 0 0 1 0 0 0 1 5.5 -21.5 -12.8 2.5 2 0.5
9 0 1 0 0 0 1 0 0 0 1 -13 -13 11.7 1 2.5 1
9 0 1 0 0 0 1 0 0 0 1 10.5 -8.5 9.199999 1.5 1 1.5
9 0 1 0 0 0 1 0 0 0 1 8 -19 12.2 1 4.5 0.5
9 0 1 0 0 0 1 0 0 0 1 6 -10 14.2 3 1.5 0.5
9 0 1 0 0 0 1 0 0 0 1 -6 -10 14.2 3 1.5 0.5
9 0 1 0 0 0 1 0 0 0 1 -8 -19 12.2 1 4.5 0.5
9 0 1 0 0 0 1 0 0 0 1 22 -29.5 -0.3000011 1 1 2
9 0 1 0 0 0 1 0 0 0 1 7 -13.5 -16.3 1 2 1
9 0 1 0 0 0 1 0 0 0 1 -11 -13.5 -14.3 1 2 1
9 0 1 0 0 0 1 0 0 0 1 -15.5 -13.5 8.699999 0.5 2 2
9 0 1 0 0 0 1 0 0 0 1 -16 -13.5 -8.300001 1 2 1
9 0 1 0 0 0 1 0 0 0 1 10.5 -9 -8.800001 2.5 0.5 1.5
9 0 1 0 0 0 1 0 0 0 1 0 -9 15.2 7 0.5 0.5
9 0 1 0 0 0 1 0 0 0 1 26 -21.5 0.1999989 1 1 1.5
9 0 1 0 0 0 1 0 0 0 1 16.5 -13.5 -7.800001 0.5 2 1.5
9 0 1 0 0 0 1 0 0 0 1 14 -18 -8.300001 1 1.5 1
9 0 1 0 0 0 1 0 0 0 1 10.5 -9.5 11.7 1.5 1 1
9 0 1 0 0 0 1 0 0 0 1 10 -24 8.699999 1 1.5 1
9 0 1 0 0 0 1 0 0 0 1 9.5 -20.5 11.2 1.5 2 0.5
9 0 1 0 0 0 1 0 0 0 1 6.5 -18.5 14.7 1.5 1 1
9 0 1 0 0 0 1 0 0 0 1 0 -16.5 17.2 3 1 0.5
9 0 1 0 0 0 1 0 0 0 1 0 -11 -16.8 6 0.5 0.5
9 0 1 0 0 0 1 0 0 0 1 -5.5 -20.5 14.7 0.5 3 1
9 0 1 0 0 0 1 0 0 0 1 -8 -18 -14.3 1 1.5 1
9 0 1 0 0 0 1 0 0 0 1 -9 -25 -9.300001 1 1.5 1
9 0 1 0 0 0 1 0 0 0 1 -10 -24 8.699999 1 1.5 1
9 0 1 0 0 0 1 0 0 0 1 -13 -18.5 9.199999 1 1 1.5
9 0 1 0 0 0 1 0 0 0 1 -14 -18 -8.300001 1 1.5 1
9 0 1 0 0 0 1 0 0 0 1 -8.5 -20 11.2 0.5 5.5 0.5
9 0 1 0 0 0 1 0 0 0 1 9 -8 -9.800001 1 0.5 2.5
9 0 1 0 0 0 1 0 0 0 1 0 -19 -15.8 5 0.5 0.5
9 0 1 0 0 0 1 0 0 0 1 -6.5 -12.5 -12.8 0.5 5 0.5
9 0 1 0 0 0 1 0 0 0 1 -9 -8 -9.800001 1 0.5 2.5
9 0 1 0 0 0 1 0 0 0 1 -11.5 -13 13.7 0.5 2.5 1
9 0 1 0 0 0 1 0 0 0 1 9.5 -19 -12.8 1.5 1.5 0.5
9 0 1 0 0 0 1 0 0 0 1 6.5 -22 -11.8 0.5 4.5 0.5
9 0 1 0 0 0 1 0 0 0 1 -6.5 -22 -11.8 0.5 4.5 0.5
9 0 1 0 0 0 1 0 0 0 1 -7.5 -13 -16.8 1.5 1.5 0.5
9 0 1 0 0 0 1 0 0 0 1 -7.5 -19 14.2 1.5 1.5 0.5
9 0 1 0 0 0 1 0 0 0 1 -7.5 -21 13.2 1.5 1.5 0.5
9 0 1 0 0 0 1 0 0 0 1 -10.5 -8 9.199999 1.5 0.5 1.5
9 0 1 0 0 0 1 0 0 0 1 -13.5 -10 -8.800001 1.5 0.5 1.5
9 0 1 0 0 0 1 0 0 0 1 -20.5 -26 0.1999989 1.5 0.5 1.5
9 0 1 0 0 0 1 0 0 0 1 -26.5 -22 0.1999989 0.5 1.5 1.5
9 0 1 0 0 0 1 0 0 0 1 23 -25 -0.3000011 1 0.5 2
9 0 1 0 0 0 1 0 0 0 1 16.5 -13.5 7.699999 0.5 2 1
9 0 1 0 0 0 1 0 0 0 1 15.5 -14.5 7.199999 0.5 4 0.5
9 0 1 0 0 0 1 0 0 0 1 12 -10.5 -11.3 1 1 1
9 0 1 0 0 0 1 0 0 0 1 10 -2.5 -7.800001 2 1 0.5
9 0 1 0 0 0 1 0 0 0 1 9 -10.5 -14.3 1 1 1
9 0 1 0 0 0 1 0 0 0 1 9 -22.5 -11.3 1 1 1
9 0 1 0 0 0 1 0 0 0 1 7 -10 -14.3 1 0.5 2
9 0 1 0 0 0 1 0 0 0 1 6 -13.5 17.2 1 2 0.5
9 0 1 0 0 0 1 0 0 0 1 6 -21.5 14.2 1 2 0.5
9 0 1 0 0 0 1 0 0 0 1 0 -13.5 18.2 2 1 0.5
9 0 1 0 0 0 1 0 0 0 1 0 -17.5 -16.8 2 1 0.5
9 0 1 0 0 0 1 0 0 0 1 0 -8 -13.8 4 0.5 0.5
9 0 1 0 0 0 1 0 0 0 1 0 -22 -14.8 4 0.5 0.5
9 0 1 0 0 0 1 0 0 0 1 -6 -13.5 17.2 1 2 0.5
9 0 1 0 0 0 1 0 0 0 1 -9 -9.5 -13.3 1 1 1
9 0 1 0 0 0 1 0 0 0 1 -10.5 -21.5 -9.300001 0.5 1 2
9 0 1 0 0 0 1 0 0 0 1 -10 -2.5 -7.800001 2 1 0.5
9 0 1 0 0 0 1 0 0 0 1 -12 -17.5 -11.3 1 1 1
9 0 1 0 0 0 1 0 0 0 1 -13.5 -13.5 -12.3 0.5 2 1
9 0 1 0 0 0 1 0 0 0 1 -16.5 -13.5 7.699999 0.5 2 1
9 0 1 0 0 0 1 0 0 0 1 -22.5 -29.5 -0.3000011 0.5 1 2
9 0 1 0 0 0 1 0 0 0 1 8.5 -11 12.2 0.5 3.5 0.5
9 0 1 0 0 0 1 0 0 0 1 7.5 -54 0.1999989 0.5 0.5 3.5
9 0 1 0 0 0 1 0 0 0 1 -7.5 -54 0.1999989 0.5 0.5 3.5
9 0 1 0 0 0 1 0 0 0 1 -8.5 -11 12.2 0.5 3.5 0.5
9 0 1 0 0 0 1 0 0 0 1 20 -26 0.1999989 1 0.5 1.5
9 0 1 0 0 0 1 0 0 0 1 14.5 -10.5 9.199999 0.5 1 1.5
9 0 1 0 0 0 1 0 0 0 1 15 -13 -10.8 1 1.5 0.5
9 0 1 0 0 0 1 0 0 0 1 14.5 -16.5 9.199999 0.5 1 1.5
9 0 1 0 0 0 1 0 0 0 1 12.5 -17 -11.3 0.5 1.5 1
9 0 1 0 0 0 1 0 0 0 1 11.5 -22 -8.300001 1.5 0.5 1
9 0 1 0 0 0 1 0 0 0 1 10 -18 -7.800001 1 1.5 0.5
9 0 1 0 0 0 1 0 0 0 1 9.5 -16.5 -14.8 1.5 1 0.5
9 0 1 0 0 0 1 0 0 0 1 8.5 -17 14.7 1.5 0.5 1
9 0 1 0 0 0 1 0 0 0 1 7.5 -10.5 15.2 1.5 1 0.5
9 0 1 0 0 0 1 0 0 0 1 4 -18 15.2 1 0.5 1.5
9 0 1 0 0 0 1 0 0 0 1 4.5 -54 5.699999 1.5 0.5 1
9 0 1 0 0 0 1 0 0 0 1 0 -9 -15.8 3 0.5 0.5
9 0 1 0 0 0 1 0 0 0 1 0 -54 4.199999 3 0.5 0.5
9 0 1 0 0 0 1 0 0 0 1 -4 -18 15.2 1 0.5 1.5
9 0 1 0 0 0 1 0 0 0 1 -4.5 -54 5.699999 1.5 0.5 1
9 0 1 0 0 0 1 0 0 0 1 -7.5 -10.5 15.2 1.5 1 0.5
9 0 1 0 0 0 1 0 0 0 1 -8 -25 -10.8 1 1.5 0.5
9 0 1 0 0 0 1 0 0 0 1 -8.5 -17 14.7 1.5 0.5 1
9 0 1 0 0 0 1 0 0 0 1 -9.5 -21 11.7 0.5 1.5 1
9 0 1 0 0 0 1 0 0 0 1 -10 -18 -7.800001 1 1.5 0.5
9 0 1 0 0 0 1 0 0 0 1 -15.5 -13 -10.3 0.5 1.5 1
9 0 1 0 0 0 1 0 0 0 1 -22.5 -25 -0.3000011 1.5 0.5 1
9 0 1 0 0 0 1 0 0 0 1 14.5 -13 11.2 0.5 2.5 0.5
9 0 1 0 0 0 1 0 0 0 1 11.5 -13 14.2 0.5 2.5 0.5
9 0 1 0 0 0 1 0 0 0 1 8.5 -9 8.199999 0.5 2.5 0.5
9 0 1 0 0 0 1 0 0 0 1 8.5 -29 -8.800001 0.5 2.5 0.5
9 0 1 0 0 0 1 0 0 0 1 5.5 -17 -12.8 0.5 2.5 0.5
9 0 1 0 0 0 1 0 0 0 1 -8.5 -9 8.199999 0.5 2.5 0.5
9 0 1 0 0 0 1 0 0 0 1 -8.5 -29 -8.800001 0.5 2.5 0.5
9 0 1 0 0 0 1 0 0 0 1 -12.5 -13 13.2 0.5 2.5 0.5
9 0 1 0 0 0 1 0 0 0 1 -14.5 -13 11.2 0.5 2.5 0.5
9 0 1 0 0 0 1 0 0 0 1 26.5 -23.5 -0.3000011 0.5 1 1
9 0 1 0 0 0 1 0 0 0 1 24.5 -25.5 -1.800001 0.5 2 0.5
9 0 1 0 0 0 1 0 0 0 1 24.5 -27.5 -0.3000011 0.5 1 1
9 0 1 0 0 0 1 0 0 0 1 22 -27.5 -2.800001 1 1 0.5
9 0 1 0 0 0 1 0 0 0 1 13 -8.5 8.199999 1 1 0.5
9 0 1 0 0 0 1 0 0 0 1 13 -13.5 13.2 1 1 0.5
9 0 1 0 0 0 1 0 0 0 1 12.5 -13.5 -13.8 0.5 2 0.5
9 0 1 0 0 0 1 0 0 0 1 13 -16.5 11.2 1 1 0.5
9 0 1 0 0 0 1 0 0 0 1 13 -20 8.699999 1 0.5 1
9 0 1 0 0 0 1 0 0 0 1 11.5 -13.5 -14.8 0.5 2 0.5
9 0 1 0 0 0 1 0 0 0 1 11.5 -18.5 -11.3 0.5 1 1
9 0 1 0 0 0 1 0 0 0 1 11 -8 -8.300001 1 0.5 1
9 0 1 0 0 0 1 0 0 0 1 10 -9.5 13.2 1 1 0.5
9 0 1 0 0 0 1 0 0 0 1 10 -19 12.7 1 0.5 1
9 0 1 0 0 0 1 0 0 0 1 10 -26.5 8.199999 1 1 0.5
9 0 1 0 0 0 1 0 0 0 1 9 -18 -14.3 1 0.5 1
9 0 1 0 0 0 1 0 0 0 1 8.5 -16.5 11.2 0.5 2 0.5
9 0 1 0 0 0 1 0 0 0 1 7 -8.5 -12.8 1 1 0.5
9 0 1 0 0 0 1 0 0 0 1 8 -11 -15.8 2 0.5 0.5
9 0 1 0 0 0 1 0 0 0 1 8 -16 -15.8 2 0.5 0.5
9 0 1 0 0 0 1 0 0 0 1 7 -20.5 -13.8 1 1 0.5
9 0 1 0 0 0 1 0 0 0 1 5.5 -21.5 15.2 0.5 2 0.5
9 0 1 0 0 0 1 0 0 0 1 5 -22.5 -13.8 1 1 0.5
9 0 1 0 0 0 1 0 0 0 1 5 -24.5 -12.8 1 1 0.5
9 0 1 0 0 0 1 0 0 0 1 4 -13.5 -17.8 1 1 0.5
9 0 1 0 0 0 1 0 0 0 1 4 -54 -6.300001 1 0.5 1
9 0 1 0 0 0 1 0 0 0 1 0 -28.5 -12.8 1 1 0.5
9 0 1 0 0 0 1 0 0 0 1 0 -20 -15.8 2 0.5 0.5
9 0 1 0 0 0 1 0 0 0 1 0 -29 14.2 2 0.5 0.5
9 0 1 0 0 0 1 0 0 0 1 -3 -22.5 -12.8 1 1 0.5
9 0 1 0 0 0 1 0 0 0 1 -4 -13.5 -17.8 1 1 0.5
9 0 1 0 0 0 1 0 0 0 1 -4 -54 -6.300001 1 0.5 1
9 0 1 0 0 0 1 0 0 0 1 -5 -22.5 -13.8 1 1 0.5
9 0 1 0 0 0 1 0 0 0 1 -6.5 -19.5 -14.3 0.5 1 1
9 0 1 0 0 0 1 0 0 0 1 -7 -18.5 15.2 1 1 0.5
9 0 1 0 0 0 1 0 0 0 1 -9.5 -13.5 16.2 0.5 2 0.5
9 0 1 0 0 0 1 0 0 0 1 -9.5 -17.5 -14.3 0.5 1 1
9 0 1 0 0 0 1 0 0 0 1 -9.5 -26.5 8.699999 0.5 1 1
9 0 1 0 0 0 1 0 0 0 1 -10.5 -13.5 -15.8 0.5 2 0.5
9 0 1 0 0 0 1 0 0 0 1 -10.5 -16.5 -14.3 0.5 1 1
9 0 1 0 0 0 1 0 0 0 1 -11 -8 -8.300001 1 0.5 1
9 0 1 0 0 0 1 0 0 0 1 -11.5 -22.5 -8.300001 0.5 1 1
9 0 1 0 0 0 1 0 0 0 1 -12.5 -9 -9.300001 0.5 0.5 2
9 0 1 0 0 0 1 0 0 0 1 -12.5 -8.5 8.699999 0.5 1 1
9 0 1 0 0 0 1 0 0 0 1 -12.5 -13.5 -13.8 0.5 2 0.5
9 0 1 0 0 0 1 0 0 0 1 -12.5 -16.5 11.7 0.5 1 1
9 0 1 0 0 0 1 0 0 0 1 -12.5 -20.5 8.699999 0.5 1 1
9 0 1 0 0 0 1 0 0 0 1 -15.5 -16.5 -8.300001 0.5 1 1
9 0 1 0 0 0 1 0 0 0 1 -15.5 -16.5 7.699999 0.5 1 1
9 0 1 0 0 0 1 0 0 0 1 -16.5 -13.5 -6.800001 0.5 2 0.5
9 0 1 0 0 0 1 0 0 0 1 -24.5 -27 -0.3000011 0.5 0.5 2
9 0 1 0 0 0 1 0 0 0 1 25.5 -23 -1.800001 0.5 1.5 0.5
9 0 1 0 0 0 1 0 0 0 1 23.5 -29 0.1999989 0.5 0.5 1.5
9 0 1 0 0 0 1 0 0 0 1 14.5 -13 -11.8 0.5 1.5 0.5
9 0 1 0 0 0 1 0 0 0 1 13.5 -18 -9.800001 0.5 1.5 0.5
9 0 1 0 0 0 1 0 0 0 1 13.5 -21 -7.800001 0.5 1.5 0.5
9 0 1 0 0 0 1 0 0 0 1 12.5 -17 -8.800001 0.5 0.5 1.5
9 0 1 0 0 0 1 0 0 0 1 12.5 -22 8.199999 0.5 1.5 0.5
9 0 1 0 0 0 1 0 0 0 1 10.5 -24 -8.800001 0.5 1.5 0.5
9 0 1 0 0 0 1 0 0 0 1 9.5 -14 16.2 0.5 1.5 0.5
9 0 1 0 0 0 1 0 0 0 1 9.5 -21 12.2 0.5 1.5 0.5
9 0 1 0 0 0 1 0 0 0 1 9.5 -24 10.2 0.5 1.5 0.5
9 0 1 0 0 0 1 0 0 0 1 9.5 -7 -7.800001 1.5 0.5 0.5
9 0 1 0 0 0 1 0 0 0 1 8.5 -19 14.2 0.5 1.5 0.5
9 0 1 0 0 0 1 0 0 0 1 8.5 -24 11.2 0.5 1.5 0.5
9 0 1 0 0 0 1 0 0 0 1 8.5 -25 -10.8 0.5 1.5 0.5
9 0 1 0 0 0 1 0 0 0 1 7.5 -11 16.2 1.5 0.5 0.5
9 0 1 0 0 0 1 0 0 0 1 -5.5 -16 -12.8 0.5 1.5 0.5
9 0 1 0 0 0 1 0 0 0 1 -6.5 -22 14.2 0.5 1.5 0.5
9 0 1 0 0 0 1 0 0 0 1 -7.5 -8 -11.8 0.5 0.5 1.5
9 0 1 0 0 0 1 0 0 0 1 -7.5 -10 -14.8 0.5 0.5 1.5
9 0 1 0 0 0 1 0 0 0 1 -7.5 -11 16.2 1.5 0.5 0.5
9 0 1 0 0 0 1 0 0 0 1 -9.5 -24 10.2 0.5 1.5 0.5
9 0 1 0 0 0 1 0 0 0 1 -9.5 -7 -7.800001 1.5 0.5 0.5
9 0 1 0 0 0 1 0 0 0 1 -10.5 -21 11.2 0.5 1.5 0.5
9 0 1 0 0 0 1 0 0 0 1 -10.5 -24 -8.800001 0.5 1.5 0.5
9 0 1 0 0 0 1 0 0 0 1 -11.5 -17 13.2 0.5 1.5 0.5
9 0 1 0 0 0 1 0 0 0 1 -11.5 -20 -10.8 0.5 1.5 0.5
9 0 1 0 0 0 1 0 0 0 1 -13.5 -18 -9.800001 0.5 1.5 0.5
9 0 1 0 0 0 1 0 0 0 1 -13.5 -21 -7.800001 0.5 1.5 0.5
9 0 1 0 0 0 1 0 0 0 1 -14.5 -13 -11.8 0.5 1.5 0.5
9 0 1 0 0 0 1 0 0 0 1 -23.5 -29 0.1999989 0.5 0.5 1.5
9 0 1 0 0 0 1 0 0 0 1 -23.5 -25 -1.800001 1.5 0.5 0.5
9 0 1 0 0 0 1 0 0 0 1 -25.5 -23 -1.800001 0.5 1.5 0.5
