9 0 1 0 0 0 1 0 0 0 1 0 2 30 20.5 0.5 8.5
9 0 1 0 0 0 1 0 0 0 1 0 2 -29.5 21.5 0.5 8
9 0 1 0 0 0 1 0 0 0 1 16 10 0 8.5 0.5 15.5
9 0 1 0 0 0 1 0 0 0 1 -16 10 0 8.5 0.5 15.5
9 0 1 0 0 0 1 0 0 0 1 -1 4.5 -22 29.5 2 0.5
9 0 1 0 0 0 1 0 0 0 1 -1 4.5 22 29.5 2 0.5
9 0 1 0 0 0 1 0 0 0 1 0 4 -38 20.5 2.5 0.5
9 0 1 0 0 0 1 0 0 0 1 0 4.5 38 20.5 2 0.5
9 0 1 0 0 0 1 0 0 0 1 0 10 -11.5 7.5 0.5 4
9 0 1 0 0 0 1 0 0 0 1 0 10 11.5 7.5 0.5 4
9 0 1 0 0 0 1 0 0 0 1 26.5 10 13 2 0.5 9.5
9 0 1 0 0 0 1 0 0 0 1 -26.5 10 13 2 0.5 9.5
9 0 1 0 0 0 1 0 0 0 1 26.5 10 -13.5 2 0.5 9
9 0 1 0 0 0 1 0 0 0 1 -26.5 10 -13.5 2 0.5 9
9 0 1 0 0 0 1 0 0 0 1 29.5 5.5 -20 1 3 2.5
9 0 1 0 0 0 1 0 0 0 1 29.5 5.5 20 1 3 2.5
9 0 1 0 0 0 1 0 0 0 1 -29.5 5.5 -19.5 1 3 2
9 0 1 0 0 0 1 0 0 0 1 -29.5 5.5 19.5 1 3 2
9 0 1 0 0 0 1 0 0 0 1 23 2 26 2.5 0.5 4.5
9 0 1 0 0 0 1 0 0 0 1 -23 2 26 2.5 0.5 4.5
9 0 1 0 0 0 1 0 0 0 1 23.5 2 -26 2 0.5 4.5
9 0 1 0 0 0 1 0 0 0 1 -23.5 2 -26 2 0.5 4.5
9 0 1 0 0 0 1 0 0 0 1 10 -2 -30 3.5 0.5 2.5
9 0 1 0 0 0 1 0 0 0 1 10 -2 30 3.5 0.5 2.5
9 0 1 0 0 0 1 0 0 0 1 -10 -2 -30 3.5 0.5 2.5
9 0 1 0 0 0 1 0 0 0 1 -10 -2 30 3.5 0.5 2.5
9 0 1 0 0 0 1 0 0 0 1 23 10 -19 1.5 0.5 3.5
9 0 1 0 0 0 1 0 0 0 1 23 10 19 1.5 0.5 3.5
9 0 1 0 0 0 1 0 0 0 1 25 8 -22 3.5 1.5 0.5
9 0 1 0 0 0 1 0 0 0 1 25 8 22 3.5 1.5 0.5
9 0 1 0 0 0 1 0 0 0 1 -23 10 -19 1.5 0.5 3.5
9 0 1 0 0 0 1 0 0 0 1 -23 10 19 1.5 0.5 3.5
9 0 1 0 0 0 1 0 0 0 1 -25 8 -22 3.5 1.5 0.5
9 0 1 0 0 0 1 0 0 0 1 -25 8 22 3.5 1.5 0.5
9 0 1 0 0 0 1 0 0 0 1 16 14 0 8.5 0.5 0.5
9 0 1 0 0 0 1 0 0 0 1 -16 14 0 8.5 0.5 0.5
9 0 1 0 0 0 1 0 0 0 1 22 2 32.5 1.5 0.5 2
9 0 1 0 0 0 1 0 0 0 1 -22 2 32.5 1.5 0.5 2
9 0 1 0 0 0 1 0 0 0 1 26.5 2 -24 1 0.5 2.5
9 0 1 0 0 0 1 0 0 0 1 26.5 2 24 1 0.5 2.5
9 0 1 0 0 0 1 0 0 0 1 -26.5 2 -24 1 0.5 2.5
9 0 1 0 0 0 1 0 0 0 1 -26.5 2 24 1 0.5 2.5
9 0 1 0 0 0 1 0 0 0 1 34 5 -20 0.5 1.5 1.5
9 0 1 0 0 0 1 0 0 0 1 34 5 20 0.5 1.5 1.5
9 0 1 0 0 0 1 0 0 0 1 23 12 0 1.5 1.5 0.5
9 0 1 0 0 0 1 0 0 0 1 0 6 -30 1.5 0.5 1.5
9 0 1 0 0 0 1 0 0 0 1 0 6 30 1.5 0.5 1.5
9 0 1 0 0 0 1 0 0 0 1 -23 12 0 1.5 1.5 0.5
9 0 1 0 0 0 1 0 0 0 1 -34 5 -20 0.5 1.5 1.5
9 0 1 0 0 0 1 0 0 0 1 -34 5 20 0.5 1.5 1.5
9 0 1 0 0 0 1 0 0 0 1 29.5 6.5 -17 1 2 0.5
9 0 1 0 0 0 1 0 0 0 1 29.5 6.5 17 1 2 0.5
9 0 1 0 0 0 1 0 0 0 1 22.5 2 -32.5 1 0.5 2
9 0 1 0 0 0 1 0 0 0 1 -22.5 2 -32.5 1 0.5 2
9 0 1 0 0 0 1 0 0 0 1 -29.5 6.5 -17 1 2 0.5
9 0 1 0 0 0 1 0 0 0 1 -29.5 6.5 17 1 2 0.5
9 0 1 0 0 0 1 0 0 0 1 10 -2 -33 2.5 0.5 0.5
9 0 1 0 0 0 1 0 0 0 1 10 -2 -27 2.5 0.5 0.5
9 0 1 0 0 0 1 0 0 0 1 10 -2 27 2.5 0.5 0.5
9 0 1 0 0 0 1 0 0 0 1 10 -2 33 2.5 0.5 0.5
9 0 1 0 0 0 1 0 0 0 1 -10 -2 -33 2.5 0.5 0.5
9 0 1 0 0 0 1 0 0 0 1 -10 -2 -27 2.5 0.5 0.5
9 0 1 0 0 0 1 0 0 0 1 -10 -2 27 2.5 0.5 0.5
9 0 1 0 0 0 1 0 0 0 1 -10 -2 33 2.5 0.5 0.5
9 0 1 0 0 0 1 0 0 0 1 30 6.5 -23 0.5 2 0.5
9 0 1 0 0 0 1 0 0 0 1 30 6.5 23 0.5 2 0.5
9 0 1 0 0 0 1 0 0 0 1 7 10 -5.5 0.5 0.5 2
9 0 1 0 0 0 1 0 0 0 1 7 10 5.5 0.5 0.5 2
9 0 1 0 0 0 1 0 0 0 1 -5.5 10 -7 2 0.5 0.5
9 0 1 0 0 0 1 0 0 0 1 -5.5 10 7 2 0.5 0.5
9 0 1 0 0 0 1 0 0 0 1 -29.5 7.5 -22 1 1 0.5
9 0 1 0 0 0 1 0 0 0 1 -29.5 7.5 22 1 1 0.5
9 0 1 0 0 0 1 0 0 0 1 -30 6.5 -23 0.5 2 0.5
9 0 1 0 0 0 1 0 0 0 1 -30 6.5 23 0.5 2 0.5
9 0 1 0 0 0 1 0 0 0 1 28 2 -23 0.5 0.5 1.5
9 0 1 0 0 0 1 0 0 0 1 28 2 23 0.5 0.5 1.5
9 0 1 0 0 0 1 0 0 0 1 21 2 36 0.5 0.5 1.5
9 0 1 0 0 0 1 0 0 0 1 5 10 -7 1.5 0.5 0.5
9 0 1 0 0 0 1 0 0 0 1 5 10 7 1.5 0.5 0.5
9 0 1 0 0 0 1 0 0 0 1 -7 10 -5 0.5 0.5 1.5
9 0 1 0 0 0 1 0 0 0 1 -7 10 5 0.5 0.5 1.5
9 0 1 0 0 0 1 0 0 0 1 -21 2 36 0.5 0.5 1.5
9 0 1 0 0 0 1 0 0 0 1 -28 2 -23 0.5 0.5 1.5
9 0 1 0 0 0 1 0 0 0 1 -28 2 23 0.5 0.5 1.5
