9 0 -1.192093E-07 0 -1 0 1 0 1 0 -1.192093E-07 10 -22 4 3.35 0.5 3.35
9 0 -1.192093E-07 0 -1 0 1 0 1 0 -1.192093E-07 -10 -22 4 3.35 0.5 3.35
9 0 1 0 0 0 1 0 0 0 1 -5 -10 -8 23.5 8.5 0.5
9 0 1 0 0 0 1 0 0 0 1 0 -18 2.5 18.5 0.5 10
9 0 1 0 0 0 1 0 0 0 1 28.5 -14 -8 10 4.5 0.5
9 0 1 0 0 0 1 0 0 0 1 0 -15.5 12 18.5 2 0.5
9 0 1 0 0 0 1 0 0 0 1 -33.5 -14 -8 5 4.5 0.5
9 0 1 0 0 0 1 0 0 0 1 29.5 -4 -8 8 2.5 0.5
9 0 1 0 0 0 1 0 0 0 1 18 -15.5 2 0.5 2 9.5
9 0 1 0 0 0 1 0 0 0 1 -18 -15.5 2 0.5 2 9.5
9 0 1 0 0 0 1 0 0 0 1 -34.5 -4 -8 3 2.5 0.5
9 0 1 0 0 0 1 0 0 0 1 0 -14 4 1.5 0.5 1.5
9 0 1 0 0 0 1 0 0 0 1 38 -4.5 -8 0.5 2 0.5
9 0 1 0 0 0 1 0 0 0 1 -38 -4.5 -8 0.5 2 0.5
