9 0 1 0 0 0 1 0 0 0 1 -4.768372E-06 -8 6.500005 3.5 4.5 1
9 0 1 0 0 0 1 0 0 0 1 -6.500005 -8 4.768372E-06 1 4.5 3.5
9 0 1 0 0 0 1 0 0 0 1 6.499995 -8.5 4.768372E-06 1 4 3.5
9 0 1 0 0 0 1 0 0 0 1 -4.768372E-06 -8.5 -6.499995 3.5 4 1
9 0 1 0 0 0 1 0 0 0 1 -4.768372E-06 -14 4.768372E-06 4.5 0.5 4.5
9 0 1 0 0 0 1 0 0 0 1 5.499995 -8 -4.499995 1 3.5 1
9 0 1 0 0 0 1 0 0 0 1 5.499995 -8 4.500005 1 3.5 1
9 0 1 0 0 0 1 0 0 0 1 -4.500005 -8 -5.499995 1 3.5 1
9 0 1 0 0 0 1 0 0 0 1 -4.500005 -8 5.500005 1 3.5 1
9 0 1 0 0 0 1 0 0 0 1 -4.768372E-06 -16 4.768372E-06 1.5 1.5 1.5
9 0 1 0 0 0 1 0 0 0 1 3.999995 -8 -5.499995 0.5 5.5 1
9 0 1 0 0 0 1 0 0 0 1 3.999995 -8 5.500005 0.5 5.5 1
9 0 1 0 0 0 1 0 0 0 1 -5.500005 -8 -3.999995 1 5.5 0.5
9 0 1 0 0 0 1 0 0 0 1 -5.500005 -8 4.000005 1 5.5 0.5
9 0 1 0 0 0 1 0 0 0 1 7.999995 -8 4.768372E-06 0.5 3.5 1.5
9 0 1 0 0 0 1 0 0 0 1 -4.768372E-06 -8 -7.999995 1.5 3.5 0.5
9 0 1 0 0 0 1 0 0 0 1 -4.768372E-06 -8 8.000005 1.5 3.5 0.5
9 0 1 0 0 0 1 0 0 0 1 -8.000005 -8 4.768372E-06 0.5 3.5 1.5
9 0 1 0 0 0 1 0 0 0 1 6.499995 -3.5 4.768372E-06 1 1 2.5
9 0 1 0 0 0 1 0 0 0 1 -4.768372E-06 -3.5 -6.499995 2.5 1 1
9 0 1 0 0 0 1 0 0 0 1 6.499995 -13 4.768372E-06 1 0.5 2.5
9 0 1 0 0 0 1 0 0 0 1 5.499995 -14 4.768372E-06 1 0.5 2.5
9 0 1 0 0 0 1 0 0 0 1 -4.768372E-06 -2.5 6.000005 2.5 1 0.5
9 0 1 0 0 0 1 0 0 0 1 -4.768372E-06 -13 -6.499995 2.5 0.5 1
9 0 1 0 0 0 1 0 0 0 1 -4.768372E-06 -13 6.500005 2.5 0.5 1
9 0 1 0 0 0 1 0 0 0 1 -4.768372E-06 -14 -5.499995 2.5 0.5 1
9 0 1 0 0 0 1 0 0 0 1 -4.768372E-06 -14 5.500005 2.5 0.5 1
9 0 1 0 0 0 1 0 0 0 1 -6.000005 -2.5 4.768372E-06 0.5 1 2.5
9 0 1 0 0 0 1 0 0 0 1 -5.500005 -14 4.768372E-06 1 0.5 2.5
9 0 1 0 0 0 1 0 0 0 1 -6.500005 -13 4.768372E-06 1 0.5 2.5
9 0 1 0 0 0 1 0 0 0 1 4.999995 -8 -5.999995 0.5 3.5 0.5
9 0 1 0 0 0 1 0 0 0 1 4.999995 -8 6.000005 0.5 3.5 0.5
9 0 1 0 0 0 1 0 0 0 1 -6.000005 -8 -4.999995 0.5 3.5 0.5
9 0 1 0 0 0 1 0 0 0 1 -6.000005 -8 5.000005 0.5 3.5 0.5
9 0 1 0 0 0 1 0 0 0 1 5.999995 -2 4.768372E-06 0.5 0.5 2.5
9 0 1 0 0 0 1 0 0 0 1 -4.768372E-06 -2 -5.999995 2.5 0.5 0.5
9 0 1 0 0 0 1 0 0 0 1 -4.768372E-06 -3 7.000005 2.5 0.5 0.5
9 0 1 0 0 0 1 0 0 0 1 -7.000005 -3 4.768372E-06 0.5 0.5 2.5
9 0 1 0 0 0 1 0 0 0 1 5.999995 -3.5 -3.499995 0.5 1 1
9 0 1 0 0 0 1 0 0 0 1 5.999995 -3.5 3.500005 0.5 1 1
9 0 1 0 0 0 1 0 0 0 1 4.999995 -3.5 -4.499995 0.5 1 1
9 0 1 0 0 0 1 0 0 0 1 4.999995 -3.5 4.500005 0.5 1 1
9 0 1 0 0 0 1 0 0 0 1 5.499995 -12.5 -3.999995 1 1 0.5
9 0 1 0 0 0 1 0 0 0 1 5.499995 -12.5 4.000005 1 1 0.5
9 0 1 0 0 0 1 0 0 0 1 -3.500005 -3.5 -5.999995 1 1 0.5
9 0 1 0 0 0 1 0 0 0 1 -4.000005 -3.5 5.500005 0.5 1 1
9 0 1 0 0 0 1 0 0 0 1 -4.000005 -12.5 -5.499995 0.5 1 1
9 0 1 0 0 0 1 0 0 0 1 -4.000005 -12.5 5.500005 0.5 1 1
9 0 1 0 0 0 1 0 0 0 1 -4.500005 -3.5 -4.999995 1 1 0.5
9 0 1 0 0 0 1 0 0 0 1 1.999995 -16 4.768372E-06 0.5 1.5 0.5
9 0 1 0 0 0 1 0 0 0 1 -4.768372E-06 -16 -1.999995 0.5 1.5 0.5
9 0 1 0 0 0 1 0 0 0 1 -4.768372E-06 -16 2.000005 0.5 1.5 0.5
9 0 1 0 0 0 1 0 0 0 1 -2.000005 -16 4.768372E-06 0.5 1.5 0.5
