9 0 1 0 0 0 1 0 0 0 1 -0.00041008 6 -24 18.5 0.5 10.5
9 0 1 0 0 0 1 0 0 0 1 -0.00041008 -44 -10 16.5 2.5 0.5
9 0 1 0 0 0 1 0 0 0 1 -0.00041008 -28 -10 13.5 2.5 0.5
9 0 1 0 0 0 1 0 0 0 1 -0.00041008 -12 -10 10.5 2.5 0.5
9 0 1 0 0 0 1 0 0 0 1 -22.00041 -58 2.5 1.5 1.5 5
9 0 1 0 0 0 1 0 0 0 1 -0.00041008 4 -10 7.5 2.5 0.5
9 0 1 0 0 0 1 0 0 0 1 21.49959 -58 2 1 1.5 5.5
9 0 1 0 0 0 1 0 0 0 1 25.99959 -67 -8 1.5 3.5 1.5
9 0 1 0 0 0 1 0 0 0 1 22.49959 -40.5 -8 1 5 1.5
9 0 1 0 0 0 1 0 0 0 1 -26.50041 -66.5 -8 1 4 1.5
9 0 1 0 0 0 1 0 0 0 1 20.49959 -32 -7.5 1 5.5 1
9 0 1 0 0 0 1 0 0 0 1 18.49959 -22 -7.5 1 5.5 1
9 0 1 0 0 0 1 0 0 0 1 -17.50041 -17 -7.5 1 5.5 1
9 0 1 0 0 0 1 0 0 0 1 -19.50041 -27 -7.5 1 5.5 1
9 0 1 0 0 0 1 0 0 0 1 -22.50041 -41 -7.5 1 5.5 1
9 0 1 0 0 0 1 0 0 0 1 24.49959 -49 -8 1 3.5 1.5
9 0 1 0 0 0 1 0 0 0 1 -24.50041 -49 -8 1 3.5 1.5
9 0 1 0 0 0 1 0 0 0 1 21.99959 -3.5 -13.5 0.5 10 1
9 0 1 0 0 0 1 0 0 0 1 -22.00041 -3.5 -13.5 0.5 10 1
9 0 1 0 0 0 1 0 0 0 1 -21.00041 -32.5 -8 0.5 6 1.5
9 0 1 0 0 0 1 0 0 0 1 16.99959 -14 -7.5 1.5 2.5 1
9 0 1 0 0 0 1 0 0 0 1 23.49959 -58 2.5 1 0.5 5
9 0 1 0 0 0 1 0 0 0 1 19.49959 6 -22.5 1 0.5 5
9 0 1 0 0 0 1 0 0 0 1 -19.50041 6 -22.5 1 0.5 5
9 0 1 0 0 0 1 0 0 0 1 16.99959 -19.5 -8 0.5 3 1.5
9 0 1 0 0 0 1 0 0 0 1 -16.00041 -14 -7.5 0.5 4.5 1
9 0 1 0 0 0 1 0 0 0 1 23.99959 -43 -8 0.5 2.5 1.5
9 0 1 0 0 0 1 0 0 0 1 19.99959 -58 0 0.5 0.5 7.5
9 0 1 0 0 0 1 0 0 0 1 -20.00041 -58 0 0.5 0.5 7.5
9 0 1 0 0 0 1 0 0 0 1 -24.00041 -43 -8 0.5 2.5 1.5
9 0 1 0 0 0 1 0 0 0 1 27.99959 -63.5 -8 0.5 7 0.5
9 0 1 0 0 0 1 0 0 0 1 -24.50041 -67 -8 1 3.5 0.5
9 0 1 0 0 0 1 0 0 0 1 -28.00041 -63.5 -8 0.5 7 0.5
9 0 1 0 0 0 1 0 0 0 1 21.99959 -10 -12 0.5 6.5 0.5
9 0 1 0 0 0 1 0 0 0 1 -22.00041 -10 -12 0.5 6.5 0.5
9 0 1 0 0 0 1 0 0 0 1 21.99959 -33.5 -8 0.5 2 1.5
9 0 1 0 0 0 1 0 0 0 1 20.99959 -32.5 -9 0.5 6 0.5
9 0 1 0 0 0 1 0 0 0 1 15.99959 -10.5 -7.5 1.5 1 1
9 0 1 0 0 0 1 0 0 0 1 -15.00041 -11.5 -8 0.5 2 1.5
9 0 1 0 0 0 1 0 0 0 1 -22.00041 -33.5 -8 0.5 2 1.5
9 0 1 0 0 0 1 0 0 0 1 21.99959 -56 2 0.5 0.5 5.5
9 0 1 0 0 0 1 0 0 0 1 21.99959 -60 2 0.5 0.5 5.5
9 0 1 0 0 0 1 0 0 0 1 -22.00041 -56 2 0.5 0.5 5.5
9 0 1 0 0 0 1 0 0 0 1 -22.00041 -60 2 0.5 0.5 5.5
9 0 1 0 0 0 1 0 0 0 1 -23.00041 -41 -9 0.5 5.5 0.5
9 0 1 0 0 0 1 0 0 0 1 22.99959 -48 -7.5 0.5 2.5 1
9 0 1 0 0 0 1 0 0 0 1 22.99959 -57 2.5 0.5 0.5 5
9 0 1 0 0 0 1 0 0 0 1 22.99959 -59 2.5 0.5 0.5 5
9 0 1 0 0 0 1 0 0 0 1 19.99959 -24 -7.5 0.5 2.5 1
9 0 1 0 0 0 1 0 0 0 1 19.49959 -28 -9 1 2.5 0.5
9 0 1 0 0 0 1 0 0 0 1 18.99959 -30 -7.5 0.5 2.5 1
9 0 1 0 0 0 1 0 0 0 1 -18.00041 -25 -7.5 0.5 2.5 1
9 0 1 0 0 0 1 0 0 0 1 -19.00041 -19 -7.5 0.5 2.5 1
9 0 1 0 0 0 1 0 0 0 1 -19.50041 -28 -9 1 2.5 0.5
9 0 1 0 0 0 1 0 0 0 1 -24.00041 -58 2.5 0.5 0.5 5
9 0 1 0 0 0 1 0 0 0 1 25.99959 -52 -8 0.5 1.5 1.5
9 0 1 0 0 0 1 0 0 0 1 -20.00041 -35 -8 0.5 1.5 1.5
9 0 1 0 0 0 1 0 0 0 1 -26.00041 -52 -8 0.5 1.5 1.5
9 0 1 0 0 0 1 0 0 0 1 25.99959 -66.5 -10 0.5 4 0.5
9 0 1 0 0 0 1 0 0 0 1 25.99959 -66.5 -6 0.5 4 0.5
9 0 1 0 0 0 1 0 0 0 1 20.99959 -39.5 -7.5 0.5 2 1
9 0 1 0 0 0 1 0 0 0 1 14.99959 -3.5 -7.5 0.5 2 1
9 0 1 0 0 0 1 0 0 0 1 -15.00041 -3.5 -7.5 0.5 2 1
9 0 1 0 0 0 1 0 0 0 1 -23.00041 -48.5 -7.5 0.5 2 1
9 0 1 0 0 0 1 0 0 0 1 -26.00041 -66.5 -10 0.5 4 0.5
9 0 1 0 0 0 1 0 0 0 1 -26.00041 -66.5 -6 0.5 4 0.5
9 0 1 0 0 0 1 0 0 0 1 23.99959 -67 -8 0.5 3.5 0.5
9 0 1 0 0 0 1 0 0 0 1 -25.00041 -67 -9 0.5 3.5 0.5
9 0 1 0 0 0 1 0 0 0 1 -25.00041 -67 -7 0.5 3.5 0.5
9 0 1 0 0 0 1 0 0 0 1 26.99959 -62.5 -8 0.5 1 1.5
9 0 1 0 0 0 1 0 0 0 1 21.99959 -16.5 -13 0.5 3 0.5
9 0 1 0 0 0 1 0 0 0 1 14.99959 -12.5 -8 0.5 1 1.5
9 0 1 0 0 0 1 0 0 0 1 -21.00041 -40 -7.5 0.5 1.5 1
9 0 1 0 0 0 1 0 0 0 1 -21.00041 -58 -3.5 0.5 1.5 1
9 0 1 0 0 0 1 0 0 0 1 -22.00041 -16.5 -13 0.5 3 0.5
9 0 1 0 0 0 1 0 0 0 1 22.99959 -43 -10 0.5 2.5 0.5
9 0 1 0 0 0 1 0 0 0 1 22.99959 -44 -6 0.5 2.5 0.5
9 0 1 0 0 0 1 0 0 0 1 21.99959 -39 -6 0.5 2.5 0.5
9 0 1 0 0 0 1 0 0 0 1 20.99959 6 -20 0.5 0.5 2.5
9 0 1 0 0 0 1 0 0 0 1 18.99959 6 -30 0.5 0.5 2.5
9 0 1 0 0 0 1 0 0 0 1 18.99959 -25 -6 0.5 2.5 0.5
9 0 1 0 0 0 1 0 0 0 1 17.99959 -20 -6 0.5 2.5 0.5
9 0 1 0 0 0 1 0 0 0 1 16.99959 -15 -6 0.5 2.5 0.5
9 0 1 0 0 0 1 0 0 0 1 -17.00041 -15 -6 0.5 2.5 0.5
9 0 1 0 0 0 1 0 0 0 1 -17.00041 -20 -9 0.5 2.5 0.5
9 0 1 0 0 0 1 0 0 0 1 -18.00041 -20 -6 0.5 2.5 0.5
9 0 1 0 0 0 1 0 0 0 1 -19.00041 6 -30 0.5 0.5 2.5
9 0 1 0 0 0 1 0 0 0 1 -19.00041 -25 -6 0.5 2.5 0.5
9 0 1 0 0 0 1 0 0 0 1 -21.00041 6 -20 0.5 0.5 2.5
9 0 1 0 0 0 1 0 0 0 1 -22.00041 -39 -6 0.5 2.5 0.5
9 0 1 0 0 0 1 0 0 0 1 -23.00041 -43 -10 0.5 2.5 0.5
9 0 1 0 0 0 1 0 0 0 1 -23.00041 -44 -6 0.5 2.5 0.5
9 0 1 0 0 0 1 0 0 0 1 20.99959 -33.5 -10 0.5 2 0.5
9 0 1 0 0 0 1 0 0 0 1 20.99959 -34.5 -6 0.5 2 0.5
9 0 1 0 0 0 1 0 0 0 1 19.99959 -29.5 -6 0.5 2 0.5
9 0 1 0 0 0 1 0 0 0 1 16.99959 -44.5 -10 0.5 2 0.5
9 0 1 0 0 0 1 0 0 0 1 15.99959 -17.5 -7.5 0.5 1 1
9 0 1 0 0 0 1 0 0 0 1 14.99959 4 -0.5 0.5 0.5 2
9 0 1 0 0 0 1 0 0 0 1 14.99959 -4 -0.5 0.5 0.5 2
9 0 1 0 0 0 1 0 0 0 1 -15.00041 4 -0.5 0.5 0.5 2
9 0 1 0 0 0 1 0 0 0 1 -15.00041 -4 -0.5 0.5 0.5 2
9 0 1 0 0 0 1 0 0 0 1 -17.00041 -10.5 -7.5 0.5 1 1
9 0 1 0 0 0 1 0 0 0 1 -17.00041 -44.5 -10 0.5 2 0.5
9 0 1 0 0 0 1 0 0 0 1 -20.00041 -29.5 -6 0.5 2 0.5
9 0 1 0 0 0 1 0 0 0 1 -21.00041 -33.5 -10 0.5 2 0.5
9 0 1 0 0 0 1 0 0 0 1 -21.00041 -34.5 -6 0.5 2 0.5
9 0 1 0 0 0 1 0 0 0 1 -22.00041 -37.5 -9.5 0.5 1 1
9 0 1 0 0 0 1 0 0 0 1 -22.00041 -43.5 -9 0.5 2 0.5
9 0 1 0 0 0 1 0 0 0 1 -24.00041 -47.5 -10 0.5 2 0.5
9 0 1 0 0 0 1 0 0 0 1 25.99959 -63 -8 0.5 0.5 1.5
9 0 1 0 0 0 1 0 0 0 1 23.99959 -48 -6 0.5 1.5 0.5
9 0 1 0 0 0 1 0 0 0 1 21.99959 6 -16 0.5 0.5 1.5
9 0 1 0 0 0 1 0 0 0 1 20.99959 -58 -4 0.5 1.5 0.5
9 0 1 0 0 0 1 0 0 0 1 19.99959 -29 -10 0.5 1.5 0.5
9 0 1 0 0 0 1 0 0 0 1 19.99959 -35 -9 0.5 1.5 0.5
9 0 1 0 0 0 1 0 0 0 1 15.99959 -11 -6 0.5 1.5 0.5
9 0 1 0 0 0 1 0 0 0 1 8.99959 6 -10 1.5 0.5 0.5
9 0 1 0 0 0 1 0 0 0 1 -9.00041 6 -10 1.5 0.5 0.5
9 0 1 0 0 0 1 0 0 0 1 -16.00041 -11 -6 0.5 1.5 0.5
9 0 1 0 0 0 1 0 0 0 1 -20.00041 -29 -10 0.5 1.5 0.5
9 0 1 0 0 0 1 0 0 0 1 -22.00041 6 -16 0.5 0.5 1.5
9 0 1 0 0 0 1 0 0 0 1 -22.00041 -58 -3 0.5 1.5 0.5
9 0 1 0 0 0 1 0 0 0 1 -24.00041 -48 -6 0.5 1.5 0.5
9 0 1 0 0 0 1 0 0 0 1 -27.00041 -62 -8 0.5 0.5 1.5
