9 0 1 0 0 0 1 0 0 0 1 0.25 -10.749 -0.1049995 5 1.5 6.5
9 0 1 0 0 0 1 0 0 0 1 0.25 -12.749 -0.1049995 3 0.5 6.5
9 0 1 0 0 0 1 0 0 0 1 -5.75 -10.249 -0.1049995 1 1 6.5
9 0 1 0 0 0 1 0 0 0 1 -0.25 -14.249 4.395 4.5 1 1
9 0 1 0 0 0 1 0 0 0 1 0.25 -14.749 -4.105 5 1.5 0.5
9 0 1 0 0 0 1 0 0 0 1 6.25 -9.749001 0.8950005 1 0.5 6.5
9 0 1 0 0 0 1 0 0 0 1 -0.25 -10.249 6.895 5.5 1 0.5
9 0 1 0 0 0 1 0 0 0 1 -0.25 -10.249 -7.105 4.5 1 0.5
9 0 1 0 0 0 1 0 0 0 1 7.25 -11.249 4.395 2 1 1
9 0 1 0 0 0 1 0 0 0 1 -7.25 -9.749001 -0.1049995 0.5 0.5 6.5
9 0 1 0 0 0 1 0 0 0 1 9.25 -8.749001 -4.605 1 1.5 1
9 0 1 0 0 0 1 0 0 0 1 6.75 -11.249 -4.605 1.5 1 1
9 0 1 0 0 0 1 0 0 0 1 0.25 -14.249 -5.105 3 1 0.5
9 0 1 0 0 0 1 0 0 0 1 -6.25 -12.249 4.395 1.5 1 1
9 0 1 0 0 0 1 0 0 0 1 -8.75 -9.749001 -4.605 1 1.5 1
9 0 1 0 0 0 1 0 0 0 1 -8.75 -9.749001 4.395 1 1.5 1
9 0 1 0 0 0 1 0 0 0 1 0.25 -15.749 3.895 5 0.5 0.5
9 0 1 0 0 0 1 0 0 0 1 -7.25 -12.249 -4.105 2.5 1 0.5
9 0 1 0 0 0 1 0 0 0 1 5.75 -13.749 3.895 1.5 1.5 0.5
9 0 1 0 0 0 1 0 0 0 1 -11.25 -7.749001 -4.105 1.5 1.5 0.5
9 0 1 0 0 0 1 0 0 0 1 -11.25 -7.749001 3.895 1.5 1.5 0.5
9 0 1 0 0 0 1 0 0 0 1 9.25 -9.249001 4.395 1 1 1
9 0 1 0 0 0 1 0 0 0 1 5.25 -12.749 -4.605 2 0.5 1
9 0 1 0 0 0 1 0 0 0 1 -3.75 -12.749 4.395 1 0.5 2
9 0 1 0 0 0 1 0 0 0 1 5.75 -10.749 -0.1049995 0.5 0.5 3.5
9 0 1 0 0 0 1 0 0 0 1 -0.25 -13.749 -3.105 3.5 0.5 0.5
9 0 1 0 0 0 1 0 0 0 1 -0.25 -13.749 2.895 3.5 0.5 0.5
9 0 1 0 0 0 1 0 0 0 1 10.75 -6.749001 -4.605 0.5 1.5 1
9 0 1 0 0 0 1 0 0 0 1 0.25 -9.749001 7.895 3 0.5 0.5
9 0 1 0 0 0 1 0 0 0 1 -3.75 -12.749 -4.105 1 0.5 1.5
9 0 1 0 0 0 1 0 0 0 1 -12.25 -4.749001 4.395 0.5 1.5 1
9 0 1 0 0 0 1 0 0 0 1 -12.75 -4.749001 -4.105 1 1.5 0.5
9 0 1 0 0 0 1 0 0 0 1 -14.25 -1.249001 3.895 0.5 3 0.5
9 0 1 0 0 0 1 0 0 0 1 -14.75 0.2509995 -4.105 1 1.5 0.5
9 0 1 0 0 0 1 0 0 0 1 7.75 -9.749001 -4.105 0.5 0.5 2.5
9 0 1 0 0 0 1 0 0 0 1 -0.25 -11.749 6.895 2.5 0.5 0.5
9 0 1 0 0 0 1 0 0 0 1 -0.25 -13.749 5.895 2.5 0.5 0.5
9 0 1 0 0 0 1 0 0 0 1 -0.25 -16.749 -4.105 2.5 0.5 0.5
9 0 1 0 0 0 1 0 0 0 1 16.25 -5.249001 -0.1049995 1 1 0.5
9 0 1 0 0 0 1 0 0 0 1 14.75 0.7509995 -3.605 0.5 1 1
9 0 1 0 0 0 1 0 0 0 1 14.75 0.7509995 3.395 0.5 1 1
9 0 1 0 0 0 1 0 0 0 1 10.75 -6.249001 5.395 0.5 1 1
9 0 1 0 0 0 1 0 0 0 1 9.75 -7.249001 5.395 0.5 1 1
9 0 1 0 0 0 1 0 0 0 1 9.25 -7.249001 -6.105 1 1 0.5
9 0 1 0 0 0 1 0 0 0 1 9.25 -11.249 -4.105 1 1 0.5
9 0 1 0 0 0 1 0 0 0 1 7.75 -9.749001 4.395 0.5 0.5 2
9 0 1 0 0 0 1 0 0 0 1 6.25 -10.249 -6.105 1 1 0.5
9 0 1 0 0 0 1 0 0 0 1 5.25 -13.249 4.895 1 1 0.5
9 0 1 0 0 0 1 0 0 0 1 3.75 -12.749 4.395 0.5 0.5 2
9 0 1 0 0 0 1 0 0 0 1 -5.75 -11.749 -5.605 1 0.5 1
9 0 1 0 0 0 1 0 0 0 1 -5.75 -13.749 4.395 1 0.5 1
9 0 1 0 0 0 1 0 0 0 1 -5.75 -14.249 -4.105 1 1 0.5
9 0 1 0 0 0 1 0 0 0 1 -7.25 -10.749 -4.605 0.5 0.5 2
9 0 1 0 0 0 1 0 0 0 1 -7.25 -10.749 4.395 0.5 0.5 2
9 0 1 0 0 0 1 0 0 0 1 -8.75 -7.749001 -5.605 1 0.5 1
9 0 1 0 0 0 1 0 0 0 1 -9.25 -7.749001 4.395 0.5 0.5 2
9 0 1 0 0 0 1 0 0 0 1 -8.75 -12.249 3.895 1 1 0.5
9 0 1 0 0 0 1 0 0 0 1 -10.25 -7.249001 5.395 0.5 1 1
9 0 1 0 0 0 1 0 0 0 1 -10.25 -8.249001 -5.105 0.5 2 0.5
9 0 1 0 0 0 1 0 0 0 1 -11.25 -5.249001 -5.605 0.5 1 1
9 0 1 0 0 0 1 0 0 0 1 -11.25 -5.249001 5.395 0.5 1 1
9 0 1 0 0 0 1 0 0 0 1 -13.25 -3.249001 4.395 0.5 1 1
9 0 1 0 0 0 1 0 0 0 1 -15.25 0.7509995 4.395 0.5 1 1
9 0 1 0 0 0 1 0 0 0 1 11.75 -5.749001 -5.105 0.5 1.5 0.5
9 0 1 0 0 0 1 0 0 0 1 8.75 -7.749001 5.895 0.5 0.5 1.5
9 0 1 0 0 0 1 0 0 0 1 7.75 -8.749001 -6.105 1.5 0.5 0.5
9 0 1 0 0 0 1 0 0 0 1 6.75 -13.749 -4.105 1.5 0.5 0.5
9 0 1 0 0 0 1 0 0 0 1 -0.25 -9.749001 -8.105 1.5 0.5 0.5
9 0 1 0 0 0 1 0 0 0 1 -0.25 -11.749 -7.105 1.5 0.5 0.5
9 0 1 0 0 0 1 0 0 0 1 -0.25 -15.749 4.895 1.5 0.5 0.5
9 0 1 0 0 0 1 0 0 0 1 -4.25 -13.749 -5.105 1.5 0.5 0.5
9 0 1 0 0 0 1 0 0 0 1 -8.25 -8.749001 5.895 1.5 0.5 0.5
9 0 1 0 0 0 1 0 0 0 1 -10.25 -10.749 -4.105 0.5 1.5 0.5
9 0 1 0 0 0 1 0 0 0 1 -10.25 -10.749 3.895 0.5 1.5 0.5
