9 0 1 0 0 0 1 0 0 0 1 0.3929996 -7.482 -0.3260002 4 1 4.5
9 0 1 0 0 0 1 0 0 0 1 -0.1070004 -12.982 6.674 11.5 2.5 0.5
9 0 1 0 0 0 1 0 0 0 1 -0.6070004 -12.482 -6.826 6 2 1
9 0 1 0 0 0 1 0 0 0 1 -0.6070004 -9.982 -5.326 9 1.5 0.5
9 0 1 0 0 0 1 0 0 0 1 0.3929996 -10.482 5.674 12 1 0.5
9 0 1 0 0 0 1 0 0 0 1 9.393 -13.482 -6.326 3 3 0.5
9 0 1 0 0 0 1 0 0 0 1 -9.607 -13.482 -6.326 3 3 0.5
9 0 1 0 0 0 1 0 0 0 1 -0.1070004 -7.982 5.174 2.5 1.5 1
9 0 1 0 0 0 1 0 0 0 1 -0.1070004 -8.982 -4.326 12.5 0.5 0.5
9 0 1 0 0 0 1 0 0 0 1 -4.607 -7.482 0.1739998 1 1 3
9 0 1 0 0 0 1 0 0 0 1 -0.1070004 -13.482 5.674 2.5 2 0.5
9 0 1 0 0 0 1 0 0 0 1 0.3929996 -12.482 7.674 5 1 0.5
9 0 1 0 0 0 1 0 0 0 1 -1.107 -9.482 -6.326 3.5 1 0.5
9 0 1 0 0 0 1 0 0 0 1 -0.6070004 -9.982 6.674 7 0.5 0.5
9 0 1 0 0 0 1 0 0 0 1 -0.1070004 -14.982 -6.326 6.5 0.5 0.5
9 0 1 0 0 0 1 0 0 0 1 5.393 -7.482 -0.3260002 1 1 1.5
9 0 1 0 0 0 1 0 0 0 1 0.3929996 -7.482 -5.326 3 1 0.5
9 0 1 0 0 0 1 0 0 0 1 0.3929996 -9.982 4.674 6 0.5 0.5
9 0 1 0 0 0 1 0 0 0 1 9.893 -14.482 -7.326 2.5 1 0.5
9 0 1 0 0 0 1 0 0 0 1 4.893 -8.982 5.174 2.5 0.5 1
9 0 1 0 0 0 1 0 0 0 1 -0.1070004 -8.982 -2.826 2.5 0.5 1
9 0 1 0 0 0 1 0 0 0 1 -0.1070004 -8.982 3.174 2.5 0.5 1
9 0 1 0 0 0 1 0 0 0 1 -5.107 -8.982 5.174 2.5 0.5 1
9 0 1 0 0 0 1 0 0 0 1 13.893 -14.982 -6.326 1.5 1.5 0.5
9 0 1 0 0 0 1 0 0 0 1 12.393 -14.482 6.674 1 2 0.5
9 0 1 0 0 0 1 0 0 0 1 -8.607 -13.482 -7.326 2 1 0.5
9 0 1 0 0 0 1 0 0 0 1 -12.607 -14.482 6.674 1 2 0.5
9 0 1 0 0 0 1 0 0 0 1 6.893 -12.482 -7.326 1.5 1 0.5
9 0 1 0 0 0 1 0 0 0 1 5.393 -9.982 -6.326 3 0.5 0.5
9 0 1 0 0 0 1 0 0 0 1 0.3929996 -9.982 -4.326 3 0.5 0.5
9 0 1 0 0 0 1 0 0 0 1 -11.107 -10.482 -5.326 1.5 1 0.5
9 0 1 0 0 0 1 0 0 0 1 -13.107 -14.482 -6.326 0.5 3 0.5
9 0 1 0 0 0 1 0 0 0 1 -0.1070004 -10.982 4.674 2.5 0.5 0.5
9 0 1 0 0 0 1 0 0 0 1 -0.1070004 -11.982 -5.326 2.5 0.5 0.5
9 0 1 0 0 0 1 0 0 0 1 -7.107 -9.982 -6.326 2.5 0.5 0.5
9 0 1 0 0 0 1 0 0 0 1 10.393 -9.982 -5.326 2 0.5 0.5
9 0 1 0 0 0 1 0 0 0 1 9.393 -8.982 4.674 2 0.5 0.5
9 0 1 0 0 0 1 0 0 0 1 5.893 -12.482 -6.326 0.5 2 0.5
9 0 1 0 0 0 1 0 0 0 1 4.893 -7.482 -2.826 0.5 1 1
9 0 1 0 0 0 1 0 0 0 1 4.893 -7.482 2.174 0.5 1 1
9 0 1 0 0 0 1 0 0 0 1 -9.607 -8.982 4.674 2 0.5 0.5
9 0 1 0 0 0 1 0 0 0 1 -10.607 -14.982 -7.326 2 0.5 0.5
9 0 1 0 0 0 1 0 0 0 1 -0.1070004 -10.982 7.674 1.5 0.5 0.5
9 0 1 0 0 0 1 0 0 0 1 -6.107 -12.982 7.674 1.5 0.5 0.5
9 0 1 0 0 0 1 0 0 0 1 -14.107 -14.982 -6.326 0.5 1.5 0.5
