9 0 1 0 0 0 1 0 0 0 1 0.05200005 -6.749 0.2919998 4.5 0.5 4.5
9 0 1 0 0 0 1 0 0 0 1 0.05200005 10.751 15.292 2.5 4 0.5
9 0 1 0 0 0 1 0 0 0 1 0.552 -7.749 1.792 3 0.5 3
9 0 1 0 0 0 1 0 0 0 1 0.05200005 22.751 -14.708 2.5 2 0.5
9 0 1 0 0 0 1 0 0 0 1 1.552 -6.749 6.292 3 0.5 1.5
9 0 1 0 0 0 1 0 0 0 1 1.552 -5.249 8.792 2 1 1
9 0 1 0 0 0 1 0 0 0 1 4.552 11.751 14.292 1 3 0.5
9 0 1 0 0 0 1 0 0 0 1 -4.448 11.751 14.292 1 3 0.5
9 0 1 0 0 0 1 0 0 0 1 7.052 11.251 13.292 0.5 4.5 0.5
9 0 1 0 0 0 1 0 0 0 1 -6.948 11.251 13.292 0.5 4.5 0.5
9 0 1 0 0 0 1 0 0 0 1 0.05200005 -4.749 -7.708 3.5 0.5 0.5
9 0 1 0 0 0 1 0 0 0 1 0.05200005 -6.749 -4.708 3.5 0.5 0.5
9 0 1 0 0 0 1 0 0 0 1 -4.948 -6.749 0.2919998 0.5 0.5 3.5
9 0 1 0 0 0 1 0 0 0 1 5.052 -6.749 -0.2080002 0.5 0.5 3
9 0 1 0 0 0 1 0 0 0 1 4.552 -4.749 8.292 1 0.5 1.5
9 0 1 0 0 0 1 0 0 0 1 2.552 -8.749 2.292 1 0.5 1.5
9 0 1 0 0 0 1 0 0 0 1 2.052 -2.249 12.292 1.5 1 0.5
9 0 1 0 0 0 1 0 0 0 1 2.052 -7.749 5.792 1.5 0.5 1
9 0 1 0 0 0 1 0 0 0 1 0.05200005 15.751 15.292 1.5 1 0.5
9 0 1 0 0 0 1 0 0 0 1 0.05200005 5.751 15.292 1.5 1 0.5
9 0 1 0 0 0 1 0 0 0 1 0.05200005 1.751 -14.708 1.5 1 0.5
9 0 1 0 0 0 1 0 0 0 1 2.052 -3.749 11.292 2.5 0.5 0.5
9 0 1 0 0 0 1 0 0 0 1 2.052 -4.749 10.292 2.5 0.5 0.5
9 0 1 0 0 0 1 0 0 0 1 -2.948 -7.749 1.292 0.5 0.5 2.5
9 0 1 0 0 0 1 0 0 0 1 -8.948 12.251 12.292 0.5 2.5 0.5
9 0 1 0 0 0 1 0 0 0 1 8.052 -4.749 -1.208 0.5 0.5 2
9 0 1 0 0 0 1 0 0 0 1 -1.448 -4.749 8.792 1 0.5 1
9 0 1 0 0 0 1 0 0 0 1 -7.948 -4.749 -1.208 0.5 0.5 2
9 0 1 0 0 0 1 0 0 0 1 4.052 7.251 14.292 0.5 1.5 0.5
9 0 1 0 0 0 1 0 0 0 1 2.052 -6.749 8.292 1.5 0.5 0.5
9 0 1 0 0 0 1 0 0 0 1 0.05200005 0.2510004 -13.708 1.5 0.5 0.5
9 0 1 0 0 0 1 0 0 0 1 0.05200005 -0.7489996 13.292 1.5 0.5 0.5
9 0 1 0 0 0 1 0 0 0 1 0.05200005 -5.749 -7.708 1.5 0.5 0.5
9 0 1 0 0 0 1 0 0 0 1 0.05200005 -7.749 -1.708 1.5 0.5 0.5
9 0 1 0 0 0 1 0 0 0 1 -0.948 -1.749 12.292 1.5 0.5 0.5
9 0 1 0 0 0 1 0 0 0 1 -3.948 7.251 14.292 0.5 1.5 0.5
9 0 1 0 0 0 1 0 0 0 1 -7.948 12.251 13.292 0.5 1.5 0.5
9 0 1 0 0 0 1 0 0 0 1 -13.948 13.251 5.292 0.5 1.5 0.5
