9 0 1 0 0 0 1 0 0 0 1 -0.2999992 1.05 15.77 10.5 2.5 2.5
9 0 1 0 0 0 1 0 0 0 1 -0.7999992 1.55 12.27 9 3 1
9 0 1 0 0 0 1 0 0 0 1 -14.3 -1.95 2.27 2.5 0.5 13
9 0 1 0 0 0 1 0 0 0 1 -0.2999992 0.5500002 19.77 3.5 3 1.5
9 0 1 0 0 0 1 0 0 0 1 0.2000008 5.05 15.77 4 1.5 2.5
9 0 1 0 0 0 1 0 0 0 1 16.2 -1.95 1.27 3 0.5 9
9 0 1 0 0 0 1 0 0 0 1 11.7 0.5500002 14.27 1.5 3 2
9 0 1 0 0 0 1 0 0 0 1 -17.8 -2.45 3.77 1 1 8.5
9 0 1 0 0 0 1 0 0 0 1 18.2 -2.95 3.77 2 0.5 7.5
9 0 1 0 0 0 1 0 0 0 1 -11.8 1.05 13.77 1 2.5 2.5
9 0 1 0 0 0 1 0 0 0 1 0.2000008 5.55 12.27 6 1 1
9 0 1 0 0 0 1 0 0 0 1 10.2 2.05 -12.73 2 2.5 1
9 0 1 0 0 0 1 0 0 0 1 -9.299999 -1.95 14.27 2.5 0.5 4
9 0 1 0 0 0 1 0 0 0 1 -10.8 1.05 -12.73 2 2.5 1
9 0 1 0 0 0 1 0 0 0 1 7.700001 -1.95 15.77 2.5 0.5 3.5
9 0 1 0 0 0 1 0 0 0 1 -15.3 -2.95 -3.23 1.5 0.5 5.5
9 0 1 0 0 0 1 0 0 0 1 13.2 -2.45 -9.73 2 1 2
9 0 1 0 0 0 1 0 0 0 1 7.200001 -0.4499998 19.27 4 1 1
9 0 1 0 0 0 1 0 0 0 1 14.2 -0.9499998 13.77 1 2.5 1.5
9 0 1 0 0 0 1 0 0 0 1 10.7 0.5500002 11.77 2.5 3 0.5
9 0 1 0 0 0 1 0 0 0 1 0.2000008 7.05 14.77 3 0.5 2.5
9 0 1 0 0 0 1 0 0 0 1 -19.8 -2.95 3.77 1 0.5 7.5
9 0 1 0 0 0 1 0 0 0 1 -7.299999 4.05 15.27 3.5 0.5 2
9 0 1 0 0 0 1 0 0 0 1 -7.299999 0.5500002 18.77 3.5 2 0.5
9 0 1 0 0 0 1 0 0 0 1 16.7 -3.45 -5.73 1.5 1 2
9 0 1 0 0 0 1 0 0 0 1 11.2 -0.4499998 17.27 1 3 1
9 0 1 0 0 0 1 0 0 0 1 8.200001 4.05 14.77 4 0.5 1.5
9 0 1 0 0 0 1 0 0 0 1 -13.8 0.05000019 13.27 1 1.5 2
9 0 1 0 0 0 1 0 0 0 1 16.7 -0.9499998 2.77 0.5 0.5 10.5
9 0 1 0 0 0 1 0 0 0 1 -17.3 -0.9499998 2.77 0.5 0.5 10.5
9 0 1 0 0 0 1 0 0 0 1 0.2000008 -0.4499998 21.77 5 1 0.5
9 0 1 0 0 0 1 0 0 0 1 -13.8 -2.95 13.77 2 0.5 2.5
9 0 1 0 0 0 1 0 0 0 1 19.7 -3.95 1.27 1.5 0.5 3
9 0 1 0 0 0 1 0 0 0 1 7.200001 2.55 -12.73 1 2 1
9 0 1 0 0 0 1 0 0 0 1 0.2000008 4.55 18.77 4 1 0.5
9 0 1 0 0 0 1 0 0 0 1 -2.799999 -1.95 17.27 4 0.5 1
9 0 1 0 0 0 1 0 0 0 1 -7.799999 1.55 -13.73 1 2 1
9 0 1 0 0 0 1 0 0 0 1 15.7 -2.95 8.27 0.5 0.5 7
9 0 1 0 0 0 1 0 0 0 1 12.2 -1.95 7.77 1 0.5 3.5
9 0 1 0 0 0 1 0 0 0 1 10.7 -1.45 -12.23 3.5 1 0.5
9 0 1 0 0 0 1 0 0 0 1 -10.8 -1.95 -9.23 1 0.5 3.5
9 0 1 0 0 0 1 0 0 0 1 17.7 -0.4499998 8.27 0.5 1 3
9 0 1 0 0 0 1 0 0 0 1 9.200001 1.55 12.77 1 3 0.5
9 0 1 0 0 0 1 0 0 0 1 8.700001 2.55 -14.73 1.5 1 1
9 0 1 0 0 0 1 0 0 0 1 0.2000008 8.05 13.77 2 0.5 1.5
9 0 1 0 0 0 1 0 0 0 1 -4.799999 5.55 14.77 1 1 1.5
9 0 1 0 0 0 1 0 0 0 1 -4.799999 0.05000019 20.27 1 1.5 1
9 0 1 0 0 0 1 0 0 0 1 -12.3 -2.95 -9.73 1.5 0.5 2
9 0 1 0 0 0 1 0 0 0 1 -13.8 -0.9499998 16.27 1 1.5 1
9 0 1 0 0 0 1 0 0 0 1 -15.3 -3.95 -5.73 1.5 0.5 2
9 0 1 0 0 0 1 0 0 0 1 17.7 -0.4499998 -7.23 0.5 1 2.5
9 0 1 0 0 0 1 0 0 0 1 15.7 -1.45 13.77 0.5 1 2.5
9 0 1 0 0 0 1 0 0 0 1 -10.3 1.05 12.27 0.5 2.5 1
9 0 1 0 0 0 1 0 0 0 1 -15.8 -2.95 8.77 1 0.5 2.5
9 0 1 0 0 0 1 0 0 0 1 17.7 -3.95 8.77 0.5 0.5 4.5
9 0 1 0 0 0 1 0 0 0 1 9.700001 -1.95 -10.23 1.5 0.5 1.5
9 0 1 0 0 0 1 0 0 0 1 -11.3 -1.95 5.77 0.5 0.5 4.5
9 0 1 0 0 0 1 0 0 0 1 16.2 -2.45 -8.73 1 1 1
9 0 1 0 0 0 1 0 0 0 1 14.2 -1.45 16.27 1 1 1
9 0 1 0 0 0 1 0 0 0 1 14.2 -1.45 11.77 1 2 0.5
9 0 1 0 0 0 1 0 0 0 1 14.2 -3.45 -6.73 1 1 1
9 0 1 0 0 0 1 0 0 0 1 13.2 0.5500002 -12.73 1 1 1
9 0 1 0 0 0 1 0 0 0 1 9.200001 5.05 -12.73 2 0.5 1
9 0 1 0 0 0 1 0 0 0 1 5.200001 5.55 14.27 1 1 1
9 0 1 0 0 0 1 0 0 0 1 4.200001 1.55 19.27 1 1 1
9 0 1 0 0 0 1 0 0 0 1 4.200001 -1.95 19.27 1 0.5 2
9 0 1 0 0 0 1 0 0 0 1 0.2000008 4.05 19.77 4 0.5 0.5
9 0 1 0 0 0 1 0 0 0 1 -7.799999 -0.4499998 19.77 2 1 0.5
9 0 1 0 0 0 1 0 0 0 1 -8.799999 4.55 -13.23 2 1 0.5
9 0 1 0 0 0 1 0 0 0 1 -11.3 0.5500002 17.27 0.5 2 1
9 0 1 0 0 0 1 0 0 0 1 -13.3 -0.4499998 -12.73 0.5 2 1
9 0 1 0 0 0 1 0 0 0 1 -15.3 -0.4499998 13.27 0.5 1 2
9 0 1 0 0 0 1 0 0 0 1 -16.8 -3.45 13.27 1 1 1
9 0 1 0 0 0 1 0 0 0 1 -13.3 -2.95 -4.23 0.5 0.5 3.5
9 0 1 0 0 0 1 0 0 0 1 -18.3 -0.9499998 8.77 0.5 0.5 3.5
9 0 1 0 0 0 1 0 0 0 1 21.7 -4.45 0.7700005 0.5 1 1.5
9 0 1 0 0 0 1 0 0 0 1 19.7 -1.95 -2.73 0.5 0.5 3
9 0 1 0 0 0 1 0 0 0 1 16.7 0.5500002 7.77 0.5 1 1.5
9 0 1 0 0 0 1 0 0 0 1 14.7 -3.95 -8.73 1.5 0.5 1
9 0 1 0 0 0 1 0 0 0 1 8.700001 0.5500002 -14.23 1.5 1 0.5
9 0 1 0 0 0 1 0 0 0 1 7.700001 5.05 13.27 1.5 0.5 1
9 0 1 0 0 0 1 0 0 0 1 4.700001 -0.4499998 20.77 1.5 1 0.5
9 0 1 0 0 0 1 0 0 0 1 -0.2999992 7.55 11.77 1.5 1 0.5
9 0 1 0 0 0 1 0 0 0 1 -0.7999992 1.05 21.77 3 0.5 0.5
9 0 1 0 0 0 1 0 0 0 1 -6.799999 5.05 13.77 1 0.5 1.5
9 0 1 0 0 0 1 0 0 0 1 -8.799999 -1.95 -11.23 1 0.5 1.5
9 0 1 0 0 0 1 0 0 0 1 -9.799999 2.05 -14.23 1 1.5 0.5
9 0 1 0 0 0 1 0 0 0 1 -10.3 -2.95 15.27 1.5 0.5 1
9 0 1 0 0 0 1 0 0 0 1 -18.3 -0.9499998 -3.73 0.5 0.5 3
9 0 1 0 0 0 1 0 0 0 1 -19.3 -1.95 -2.73 0.5 0.5 3
9 0 1 0 0 0 1 0 0 0 1 -19.3 -1.95 7.27 0.5 0.5 3
9 0 1 0 0 0 1 0 0 0 1 -18.8 -3.95 2.77 1 0.5 1.5
9 0 1 0 0 0 1 0 0 0 1 -21.3 -3.45 -1.23 0.5 1 1.5
9 0 1 0 0 0 1 0 0 0 1 20.7 -2.95 -1.23 0.5 0.5 2.5
9 0 1 0 0 0 1 0 0 0 1 18.7 -0.9499998 6.77 0.5 0.5 2.5
9 0 1 0 0 0 1 0 0 0 1 15.7 -1.95 10.77 2.5 0.5 0.5
9 0 1 0 0 0 1 0 0 0 1 12.7 -1.95 -5.23 0.5 0.5 2.5
9 0 1 0 0 0 1 0 0 0 1 7.700001 1.05 18.77 2.5 0.5 0.5
9 0 1 0 0 0 1 0 0 0 1 19.7 -1.95 6.27 0.5 0.5 2
9 0 1 0 0 0 1 0 0 0 1 18.7 -0.9499998 -5.73 0.5 0.5 2
9 0 1 0 0 0 1 0 0 0 1 19.2 -3.95 5.27 1 0.5 1
9 0 1 0 0 0 1 0 0 0 1 19.2 -3.95 -2.23 2 0.5 0.5
9 0 1 0 0 0 1 0 0 0 1 17.2 -2.45 11.77 1 1 0.5
9 0 1 0 0 0 1 0 0 0 1 12.7 -0.4499998 16.77 0.5 2 0.5
9 0 1 0 0 0 1 0 0 0 1 12.7 -2.95 14.27 0.5 0.5 2
9 0 1 0 0 0 1 0 0 0 1 9.200001 -2.95 17.27 1 0.5 1
9 0 1 0 0 0 1 0 0 0 1 8.200001 6.05 -12.73 1 0.5 1
9 0 1 0 0 0 1 0 0 0 1 4.700001 5.55 16.27 0.5 1 1
9 0 1 0 0 0 1 0 0 0 1 4.200001 7.05 13.27 1 0.5 1
9 0 1 0 0 0 1 0 0 0 1 -3.799999 7.05 14.27 1 0.5 1
9 0 1 0 0 0 1 0 0 0 1 -5.799999 -1.95 15.27 1 0.5 1
9 0 1 0 0 0 1 0 0 0 1 -7.799999 -0.9499998 -12.73 1 0.5 1
9 0 1 0 0 0 1 0 0 0 1 -8.799999 5.55 -12.23 1 1 0.5
9 0 1 0 0 0 1 0 0 0 1 -9.799999 -1.95 9.27 1 0.5 1
9 0 1 0 0 0 1 0 0 0 1 -9.799999 -1.95 19.27 1 0.5 1
9 0 1 0 0 0 1 0 0 0 1 -11.3 -1.95 -3.73 0.5 0.5 2
9 0 1 0 0 0 1 0 0 0 1 -12.3 -0.4499998 16.77 0.5 2 0.5
9 0 1 0 0 0 1 0 0 0 1 -13.3 2.55 13.27 0.5 1 1
9 0 1 0 0 0 1 0 0 0 1 -14.3 -0.4499998 -12.73 0.5 1 1
9 0 1 0 0 0 1 0 0 0 1 -14.3 -3.45 -9.73 0.5 1 1
9 0 1 0 0 0 1 0 0 0 1 -13.8 -1.95 -11.23 2 0.5 0.5
9 0 1 0 0 0 1 0 0 0 1 -15.3 -1.45 16.27 0.5 1 1
9 0 1 0 0 0 1 0 0 0 1 -14.8 -3.95 14.27 1 0.5 1
9 0 1 0 0 0 1 0 0 0 1 -16.3 -2.95 4.27 0.5 0.5 2
9 0 1 0 0 0 1 0 0 0 1 -17.3 0.05000019 -5.73 0.5 0.5 2
9 0 1 0 0 0 1 0 0 0 1 -17.3 0.05000019 9.27 0.5 0.5 2
9 0 1 0 0 0 1 0 0 0 1 18.7 -2.95 -5.23 0.5 0.5 1.5
9 0 1 0 0 0 1 0 0 0 1 16.7 0.05000019 -6.23 0.5 0.5 1.5
9 0 1 0 0 0 1 0 0 0 1 17.7 -3.95 -3.23 1.5 0.5 0.5
9 0 1 0 0 0 1 0 0 0 1 14.7 -2.95 -4.23 0.5 0.5 1.5
9 0 1 0 0 0 1 0 0 0 1 14.7 -3.95 13.77 1.5 0.5 0.5
9 0 1 0 0 0 1 0 0 0 1 11.7 -0.9499998 18.77 0.5 1.5 0.5
9 0 1 0 0 0 1 0 0 0 1 10.7 -2.95 -10.23 0.5 0.5 1.5
9 0 1 0 0 0 1 0 0 0 1 10.7 -2.95 18.77 0.5 1.5 0.5
9 0 1 0 0 0 1 0 0 0 1 8.700001 4.05 -14.23 1.5 0.5 0.5
9 0 1 0 0 0 1 0 0 0 1 4.700001 -1.95 15.77 0.5 0.5 1.5
9 0 1 0 0 0 1 0 0 0 1 -0.2999992 -1.95 21.77 1.5 0.5 0.5
9 0 1 0 0 0 1 0 0 0 1 -4.299999 -1.95 19.77 0.5 0.5 1.5
9 0 1 0 0 0 1 0 0 0 1 -10.3 -2.95 17.77 0.5 0.5 1.5
9 0 1 0 0 0 1 0 0 0 1 -10.3 4.05 -12.23 1.5 0.5 0.5
9 0 1 0 0 0 1 0 0 0 1 -16.3 -0.9499998 12.77 0.5 0.5 1.5
9 0 1 0 0 0 1 0 0 0 1 -17.3 -1.95 -6.23 0.5 0.5 1.5
9 0 1 0 0 0 1 0 0 0 1 -18.3 -3.95 -3.23 1.5 0.5 0.5
