9 0 1 0 0 0 1 0 0 0 1 -0.9979992 -10.484 -9.037998 2.5 3 1.5
9 0 1 0 0 0 1 0 0 0 1 0.002000809 -10.484 9.962002 3.5 1 2.5
9 0 1 0 0 0 1 0 0 0 1 3.002001 -10.484 -9.037998 1.5 2 1.5
9 0 1 0 0 0 1 0 0 0 1 0.002000809 -7.983997 7.962002 5.5 1.5 0.5
9 0 1 0 0 0 1 0 0 0 1 15.502 -8.983997 -9.537998 2 1.5 1
9 0 1 0 0 0 1 0 0 0 1 8.502001 -7.983997 -5.537998 2 1.5 1
9 0 1 0 0 0 1 0 0 0 1 -4.497999 -9.483997 -7.537998 1 3 1
9 0 1 0 0 0 1 0 0 0 1 -8.497999 -9.483997 -6.537998 3 1 1
9 0 1 0 0 0 1 0 0 0 1 -15.498 -8.983997 -9.537998 2 1.5 1
9 0 1 0 0 0 1 0 0 0 1 0.002000809 -9.983997 14.462 2.5 0.5 2
9 0 1 0 0 0 1 0 0 0 1 0.002000809 -11.484 -11.038 2.5 2 0.5
9 0 1 0 0 0 1 0 0 0 1 -7.497999 -8.983997 -4.537998 1 2.5 1
9 0 1 0 0 0 1 0 0 0 1 8.002001 -9.483997 -7.037998 4.5 1 0.5
9 0 1 0 0 0 1 0 0 0 1 -0.4979992 -14.484 -8.537998 2 1 1
9 0 1 0 0 0 1 0 0 0 1 4.002001 -7.483997 11.962 0.5 1 3.5
9 0 1 0 0 0 1 0 0 0 1 0.002000809 -6.983997 -8.537998 3.5 0.5 1
9 0 1 0 0 0 1 0 0 0 1 0.002000809 -11.984 8.462002 3.5 0.5 1
9 0 1 0 0 0 1 0 0 0 1 12.002 -9.483997 -8.537998 1.5 1 1
9 0 1 0 0 0 1 0 0 0 1 8.002001 -8.483997 -1.537998 0.5 1 3
9 0 1 0 0 0 1 0 0 0 1 -3.997999 -7.483997 11.462 0.5 1 3
9 0 1 0 0 0 1 0 0 0 1 -12.498 -7.983997 -7.537998 1 1.5 1
9 0 1 0 0 0 1 0 0 0 1 0.002000809 -10.984 -12.038 1.5 1.5 0.5
9 0 1 0 0 0 1 0 0 0 1 12.502 -7.483997 -7.537998 1 1 1
9 0 1 0 0 0 1 0 0 0 1 10.502 -9.483997 -26.538 1 1 1
9 0 1 0 0 0 1 0 0 0 1 7.502001 -10.484 -5.537998 1 1 1
9 0 1 0 0 0 1 0 0 0 1 4.502001 -7.483997 -7.537998 1 1 1
9 0 1 0 0 0 1 0 0 0 1 4.502001 -8.483997 6.962002 1 2 0.5
9 0 1 0 0 0 1 0 0 0 1 2.502001 -13.484 -8.537998 1 1 1
9 0 1 0 0 0 1 0 0 0 1 -4.497999 -8.483997 6.962002 1 2 0.5
9 0 1 0 0 0 1 0 0 0 1 -10.498 -9.483997 -26.538 1 1 1
9 0 1 0 0 0 1 0 0 0 1 -9.497999 -9.983997 -8.037998 4 0.5 0.5
9 0 1 0 0 0 1 0 0 0 1 -8.997999 -7.983997 -6.037998 3.5 0.5 0.5
9 0 1 0 0 0 1 0 0 0 1 6.002001 -9.483997 -6.037998 0.5 3 0.5
9 0 1 0 0 0 1 0 0 0 1 5.002001 -7.483997 9.962002 0.5 1 1.5
9 0 1 0 0 0 1 0 0 0 1 7.502001 -9.983997 -8.037998 3 0.5 0.5
9 0 1 0 0 0 1 0 0 0 1 4.002001 -9.483997 9.962002 0.5 1 1.5
9 0 1 0 0 0 1 0 0 0 1 5.002001 -11.484 -7.037998 1.5 1 0.5
9 0 1 0 0 0 1 0 0 0 1 -3.997999 -9.483997 9.962002 0.5 1 1.5
9 0 1 0 0 0 1 0 0 0 1 -3.997999 -9.983997 -9.537998 0.5 1.5 1
9 0 1 0 0 0 1 0 0 0 1 -4.997999 -7.483997 9.962002 0.5 1 1.5
9 0 1 0 0 0 1 0 0 0 1 -7.997999 -7.983997 -0.5379982 0.5 0.5 3
9 0 1 0 0 0 1 0 0 0 1 -9.497999 -7.983997 -5.037998 1 1.5 0.5
9 0 1 0 0 0 1 0 0 0 1 -12.998 -9.483997 -10.038 0.5 1 1.5
9 0 1 0 0 0 1 0 0 0 1 16.002 -10.984 -10.038 2.5 0.5 0.5
9 0 1 0 0 0 1 0 0 0 1 7.002001 -8.983997 -4.037998 0.5 2.5 0.5
9 0 1 0 0 0 1 0 0 0 1 0.002000809 -8.983997 -11.038 2.5 0.5 0.5
9 0 1 0 0 0 1 0 0 0 1 0.002000809 -10.984 12.962 2.5 0.5 0.5
9 0 1 0 0 0 1 0 0 0 1 0.002000809 -13.984 -10.038 2.5 0.5 0.5
9 0 1 0 0 0 1 0 0 0 1 -15.998 -10.984 -10.038 2.5 0.5 0.5
9 0 1 0 0 0 1 0 0 0 1 15.502 -6.983997 -9.537998 1 0.5 1
9 0 1 0 0 0 1 0 0 0 1 14.502 -8.483997 -8.037998 1 1 0.5
9 0 1 0 0 0 1 0 0 0 1 14.002 -9.483997 -11.038 0.5 2 0.5
9 0 1 0 0 0 1 0 0 0 1 13.002 -9.483997 -10.538 0.5 1 1
9 0 1 0 0 0 1 0 0 0 1 11.502 -7.483997 -6.037998 1 1 0.5
9 0 1 0 0 0 1 0 0 0 1 9.002001 -9.483997 -17.538 0.5 1 1
9 0 1 0 0 0 1 0 0 0 1 2.502001 -7.983997 -8.537998 1 0.5 1
9 0 1 0 0 0 1 0 0 0 1 0.5020008 -11.984 9.962002 2 0.5 0.5
9 0 1 0 0 0 1 0 0 0 1 -5.997999 -11.484 -6.537998 0.5 1 1
9 0 1 0 0 0 1 0 0 0 1 -7.997999 -9.483997 -2.537998 0.5 1 1
9 0 1 0 0 0 1 0 0 0 1 -8.497999 -9.483997 -18.038 1 1 0.5
9 0 1 0 0 0 1 0 0 0 1 -8.997999 -9.483997 -17.038 0.5 2 0.5
9 0 1 0 0 0 1 0 0 0 1 -13.998 -9.483997 -11.038 0.5 2 0.5
9 0 1 0 0 0 1 0 0 0 1 -15.498 -6.983997 -9.537998 1 0.5 1
9 0 1 0 0 0 1 0 0 0 1 18.002 -8.983997 -10.038 0.5 1.5 0.5
9 0 1 0 0 0 1 0 0 0 1 8.002001 -9.983997 -3.037998 0.5 0.5 1.5
9 0 1 0 0 0 1 0 0 0 1 8.002001 -8.983997 -27.038 1.5 0.5 0.5
9 0 1 0 0 0 1 0 0 0 1 5.002001 -9.983997 -9.037998 0.5 1.5 0.5
9 0 1 0 0 0 1 0 0 0 1 0.002000809 -12.984 7.962002 1.5 0.5 0.5
9 0 1 0 0 0 1 0 0 0 1 -2.997999 -10.984 -11.038 0.5 1.5 0.5
9 0 1 0 0 0 1 0 0 0 1 -4.997999 -9.983997 -9.037998 0.5 1.5 0.5
9 0 1 0 0 0 1 0 0 0 1 -7.997999 -8.983997 -27.038 1.5 0.5 0.5
9 0 1 0 0 0 1 0 0 0 1 -13.998 -7.983997 -8.037998 0.5 1.5 0.5
9 0 1 0 0 0 1 0 0 0 1 -17.998 -8.983997 -10.038 0.5 1.5 0.5
