9 0 1 0 0 0 1 0 0 0 1 0.1899986 -19.648 -9.792999 17 1.5 0.5
9 0 1 0 0 0 1 0 0 0 1 -24.81 -24.648 1.207001 2 0.5 3.5
9 0 1 0 0 0 1 0 0 0 1 25.69 -24.648 1.707001 2.5 0.5 2
9 0 1 0 0 0 1 0 0 0 1 20.69 -20.148 -9.792999 3.5 1 0.5
9 0 1 0 0 0 1 0 0 0 1 -6.310001 -17.148 13.207 2.5 1 0.5
9 0 1 0 0 0 1 0 0 0 1 -22.31 -20.148 -9.792999 2.5 1 0.5
9 0 1 0 0 0 1 0 0 0 1 25.19 -25.648 0.7070007 1 0.5 2
9 0 1 0 0 0 1 0 0 0 1 24.19 -19.148 -10.793 2 1 0.5
9 0 1 0 0 0 1 0 0 0 1 -21.81 -21.648 -8.292999 1 0.5 2
9 0 1 0 0 0 1 0 0 0 1 -32.31 -16.148 2.707001 0.5 1 2
9 0 1 0 0 0 1 0 0 0 1 30.69 -17.648 5.707001 0.5 1.5 1
9 0 1 0 0 0 1 0 0 0 1 26.69 -17.148 -10.793 1.5 1 0.5
9 0 1 0 0 0 1 0 0 0 1 24.69 -24.648 -1.292999 1.5 0.5 1
9 0 1 0 0 0 1 0 0 0 1 23.69 -22.648 -6.292999 1.5 0.5 1
9 0 1 0 0 0 1 0 0 0 1 -24.31 -19.148 -10.793 1.5 1 0.5
9 0 1 0 0 0 1 0 0 0 1 -25.31 -25.648 0.7070007 0.5 0.5 3
9 0 1 0 0 0 1 0 0 0 1 -27.81 -24.648 1.207001 1 0.5 1.5
9 0 1 0 0 0 1 0 0 0 1 32.69 -16.148 1.707001 0.5 1 1
9 0 1 0 0 0 1 0 0 0 1 25.19 -24.648 4.207001 2 0.5 0.5
9 0 1 0 0 0 1 0 0 0 1 23.19 -21.648 -8.792999 2 0.5 0.5
9 0 1 0 0 0 1 0 0 0 1 -22.81 -22.648 -6.292999 1 0.5 1
9 0 1 0 0 0 1 0 0 0 1 -25.81 -17.648 -10.793 2 0.5 0.5
9 0 1 0 0 0 1 0 0 0 1 -32.31 -17.148 0.2070007 0.5 2 0.5
9 0 1 0 0 0 1 0 0 0 1 31.69 -16.648 4.207001 0.5 1.5 0.5
9 0 1 0 0 0 1 0 0 0 1 31.69 -17.648 -4.792999 0.5 1.5 0.5
9 0 1 0 0 0 1 0 0 0 1 29.69 -17.648 6.207001 0.5 1.5 0.5
9 0 1 0 0 0 1 0 0 0 1 25.69 -19.648 -9.792999 1.5 0.5 0.5
9 0 1 0 0 0 1 0 0 0 1 22.69 -20.648 -10.793 1.5 0.5 0.5
9 0 1 0 0 0 1 0 0 0 1 -18.31 -20.648 -9.792999 1.5 0.5 0.5
9 0 1 0 0 0 1 0 0 0 1 -30.31 -17.648 6.207001 0.5 1.5 0.5
