9 0 -1.192093E-07 0 -1 0 1 0 1 0 -1.192093E-07 10 -2 0 3.35 0.5 3.35
9 0 -1.192093E-07 0 -1 0 1 0 1 0 -1.192093E-07 -10 -2 0 3.35 0.5 3.35
9 0 1 0 0 0 1 0 0 0 1 0.09999847 4 -41.5 24.5 0.5 23
9 0 1 0 0 0 1 0 0 0 1 0.09999847 5.5 -60 24.5 1 1.5
9 0 1 0 0 0 1 0 0 0 1 0.09999847 4 -15 18.5 0.5 3.5
9 0 1 0 0 0 1 0 0 0 1 -31.4 4 -40.5 7 0.5 9
9 0 1 0 0 0 1 0 0 0 1 0.09999847 3 -62 24.5 0.5 2.5
9 0 1 0 0 0 1 0 0 0 1 32.6 4 -42 8 0.5 7.5
9 0 1 0 0 0 1 0 0 0 1 0.09999847 4 8 18.5 2.5 0.5
9 0 1 0 0 0 1 0 0 0 1 -42.9 4.5 -50.5 3.5 1 6
9 0 1 0 0 0 1 0 0 0 1 0.09999847 5 -63 24.5 0.5 1.5
9 0 1 0 0 0 1 0 0 0 1 0.09999847 4 -66 24.5 0.5 1.5
9 0 1 0 0 0 1 0 0 0 1 16.6 5.5 -18.5 2 1 7
9 0 1 0 0 0 1 0 0 0 1 16.6 2.5 -18.5 2 1 7
9 0 1 0 0 0 1 0 0 0 1 -37.4 4.5 -56.5 2 1 7
9 0 1 0 0 0 1 0 0 0 1 -16.4 5.5 -19 2 1 6.5
9 0 1 0 0 0 1 0 0 0 1 -16.4 2.5 -18 2 1 6.5
9 0 1 0 0 0 1 0 0 0 1 0.09999847 2 -60.5 24.5 0.5 1
9 0 1 0 0 0 1 0 0 0 1 18.1 4 -2 0.5 2.5 9.5
9 0 1 0 0 0 1 0 0 0 1 -17.9 4 -2 0.5 2.5 9.5
9 0 1 0 0 0 1 0 0 0 1 29.1 4 -32 2.5 1.5 2.5
9 0 1 0 0 0 1 0 0 0 1 43.6 4 -47.5 3 1.5 2
9 0 1 0 0 0 1 0 0 0 1 -1.900002 5.5 -12 16.5 1 0.5
9 0 1 0 0 0 1 0 0 0 1 0.09999847 3 -58.5 15.5 0.5 1
9 0 1 0 0 0 1 0 0 0 1 23.1 5.5 -53.5 1.5 1 5
9 0 1 0 0 0 1 0 0 0 1 -26.4 4 -29 2 1.5 2.5
9 0 1 0 0 0 1 0 0 0 1 0.09999847 3 -12.5 14.5 0.5 1
9 0 1 0 0 0 1 0 0 0 1 -38.9 6 -52.5 3.5 0.5 4
9 0 1 0 0 0 1 0 0 0 1 -35.4 3 -48.5 14 0.5 1
9 0 1 0 0 0 1 0 0 0 1 -48.9 4 -51 2.5 0.5 5.5
9 0 1 0 0 0 1 0 0 0 1 -21.9 5.5 -56 2.5 1 2.5
9 0 1 0 0 0 1 0 0 0 1 50.1 4 -51 3.5 0.5 3.5
9 0 1 0 0 0 1 0 0 0 1 39.1 6 -52 3.5 0.5 3.5
9 0 1 0 0 0 1 0 0 0 1 -40.4 4 -42.5 2 1.5 2
9 0 1 0 0 0 1 0 0 0 1 30.1 4 -60 2.5 1.5 1.5
9 0 1 0 0 0 1 0 0 0 1 -29.9 4 -60 2.5 1.5 1.5
9 0 1 0 0 0 1 0 0 0 1 1.099998 5 -58 20.5 0.5 0.5
9 0 1 0 0 0 1 0 0 0 1 31.1 3 -48.5 9.5 0.5 1
9 0 1 0 0 0 1 0 0 0 1 -30.4 5 -48.5 9 0.5 1
9 0 1 0 0 0 1 0 0 0 1 -42.4 4 -59.5 3 0.5 3
9 0 1 0 0 0 1 0 0 0 1 39.1 4 -63 3.5 0.5 2.5
9 0 1 0 0 0 1 0 0 0 1 32.6 5 -48.5 8 0.5 1
9 0 1 0 0 0 1 0 0 0 1 43.6 4 -43 3 0.5 2.5
9 0 1 0 0 0 1 0 0 0 1 27.6 4 -27 3 0.5 2.5
9 0 1 0 0 0 1 0 0 0 1 21.6 5 -25 3 0.5 2.5
9 0 1 0 0 0 1 0 0 0 1 21.6 3 -25 3 0.5 2.5
9 0 1 0 0 0 1 0 0 0 1 -20.9 5 -24.5 2.5 0.5 3
9 0 1 0 0 0 1 0 0 0 1 -20.9 3 -24.5 2.5 0.5 3
9 0 1 0 0 0 1 0 0 0 1 0.09999847 5 -13 14.5 0.5 0.5
9 0 1 0 0 0 1 0 0 0 1 0.09999847 2 -59 14.5 0.5 0.5
9 0 1 0 0 0 1 0 0 0 1 0.09999847 2 -12 14.5 0.5 0.5
9 0 1 0 0 0 1 0 0 0 1 46.1 4 -57 2.5 0.5 2.5
9 0 1 0 0 0 1 0 0 0 1 36.1 3 -39 2.5 0.5 2.5
9 0 1 0 0 0 1 0 0 0 1 33.6 2 -49 12 0.5 0.5
9 0 1 0 0 0 1 0 0 0 1 13.6 5.5 -16.5 1 1 3
9 0 1 0 0 0 1 0 0 0 1 -30.4 4 -28.5 2 0.5 3
9 0 1 0 0 0 1 0 0 0 1 -42.4 3 -46 4 0.5 1.5
9 0 1 0 0 0 1 0 0 0 1 -33.9 2 -49 11.5 0.5 0.5
9 0 1 0 0 0 1 0 0 0 1 33.1 5 -36 1.5 0.5 3.5
9 0 1 0 0 0 1 0 0 0 1 37.1 5 -40.5 2.5 0.5 2
9 0 1 0 0 0 1 0 0 0 1 34.1 4 -32.5 2.5 0.5 2
9 0 1 0 0 0 1 0 0 0 1 25.6 4 -30.5 1 2.5 1
9 0 1 0 0 0 1 0 0 0 1 13.6 2.5 -16 1 1 2.5
9 0 1 0 0 0 1 0 0 0 1 -13.4 5.5 -16 1 1 2.5
9 0 1 0 0 0 1 0 0 0 1 -13.4 2.5 -16 1 1 2.5
9 0 1 0 0 0 1 0 0 0 1 -30.4 5 -33 2 0.5 2.5
9 0 1 0 0 0 1 0 0 0 1 -30.4 3 -33 2 0.5 2.5
9 0 1 0 0 0 1 0 0 0 1 -34.4 5 -37 2 0.5 2.5
9 0 1 0 0 0 1 0 0 0 1 -34.4 3 -37 2 0.5 2.5
9 0 1 0 0 0 1 0 0 0 1 -37.4 3 -61 2 0.5 2.5
9 0 1 0 0 0 1 0 0 0 1 -37.9 4 -65.5 2.5 0.5 2
9 0 1 0 0 0 1 0 0 0 1 -46.4 3 -52 2 0.5 2.5
9 0 1 0 0 0 1 0 0 0 1 41.1 4 -59.5 1.5 1.5 1
9 0 1 0 0 0 1 0 0 0 1 41.6 5 -44 3 0.5 1.5
9 0 1 0 0 0 1 0 0 0 1 20.1 5.5 -56 1.5 1 1.5
9 0 1 0 0 0 1 0 0 0 1 0.09999847 5.5 0 1.5 1 1.5
9 0 1 0 0 0 1 0 0 0 1 -25.9 4 -23.5 1.5 0.5 3
9 0 1 0 0 0 1 0 0 0 1 -47.9 5 -50.5 1.5 0.5 3
9 0 1 0 0 0 1 0 0 0 1 47.6 5 -51.5 2 0.5 2
9 0 1 0 0 0 1 0 0 0 1 40.6 3 -43.5 2 0.5 2
9 0 1 0 0 0 1 0 0 0 1 25.6 3 -28.5 4 0.5 1
9 0 1 0 0 0 1 0 0 0 1 -23.4 5.5 -51.5 1 1 2
9 0 1 0 0 0 1 0 0 0 1 -40.4 4 -38.5 2 0.5 2
9 0 1 0 0 0 1 0 0 0 1 -44.4 4 -42.5 2 0.5 2
9 0 1 0 0 0 1 0 0 0 1 -52.9 4 -51 1.5 0.5 2.5
9 0 1 0 0 0 1 0 0 0 1 26.1 5 -28.5 3.5 0.5 1
9 0 1 0 0 0 1 0 0 0 1 -28.9 6 -49 6.5 0.5 0.5
9 0 1 0 0 0 1 0 0 0 1 48.6 4 -46 2 0.5 1.5
9 0 1 0 0 0 1 0 0 0 1 48.6 3 -51 2 0.5 1.5
9 0 1 0 0 0 1 0 0 0 1 44.1 6 -50.5 1.5 0.5 2
9 0 1 0 0 0 1 0 0 0 1 42.6 4 -57.5 1 1.5 1
9 0 1 0 0 0 1 0 0 0 1 37.6 6 -57 2 0.5 1.5
9 0 1 0 0 0 1 0 0 0 1 37.6 5 -62 2 0.5 1.5
9 0 1 0 0 0 1 0 0 0 1 37.6 3 -62 2 0.5 1.5
9 0 1 0 0 0 1 0 0 0 1 32.6 3 -35.5 3 0.5 1
9 0 1 0 0 0 1 0 0 0 1 -19.9 4 -16.5 1.5 0.5 2
9 0 1 0 0 0 1 0 0 0 1 -36.9 6 -58.5 1.5 0.5 2
9 0 1 0 0 0 1 0 0 0 1 -37.4 5 -39.5 1 0.5 3
9 0 1 0 0 0 1 0 0 0 1 -40.9 5 -58.5 1.5 0.5 2
9 0 1 0 0 0 1 0 0 0 1 -43.4 6 -50.5 1 0.5 3
9 0 1 0 0 0 1 0 0 0 1 30.1 6 -49 5.5 0.5 0.5
9 0 1 0 0 0 1 0 0 0 1 38.1 4 -66.5 2.5 0.5 1
9 0 1 0 0 0 1 0 0 0 1 16.6 5 -28 1 0.5 2.5
9 0 1 0 0 0 1 0 0 0 1 -16.4 3 -27 1 0.5 2.5
9 0 1 0 0 0 1 0 0 0 1 -37.4 3 -40 1 0.5 2.5
9 0 1 0 0 0 1 0 0 0 1 44.1 4 -61 1.5 0.5 1.5
9 0 1 0 0 0 1 0 0 0 1 42.1 4 -39 1.5 0.5 1.5
9 0 1 0 0 0 1 0 0 0 1 41.1 6 -47 1.5 0.5 1.5
9 0 1 0 0 0 1 0 0 0 1 41.1 2 -47 1.5 0.5 1.5
9 0 1 0 0 0 1 0 0 0 1 26.1 4 -23 1.5 0.5 1.5
9 0 1 0 0 0 1 0 0 0 1 20.1 4 -17 1.5 0.5 1.5
9 0 1 0 0 0 1 0 0 0 1 20.1 3 -21 1.5 0.5 1.5
9 0 1 0 0 0 1 0 0 0 1 -40.9 6 -47 1.5 0.5 1.5
9 0 1 0 0 0 1 0 0 0 1 -40.9 3 -59 1.5 0.5 1.5
9 0 1 0 0 0 1 0 0 0 1 -40.9 2 -47 1.5 0.5 1.5
9 0 1 0 0 0 1 0 0 0 1 -43.9 3 -56 1.5 0.5 1.5
9 0 1 0 0 0 1 0 0 0 1 -46.9 4 -58 1.5 0.5 1.5
9 0 1 0 0 0 1 0 0 0 1 37.6 2.5 -42.5 1 1 1
9 0 1 0 0 0 1 0 0 0 1 32.6 2.5 -37.5 1 1 1
9 0 1 0 0 0 1 0 0 0 1 30.6 5.5 -35.5 1 1 1
9 0 1 0 0 0 1 0 0 0 1 17.1 3 -29.5 0.5 0.5 4
9 0 1 0 0 0 1 0 0 0 1 16.1 2.5 -27.5 0.5 1 2
9 0 1 0 0 0 1 0 0 0 1 -18.4 5.5 -56.5 1 1 1
9 0 1 0 0 0 1 0 0 0 1 -23.4 5.5 -28.5 1 1 1
9 0 1 0 0 0 1 0 0 0 1 -23.4 2.5 -28.5 1 1 1
9 0 1 0 0 0 1 0 0 0 1 -27.4 5.5 -32.5 1 1 1
9 0 1 0 0 0 1 0 0 0 1 -27.4 2.5 -32.5 1 1 1
9 0 1 0 0 0 1 0 0 0 1 -31.4 5.5 -36.5 1 1 1
9 0 1 0 0 0 1 0 0 0 1 -31.4 2.5 -36.5 1 1 1
9 0 1 0 0 0 1 0 0 0 1 -35.4 5.5 -40.5 1 1 1
9 0 1 0 0 0 1 0 0 0 1 -35.4 2.5 -40.5 1 1 1
9 0 1 0 0 0 1 0 0 0 1 50.1 4 -55.5 1.5 0.5 1
9 0 1 0 0 0 1 0 0 0 1 47.6 5 -48 1 0.5 1.5
9 0 1 0 0 0 1 0 0 0 1 47.1 3 -53.5 1.5 0.5 1
9 0 1 0 0 0 1 0 0 0 1 46.1 5 -54.5 1.5 0.5 1
9 0 1 0 0 0 1 0 0 0 1 45.1 3 -55.5 1.5 0.5 1
9 0 1 0 0 0 1 0 0 0 1 36.1 5 -37.5 1.5 0.5 1
9 0 1 0 0 0 1 0 0 0 1 33.1 4 -29.5 1.5 0.5 1
9 0 1 0 0 0 1 0 0 0 1 26.1 5 -26.5 1.5 0.5 1
9 0 1 0 0 0 1 0 0 0 1 25.6 4 -33 1 0.5 1.5
9 0 1 0 0 0 1 0 0 0 1 26.1 3 -26.5 1.5 0.5 1
9 0 1 0 0 0 1 0 0 0 1 21.6 5 -46 1 0.5 1.5
9 0 1 0 0 0 1 0 0 0 1 21.1 3 -44.5 0.5 0.5 3
9 0 1 0 0 0 1 0 0 0 1 20.1 5.5 -41 0.5 1 1.5
9 0 1 0 0 0 1 0 0 0 1 20.1 2.5 -41 0.5 1 1.5
9 0 1 0 0 0 1 0 0 0 1 20.1 5 -21.5 1.5 0.5 1
9 0 1 0 0 0 1 0 0 0 1 19.1 2.5 -38 0.5 1 1.5
9 0 1 0 0 0 1 0 0 0 1 18.1 2.5 -35 0.5 1 1.5
9 0 1 0 0 0 1 0 0 0 1 18.6 6 -58 3 0.5 0.5
9 0 1 0 0 0 1 0 0 0 1 14.1 5.5 -21 0.5 1 1.5
9 0 1 0 0 0 1 0 0 0 1 14.1 2.5 -20 0.5 1 1.5
9 0 1 0 0 0 1 0 0 0 1 -13.9 5.5 -20 0.5 1 1.5
9 0 1 0 0 0 1 0 0 0 1 -13.9 2.5 -20 0.5 1 1.5
9 0 1 0 0 0 1 0 0 0 1 -15.9 5.5 -27 0.5 1 1.5
9 0 1 0 0 0 1 0 0 0 1 -16.9 5 -28.5 0.5 0.5 3
9 0 1 0 0 0 1 0 0 0 1 -17.9 5.5 -34 0.5 1 1.5
9 0 1 0 0 0 1 0 0 0 1 -17.9 2.5 -34 0.5 1 1.5
9 0 1 0 0 0 1 0 0 0 1 -18.9 5.5 -37 0.5 1 1.5
9 0 1 0 0 0 1 0 0 0 1 -18.9 2.5 -37 0.5 1 1.5
9 0 1 0 0 0 1 0 0 0 1 -19.4 5 -20 1 0.5 1.5
9 0 1 0 0 0 1 0 0 0 1 -19.4 3 -20 1 0.5 1.5
9 0 1 0 0 0 1 0 0 0 1 -19.9 2.5 -40 0.5 1 1.5
9 0 1 0 0 0 1 0 0 0 1 -20.9 5.5 -44 0.5 1 1.5
9 0 1 0 0 0 1 0 0 0 1 -18.4 2 -25 3 0.5 0.5
9 0 1 0 0 0 1 0 0 0 1 -24.4 5 -25 1 0.5 1.5
9 0 1 0 0 0 1 0 0 0 1 -24.4 3 -25 1 0.5 1.5
9 0 1 0 0 0 1 0 0 0 1 -33.4 4 -30 1 0.5 1.5
9 0 1 0 0 0 1 0 0 0 1 -38.9 4.5 -46 0.5 1 1.5
9 0 1 0 0 0 1 0 0 0 1 -41.4 4 -64 1 0.5 1.5
9 0 1 0 0 0 1 0 0 0 1 -47.4 4 -44 1 0.5 1.5
9 0 1 0 0 0 1 0 0 0 1 -49.4 3 -51 1 0.5 1.5
9 0 1 0 0 0 1 0 0 0 1 30.1 6 -60 2.5 0.5 0.5
9 0 1 0 0 0 1 0 0 0 1 30.1 4 -62 2.5 0.5 0.5
9 0 1 0 0 0 1 0 0 0 1 30.1 4 -58 2.5 0.5 0.5
9 0 1 0 0 0 1 0 0 0 1 30.1 2 -60 2.5 0.5 0.5
9 0 1 0 0 0 1 0 0 0 1 -20.9 3 -44 0.5 0.5 2.5
9 0 1 0 0 0 1 0 0 0 1 -29.9 6 -60 2.5 0.5 0.5
9 0 1 0 0 0 1 0 0 0 1 -29.9 4 -62 2.5 0.5 0.5
9 0 1 0 0 0 1 0 0 0 1 -29.9 4 -58 2.5 0.5 0.5
9 0 1 0 0 0 1 0 0 0 1 -29.9 2 -60 2.5 0.5 0.5
9 0 1 0 0 0 1 0 0 0 1 54.6 4 -50.5 1 0.5 1
9 0 1 0 0 0 1 0 0 0 1 50.6 5 -50.5 1 0.5 1
9 0 1 0 0 0 1 0 0 0 1 47.6 4 -43.5 1 0.5 1
9 0 1 0 0 0 1 0 0 0 1 47.6 3 -48.5 1 0.5 1
9 0 1 0 0 0 1 0 0 0 1 44.6 5 -56.5 1 0.5 1
9 0 1 0 0 0 1 0 0 0 1 43.6 3 -44.5 1 0.5 1
9 0 1 0 0 0 1 0 0 0 1 40.6 5 -41.5 1 0.5 1
9 0 1 0 0 0 1 0 0 0 1 39.6 6 -44.5 1 0.5 1
9 0 1 0 0 0 1 0 0 0 1 39.6 5 -46.5 1 0.5 1
9 0 1 0 0 0 1 0 0 0 1 39.6 3 -46.5 1 0.5 1
9 0 1 0 0 0 1 0 0 0 1 39.6 3 -40.5 1 0.5 1
9 0 1 0 0 0 1 0 0 0 1 39.6 2 -44.5 1 0.5 1
9 0 1 0 0 0 1 0 0 0 1 38.1 5.5 -43.5 0.5 1 1
9 0 1 0 0 0 1 0 0 0 1 37.6 4 -33.5 1 0.5 1
9 0 1 0 0 0 1 0 0 0 1 36.6 6 -59.5 1 0.5 1
9 0 1 0 0 0 1 0 0 0 1 35.6 6 -40.5 1 0.5 1
9 0 1 0 0 0 1 0 0 0 1 35.6 2 -40.5 1 0.5 1
9 0 1 0 0 0 1 0 0 0 1 33.6 6 -38.5 1 0.5 1
9 0 1 0 0 0 1 0 0 0 1 32.6 3 -33.5 1 0.5 1
9 0 1 0 0 0 1 0 0 0 1 31.6 4 -27.5 1 0.5 1
9 0 1 0 0 0 1 0 0 0 1 30.6 2 -35.5 1 0.5 1
9 0 1 0 0 0 1 0 0 0 1 28.6 6 -33.5 1 0.5 1
9 0 1 0 0 0 1 0 0 0 1 28.6 2 -33.5 1 0.5 1
9 0 1 0 0 0 1 0 0 0 1 23.6 6 -28.5 1 0.5 1
9 0 1 0 0 0 1 0 0 0 1 23.6 2 -28.5 1 0.5 1
9 0 1 0 0 0 1 0 0 0 1 21.6 6 -26.5 1 0.5 1
9 0 1 0 0 0 1 0 0 0 1 21.1 5.5 -53.5 0.5 1 1
9 0 1 0 0 0 1 0 0 0 1 21.6 2 -26.5 1 0.5 1
9 0 1 0 0 0 1 0 0 0 1 19.6 6 -24.5 1 0.5 1
9 0 1 0 0 0 1 0 0 0 1 19.1 5.5 -37.5 0.5 1 1
9 0 1 0 0 0 1 0 0 0 1 19.6 2 -24.5 1 0.5 1
9 0 1 0 0 0 1 0 0 0 1 18.1 5.5 -56.5 0.5 1 1
9 0 1 0 0 0 1 0 0 0 1 18.1 5.5 -34.5 0.5 1 1
9 0 1 0 0 0 1 0 0 0 1 17.1 5.5 -31.5 0.5 1 1
9 0 1 0 0 0 1 0 0 0 1 16.1 6 -27.5 0.5 0.5 2
9 0 1 0 0 0 1 0 0 0 1 12.1 5.5 -14.5 0.5 1 1
9 0 1 0 0 0 1 0 0 0 1 12.1 2.5 -14.5 0.5 1 1
9 0 1 0 0 0 1 0 0 0 1 -16.9 2.5 -30.5 0.5 1 1
9 0 1 0 0 0 1 0 0 0 1 -17.4 6 -58 2 0.5 0.5
9 0 1 0 0 0 1 0 0 0 1 -19.4 6 -24.5 1 0.5 1
9 0 1 0 0 0 1 0 0 0 1 -19.9 5.5 -40.5 0.5 1 1
9 0 1 0 0 0 1 0 0 0 1 -21.4 6 -26.5 1 0.5 1
9 0 1 0 0 0 1 0 0 0 1 -21.4 5.5 -53 1 1 0.5
9 0 1 0 0 0 1 0 0 0 1 -21.9 5.5 -46.5 0.5 1 1
9 0 1 0 0 0 1 0 0 0 1 -21.9 2.5 -46.5 0.5 1 1
9 0 1 0 0 0 1 0 0 0 1 -21.4 2 -26.5 1 0.5 1
9 0 1 0 0 0 1 0 0 0 1 -25.4 6 -30.5 1 0.5 1
9 0 1 0 0 0 1 0 0 0 1 -25.4 2 -30.5 1 0.5 1
9 0 1 0 0 0 1 0 0 0 1 -27.9 4 -24.5 0.5 0.5 2
9 0 1 0 0 0 1 0 0 0 1 -29.4 6 -34.5 1 0.5 1
9 0 1 0 0 0 1 0 0 0 1 -29.4 5 -29.5 1 0.5 1
9 0 1 0 0 0 1 0 0 0 1 -29.4 3 -29.5 1 0.5 1
9 0 1 0 0 0 1 0 0 0 1 -29.4 2 -34.5 1 0.5 1
9 0 1 0 0 0 1 0 0 0 1 -33.4 6 -38.5 1 0.5 1
9 0 1 0 0 0 1 0 0 0 1 -33.4 5 -33.5 1 0.5 1
9 0 1 0 0 0 1 0 0 0 1 -33.4 3 -33.5 1 0.5 1
9 0 1 0 0 0 1 0 0 0 1 -33.4 2 -38.5 1 0.5 1
9 0 1 0 0 0 1 0 0 0 1 -37.4 6 -42.5 1 0.5 1
9 0 1 0 0 0 1 0 0 0 1 -37.4 2.5 -43 1 1 0.5
9 0 1 0 0 0 1 0 0 0 1 -39.4 6 -44.5 1 0.5 1
9 0 1 0 0 0 1 0 0 0 1 -39.4 5 -39.5 1 0.5 1
9 0 1 0 0 0 1 0 0 0 1 -39.4 4 -35.5 1 0.5 1
9 0 1 0 0 0 1 0 0 0 1 -39.4 2 -44.5 1 0.5 1
9 0 1 0 0 0 1 0 0 0 1 -43.4 5 -57.5 1 0.5 1
9 0 1 0 0 0 1 0 0 0 1 -43.4 4 -39.5 1 0.5 1
9 0 1 0 0 0 1 0 0 0 1 -43.4 3 -43.5 1 0.5 1
9 0 1 0 0 0 1 0 0 0 1 -44.9 6 -50.5 0.5 0.5 2
9 0 1 0 0 0 1 0 0 0 1 43.1 4 -59 0.5 1.5 0.5
9 0 1 0 0 0 1 0 0 0 1 43.1 4 -56 0.5 1.5 0.5
9 0 1 0 0 0 1 0 0 0 1 41.1 4 -58 0.5 1.5 0.5
9 0 1 0 0 0 1 0 0 0 1 39.1 4 -60 0.5 1.5 0.5
9 0 1 0 0 0 1 0 0 0 1 37.1 5 -64 1.5 0.5 0.5
9 0 1 0 0 0 1 0 0 0 1 37.1 3 -64 1.5 0.5 0.5
9 0 1 0 0 0 1 0 0 0 1 34.1 2 -39 1.5 0.5 0.5
9 0 1 0 0 0 1 0 0 0 1 32.1 6 -37 1.5 0.5 0.5
9 0 1 0 0 0 1 0 0 0 1 27.1 6 -32 1.5 0.5 0.5
9 0 1 0 0 0 1 0 0 0 1 27.1 2 -32 1.5 0.5 0.5
9 0 1 0 0 0 1 0 0 0 1 23.1 5 -48 1.5 0.5 0.5
9 0 1 0 0 0 1 0 0 0 1 23.1 3 -50 1.5 0.5 0.5
9 0 1 0 0 0 1 0 0 0 1 17.1 2 -31 0.5 0.5 1.5
9 0 1 0 0 0 1 0 0 0 1 13.1 6 -13 1.5 0.5 0.5
9 0 1 0 0 0 1 0 0 0 1 13.1 2 -13 1.5 0.5 0.5
9 0 1 0 0 0 1 0 0 0 1 -11.9 3 -15 0.5 0.5 1.5
9 0 1 0 0 0 1 0 0 0 1 -12.9 6 -13 1.5 0.5 0.5
9 0 1 0 0 0 1 0 0 0 1 -12.9 2 -13 1.5 0.5 0.5
9 0 1 0 0 0 1 0 0 0 1 -15.9 2 -27 0.5 0.5 1.5
9 0 1 0 0 0 1 0 0 0 1 -17.9 3 -26 0.5 0.5 1.5
9 0 1 0 0 0 1 0 0 0 1 -21.9 5 -51 0.5 0.5 1.5
9 0 1 0 0 0 1 0 0 0 1 -22.9 3 -50 1.5 0.5 0.5
9 0 1 0 0 0 1 0 0 0 1 -36.9 5 -64 1.5 0.5 0.5
9 0 1 0 0 0 1 0 0 0 1 -36.9 3 -64 1.5 0.5 0.5
9 0 1 0 0 0 1 0 0 0 1 -36.9 2 -60 1.5 0.5 0.5
9 0 1 0 0 0 1 0 0 0 1 -36.9 2 -42 1.5 0.5 0.5
9 0 1 0 0 0 1 0 0 0 1 -38.9 3 -39 0.5 0.5 1.5
9 0 1 0 0 0 1 0 0 0 1 -42.9 5 -43 0.5 0.5 1.5
9 0 1 0 0 0 1 0 0 0 1 -45.9 2 -51 0.5 0.5 1.5
9 0 1 0 0 0 1 0 0 0 1 -49.9 5 -51 0.5 0.5 1.5
9 0 1 0 0 0 1 0 0 0 1 -54.9 4 -51 0.5 0.5 1.5
