9 0 1 0 0 0 1 0 0 0 1 0 9 -12 18.5 5.5 0.5
9 0 1 0 0 0 1 0 0 0 1 0 4 8 18.5 2.5 0.5
9 0 1 0 0 0 1 0 0 0 1 18 4 -1 0.5 2.5 8.5
9 0 1 0 0 0 1 0 0 0 1 -18 4 -1 0.5 2.5 8.5
9 0 1 0 0 0 1 0 0 0 1 -18 11 -15.5 0.5 3.5 3
9 0 1 0 0 0 1 0 0 0 1 10 -2 0 3.5 0.5 2.5
9 0 1 0 0 0 1 0 0 0 1 -10 -2 0 3.5 0.5 2.5
9 0 1 0 0 0 1 0 0 0 1 18 12 -15.5 0.5 2.5 3
9 0 1 0 0 0 1 0 0 0 1 -0.5 2.5 -12 5 1 0.5
9 0 1 0 0 0 1 0 0 0 1 18 7 -13.5 0.5 2.5 1
9 0 1 0 0 0 1 0 0 0 1 -18 6 -14 0.5 1.5 1.5
9 0 1 0 0 0 1 0 0 0 1 18 4.5 -10.5 0.5 2 1
9 0 1 0 0 0 1 0 0 0 1 -14.5 3 -12 4 0.5 0.5
9 0 1 0 0 0 1 0 0 0 1 -18 4.5 -10.5 0.5 2 1
9 0 1 0 0 0 1 0 0 0 1 -18 13.5 -20 0.5 1 1.5
9 0 1 0 0 0 1 0 0 0 1 10 3 -12 2.5 0.5 0.5
9 0 1 0 0 0 1 0 0 0 1 10 -2 -3 2.5 0.5 0.5
9 0 1 0 0 0 1 0 0 0 1 10 -2 3 2.5 0.5 0.5
9 0 1 0 0 0 1 0 0 0 1 -10 -2 -3 2.5 0.5 0.5
9 0 1 0 0 0 1 0 0 0 1 -10 -2 3 2.5 0.5 0.5
9 0 1 0 0 0 1 0 0 0 1 18 13.5 -19.5 0.5 1 1
9 0 1 0 0 0 1 0 0 0 1 18 8.5 -15.5 0.5 1 1
9 0 1 0 0 0 1 0 0 0 1 -18 11 -19 0.5 1.5 0.5
