9 0 1 0 0 0 1 0 0 0 1 0.04699993 -14.907 12.2205 1.5 1.5 0.5
9 0 1 0 0 0 1 0 0 0 1 7.047 -20.407 4.220499 0.5 1 1.5
9 0 1 0 0 0 1 0 0 0 1 -6.953 -20.407 4.220499 0.5 1 1.5
9 0 1 0 0 0 1 0 0 0 1 2.547 -22.407 -10.7795 1 1 0.5
9 0 1 0 0 0 1 0 0 0 1 -1.953 -21.407 -10.7795 0.5 2 0.5
9 0 1 0 0 0 1 0 0 0 1 -4.953 -21.407 -9.779501 0.5 2 0.5
9 0 1 0 0 0 1 0 0 0 1 6.047 -20.907 -8.779501 0.5 1.5 0.5
9 0 1 0 0 0 1 0 0 0 1 5.047 -15.907 11.2205 0.5 1.5 0.5
9 0 1 0 0 0 1 0 0 0 1 5.047 -20.907 -9.779501 0.5 1.5 0.5
