9 0 1 0 0 0 1 0 0 0 1 0.04199982 16.655 19.509 1.5 9.5 1.5
9 0 1 0 0 0 1 0 0 0 1 -4.458 21.155 19.509 3 5 0.5
9 0 1 0 0 0 1 0 0 0 1 3.042 22.155 20.009 1.5 4 1
9 0 1 0 0 0 1 0 0 0 1 0.04199982 19.655 21.509 1.5 6.5 0.5
9 0 1 0 0 0 1 0 0 0 1 8.542 21.155 18.009 1 4 1
9 0 1 0 0 0 1 0 0 0 1 0.04199982 12.655 17.509 0.5 13.5 0.5
9 0 1 0 0 0 1 0 0 0 1 -8.958 21.655 17.509 1.5 4.5 0.5
9 0 1 0 0 0 1 0 0 0 1 9.542 18.155 16.509 2 3 0.5
9 0 1 0 0 0 1 0 0 0 1 -0.4580002 -8.344999 5.008999 2 0.5 3
9 0 1 0 0 0 1 0 0 0 1 -8.958 17.655 16.509 1.5 3.5 0.5
9 0 1 0 0 0 1 0 0 0 1 -7.458 24.155 18.509 1 5 0.5
9 0 1 0 0 0 1 0 0 0 1 -1.958 21.655 21.009 0.5 4.5 1
9 0 1 0 0 0 1 0 0 0 1 0.5419998 0.6550007 16.509 3 1.5 0.5
9 0 1 0 0 0 1 0 0 0 1 7.042 18.155 18.009 0.5 4 1
9 0 1 0 0 0 1 0 0 0 1 -0.4580002 -6.344999 10.009 2 0.5 2
9 0 1 0 0 0 1 0 0 0 1 3.042 15.655 19.509 1.5 2.5 0.5
9 0 1 0 0 0 1 0 0 0 1 2.042 2.655001 17.509 1.5 2.5 0.5
9 0 1 0 0 0 1 0 0 0 1 10.542 24.655 18.009 1 1.5 1
9 0 1 0 0 0 1 0 0 0 1 7.542 12.655 17.009 1 1.5 1
9 0 1 0 0 0 1 0 0 0 1 5.042 23.155 19.509 0.5 6 0.5
9 0 1 0 0 0 1 0 0 0 1 0.5419998 5.655001 19.009 1 1.5 1
9 0 1 0 0 0 1 0 0 0 1 -1.958 3.155001 17.509 1.5 2 0.5
9 0 1 0 0 0 1 0 0 0 1 -7.458 11.655 16.509 1 2.5 0.5
9 0 1 0 0 0 1 0 0 0 1 14.042 19.655 15.509 1.5 1.5 0.5
9 0 1 0 0 0 1 0 0 0 1 11.042 15.655 15.509 1.5 1.5 0.5
9 0 1 0 0 0 1 0 0 0 1 0.04199982 24.655 22.509 1.5 1.5 0.5
9 0 1 0 0 0 1 0 0 0 1 -5.958 27.655 19.509 1.5 1.5 0.5
9 0 1 0 0 0 1 0 0 0 1 3.542 -7.344999 8.008999 2 0.5 1
9 0 1 0 0 0 1 0 0 0 1 -0.4580002 -7.344999 9.008999 2 0.5 1
9 0 1 0 0 0 1 0 0 0 1 -1.458 -8.344999 1.008999 2 0.5 1
9 0 1 0 0 0 1 0 0 0 1 -6.958 18.155 17.509 0.5 4 0.5
9 0 1 0 0 0 1 0 0 0 1 -8.458 24.155 19.509 1 2 0.5
9 0 1 0 0 0 1 0 0 0 1 -8.458 -5.344999 1.008999 1 0.5 2
9 0 1 0 0 0 1 0 0 0 1 -9.458 26.155 18.509 1 2 0.5
9 0 1 0 0 0 1 0 0 0 1 -11.458 24.155 17.509 1 2 0.5
9 0 1 0 0 0 1 0 0 0 1 7.042 25.655 18.509 0.5 3.5 0.5
9 0 1 0 0 0 1 0 0 0 1 13.542 22.655 16.509 1 1.5 0.5
9 0 1 0 0 0 1 0 0 0 1 11.042 22.155 17.509 1.5 1 0.5
9 0 1 0 0 0 1 0 0 0 1 10.042 -0.8449993 9.508999 0.5 1 1.5
9 0 1 0 0 0 1 0 0 0 1 9.542 12.655 15.509 1 1.5 0.5
9 0 1 0 0 0 1 0 0 0 1 8.542 15.655 17.509 1 1.5 0.5
9 0 1 0 0 0 1 0 0 0 1 4.542 2.655001 16.509 1 1.5 0.5
9 0 1 0 0 0 1 0 0 0 1 2.042 20.155 21.509 0.5 3 0.5
9 0 1 0 0 0 1 0 0 0 1 2.042 10.155 19.509 0.5 3 0.5
9 0 1 0 0 0 1 0 0 0 1 0.04199982 5.155001 16.509 0.5 3 0.5
9 0 1 0 0 0 1 0 0 0 1 0.5419998 2.655001 18.509 1 1.5 0.5
9 0 1 0 0 0 1 0 0 0 1 -0.9580002 6.155001 19.509 0.5 1 1.5
9 0 1 0 0 0 1 0 0 0 1 -2.958 23.155 20.509 0.5 3 0.5
9 0 1 0 0 0 1 0 0 0 1 -3.458 -6.344999 8.508999 1 0.5 1.5
9 0 1 0 0 0 1 0 0 0 1 -4.458 2.655001 16.509 1 1.5 0.5
9 0 1 0 0 0 1 0 0 0 1 -7.958 11.155 15.509 0.5 3 0.5
9 0 1 0 0 0 1 0 0 0 1 12.042 19.155 16.509 0.5 2 0.5
9 0 1 0 0 0 1 0 0 0 1 12.042 -0.8449993 5.008999 0.5 1 1
9 0 1 0 0 0 1 0 0 0 1 12.542 17.655 15.509 2 0.5 0.5
9 0 1 0 0 0 1 0 0 0 1 11.542 13.155 14.509 1 1 0.5
9 0 1 0 0 0 1 0 0 0 1 11.042 4.155001 11.009 0.5 1 1
9 0 1 0 0 0 1 0 0 0 1 11.042 -0.8449993 7.008999 0.5 1 1
9 0 1 0 0 0 1 0 0 0 1 10.042 19.155 17.509 0.5 2 0.5
9 0 1 0 0 0 1 0 0 0 1 10.542 21.655 16.509 2 0.5 0.5
9 0 1 0 0 0 1 0 0 0 1 9.542 14.155 16.509 1 1 0.5
9 0 1 0 0 0 1 0 0 0 1 9.042 -0.8449993 11.009 0.5 1 1
9 0 1 0 0 0 1 0 0 0 1 8.042 15.155 18.509 0.5 2 0.5
9 0 1 0 0 0 1 0 0 0 1 6.042 26.155 20.009 0.5 1 1
9 0 1 0 0 0 1 0 0 0 1 5.042 25.155 20.509 0.5 2 0.5
9 0 1 0 0 0 1 0 0 0 1 4.042 28.155 19.509 0.5 2 0.5
9 0 1 0 0 0 1 0 0 0 1 2.042 16.155 20.509 0.5 2 0.5
9 0 1 0 0 0 1 0 0 0 1 -0.4580002 9.155001 21.509 1 1 0.5
9 0 1 0 0 0 1 0 0 0 1 -1.958 15.155 20.009 0.5 1 1
9 0 1 0 0 0 1 0 0 0 1 -1.458 -2.344999 15.509 2 0.5 0.5
9 0 1 0 0 0 1 0 0 0 1 -8.458 16.155 17.509 1 1 0.5
9 0 1 0 0 0 1 0 0 0 1 -9.458 -0.3449993 11.009 1 0.5 1
9 0 1 0 0 0 1 0 0 0 1 -9.958 -0.8449993 9.008999 0.5 1 1
9 0 1 0 0 0 1 0 0 0 1 -10.958 19.155 16.509 0.5 2 0.5
9 0 1 0 0 0 1 0 0 0 1 -10.958 3.155001 10.509 0.5 2 0.5
9 0 1 0 0 0 1 0 0 0 1 -10.958 -0.8449993 8.008999 0.5 1 1
9 0 1 0 0 0 1 0 0 0 1 -11.958 3.155001 10.009 0.5 1 1
9 0 1 0 0 0 1 0 0 0 1 -11.958 -1.344999 4.008999 0.5 0.5 2
9 0 1 0 0 0 1 0 0 0 1 10.042 21.655 18.509 0.5 1.5 0.5
9 0 1 0 0 0 1 0 0 0 1 6.042 0.6550007 15.509 0.5 1.5 0.5
9 0 1 0 0 0 1 0 0 0 1 4.042 3.655001 17.509 0.5 1.5 0.5
9 0 1 0 0 0 1 0 0 0 1 0.04199982 -5.344999 11.509 0.5 0.5 1.5
9 0 1 0 0 0 1 0 0 0 1 -0.9580002 -1.344999 16.509 1.5 0.5 0.5
9 0 1 0 0 0 1 0 0 0 1 -2.958 -8.344999 3.508999 0.5 0.5 1.5
9 0 1 0 0 0 1 0 0 0 1 -3.958 15.655 19.509 1.5 0.5 0.5
9 0 1 0 0 0 1 0 0 0 1 -6.958 17.655 18.509 0.5 1.5 0.5
9 0 1 0 0 0 1 0 0 0 1 -6.958 15.655 16.509 0.5 1.5 0.5
9 0 1 0 0 0 1 0 0 0 1 -8.958 13.655 15.509 0.5 1.5 0.5
9 0 1 0 0 0 1 0 0 0 1 -10.958 0.6550007 9.508999 0.5 1.5 0.5
9 0 1 0 0 0 1 0 0 0 1 -12.958 25.655 17.509 0.5 1.5 0.5
9 0 1 0 0 0 1 0 0 0 1 -12.958 2.655001 7.508999 0.5 1.5 0.5
