9 0 1 0 0 0 1 0 0 0 1 -0.1679993 1.055 22.194 2 9.5 7.5
9 0 1 0 0 0 1 0 0 0 1 0.8320007 -11.945 19.694 4 2.5 3
9 0 1 0 0 0 1 0 0 0 1 3.332001 -1.445 25.694 1.5 9 2
9 0 1 0 0 0 1 0 0 0 1 0.8320007 -7.945 2.194 6 1.5 2.5
9 0 1 0 0 0 1 0 0 0 1 -4.667999 5.055 15.194 2.5 5.5 1.5
9 0 1 0 0 0 1 0 0 0 1 5.832001 5.055 15.194 3 4.5 1.5
9 0 1 0 0 0 1 0 0 0 1 -2.667999 -4.945 21.194 0.5 4.5 7.5
9 0 1 0 0 0 1 0 0 0 1 1.332001 5.055 30.694 1.5 10.5 1
9 0 1 0 0 0 1 0 0 0 1 -0.6679993 14.055 26.694 1.5 3.5 3
9 0 1 0 0 0 1 0 0 0 1 11.332 4.555 12.194 1.5 5 1.5
9 0 1 0 0 0 1 0 0 0 1 2.832001 5.555 20.194 1 3 3.5
9 0 1 0 0 0 1 0 0 0 1 2.832001 3.555 28.694 1 12 1
9 0 1 0 0 0 1 0 0 0 1 3.332001 -7.945 19.194 1.5 1.5 4.5
9 0 1 0 0 0 1 0 0 0 1 -14.668 9.055 -2.806 0.5 4.5 4.5
9 0 1 0 0 0 1 0 0 0 1 -4.167999 -6.445 23.694 1 5 2
9 0 1 0 0 0 1 0 0 0 1 0.8320007 -9.945 10.694 3 0.5 6
9 0 1 0 0 0 1 0 0 0 1 1.332001 12.055 16.194 3.5 1.5 1.5
9 0 1 0 0 0 1 0 0 0 1 -2.667999 7.055 26.694 0.5 7.5 2
9 0 1 0 0 0 1 0 0 0 1 -0.1679993 -8.945 21.694 2 0.5 7
9 0 1 0 0 0 1 0 0 0 1 9.332001 -4.945 2.694 1.5 1.5 3
9 0 1 0 0 0 1 0 0 0 1 -8.667999 4.555 14.194 1.5 3 1.5
9 0 1 0 0 0 1 0 0 0 1 8.332001 4.555 13.194 1.5 8 0.5
9 0 1 0 0 0 1 0 0 0 1 13.332 5.055 9.194 0.5 4.5 2.5
9 0 1 0 0 0 1 0 0 0 1 -0.6679993 -10.945 24.194 2.5 1.5 1.5
9 0 1 0 0 0 1 0 0 0 1 4.332001 -2.945 14.694 1.5 3.5 1
9 0 1 0 0 0 1 0 0 0 1 -3.667999 6.055 17.694 1.5 3.5 1
9 0 1 0 0 0 1 0 0 0 1 -2.667999 -4.445 -8.806 3.5 1 1.5
9 0 1 0 0 0 1 0 0 0 1 15.332 7.555 0.1940002 0.5 4 2.5
9 0 1 0 0 0 1 0 0 0 1 1.832001 13.055 25.694 1 2.5 2
9 0 1 0 0 0 1 0 0 0 1 -3.667999 -0.9449997 27.194 0.5 6.5 1.5
9 0 1 0 0 0 1 0 0 0 1 -0.1679993 -7.945 5.694 3 1.5 1
9 0 1 0 0 0 1 0 0 0 1 0.8320007 -6.945 -1.806 6 0.5 1.5
9 0 1 0 0 0 1 0 0 0 1 -3.167999 -1.945 -13.306 3 1.5 1
9 0 1 0 0 0 1 0 0 0 1 -9.667999 4.555 12.194 1.5 6 0.5
9 0 1 0 0 0 1 0 0 0 1 -15.668 9.555 -2.306 0.5 3 3
9 0 1 0 0 0 1 0 0 0 1 2.332001 2.055 15.694 0.5 8.5 1
9 0 1 0 0 0 1 0 0 0 1 5.832001 -10.445 22.694 1 2 2
9 0 1 0 0 0 1 0 0 0 1 4.832001 6.555 17.694 1 4 1
9 0 1 0 0 0 1 0 0 0 1 -0.6679993 0.5550003 30.694 0.5 8 1
9 0 1 0 0 0 1 0 0 0 1 0.8320007 -11.445 14.694 2 1 2
9 0 1 0 0 0 1 0 0 0 1 14.332 4.555 7.194 0.5 2 3.5
9 0 1 0 0 0 1 0 0 0 1 -12.168 3.055 9.694 1 3.5 1
9 0 1 0 0 0 1 0 0 0 1 -0.6679993 19.055 27.194 1.5 1.5 1.5
9 0 1 0 0 0 1 0 0 0 1 -13.668 7.055 -6.806 0.5 4.5 1.5
9 0 1 0 0 0 1 0 0 0 1 12.332 4.055 9.694 0.5 6.5 1
9 0 1 0 0 0 1 0 0 0 1 -11.168 5.055 11.194 1 6.5 0.5
9 0 1 0 0 0 1 0 0 0 1 9.832001 6.555 14.694 1 3 1
9 0 1 0 0 0 1 0 0 0 1 5.332001 1.555 27.694 0.5 3 2
9 0 1 0 0 0 1 0 0 0 1 0.8320007 -14.945 19.194 4 0.5 1.5
9 0 1 0 0 0 1 0 0 0 1 -4.167999 -12.445 20.194 1 2 1.5
9 0 1 0 0 0 1 0 0 0 1 -6.667999 -7.445 2.694 1.5 1 2
9 0 1 0 0 0 1 0 0 0 1 2.332001 9.555 22.194 0.5 1 5.5
9 0 1 0 0 0 1 0 0 0 1 12.332 6.055 -9.806 0.5 3.5 1.5
9 0 1 0 0 0 1 0 0 0 1 14.332 9.555 -4.306 0.5 5 1
9 0 1 0 0 0 1 0 0 0 1 5.832001 12.055 14.694 1 2.5 1
9 0 1 0 0 0 1 0 0 0 1 4.332001 1.555 28.694 0.5 5 1
9 0 1 0 0 0 1 0 0 0 1 1.332001 17.555 27.194 0.5 2 2.5
9 0 1 0 0 0 1 0 0 0 1 -0.1679993 13.055 23.194 2 2.5 0.5
9 0 1 0 0 0 1 0 0 0 1 -2.167999 4.055 30.694 1 2.5 1
9 0 1 0 0 0 1 0 0 0 1 0.8320007 -9.945 3.694 5 0.5 1
9 0 1 0 0 0 1 0 0 0 1 -8.167999 10.055 13.694 1 2.5 1
9 0 1 0 0 0 1 0 0 0 1 -8.667999 -5.445 3.194 0.5 2 2.5
9 0 1 0 0 0 1 0 0 0 1 14.332 5.055 -2.306 0.5 4.5 1
9 0 1 0 0 0 1 0 0 0 1 10.832 -1.945 11.194 1 1.5 1.5
9 0 1 0 0 0 1 0 0 0 1 2.832001 -1.945 23.194 1 4.5 0.5
9 0 1 0 0 0 1 0 0 0 1 -4.667999 -2.945 26.694 0.5 4.5 1
9 0 1 0 0 0 1 0 0 0 1 -4.667999 -1.945 14.694 1.5 1.5 1
9 0 1 0 0 0 1 0 0 0 1 9.332001 4.055 12.194 0.5 8.5 0.5
9 0 1 0 0 0 1 0 0 0 1 5.332001 -6.445 24.694 0.5 2 2
9 0 1 0 0 0 1 0 0 0 1 3.332001 11.555 26.694 0.5 4 1
9 0 1 0 0 0 1 0 0 0 1 3.332001 3.555 30.194 0.5 8 0.5
9 0 1 0 0 0 1 0 0 0 1 -1.167999 13.555 30.694 1 2 1
9 0 1 0 0 0 1 0 0 0 1 -0.1679993 -12.945 23.694 4 0.5 1
9 0 1 0 0 0 1 0 0 0 1 0.3320007 11.055 20.194 1.5 0.5 2.5
9 0 1 0 0 0 1 0 0 0 1 0.3320007 15.055 15.194 2.5 1.5 0.5
9 0 1 0 0 0 1 0 0 0 1 13.332 6.055 -7.306 0.5 3.5 1
9 0 1 0 0 0 1 0 0 0 1 11.332 5.055 -11.306 0.5 3.5 1
9 0 1 0 0 0 1 0 0 0 1 11.332 6.555 10.194 0.5 7 0.5
9 0 1 0 0 0 1 0 0 0 1 5.332001 -11.945 19.694 0.5 3.5 1
9 0 1 0 0 0 1 0 0 0 1 -2.667999 -0.4449997 29.194 0.5 7 0.5
9 0 1 0 0 0 1 0 0 0 1 -8.167999 -3.945 -4.806 1 0.5 3.5
9 0 1 0 0 0 1 0 0 0 1 -13.668 6.055 6.694 0.5 3.5 1
9 0 1 0 0 0 1 0 0 0 1 -3.667999 5.055 25.194 0.5 6.5 0.5
9 0 1 0 0 0 1 0 0 0 1 15.332 13.555 -1.806 0.5 2 1.5
9 0 1 0 0 0 1 0 0 0 1 15.332 5.555 4.194 0.5 2 1.5
9 0 1 0 0 0 1 0 0 0 1 14.332 1.055 6.694 0.5 1.5 2
9 0 1 0 0 0 1 0 0 0 1 13.332 -0.4449997 6.694 0.5 1 3
9 0 1 0 0 0 1 0 0 0 1 8.832001 -4.445 -1.806 1 1 1.5
9 0 1 0 0 0 1 0 0 0 1 2.332001 1.555 19.694 0.5 1 3
9 0 1 0 0 0 1 0 0 0 1 3.332001 -11.445 23.694 1.5 1 1
9 0 1 0 0 0 1 0 0 0 1 1.832001 8.555 32.194 1 3 0.5
9 0 1 0 0 0 1 0 0 0 1 -0.1679993 6.055 32.694 1 1.5 1
9 0 1 0 0 0 1 0 0 0 1 -2.667999 7.555 21.694 0.5 1 3
9 0 1 0 0 0 1 0 0 0 1 -1.667999 -10.445 26.694 1.5 1 1
9 0 1 0 0 0 1 0 0 0 1 -2.167999 -5.945 -8.806 2 0.5 1.5
9 0 1 0 0 0 1 0 0 0 1 -3.667999 -7.445 20.694 0.5 3 1
9 0 1 0 0 0 1 0 0 0 1 -3.667999 11.555 15.694 1.5 1 1
9 0 1 0 0 0 1 0 0 0 1 -4.167999 0.05500031 -14.306 3 0.5 1
9 0 1 0 0 0 1 0 0 0 1 -7.167999 -1.445 -12.806 1 1 1.5
9 0 1 0 0 0 1 0 0 0 1 -7.167999 -1.445 13.194 1 3 0.5
9 0 1 0 0 0 1 0 0 0 1 -9.667999 -4.445 3.694 0.5 1 3
9 0 1 0 0 0 1 0 0 0 1 -10.668 5.555 13.694 0.5 3 1
9 0 1 0 0 0 1 0 0 0 1 -13.168 3.555 8.194 1 3 0.5
9 0 1 0 0 0 1 0 0 0 1 -15.168 14.555 -2.806 1 1 1.5
9 0 1 0 0 0 1 0 0 0 1 0.3320007 -7.945 -0.8059998 5.5 0.5 0.5
9 0 1 0 0 0 1 0 0 0 1 14.332 9.055 4.694 0.5 2.5 1
9 0 1 0 0 0 1 0 0 0 1 7.332001 -7.445 2.194 0.5 1 2.5
9 0 1 0 0 0 1 0 0 0 1 1.332001 13.055 28.694 0.5 2.5 1
9 0 1 0 0 0 1 0 0 0 1 1.332001 -12.945 15.694 2.5 0.5 1
9 0 1 0 0 0 1 0 0 0 1 -1.667999 -3.445 30.194 0.5 5 0.5
9 0 1 0 0 0 1 0 0 0 1 -3.667999 11.055 26.694 0.5 2.5 1
9 0 1 0 0 0 1 0 0 0 1 -11.668 4.555 -9.806 0.5 5 0.5
9 0 1 0 0 0 1 0 0 0 1 -12.668 5.555 -8.806 0.5 5 0.5
9 0 1 0 0 0 1 0 0 0 1 7.332001 -0.9449997 14.194 1.5 1.5 0.5
9 0 1 0 0 0 1 0 0 0 1 4.332001 -0.9449997 16.194 1.5 1.5 0.5
9 0 1 0 0 0 1 0 0 0 1 4.332001 -7.945 14.194 1.5 1.5 0.5
9 0 1 0 0 0 1 0 0 0 1 2.332001 17.055 28.194 0.5 1.5 1.5
9 0 1 0 0 0 1 0 0 0 1 3.332001 -4.945 22.194 1.5 1.5 0.5
9 0 1 0 0 0 1 0 0 0 1 0.3320007 22.055 28.194 1.5 1.5 0.5
9 0 1 0 0 0 1 0 0 0 1 0.3320007 14.055 32.194 1.5 1.5 0.5
9 0 1 0 0 0 1 0 0 0 1 -3.667999 1.055 17.194 1.5 1.5 0.5
9 0 1 0 0 0 1 0 0 0 1 -5.667999 12.055 14.194 1.5 1.5 0.5
9 0 1 0 0 0 1 0 0 0 1 -7.667999 -4.945 3.194 0.5 1.5 1.5
9 0 1 0 0 0 1 0 0 0 1 11.332 -3.945 4.694 0.5 0.5 4
9 0 1 0 0 0 1 0 0 0 1 10.832 10.555 11.694 1 1 1
9 0 1 0 0 0 1 0 0 0 1 10.332 2.555 -11.306 0.5 2 1
9 0 1 0 0 0 1 0 0 0 1 8.832001 -6.945 3.694 1 0.5 2
9 0 1 0 0 0 1 0 0 0 1 7.832001 10.555 14.694 1 1 1
9 0 1 0 0 0 1 0 0 0 1 6.832001 6.555 17.194 1 2 0.5
9 0 1 0 0 0 1 0 0 0 1 5.832001 -13.445 21.694 1 1 1
9 0 1 0 0 0 1 0 0 0 1 0.8320007 16.555 30.694 1 1 1
9 0 1 0 0 0 1 0 0 0 1 -5.667999 6.555 17.694 0.5 2 1
9 0 1 0 0 0 1 0 0 0 1 -8.167999 0.5550003 14.694 1 1 1
9 0 1 0 0 0 1 0 0 0 1 -9.667999 1.555 -11.806 0.5 4 0.5
9 0 1 0 0 0 1 0 0 0 1 -10.668 0.5550003 -10.306 0.5 2 1
9 0 1 0 0 0 1 0 0 0 1 -11.668 6.555 12.694 0.5 2 1
9 0 1 0 0 0 1 0 0 0 1 -12.168 8.555 10.194 1 2 0.5
9 0 1 0 0 0 1 0 0 0 1 -14.668 8.555 2.194 0.5 4 0.5
9 0 1 0 0 0 1 0 0 0 1 12.332 1.055 8.194 0.5 3.5 0.5
9 0 1 0 0 0 1 0 0 0 1 2.332001 -2.945 17.194 0.5 3.5 0.5
9 0 1 0 0 0 1 0 0 0 1 1.332001 14.055 16.194 3.5 0.5 0.5
9 0 1 0 0 0 1 0 0 0 1 -2.667999 3.055 24.194 0.5 3.5 0.5
9 0 1 0 0 0 1 0 0 0 1 -3.667999 2.055 29.194 0.5 3.5 0.5
9 0 1 0 0 0 1 0 0 0 1 16.332 7.055 -0.3059998 0.5 1.5 1
9 0 1 0 0 0 1 0 0 0 1 14.332 5.555 3.194 0.5 3 0.5
9 0 1 0 0 0 1 0 0 0 1 13.332 10.555 -8.806 0.5 1 1.5
9 0 1 0 0 0 1 0 0 0 1 13.332 -1.945 3.694 0.5 0.5 3
9 0 1 0 0 0 1 0 0 0 1 12.832 -2.945 5.194 1 0.5 1.5
9 0 1 0 0 0 1 0 0 0 1 11.332 -0.4449997 9.194 0.5 3 0.5
9 0 1 0 0 0 1 0 0 0 1 10.332 -3.945 8.694 0.5 0.5 3
9 0 1 0 0 0 1 0 0 0 1 9.832001 2.055 14.194 1 1.5 0.5
9 0 1 0 0 0 1 0 0 0 1 7.332001 -4.945 3.694 0.5 1.5 1
9 0 1 0 0 0 1 0 0 0 1 6.332001 10.555 16.194 1.5 1 0.5
9 0 1 0 0 0 1 0 0 0 1 5.332001 -2.945 25.694 0.5 1.5 1
9 0 1 0 0 0 1 0 0 0 1 5.832001 -9.945 25.194 1 1.5 0.5
9 0 1 0 0 0 1 0 0 0 1 4.332001 12.555 14.194 0.5 3 0.5
9 0 1 0 0 0 1 0 0 0 1 4.332001 1.555 17.194 1.5 1 0.5
9 0 1 0 0 0 1 0 0 0 1 3.832001 -7.945 5.194 1 1.5 0.5
9 0 1 0 0 0 1 0 0 0 1 1.832001 -1.945 32.194 1 1.5 0.5
9 0 1 0 0 0 1 0 0 0 1 2.332001 -3.945 -8.306 1.5 0.5 1
9 0 1 0 0 0 1 0 0 0 1 1.832001 -9.945 1.194 1 0.5 1.5
9 0 1 0 0 0 1 0 0 0 1 0.3320007 20.555 29.194 0.5 3 0.5
9 0 1 0 0 0 1 0 0 0 1 1.332001 -1.445 -12.806 1.5 1 0.5
9 0 1 0 0 0 1 0 0 0 1 1.332001 -10.945 11.694 1.5 0.5 1
9 0 1 0 0 0 1 0 0 0 1 -0.1679993 -7.945 7.194 1 1.5 0.5
9 0 1 0 0 0 1 0 0 0 1 -0.6679993 18.555 25.194 1.5 1 0.5
9 0 1 0 0 0 1 0 0 0 1 -2.667999 12.555 29.194 0.5 3 0.5
9 0 1 0 0 0 1 0 0 0 1 -2.167999 -3.945 -11.806 1 0.5 1.5
9 0 1 0 0 0 1 0 0 0 1 -2.167999 -10.945 15.194 1 0.5 1.5
9 0 1 0 0 0 1 0 0 0 1 -3.667999 -6.445 14.194 0.5 3 0.5
9 0 1 0 0 0 1 0 0 0 1 -3.667999 -10.945 17.694 0.5 1.5 1
9 0 1 0 0 0 1 0 0 0 1 -3.667999 10.555 17.194 1.5 1 0.5
9 0 1 0 0 0 1 0 0 0 1 -4.667999 1.055 28.694 0.5 1.5 1
9 0 1 0 0 0 1 0 0 0 1 -4.167999 -7.945 5.194 1 1.5 0.5
9 0 1 0 0 0 1 0 0 0 1 -4.167999 -11.945 23.194 1 0.5 1.5
9 0 1 0 0 0 1 0 0 0 1 -5.667999 -6.945 24.694 0.5 1.5 1
9 0 1 0 0 0 1 0 0 0 1 -5.667999 -9.945 21.694 0.5 1.5 1
9 0 1 0 0 0 1 0 0 0 1 -6.667999 -3.945 -8.306 0.5 0.5 3
9 0 1 0 0 0 1 0 0 0 1 -6.667999 11.555 15.194 1.5 1 0.5
9 0 1 0 0 0 1 0 0 0 1 -8.167999 4.055 16.194 1 1.5 0.5
9 0 1 0 0 0 1 0 0 0 1 -6.167999 0.05500031 -12.806 3 0.5 0.5
9 0 1 0 0 0 1 0 0 0 1 -8.667999 -1.945 -11.306 0.5 1.5 1
9 0 1 0 0 0 1 0 0 0 1 -8.667999 -4.945 -0.3059998 0.5 1.5 1
9 0 1 0 0 0 1 0 0 0 1 13.332 3.055 12.194 0.5 2.5 0.5
9 0 1 0 0 0 1 0 0 0 1 11.332 6.055 14.194 0.5 2.5 0.5
9 0 1 0 0 0 1 0 0 0 1 4.332001 -0.9449997 30.194 0.5 2.5 0.5
9 0 1 0 0 0 1 0 0 0 1 4.332001 -9.945 14.194 0.5 0.5 2.5
9 0 1 0 0 0 1 0 0 0 1 3.332001 -10.945 14.194 0.5 0.5 2.5
9 0 1 0 0 0 1 0 0 0 1 3.332001 -7.945 -1.806 2.5 0.5 0.5
9 0 1 0 0 0 1 0 0 0 1 0.3320007 12.055 20.194 0.5 0.5 2.5
9 0 1 0 0 0 1 0 0 0 1 -10.668 0.05500031 10.194 0.5 2.5 0.5
9 0 1 0 0 0 1 0 0 0 1 -12.668 9.055 9.194 0.5 2.5 0.5
9 0 1 0 0 0 1 0 0 0 1 -12.668 3.055 -7.806 0.5 2.5 0.5
9 0 1 0 0 0 1 0 0 0 1 -13.668 2.055 -4.806 0.5 2.5 0.5
9 0 1 0 0 0 1 0 0 0 1 -15.668 13.055 -3.806 0.5 0.5 2.5
9 0 1 0 0 0 1 0 0 0 1 15.332 6.555 6.694 0.5 1 1
9 0 1 0 0 0 1 0 0 0 1 14.332 12.555 -6.306 0.5 1 1
9 0 1 0 0 0 1 0 0 0 1 14.332 7.555 6.694 0.5 1 1
9 0 1 0 0 0 1 0 0 0 1 14.332 3.055 0.6940002 0.5 0.5 2
9 0 1 0 0 0 1 0 0 0 1 13.332 10.055 8.694 0.5 0.5 2
9 0 1 0 0 0 1 0 0 0 1 13.332 7.555 -8.806 0.5 2 0.5
9 0 1 0 0 0 1 0 0 0 1 12.332 -1.445 7.194 0.5 2 0.5
9 0 1 0 0 0 1 0 0 0 1 11.332 3.555 -9.806 0.5 2 0.5
9 0 1 0 0 0 1 0 0 0 1 9.332001 1.555 -11.806 0.5 2 0.5
9 0 1 0 0 0 1 0 0 0 1 7.332001 13.555 13.694 0.5 1 1
9 0 1 0 0 0 1 0 0 0 1 7.832001 -3.945 -4.306 1 0.5 1
9 0 1 0 0 0 1 0 0 0 1 6.332001 3.555 27.694 0.5 1 1
9 0 1 0 0 0 1 0 0 0 1 6.832001 0.05500031 15.694 1 0.5 1
9 0 1 0 0 0 1 0 0 0 1 6.332001 -4.445 14.194 0.5 2 0.5
9 0 1 0 0 0 1 0 0 0 1 6.332001 -7.945 23.694 0.5 0.5 2
9 0 1 0 0 0 1 0 0 0 1 5.832001 5.555 28.194 1 1 0.5
9 0 1 0 0 0 1 0 0 0 1 5.332001 -8.445 15.694 0.5 1 1
9 0 1 0 0 0 1 0 0 0 1 5.332001 -10.445 18.194 0.5 2 0.5
9 0 1 0 0 0 1 0 0 0 1 4.332001 10.555 29.694 0.5 1 1
9 0 1 0 0 0 1 0 0 0 1 4.332001 5.555 19.194 0.5 2 0.5
9 0 1 0 0 0 1 0 0 0 1 4.332001 -4.445 23.194 0.5 2 0.5
9 0 1 0 0 0 1 0 0 0 1 4.832001 -9.945 5.694 1 0.5 1
9 0 1 0 0 0 1 0 0 0 1 3.832001 14.555 15.194 1 1 0.5
9 0 1 0 0 0 1 0 0 0 1 3.832001 10.055 15.694 1 0.5 1
9 0 1 0 0 0 1 0 0 0 1 3.332001 9.555 17.694 0.5 1 1
9 0 1 0 0 0 1 0 0 0 1 3.332001 8.555 31.694 0.5 1 1
9 0 1 0 0 0 1 0 0 0 1 3.332001 -4.445 16.194 0.5 2 0.5
9 0 1 0 0 0 1 0 0 0 1 2.832001 8.055 24.694 1 0.5 1
9 0 1 0 0 0 1 0 0 0 1 2.332001 -1.445 22.194 0.5 2 0.5
9 0 1 0 0 0 1 0 0 0 1 2.832001 -5.445 21.194 1 1 0.5
9 0 1 0 0 0 1 0 0 0 1 2.832001 -10.945 25.694 1 0.5 1
9 0 1 0 0 0 1 0 0 0 1 1.832001 7.555 33.194 1 1 0.5
9 0 1 0 0 0 1 0 0 0 1 1.832001 -8.945 -1.306 1 0.5 1
9 0 1 0 0 0 1 0 0 0 1 0.3320007 -3.445 32.194 0.5 2 0.5
9 0 1 0 0 0 1 0 0 0 1 0.8320007 -5.945 30.694 1 0.5 1
9 0 1 0 0 0 1 0 0 0 1 0.8320007 -9.945 26.694 1 0.5 1
9 0 1 0 0 0 1 0 0 0 1 0.8320007 -10.945 3.694 1 0.5 1
9 0 1 0 0 0 1 0 0 0 1 -0.1679993 21.555 27.194 1 1 0.5
9 0 1 0 0 0 1 0 0 0 1 -0.1679993 3.555 32.194 1 1 0.5
9 0 1 0 0 0 1 0 0 0 1 -1.667999 5.555 32.194 0.5 2 0.5
9 0 1 0 0 0 1 0 0 0 1 -2.667999 10.555 24.194 0.5 2 0.5
9 0 1 0 0 0 1 0 0 0 1 -2.667999 -9.945 14.694 0.5 0.5 2
9 0 1 0 0 0 1 0 0 0 1 -2.167999 -12.445 16.194 1 1 0.5
9 0 1 0 0 0 1 0 0 0 1 -3.167999 1.555 18.194 1 1 0.5
9 0 1 0 0 0 1 0 0 0 1 -3.667999 -0.4449997 23.694 0.5 1 1
9 0 1 0 0 0 1 0 0 0 1 -3.667999 -8.445 26.694 0.5 1 1
9 0 1 0 0 0 1 0 0 0 1 -4.667999 -0.4449997 24.694 0.5 1 1
9 0 1 0 0 0 1 0 0 0 1 -4.167999 -1.445 -14.806 1 1 0.5
9 0 1 0 0 0 1 0 0 0 1 -4.167999 -1.445 16.194 1 1 0.5
9 0 1 0 0 0 1 0 0 0 1 -4.167999 13.055 15.194 2 0.5 0.5
9 0 1 0 0 0 1 0 0 0 1 -5.167999 -4.445 -6.806 1 1 0.5
9 0 1 0 0 0 1 0 0 0 1 -6.667999 -4.945 -6.806 0.5 0.5 2.5
9 0 1 0 0 0 1 0 0 0 1 -5.167999 -5.945 -8.306 1 0.5 1
9 0 1 0 0 0 1 0 0 0 1 -6.167999 1.055 -14.306 1 0.5 1
9 0 1 0 0 0 1 0 0 0 1 -6.667999 -1.445 14.694 0.5 1 1
9 0 1 0 0 0 1 0 0 0 1 -6.167999 -6.945 -0.3059998 1 0.5 1
9 0 1 0 0 0 1 0 0 0 1 -8.167999 1.055 -13.306 1 0.5 1
9 0 1 0 0 0 1 0 0 0 1 -8.667999 -0.4449997 13.194 0.5 2 0.5
9 0 1 0 0 0 1 0 0 0 1 -9.667999 8.555 13.694 0.5 1 1
9 0 1 0 0 0 1 0 0 0 1 -9.167999 -2.445 12.194 1 1 0.5
9 0 1 0 0 0 1 0 0 0 1 -10.668 3.555 -11.306 0.5 1 1
9 0 1 0 0 0 1 0 0 0 1 -10.668 -3.945 5.694 0.5 0.5 2
9 0 1 0 0 0 1 0 0 0 1 -14.668 17.555 -1.806 0.5 2 0.5
9 0 1 0 0 0 1 0 0 0 1 -14.668 3.555 -3.306 0.5 1 1
9 0 1 0 0 0 1 0 0 0 1 -15.668 5.555 -2.306 0.5 1 1
9 0 1 0 0 0 1 0 0 0 1 15.332 10.055 -2.806 0.5 1.5 0.5
9 0 1 0 0 0 1 0 0 0 1 14.332 6.055 -5.806 0.5 1.5 0.5
9 0 1 0 0 0 1 0 0 0 1 14.332 4.055 11.194 0.5 1.5 0.5
9 0 1 0 0 0 1 0 0 0 1 13.332 2.055 6.194 0.5 1.5 0.5
9 0 1 0 0 0 1 0 0 0 1 12.332 11.055 10.194 0.5 0.5 1.5
9 0 1 0 0 0 1 0 0 0 1 12.332 8.055 -11.806 0.5 1.5 0.5
9 0 1 0 0 0 1 0 0 0 1 10.332 -1.945 13.194 0.5 1.5 0.5
9 0 1 0 0 0 1 0 0 0 1 10.332 -4.945 7.194 0.5 0.5 1.5
9 0 1 0 0 0 1 0 0 0 1 9.332001 5.055 16.194 0.5 1.5 0.5
9 0 1 0 0 0 1 0 0 0 1 9.332001 2.055 15.194 0.5 1.5 0.5
9 0 1 0 0 0 1 0 0 0 1 8.332001 12.055 12.194 0.5 1.5 0.5
9 0 1 0 0 0 1 0 0 0 1 8.332001 -5.945 -1.806 0.5 0.5 1.5
9 0 1 0 0 0 1 0 0 0 1 8.332001 -7.945 4.194 0.5 0.5 1.5
9 0 1 0 0 0 1 0 0 0 1 7.332001 -8.945 3.194 0.5 0.5 1.5
9 0 1 0 0 0 1 0 0 0 1 6.332001 10.055 17.194 0.5 1.5 0.5
9 0 1 0 0 0 1 0 0 0 1 5.332001 5.055 26.194 0.5 0.5 1.5
9 0 1 0 0 0 1 0 0 0 1 4.332001 8.055 27.194 0.5 0.5 1.5
9 0 1 0 0 0 1 0 0 0 1 5.332001 -12.945 23.194 1.5 0.5 0.5
9 0 1 0 0 0 1 0 0 0 1 3.332001 -1.945 31.194 0.5 1.5 0.5
9 0 1 0 0 0 1 0 0 0 1 4.332001 -9.945 2.194 1.5 0.5 0.5
9 0 1 0 0 0 1 0 0 0 1 3.332001 11.055 18.194 1.5 0.5 0.5
9 0 1 0 0 0 1 0 0 0 1 2.332001 -3.945 14.194 0.5 1.5 0.5
9 0 1 0 0 0 1 0 0 0 1 2.332001 -5.945 19.194 0.5 0.5 1.5
9 0 1 0 0 0 1 0 0 0 1 3.332001 -8.945 28.194 1.5 0.5 0.5
9 0 1 0 0 0 1 0 0 0 1 3.332001 -9.945 23.194 1.5 0.5 0.5
9 0 1 0 0 0 1 0 0 0 1 0.3320007 16.055 23.194 1.5 0.5 0.5
9 0 1 0 0 0 1 0 0 0 1 0.3320007 15.055 16.194 1.5 0.5 0.5
9 0 1 0 0 0 1 0 0 0 1 -0.6679993 10.055 30.194 0.5 1.5 0.5
9 0 1 0 0 0 1 0 0 0 1 -0.6679993 18.055 24.194 1.5 0.5 0.5
9 0 1 0 0 0 1 0 0 0 1 -0.6679993 -8.945 29.194 1.5 0.5 0.5
9 0 1 0 0 0 1 0 0 0 1 -2.667999 -9.945 6.194 0.5 0.5 1.5
9 0 1 0 0 0 1 0 0 0 1 -1.667999 -9.945 28.194 1.5 0.5 0.5
9 0 1 0 0 0 1 0 0 0 1 -3.667999 7.055 26.194 0.5 1.5 0.5
9 0 1 0 0 0 1 0 0 0 1 -3.667999 2.055 30.194 0.5 1.5 0.5
9 0 1 0 0 0 1 0 0 0 1 -2.667999 -6.945 -3.806 1.5 0.5 0.5
9 0 1 0 0 0 1 0 0 0 1 -3.667999 -14.945 20.194 0.5 0.5 1.5
9 0 1 0 0 0 1 0 0 0 1 -3.667999 -7.945 -1.806 1.5 0.5 0.5
9 0 1 0 0 0 1 0 0 0 1 -4.667999 -3.945 -10.806 1.5 0.5 0.5
9 0 1 0 0 0 1 0 0 0 1 -5.667999 -7.945 23.194 0.5 1.5 0.5
9 0 1 0 0 0 1 0 0 0 1 -6.667999 8.055 17.194 0.5 1.5 0.5
9 0 1 0 0 0 1 0 0 0 1 -7.667999 9.055 15.194 0.5 1.5 0.5
9 0 1 0 0 0 1 0 0 0 1 -6.667999 -2.945 -11.806 1.5 0.5 0.5
9 0 1 0 0 0 1 0 0 0 1 -9.667999 12.055 12.194 0.5 1.5 0.5
9 0 1 0 0 0 1 0 0 0 1 -9.667999 -0.9449997 -10.806 0.5 1.5 0.5
9 0 1 0 0 0 1 0 0 0 1 -9.667999 -1.945 11.194 0.5 1.5 0.5
9 0 1 0 0 0 1 0 0 0 1 -11.668 1.055 -8.806 0.5 1.5 0.5
9 0 1 0 0 0 1 0 0 0 1 -11.668 0.05500031 8.194 0.5 1.5 0.5
9 0 1 0 0 0 1 0 0 0 1 -12.668 8.055 11.194 0.5 1.5 0.5
9 0 1 0 0 0 1 0 0 0 1 -12.668 2.055 7.194 0.5 1.5 0.5
9 0 1 0 0 0 1 0 0 0 1 -13.668 4.055 5.194 0.5 1.5 0.5
9 0 1 0 0 0 1 0 0 0 1 -14.668 4.055 5.194 0.5 0.5 1.5
9 0 1 0 0 0 1 0 0 0 1 -15.668 14.055 -4.806 1.5 0.5 0.5
