9 0 1 0 0 0 1 0 0 0 1 0 41 0 36.5 1.5 136.5
9 0 1 0 0 0 1 0 0 0 1 0 -43 -78 22.5 0.5 53.5
9 0 1 0 0 0 1 0 0 0 1 0 -1.5 -67.5 0.5 10 67
9 0 1 0 0 0 1 0 0 0 1 0 33 -2 0.5 3.5 132.5
9 0 1 0 0 0 1 0 0 0 1 38 44 0 0.5 2.5 138.5
9 0 1 0 0 0 1 0 0 0 1 -38 44 0 0.5 2.5 138.5
9 0 1 0 0 0 1 0 0 0 1 0 3.5 65 0.5 5 65.5
9 0 1 0 0 0 1 0 0 0 1 35 -16.5 28.5 0.5 15 20
9 0 1 0 0 0 1 0 0 0 1 0 -37 -68 0.5 4.5 66.5
9 0 1 0 0 0 1 0 0 0 1 -1 -43 125 30.5 0.5 6.5
9 0 1 0 0 0 1 0 0 0 1 -6 -43 26 19.5 0.5 9.5
9 0 1 0 0 0 1 0 0 0 1 -35 -16.5 38.5 0.5 15 10
9 0 1 0 0 0 1 0 0 0 1 0 -32.5 29 13.5 10 0.5
9 0 1 0 0 0 1 0 0 0 1 0 -8 22.5 9.5 3.5 2
9 0 1 0 0 0 1 0 0 0 1 30 -48 60 1.5 4.5 9.5
9 0 1 0 0 0 1 0 0 0 1 -30 -48 60 1.5 4.5 9.5
9 0 1 0 0 0 1 0 0 0 1 23.5 -8 22.5 8 3.5 2
9 0 1 0 0 0 1 0 0 0 1 21.5 -30 11 8 13.5 0.5
9 0 1 0 0 0 1 0 0 0 1 0 -39 131 30.5 3.5 0.5
9 0 1 0 0 0 1 0 0 0 1 0 44 -138 37.5 2.5 0.5
9 0 1 0 0 0 1 0 0 0 1 0 44 138 37.5 2.5 0.5
9 0 1 0 0 0 1 0 0 0 1 35 -35.5 122.5 0.5 7 12
9 0 1 0 0 0 1 0 0 0 1 -21.5 -8 22.5 6 3.5 2
9 0 1 0 0 0 1 0 0 0 1 -35 -35.5 122.5 0.5 7 12
9 0 1 0 0 0 1 0 0 0 1 19.5 -43 25 6 0.5 13.5
9 0 1 0 0 0 1 0 0 0 1 16 -43 -12.5 6.5 0.5 12
9 0 1 0 0 0 1 0 0 0 1 -16 -43 -12.5 6.5 0.5 12
9 0 1 0 0 0 1 0 0 0 1 18.5 -45 60 10 7.5 0.5
9 0 1 0 0 0 1 0 0 0 1 -18.5 -45 60 10 7.5 0.5
9 0 1 0 0 0 1 0 0 0 1 0 -36 60 5.5 4.5 1.5
9 0 1 0 0 0 1 0 0 0 1 -16 -44.5 9.5 2.5 2 7
9 0 1 0 0 0 1 0 0 0 1 37 42 0 0.5 0.5 137.5
9 0 1 0 0 0 1 0 0 0 1 -37 42 0 0.5 0.5 137.5
9 0 1 0 0 0 1 0 0 0 1 -35 -6 14.5 0.5 4.5 14
9 0 1 0 0 0 1 0 0 0 1 31 -26.5 9 0.5 13 4.5
9 0 1 0 0 0 1 0 0 0 1 -21.5 -43 100 3 0.5 18.5
9 0 1 0 0 0 1 0 0 0 1 16 -45 10.5 2.5 1.5 7
9 0 1 0 0 0 1 0 0 0 1 19.5 -52 54 9 0.5 5.5
9 0 1 0 0 0 1 0 0 0 1 19.5 -52 66 9 0.5 5.5
9 0 1 0 0 0 1 0 0 0 1 -19.5 -52 54 9 0.5 5.5
9 0 1 0 0 0 1 0 0 0 1 -19.5 -52 66 9 0.5 5.5
9 0 1 0 0 0 1 0 0 0 1 35 -30 79.5 0.5 1.5 31
9 0 1 0 0 0 1 0 0 0 1 -35 -30 79.5 0.5 1.5 31
9 0 1 0 0 0 1 0 0 0 1 -29.5 -38.5 98 1 3 7.5
9 0 1 0 0 0 1 0 0 0 1 -14.5 2 -133.5 4 5.5 1
9 0 1 0 0 0 1 0 0 0 1 21.5 -43 104.5 3 0.5 14
9 0 1 0 0 0 1 0 0 0 1 14.5 -5.5 -133.5 4 5 1
9 0 1 0 0 0 1 0 0 0 1 -24 -43 9.5 5.5 0.5 7
9 0 1 0 0 0 1 0 0 0 1 29.5 -39 98 1 2.5 7.5
9 0 1 0 0 0 1 0 0 0 1 31 -40 122 0.5 3.5 9.5
9 0 1 0 0 0 1 0 0 0 1 -24.5 -39.5 29 11 3 0.5
9 0 1 0 0 0 1 0 0 0 1 -31 -38 111 0.5 1.5 20.5
9 0 1 0 0 0 1 0 0 0 1 15.5 30 3 12 0.5 2.5
9 0 1 0 0 0 1 0 0 0 1 15.5 8 3 12 0.5 2.5
9 0 1 0 0 0 1 0 0 0 1 -15.5 30 -3 12 0.5 2.5
9 0 1 0 0 0 1 0 0 0 1 -15.5 8 -3 12 0.5 2.5
9 0 1 0 0 0 1 0 0 0 1 18 -7.5 3 9.5 3 0.5
9 0 1 0 0 0 1 0 0 0 1 21.5 -43 7 8 0.5 3.5
9 0 1 0 0 0 1 0 0 0 1 0 -42 -79.5 0.5 0.5 55
9 0 1 0 0 0 1 0 0 0 1 -22.5 -39.5 3 9 3 0.5
9 0 1 0 0 0 1 0 0 0 1 28.5 -13.5 22.5 3 2 2
9 0 1 0 0 0 1 0 0 0 1 4.5 33.5 -133.5 4 3 1
9 0 1 0 0 0 1 0 0 0 1 -4.5 33.5 -133.5 4 3 1
9 0 1 0 0 0 1 0 0 0 1 -2.5 -45 17 16 1.5 0.5
9 0 1 0 0 0 1 0 0 0 1 23.5 -38.5 91 5 4 0.5
9 0 1 0 0 0 1 0 0 0 1 -23.5 -38.5 91 5 4 0.5
9 0 1 0 0 0 1 0 0 0 1 16 -11 -4 12.5 0.5 1.5
9 0 1 0 0 0 1 0 0 0 1 16 -33 -4 12.5 0.5 1.5
9 0 1 0 0 0 1 0 0 0 1 -31 -38 16 0.5 1.5 12.5
9 0 1 0 0 0 1 0 0 0 1 0 42 -137 36.5 0.5 0.5
9 0 1 0 0 0 1 0 0 0 1 0 42 137 36.5 0.5 0.5
9 0 1 0 0 0 1 0 0 0 1 35 -6 4.5 0.5 4.5 4
9 0 1 0 0 0 1 0 0 0 1 27.5 -43 20.5 2 0.5 9
9 0 1 0 0 0 1 0 0 0 1 -32.5 -6 18.5 2 4.5 1
9 0 1 0 0 0 1 0 0 0 1 35 -37.5 4 0.5 5 3.5
9 0 1 0 0 0 1 0 0 0 1 31 -38 101.5 0.5 1.5 11
9 0 1 0 0 0 1 0 0 0 1 22 -43 86 3.5 0.5 4.5
9 0 1 0 0 0 1 0 0 0 1 0 19 0 0.5 10.5 1.5
9 0 1 0 0 0 1 0 0 0 1 -31 -41 122 0.5 1.5 9.5
9 0 1 0 0 0 1 0 0 0 1 -35 -38.5 4 0.5 4 3.5
9 0 1 0 0 0 1 0 0 0 1 -27.5 -43 23 2 0.5 6.5
9 0 1 0 0 0 1 0 0 0 1 27 -43 113.5 2.5 0.5 5
9 0 1 0 0 0 1 0 0 0 1 -27 -43 113.5 2.5 0.5 5
9 0 1 0 0 0 1 0 0 0 1 31 -38 21.5 0.5 1.5 8
9 0 1 0 0 0 1 0 0 0 1 -29.5 -7.5 23.5 2 3 1
9 0 1 0 0 0 1 0 0 0 1 -35 -31.5 19.5 0.5 2 6
9 0 1 0 0 0 1 0 0 0 1 27 -8 11.5 0.5 3.5 3
9 0 1 0 0 0 1 0 0 0 1 0 19 -133.5 0.5 10.5 1
9 0 1 0 0 0 1 0 0 0 1 0 -22 -133.5 0.5 10.5 1
9 0 1 0 0 0 1 0 0 0 1 6.5 -43 37 7 0.5 1.5
9 0 1 0 0 0 1 0 0 0 1 -31 -21 18.5 0.5 10.5 1
9 0 1 0 0 0 1 0 0 0 1 0 -43 -4.5 9.5 0.5 1
9 0 1 0 0 0 1 0 0 0 1 14.5 -33.5 29 1 9 0.5
9 0 1 0 0 0 1 0 0 0 1 10 -50 90 3.5 0.5 2.5
9 0 1 0 0 0 1 0 0 0 1 10 -50 110 3.5 0.5 2.5
9 0 1 0 0 0 1 0 0 0 1 -10 -50 90 3.5 0.5 2.5
9 0 1 0 0 0 1 0 0 0 1 -10 -50 110 3.5 0.5 2.5
9 0 1 0 0 0 1 0 0 0 1 35 -32.5 17 0.5 1 8.5
9 0 1 0 0 0 1 0 0 0 1 35 -32.5 102.5 0.5 1 8
9 0 1 0 0 0 1 0 0 0 1 23.5 -12.5 22.5 2 1 2
9 0 1 0 0 0 1 0 0 0 1 -21.5 -35.5 29 8 1 0.5
9 0 1 0 0 0 1 0 0 0 1 -35 -32.5 102.5 0.5 1 8
9 0 1 0 0 0 1 0 0 0 1 33 -39.5 38 2.5 3 0.5
9 0 1 0 0 0 1 0 0 0 1 33 -39.5 82 2.5 3 0.5
9 0 1 0 0 0 1 0 0 0 1 29.5 -36 98 1 0.5 7.5
9 0 1 0 0 0 1 0 0 0 1 29 -42.5 98 0.5 1 7.5
9 0 1 0 0 0 1 0 0 0 1 -29 -42.5 98 0.5 1 7.5
9 0 1 0 0 0 1 0 0 0 1 -31.5 -41 38 3 2.5 0.5
9 0 1 0 0 0 1 0 0 0 1 -31.5 -41 82 3 2.5 0.5
9 0 1 0 0 0 1 0 0 0 1 33.5 -39 29 2 3.5 0.5
9 0 1 0 0 0 1 0 0 0 1 33.5 -39 91 2 3.5 0.5
9 0 1 0 0 0 1 0 0 0 1 -33.5 -39 91 2 3.5 0.5
9 0 1 0 0 0 1 0 0 0 1 0 -13 -5 0.5 1.5 4.5
9 0 1 0 0 0 1 0 0 0 1 0 -31 -5 0.5 1.5 4.5
9 0 1 0 0 0 1 0 0 0 1 -7 -36 60 1.5 4.5 0.5
9 0 1 0 0 0 1 0 0 0 1 0 -46 16 13.5 0.5 0.5
9 0 1 0 0 0 1 0 0 0 1 16.5 30 -130 13 0.5 0.5
9 0 1 0 0 0 1 0 0 0 1 -16.5 -33 -130 13 0.5 0.5
9 0 1 0 0 0 1 0 0 0 1 30 -29 11 0.5 12.5 0.5
9 0 1 0 0 0 1 0 0 0 1 8 -35 60 2.5 2.5 0.5
9 0 1 0 0 0 1 0 0 0 1 16.5 -43 -132.5 6 0.5 1
9 0 1 0 0 0 1 0 0 0 1 0 28 -128.5 0.5 1.5 4
9 0 1 0 0 0 1 0 0 0 1 0 28 -5.5 0.5 1.5 4
9 0 1 0 0 0 1 0 0 0 1 0 28 5.5 0.5 1.5 4
9 0 1 0 0 0 1 0 0 0 1 0 10 -128.5 0.5 1.5 4
9 0 1 0 0 0 1 0 0 0 1 0 10 -5.5 0.5 1.5 4
9 0 1 0 0 0 1 0 0 0 1 0 10 5.5 0.5 1.5 4
9 0 1 0 0 0 1 0 0 0 1 0 -13 -128.5 0.5 1.5 4
9 0 1 0 0 0 1 0 0 0 1 0 -31 -128.5 0.5 1.5 4
9 0 1 0 0 0 1 0 0 0 1 -16.5 -43 -132.5 6 0.5 1
9 0 1 0 0 0 1 0 0 0 1 -15.5 31 130 12 0.5 0.5
9 0 1 0 0 0 1 0 0 0 1 -15.5 7 130 12 0.5 0.5
9 0 1 0 0 0 1 0 0 0 1 31 -41.5 27 0.5 2 2.5
9 0 1 0 0 0 1 0 0 0 1 -14.5 -29.5 29 1 5 0.5
9 0 1 0 0 0 1 0 0 0 1 30 -43 122 0.5 0.5 9.5
9 0 1 0 0 0 1 0 0 0 1 35 -38 24.5 0.5 4.5 1
9 0 1 0 0 0 1 0 0 0 1 29.5 -48 50 1 4.5 0.5
9 0 1 0 0 0 1 0 0 0 1 29.5 -48 70 1 4.5 0.5
9 0 1 0 0 0 1 0 0 0 1 9.5 -52 55 1 0.5 4.5
9 0 1 0 0 0 1 0 0 0 1 9.5 -52 65 1 0.5 4.5
9 0 1 0 0 0 1 0 0 0 1 6.5 -43 -2 3 0.5 1.5
9 0 1 0 0 0 1 0 0 0 1 -6.5 -43 -2 3 0.5 1.5
9 0 1 0 0 0 1 0 0 0 1 -9.5 -52 55 1 0.5 4.5
9 0 1 0 0 0 1 0 0 0 1 -9.5 -52 65 1 0.5 4.5
9 0 1 0 0 0 1 0 0 0 1 -29 -48 49.5 0.5 4.5 1
9 0 1 0 0 0 1 0 0 0 1 -29 -48 70.5 0.5 4.5 1
9 0 1 0 0 0 1 0 0 0 1 -33 -30 18.5 1.5 1.5 1
9 0 1 0 0 0 1 0 0 0 1 -35 -38 24.5 0.5 4.5 1
9 0 1 0 0 0 1 0 0 0 1 35 -42 15.5 0.5 0.5 8
9 0 1 0 0 0 1 0 0 0 1 35 -42 102.5 0.5 0.5 8
9 0 1 0 0 0 1 0 0 0 1 31 -41.5 92.5 0.5 2 2
9 0 1 0 0 0 1 0 0 0 1 30.5 -16.5 22.5 1 1 2
9 0 1 0 0 0 1 0 0 0 1 -31 -41.5 26.5 0.5 2 2
9 0 1 0 0 0 1 0 0 0 1 -30.5 -42.5 92.5 1 1 2
9 0 1 0 0 0 1 0 0 0 1 -35 -42 15.5 0.5 0.5 8
9 0 1 0 0 0 1 0 0 0 1 -35 -42 102.5 0.5 0.5 8
9 0 1 0 0 0 1 0 0 0 1 29 -35 98 0.5 0.5 7.5
9 0 1 0 0 0 1 0 0 0 1 0 -22 -1 0.5 7.5 0.5
9 0 1 0 0 0 1 0 0 0 1 -29 -35 98 0.5 0.5 7.5
9 0 1 0 0 0 1 0 0 0 1 -35 -29 22 0.5 0.5 6.5
9 0 1 0 0 0 1 0 0 0 1 29 -41.5 38 1.5 2 0.5
9 0 1 0 0 0 1 0 0 0 1 29 -41.5 82 1.5 2 0.5
9 0 1 0 0 0 1 0 0 0 1 25.5 -17.5 60 1 1 1.5
9 0 1 0 0 0 1 0 0 0 1 -10 -35.5 60 1.5 2 0.5
9 0 1 0 0 0 1 0 0 0 1 -25.5 -17.5 60 1 1 1.5
9 0 1 0 0 0 1 0 0 0 1 -31 -41.5 5 0.5 2 1.5
9 0 1 0 0 0 1 0 0 0 1 -30.5 -43 115.5 1 0.5 3
9 0 1 0 0 0 1 0 0 0 1 -35 -11.5 3.5 0.5 1 3
9 0 1 0 0 0 1 0 0 0 1 -34 -36.5 38 1.5 2 0.5
9 0 1 0 0 0 1 0 0 0 1 -33.5 -37 82 2 1.5 0.5
9 0 1 0 0 0 1 0 0 0 1 31 -22 -2 0.5 5.5 0.5
9 0 1 0 0 0 1 0 0 0 1 -25 -43 87 0.5 0.5 5.5
9 0 1 0 0 0 1 0 0 0 1 33 -35 33.5 0.5 0.5 5
9 0 1 0 0 0 1 0 0 0 1 33 -35 86.5 0.5 0.5 5
9 0 1 0 0 0 1 0 0 0 1 16 -45.5 3 2.5 1 0.5
9 0 1 0 0 0 1 0 0 0 1 8.5 -46 15 5 0.5 0.5
9 0 1 0 0 0 1 0 0 0 1 -8.5 -46 15 5 0.5 0.5
9 0 1 0 0 0 1 0 0 0 1 -33 -35 86.5 0.5 0.5 5
9 0 1 0 0 0 1 0 0 0 1 32 -36 86 0.5 0.5 4.5
9 0 1 0 0 0 1 0 0 0 1 29 -39 86 0.5 0.5 4.5
9 0 1 0 0 0 1 0 0 0 1 29 -48 49 0.5 4.5 0.5
9 0 1 0 0 0 1 0 0 0 1 29 -48 71 0.5 4.5 0.5
9 0 1 0 0 0 1 0 0 0 1 27 -41 86 0.5 0.5 4.5
9 0 1 0 0 0 1 0 0 0 1 26 -42 86 0.5 0.5 4.5
9 0 1 0 0 0 1 0 0 0 1 8 -43 -23 1.5 0.5 1.5
9 0 1 0 0 0 1 0 0 0 1 7 -39 60 1.5 1.5 0.5
9 0 1 0 0 0 1 0 0 0 1 0 3 131 0.5 4.5 0.5
9 0 1 0 0 0 1 0 0 0 1 -8 -43 -23 1.5 0.5 1.5
9 0 1 0 0 0 1 0 0 0 1 -26 -42 34 0.5 0.5 4.5
9 0 1 0 0 0 1 0 0 0 1 -26 -42 86 0.5 0.5 4.5
9 0 1 0 0 0 1 0 0 0 1 -27 -41 34 0.5 0.5 4.5
9 0 1 0 0 0 1 0 0 0 1 -27 -41 86 0.5 0.5 4.5
9 0 1 0 0 0 1 0 0 0 1 -28 -40 86 0.5 0.5 4.5
9 0 1 0 0 0 1 0 0 0 1 -30 -48 50 0.5 4.5 0.5
9 0 1 0 0 0 1 0 0 0 1 -30 -48 70 0.5 4.5 0.5
9 0 1 0 0 0 1 0 0 0 1 -31 -37 34 0.5 0.5 4.5
9 0 1 0 0 0 1 0 0 0 1 -31 -37 86 0.5 0.5 4.5
9 0 1 0 0 0 1 0 0 0 1 -33 -35 33 0.5 0.5 4.5
9 0 1 0 0 0 1 0 0 0 1 35 -37.5 95 0.5 4 0.5
9 0 1 0 0 0 1 0 0 0 1 31 -37 33.5 0.5 0.5 4
9 0 1 0 0 0 1 0 0 0 1 31 -37 86.5 0.5 0.5 4
9 0 1 0 0 0 1 0 0 0 1 31 -41.5 5.5 0.5 2 1
9 0 1 0 0 0 1 0 0 0 1 30 -42.5 92.5 0.5 1 2
9 0 1 0 0 0 1 0 0 0 1 28.5 -16 22.5 1 0.5 2
9 0 1 0 0 0 1 0 0 0 1 28 -40 86.5 0.5 0.5 4
9 0 1 0 0 0 1 0 0 0 1 26.5 -43 91.5 2 0.5 1
9 0 1 0 0 0 1 0 0 0 1 24.5 -14 22.5 1 0.5 2
9 0 1 0 0 0 1 0 0 0 1 20.5 -12 22.5 1 0.5 2
9 0 1 0 0 0 1 0 0 0 1 0 -36.5 -1 0.5 4 0.5
9 0 1 0 0 0 1 0 0 0 1 -29 -39 33.5 0.5 0.5 4
9 0 1 0 0 0 1 0 0 0 1 -29 -39 86.5 0.5 0.5 4
9 0 1 0 0 0 1 0 0 0 1 -31 -40.5 92.5 0.5 1 2
9 0 1 0 0 0 1 0 0 0 1 -32 -36 86.5 0.5 0.5 4
9 0 1 0 0 0 1 0 0 0 1 -35 -37.5 95 0.5 4 0.5
9 0 1 0 0 0 1 0 0 0 1 -32 -36 32 0.5 0.5 3.5
9 0 1 0 0 0 1 0 0 0 1 32 -36 32.5 0.5 0.5 3
9 0 1 0 0 0 1 0 0 0 1 29 -39 35.5 0.5 0.5 3
9 0 1 0 0 0 1 0 0 0 1 27 -41 35.5 0.5 0.5 3
9 0 1 0 0 0 1 0 0 0 1 26 -42 35.5 0.5 0.5 3
9 0 1 0 0 0 1 0 0 0 1 12 -36.5 60 1.5 1 0.5
9 0 1 0 0 0 1 0 0 0 1 10 -11.5 3 1.5 1 0.5
9 0 1 0 0 0 1 0 0 0 1 8.5 -43 -7 1 0.5 1.5
9 0 1 0 0 0 1 0 0 0 1 0 33.5 131 0.5 3 0.5
9 0 1 0 0 0 1 0 0 0 1 -8 -43 -6.5 1.5 0.5 1
9 0 1 0 0 0 1 0 0 0 1 -24.5 -43 37 1 0.5 1.5
9 0 1 0 0 0 1 0 0 0 1 -27 -43 91.5 1.5 0.5 1
9 0 1 0 0 0 1 0 0 0 1 -29 -11 23.5 1.5 0.5 1
9 0 1 0 0 0 1 0 0 0 1 -35 -30.5 27 0.5 1 1.5
9 0 1 0 0 0 1 0 0 0 1 -35 -32.5 12 0.5 1 1.5
9 0 1 0 0 0 1 0 0 0 1 30 -43 27 0.5 0.5 2.5
9 0 1 0 0 0 1 0 0 0 1 28 -40 35 0.5 0.5 2.5
9 0 1 0 0 0 1 0 0 0 1 26 -37 60 2.5 0.5 0.5
9 0 1 0 0 0 1 0 0 0 1 10 -50 87 2.5 0.5 0.5
9 0 1 0 0 0 1 0 0 0 1 10 -50 93 2.5 0.5 0.5
9 0 1 0 0 0 1 0 0 0 1 10 -50 107 2.5 0.5 0.5
9 0 1 0 0 0 1 0 0 0 1 10 -50 113 2.5 0.5 0.5
9 0 1 0 0 0 1 0 0 0 1 4 -43 -24 2.5 0.5 0.5
9 0 1 0 0 0 1 0 0 0 1 -4 -43 -24 2.5 0.5 0.5
9 0 1 0 0 0 1 0 0 0 1 -10 -50 87 2.5 0.5 0.5
9 0 1 0 0 0 1 0 0 0 1 -10 -50 93 2.5 0.5 0.5
9 0 1 0 0 0 1 0 0 0 1 -10 -50 107 2.5 0.5 0.5
9 0 1 0 0 0 1 0 0 0 1 -10 -50 113 2.5 0.5 0.5
9 0 1 0 0 0 1 0 0 0 1 -26 -37 60 2.5 0.5 0.5
9 0 1 0 0 0 1 0 0 0 1 -30 -35 103 0.5 0.5 2.5
9 0 1 0 0 0 1 0 0 0 1 -30 -43 27 0.5 0.5 2.5
9 0 1 0 0 0 1 0 0 0 1 34.5 -35.5 38 1 1 0.5
9 0 1 0 0 0 1 0 0 0 1 34.5 -35.5 82 1 1 0.5
9 0 1 0 0 0 1 0 0 0 1 32.5 -43 38 2 0.5 0.5
9 0 1 0 0 0 1 0 0 0 1 32.5 -43 82 2 0.5 0.5
9 0 1 0 0 0 1 0 0 0 1 28 30 3.5 0.5 0.5 2
9 0 1 0 0 0 1 0 0 0 1 28 8 3.5 0.5 0.5 2
9 0 1 0 0 0 1 0 0 0 1 29.5 -5 3 2 0.5 0.5
9 0 1 0 0 0 1 0 0 0 1 11.5 -46 14 2 0.5 0.5
9 0 1 0 0 0 1 0 0 0 1 7.5 -32 60 2 0.5 0.5
9 0 1 0 0 0 1 0 0 0 1 -12.5 -36.5 60 1 1 0.5
9 0 1 0 0 0 1 0 0 0 1 -11.5 -46 14 2 0.5 0.5
9 0 1 0 0 0 1 0 0 0 1 -28 30 -3.5 0.5 0.5 2
9 0 1 0 0 0 1 0 0 0 1 -28 8 -3.5 0.5 0.5 2
9 0 1 0 0 0 1 0 0 0 1 -28 -40 31.5 0.5 0.5 2
9 0 1 0 0 0 1 0 0 0 1 -28 -41.5 38 0.5 2 0.5
9 0 1 0 0 0 1 0 0 0 1 -27.5 -42.5 82 1 1 0.5
9 0 1 0 0 0 1 0 0 0 1 -30 -43 4.5 0.5 0.5 2
9 0 1 0 0 0 1 0 0 0 1 -32.5 -43 29 2 0.5 0.5
9 0 1 0 0 0 1 0 0 0 1 -35 -13 2.5 0.5 0.5 2
9 0 1 0 0 0 1 0 0 0 1 -35 -40.5 38 0.5 2 0.5
9 0 1 0 0 0 1 0 0 0 1 -35 -40.5 82 0.5 2 0.5
9 0 1 0 0 0 1 0 0 0 1 33 -43 29 1.5 0.5 0.5
9 0 1 0 0 0 1 0 0 0 1 33 -43 91 1.5 0.5 0.5
9 0 1 0 0 0 1 0 0 0 1 31 -35 91 1.5 0.5 0.5
9 0 1 0 0 0 1 0 0 0 1 30 -35 104 0.5 0.5 1.5
9 0 1 0 0 0 1 0 0 0 1 30 -43 5 0.5 0.5 1.5
9 0 1 0 0 0 1 0 0 0 1 29 -43 107 0.5 0.5 1.5
9 0 1 0 0 0 1 0 0 0 1 26 -16 60 1.5 0.5 0.5
9 0 1 0 0 0 1 0 0 0 1 27 -17 60 0.5 0.5 1.5
9 0 1 0 0 0 1 0 0 0 1 9 -14 3 0.5 1.5 0.5
9 0 1 0 0 0 1 0 0 0 1 9 -43 -20 0.5 0.5 1.5
9 0 1 0 0 0 1 0 0 0 1 0 -42 -4 0.5 0.5 1.5
9 0 1 0 0 0 1 0 0 0 1 -9 -43 -20 0.5 0.5 1.5
9 0 1 0 0 0 1 0 0 0 1 -9 -43 -9 0.5 0.5 1.5
9 0 1 0 0 0 1 0 0 0 1 -26 -16 60 1.5 0.5 0.5
9 0 1 0 0 0 1 0 0 0 1 -27 -17 60 0.5 0.5 1.5
9 0 1 0 0 0 1 0 0 0 1 -29 -43 107 0.5 0.5 1.5
9 0 1 0 0 0 1 0 0 0 1 -31 -35 91 1.5 0.5 0.5
9 0 1 0 0 0 1 0 0 0 1 -31 -38 38 1.5 0.5 0.5
9 0 1 0 0 0 1 0 0 0 1 -33 -43 91 1.5 0.5 0.5
9 0 1 0 0 0 1 0 0 0 1 -34 -36 29 1.5 0.5 0.5
