9 0 1 0 0 0 1 0 0 0 1 1.127001 1.184 16.371 6.5 4.5 1.5
9 0 1 0 0 0 1 0 0 0 1 3.127001 -8.816 9.371 7.5 1.5 2.5
9 0 1 0 0 0 1 0 0 0 1 9.627001 -9.316 2.871 2 2 4
9 0 1 0 0 0 1 0 0 0 1 1.627001 -0.316 19.371 3 3 1.5
9 0 1 0 0 0 1 0 0 0 1 -9.372999 -8.816 4.371 2 1.5 4.5
9 0 1 0 0 0 1 0 0 0 1 6.127001 -5.816 15.871 2.5 2.5 2
9 0 1 0 0 0 1 0 0 0 1 12.127 -3.316 11.871 1.5 4 2
9 0 1 0 0 0 1 0 0 0 1 9.627001 -2.816 13.871 1 5.5 2
9 0 1 0 0 0 1 0 0 0 1 -6.872999 0.184 15.371 1.5 4.5 1.5
9 0 1 0 0 0 1 0 0 0 1 0.1270008 -8.816 -8.629 3.5 1.5 1.5
9 0 1 0 0 0 1 0 0 0 1 0.6270008 8.184 15.871 3 2.5 1
9 0 1 0 0 0 1 0 0 0 1 -9.372999 0.684 13.371 1 5 1.5
9 0 1 0 0 0 1 0 0 0 1 -15.373 0.684 2.371 1 3 2.5
9 0 1 0 0 0 1 0 0 0 1 14.127 -3.816 7.871 0.5 3.5 4
9 0 1 0 0 0 1 0 0 0 1 2.127001 -11.316 8.371 4.5 1 1.5
9 0 1 0 0 0 1 0 0 0 1 5.627001 3.184 14.371 2 6.5 0.5
9 0 1 0 0 0 1 0 0 0 1 1.127001 -4.816 16.371 2.5 1.5 1.5
9 0 1 0 0 0 1 0 0 0 1 6.127001 -3.816 18.871 1.5 3.5 1
9 0 1 0 0 0 1 0 0 0 1 3.127001 -8.816 12.871 3.5 1.5 1
9 0 1 0 0 0 1 0 0 0 1 -14.373 0.184 6.371 1 3.5 1.5
9 0 1 0 0 0 1 0 0 0 1 15.627 -0.816 4.871 1 2.5 2
9 0 1 0 0 0 1 0 0 0 1 7.127001 -10.316 1.871 0.5 2 5
9 0 1 0 0 0 1 0 0 0 1 7.627001 0.184 13.371 1 9.5 0.5
9 0 1 0 0 0 1 0 0 0 1 9.127001 -8.816 -3.129 1.5 1.5 2
9 0 1 0 0 0 1 0 0 0 1 -2.872999 0.684 18.871 1.5 3 1
9 0 1 0 0 0 1 0 0 0 1 -4.372999 2.184 14.371 1 8.5 0.5
9 0 1 0 0 0 1 0 0 0 1 -12.373 0.684 9.871 1 4 1
9 0 1 0 0 0 1 0 0 0 1 1.127001 4.184 18.871 2.5 1.5 1
9 0 1 0 0 0 1 0 0 0 1 -5.372999 -8.816 8.371 1 1.5 2.5
9 0 1 0 0 0 1 0 0 0 1 -11.373 1.184 11.871 1 3.5 1
9 0 1 0 0 0 1 0 0 0 1 8.127001 1.184 15.371 0.5 4.5 1.5
9 0 1 0 0 0 1 0 0 0 1 -7.372999 3.184 13.371 1 6.5 0.5
9 0 1 0 0 0 1 0 0 0 1 13.127 -4.316 8.871 0.5 6 1
9 0 1 0 0 0 1 0 0 0 1 11.627 -8.816 8.871 1 1.5 2
9 0 1 0 0 0 1 0 0 0 1 -6.872999 -9.316 2.871 0.5 1 6
9 0 1 0 0 0 1 0 0 0 1 11.127 4.184 11.371 0.5 3.5 1.5
9 0 1 0 0 0 1 0 0 0 1 5.627001 -10.816 5.871 1 2.5 1
9 0 1 0 0 0 1 0 0 0 1 6.127001 -8.316 -7.129 2.5 1 1
9 0 1 0 0 0 1 0 0 0 1 0.1270008 -11.316 -8.129 2.5 1 1
9 0 1 0 0 0 1 0 0 0 1 10.127 1.684 11.371 0.5 9 0.5
9 0 1 0 0 0 1 0 0 0 1 3.627001 -4.816 19.371 1 1.5 1.5
9 0 1 0 0 0 1 0 0 0 1 2.127001 -7.316 15.371 1.5 1 1.5
9 0 1 0 0 0 1 0 0 0 1 5.127001 -8.816 14.871 4.5 0.5 1
9 0 1 0 0 0 1 0 0 0 1 1.127001 -1.816 21.871 1.5 1.5 1
9 0 1 0 0 0 1 0 0 0 1 -4.872999 -8.816 -7.129 1.5 1.5 1
9 0 1 0 0 0 1 0 0 0 1 -6.872999 -1.816 17.871 1.5 1.5 1
9 0 1 0 0 0 1 0 0 0 1 12.127 -9.316 4.871 0.5 2 2
9 0 1 0 0 0 1 0 0 0 1 11.627 -1.316 14.871 1 2 1
9 0 1 0 0 0 1 0 0 0 1 5.627001 7.684 15.371 2 2 0.5
9 0 1 0 0 0 1 0 0 0 1 2.627001 -11.316 10.871 2 1 1
9 0 1 0 0 0 1 0 0 0 1 2.627001 -13.316 7.871 2 1 1
9 0 1 0 0 0 1 0 0 0 1 1.627001 6.684 17.871 2 1 1
9 0 1 0 0 0 1 0 0 0 1 -6.372999 6.684 14.871 1 2 1
9 0 1 0 0 0 1 0 0 0 1 -8.372999 -8.316 9.871 2 1 1
9 0 1 0 0 0 1 0 0 0 1 -9.372999 -7.816 -2.129 2 0.5 2
9 0 1 0 0 0 1 0 0 0 1 -11.873 -8.316 2.871 0.5 1 4
9 0 1 0 0 0 1 0 0 0 1 -13.373 0.684 8.371 1 4 0.5
9 0 1 0 0 0 1 0 0 0 1 -16.873 -1.316 3.871 0.5 2 2
9 0 1 0 0 0 1 0 0 0 1 15.127 -1.816 8.371 0.5 2.5 1.5
9 0 1 0 0 0 1 0 0 0 1 12.127 0.184 9.371 0.5 7.5 0.5
9 0 1 0 0 0 1 0 0 0 1 0.1270008 12.184 15.371 2.5 1.5 0.5
9 0 1 0 0 0 1 0 0 0 1 9.627001 6.184 12.371 1 3.5 0.5
9 0 1 0 0 0 1 0 0 0 1 9.627001 -0.816 16.371 1 3.5 0.5
9 0 1 0 0 0 1 0 0 0 1 15.127 -0.316 1.871 0.5 3 1
9 0 1 0 0 0 1 0 0 0 1 14.127 1.184 6.871 0.5 1.5 2
9 0 1 0 0 0 1 0 0 0 1 12.627 1.684 11.371 1 1 1.5
9 0 1 0 0 0 1 0 0 0 1 8.627001 -11.816 1.871 1 0.5 3
9 0 1 0 0 0 1 0 0 0 1 7.127001 -9.316 -4.629 0.5 2 1.5
9 0 1 0 0 0 1 0 0 0 1 0.1270008 -8.316 -11.129 1.5 1 1
9 0 1 0 0 0 1 0 0 0 1 -0.3729992 -2.816 -13.629 2 1.5 0.5
9 0 1 0 0 0 1 0 0 0 1 -3.372999 7.184 15.871 1 1.5 1
9 0 1 0 0 0 1 0 0 0 1 -9.372999 -1.316 16.371 1 1 1.5
9 0 1 0 0 0 1 0 0 0 1 -15.873 -1.816 6.871 0.5 1.5 2
9 0 1 0 0 0 1 0 0 0 1 5.627001 2.184 18.371 1 2.5 0.5
9 0 1 0 0 0 1 0 0 0 1 2.127001 -4.316 20.371 0.5 1 2.5
9 0 1 0 0 0 1 0 0 0 1 -2.872999 -7.816 12.871 2.5 0.5 1
9 0 1 0 0 0 1 0 0 0 1 -7.372999 -10.816 3.371 1 0.5 2.5
9 0 1 0 0 0 1 0 0 0 1 -14.873 4.684 3.371 0.5 1 2.5
9 0 1 0 0 0 1 0 0 0 1 13.127 -8.816 6.371 0.5 1.5 1.5
9 0 1 0 0 0 1 0 0 0 1 9.127001 4.184 14.371 0.5 1.5 1.5
9 0 1 0 0 0 1 0 0 0 1 8.127001 -12.816 2.371 1.5 0.5 1.5
9 0 1 0 0 0 1 0 0 0 1 15.627 -3.816 3.871 1 0.5 2
9 0 1 0 0 0 1 0 0 0 1 8.627001 -9.316 12.371 2 1 0.5
9 0 1 0 0 0 1 0 0 0 1 6.127001 -10.316 -5.129 0.5 2 1
9 0 1 0 0 0 1 0 0 0 1 -2.372999 6.684 17.371 2 1 0.5
9 0 1 0 0 0 1 0 0 0 1 -3.372999 -3.816 15.871 2 0.5 1
9 0 1 0 0 0 1 0 0 0 1 -7.372999 -7.816 11.871 2 0.5 1
9 0 1 0 0 0 1 0 0 0 1 -9.372999 -8.816 -1.129 2 0.5 1
9 0 1 0 0 0 1 0 0 0 1 -13.873 -1.316 9.871 0.5 2 1
9 0 1 0 0 0 1 0 0 0 1 -15.373 -2.816 2.871 1 0.5 2
9 0 1 0 0 0 1 0 0 0 1 4.127001 -11.816 6.371 0.5 3.5 0.5
9 0 1 0 0 0 1 0 0 0 1 -4.872999 0.184 18.371 0.5 3.5 0.5
9 0 1 0 0 0 1 0 0 0 1 -4.872999 -4.816 15.371 3.5 0.5 0.5
9 0 1 0 0 0 1 0 0 0 1 -10.873 1.184 13.371 0.5 3.5 0.5
9 0 1 0 0 0 1 0 0 0 1 15.127 3.684 3.371 0.5 1 1.5
9 0 1 0 0 0 1 0 0 0 1 15.127 -5.316 7.371 0.5 1 1.5
9 0 1 0 0 0 1 0 0 0 1 11.127 1.684 14.371 0.5 1 1.5
9 0 1 0 0 0 1 0 0 0 1 11.627 -4.816 14.371 1 1.5 0.5
9 0 1 0 0 0 1 0 0 0 1 9.127001 -1.316 17.371 1.5 1 0.5
9 0 1 0 0 0 1 0 0 0 1 8.627001 -8.816 -5.629 1 1.5 0.5
9 0 1 0 0 0 1 0 0 0 1 9.127001 -10.816 -2.129 1.5 0.5 1
9 0 1 0 0 0 1 0 0 0 1 6.127001 -11.316 4.371 0.5 3 0.5
9 0 1 0 0 0 1 0 0 0 1 4.127001 -10.316 -6.629 1.5 1 0.5
9 0 1 0 0 0 1 0 0 0 1 0.6270008 -3.816 19.371 1 0.5 1.5
9 0 1 0 0 0 1 0 0 0 1 -3.372999 -10.816 8.371 1 0.5 1.5
9 0 1 0 0 0 1 0 0 0 1 -6.372999 1.184 17.371 1 1.5 0.5
9 0 1 0 0 0 1 0 0 0 1 -6.872999 -8.316 -4.629 0.5 1 1.5
9 0 1 0 0 0 1 0 0 0 1 -8.872999 7.184 12.871 0.5 1.5 1
9 0 1 0 0 0 1 0 0 0 1 -10.873 4.684 10.371 0.5 3 0.5
9 0 1 0 0 0 1 0 0 0 1 -14.873 1.684 -0.6289997 0.5 3 0.5
9 0 1 0 0 0 1 0 0 0 1 12.127 5.184 10.371 0.5 2.5 0.5
9 0 1 0 0 0 1 0 0 0 1 9.127001 -6.816 16.371 0.5 2.5 0.5
9 0 1 0 0 0 1 0 0 0 1 8.127001 -6.816 18.371 0.5 2.5 0.5
9 0 1 0 0 0 1 0 0 0 1 2.127001 -10.816 12.371 2.5 0.5 0.5
9 0 1 0 0 0 1 0 0 0 1 1.127001 0.184 21.371 2.5 0.5 0.5
9 0 1 0 0 0 1 0 0 0 1 -1.872999 0.184 20.371 0.5 2.5 0.5
9 0 1 0 0 0 1 0 0 0 1 0.1270008 -10.816 -9.629 2.5 0.5 0.5
9 0 1 0 0 0 1 0 0 0 1 0.1270008 -12.816 -7.629 2.5 0.5 0.5
9 0 1 0 0 0 1 0 0 0 1 -2.872999 -8.816 12.371 2.5 0.5 0.5
9 0 1 0 0 0 1 0 0 0 1 -5.872999 -9.816 5.371 0.5 2.5 0.5
9 0 1 0 0 0 1 0 0 0 1 -6.872999 -7.816 6.371 0.5 0.5 2.5
9 0 1 0 0 0 1 0 0 0 1 -8.872999 2.184 15.371 0.5 2.5 0.5
9 0 1 0 0 0 1 0 0 0 1 -11.873 -9.816 2.371 0.5 0.5 2.5
9 0 1 0 0 0 1 0 0 0 1 -12.873 -0.816 11.371 0.5 2.5 0.5
9 0 1 0 0 0 1 0 0 0 1 15.627 2.184 4.871 1 0.5 1
9 0 1 0 0 0 1 0 0 0 1 14.127 3.684 5.871 0.5 1 1
9 0 1 0 0 0 1 0 0 0 1 14.127 0.684 9.871 0.5 1 1
9 0 1 0 0 0 1 0 0 0 1 14.127 -8.316 7.871 0.5 1 1
9 0 1 0 0 0 1 0 0 0 1 13.127 4.684 7.871 0.5 1 1
9 0 1 0 0 0 1 0 0 0 1 13.127 2.684 8.871 0.5 1 1
9 0 1 0 0 0 1 0 0 0 1 12.127 -7.816 0.8710003 0.5 0.5 2
9 0 1 0 0 0 1 0 0 0 1 11.627 -2.316 16.371 1 1 0.5
9 0 1 0 0 0 1 0 0 0 1 10.627 3.684 13.371 1 1 0.5
9 0 1 0 0 0 1 0 0 0 1 9.127001 7.684 13.371 0.5 2 0.5
9 0 1 0 0 0 1 0 0 0 1 7.127001 -7.816 4.871 0.5 0.5 2
9 0 1 0 0 0 1 0 0 0 1 5.627001 0.684 19.371 1 1 0.5
9 0 1 0 0 0 1 0 0 0 1 5.627001 -5.316 20.371 1 1 0.5
9 0 1 0 0 0 1 0 0 0 1 5.627001 -10.816 10.871 1 0.5 1
9 0 1 0 0 0 1 0 0 0 1 5.127001 -10.316 -5.629 0.5 2 0.5
9 0 1 0 0 0 1 0 0 0 1 4.127001 11.684 14.371 0.5 2 0.5
9 0 1 0 0 0 1 0 0 0 1 5.627001 6.184 16.371 2 0.5 0.5
9 0 1 0 0 0 1 0 0 0 1 5.627001 -7.816 -8.629 2 0.5 0.5
9 0 1 0 0 0 1 0 0 0 1 3.627001 -6.816 18.871 1 0.5 1
9 0 1 0 0 0 1 0 0 0 1 3.627001 -13.316 9.371 1 1 0.5
9 0 1 0 0 0 1 0 0 0 1 2.627001 -9.816 14.371 2 0.5 0.5
9 0 1 0 0 0 1 0 0 0 1 1.627001 8.184 17.371 2 0.5 0.5
9 0 1 0 0 0 1 0 0 0 1 0.1270008 -7.316 14.871 0.5 1 1
9 0 1 0 0 0 1 0 0 0 1 -0.8729992 -1.316 21.871 0.5 1 1
9 0 1 0 0 0 1 0 0 0 1 -2.872999 10.684 15.371 0.5 2 0.5
9 0 1 0 0 0 1 0 0 0 1 -2.372999 4.684 18.371 1 1 0.5
9 0 1 0 0 0 1 0 0 0 1 -1.372999 -10.816 10.371 2 0.5 0.5
9 0 1 0 0 0 1 0 0 0 1 -2.872999 -10.316 -6.629 0.5 2 0.5
9 0 1 0 0 0 1 0 0 0 1 -1.372999 -12.816 7.371 2 0.5 0.5
9 0 1 0 0 0 1 0 0 0 1 -3.872999 -10.316 6.371 0.5 2 0.5
9 0 1 0 0 0 1 0 0 0 1 -4.872999 7.684 15.371 0.5 2 0.5
9 0 1 0 0 0 1 0 0 0 1 -4.372999 -8.316 -8.629 1 1 0.5
9 0 1 0 0 0 1 0 0 0 1 -5.372999 -9.316 -5.629 1 1 0.5
9 0 1 0 0 0 1 0 0 0 1 -5.372999 -10.816 6.871 1 0.5 1
9 0 1 0 0 0 1 0 0 0 1 -6.372999 9.684 14.371 1 1 0.5
9 0 1 0 0 0 1 0 0 0 1 -6.372999 -5.316 14.371 1 1 0.5
9 0 1 0 0 0 1 0 0 0 1 -7.872999 6.684 14.371 0.5 2 0.5
9 0 1 0 0 0 1 0 0 0 1 -7.372999 -3.816 17.871 1 0.5 1
9 0 1 0 0 0 1 0 0 0 1 -7.872999 -5.316 13.371 0.5 2 0.5
9 0 1 0 0 0 1 0 0 0 1 -8.872999 -3.316 15.871 0.5 1 1
9 0 1 0 0 0 1 0 0 0 1 -8.872999 -5.316 12.871 0.5 1 1
9 0 1 0 0 0 1 0 0 0 1 -10.873 -1.316 14.871 0.5 1 1
9 0 1 0 0 0 1 0 0 0 1 -13.873 4.684 6.871 0.5 1 1
9 0 1 0 0 0 1 0 0 0 1 -14.873 -1.316 8.371 0.5 2 0.5
9 0 1 0 0 0 1 0 0 0 1 -15.873 0.684 5.871 0.5 1 1
9 0 1 0 0 0 1 0 0 0 1 11.127 -7.816 -2.629 0.5 0.5 1.5
9 0 1 0 0 0 1 0 0 0 1 12.127 -7.816 11.371 1.5 0.5 0.5
9 0 1 0 0 0 1 0 0 0 1 8.127001 7.184 14.371 0.5 1.5 0.5
9 0 1 0 0 0 1 0 0 0 1 7.127001 -10.816 8.371 0.5 0.5 1.5
9 0 1 0 0 0 1 0 0 0 1 7.127001 -12.816 -0.6289997 0.5 0.5 1.5
9 0 1 0 0 0 1 0 0 0 1 4.127001 4.184 18.371 0.5 1.5 0.5
9 0 1 0 0 0 1 0 0 0 1 3.127001 3.184 14.371 0.5 1.5 0.5
9 0 1 0 0 0 1 0 0 0 1 3.127001 -12.816 -6.629 0.5 1.5 0.5
9 0 1 0 0 0 1 0 0 0 1 2.127001 -14.816 6.371 1.5 0.5 0.5
9 0 1 0 0 0 1 0 0 0 1 0.1270008 -4.816 18.371 1.5 0.5 0.5
9 0 1 0 0 0 1 0 0 0 1 0.1270008 -9.816 -10.629 1.5 0.5 0.5
9 0 1 0 0 0 1 0 0 0 1 -2.872999 -2.816 18.371 1.5 0.5 0.5
9 0 1 0 0 0 1 0 0 0 1 -6.872999 -11.816 3.371 0.5 0.5 1.5
9 0 1 0 0 0 1 0 0 0 1 -6.872999 -2.816 19.371 1.5 0.5 0.5
9 0 1 0 0 0 1 0 0 0 1 -9.872999 -6.816 11.371 0.5 1.5 0.5
9 0 1 0 0 0 1 0 0 0 1 -10.873 -3.816 11.371 0.5 1.5 0.5
9 0 1 0 0 0 1 0 0 0 1 -11.873 6.184 9.371 0.5 1.5 0.5
9 0 1 0 0 0 1 0 0 0 1 -12.873 -7.816 2.371 0.5 0.5 1.5
9 0 1 0 0 0 1 0 0 0 1 -13.873 2.184 9.371 0.5 1.5 0.5
9 0 1 0 0 0 1 0 0 0 1 -13.873 -3.816 6.371 0.5 0.5 1.5
9 0 1 0 0 0 1 0 0 0 1 -16.873 -1.816 6.371 0.5 1.5 0.5
