9 0 1 0 0 0 1 0 0 0 1 -12.6712 -17.28 -3.814697E-06 7.5 5.5 2.5
9 0 1 0 0 0 1 0 0 0 1 -12.1712 -25.28 -3.814697E-06 8 2.5 2.5
9 0 1 0 0 0 1 0 0 0 1 -7.6712 -33.78 -3.814697E-06 8.5 6 0.5
9 0 1 0 0 0 1 0 0 0 1 12.3288 -22.78 -3.814697E-06 16.5 3 0.5
9 0 1 0 0 0 1 0 0 0 1 31.3288 -11.78 -3.814697E-06 6.5 5 0.5
9 0 1 0 0 0 1 0 0 0 1 -11.6712 -6.779999 -3.814697E-06 1.5 5 1.5
9 0 1 0 0 0 1 0 0 0 1 -25.1712 -20.28 -3.814697E-06 5 1.5 1.5
9 0 1 0 0 0 1 0 0 0 1 17.8288 -17.78 -3.814697E-06 7 2 0.5
9 0 1 0 0 0 1 0 0 0 1 5.8288 -28.28 -3.814697E-06 5 2.5 0.5
9 0 1 0 0 0 1 0 0 0 1 -4.6712 -17.28 -3.814697E-06 0.5 5.5 1.5
9 0 1 0 0 0 1 0 0 0 1 23.8288 -27.28 -3.814697E-06 5 1.5 0.5
9 0 1 0 0 0 1 0 0 0 1 -3.6712 -41.78 -3.814697E-06 3.5 2 0.5
9 0 1 0 0 0 1 0 0 0 1 -18.1712 -31.28 -3.814697E-06 2 3.5 0.5
9 0 1 0 0 0 1 0 0 0 1 40.3288 -9.279999 -3.814697E-06 2.5 2.5 0.5
9 0 1 0 0 0 1 0 0 0 1 23.8288 -22.78 -1.000004 3 2 0.5
9 0 1 0 0 0 1 0 0 0 1 23.8288 -22.78 0.9999962 3 2 0.5
9 0 1 0 0 0 1 0 0 0 1 -3.1712 -36.28 -1.000004 4 1.5 0.5
9 0 1 0 0 0 1 0 0 0 1 -3.1712 -36.28 0.9999962 4 1.5 0.5
9 0 1 0 0 0 1 0 0 0 1 21.3288 -14.28 -3.814697E-06 3.5 1.5 0.5
9 0 1 0 0 0 1 0 0 0 1 -30.1712 -32.28 -3.814697E-06 10 0.5 0.5
9 0 1 0 0 0 1 0 0 0 1 -15.6712 -28.28 1.499996 4.5 0.5 1
9 0 1 0 0 0 1 0 0 0 1 -9.6712 -28.28 -1.000004 6.5 0.5 0.5
9 0 1 0 0 0 1 0 0 0 1 26.8288 -18.28 -3.814697E-06 2 1.5 0.5
9 0 1 0 0 0 1 0 0 0 1 -6.1712 -38.78 -1.000004 3 1 0.5
9 0 1 0 0 0 1 0 0 0 1 -7.1712 -39.28 0.9999962 2 1.5 0.5
9 0 1 0 0 0 1 0 0 0 1 20.3288 -25.78 -1.000004 2.5 1 0.5
9 0 1 0 0 0 1 0 0 0 1 20.3288 -25.78 0.9999962 2.5 1 0.5
9 0 1 0 0 0 1 0 0 0 1 -1.6712 -18.78 -3.814697E-06 2.5 1 0.5
9 0 1 0 0 0 1 0 0 0 1 -1.6712 -26.78 -3.814697E-06 2.5 1 0.5
9 0 1 0 0 0 1 0 0 0 1 -3.6712 -23.78 0.9999962 0.5 5 0.5
9 0 1 0 0 0 1 0 0 0 1 -11.6712 -6.779999 -2.000004 0.5 5 0.5
9 0 1 0 0 0 1 0 0 0 1 -11.6712 -6.779999 1.999996 0.5 5 0.5
9 0 1 0 0 0 1 0 0 0 1 -13.6712 -6.779999 -3.814697E-06 0.5 5 0.5
9 0 1 0 0 0 1 0 0 0 1 -25.1712 -18.28 -3.814697E-06 5 0.5 0.5
9 0 1 0 0 0 1 0 0 0 1 -25.1712 -20.28 -2.000004 5 0.5 0.5
9 0 1 0 0 0 1 0 0 0 1 -25.1712 -20.28 1.999996 5 0.5 0.5
9 0 1 0 0 0 1 0 0 0 1 23.3288 -11.28 -3.814697E-06 1.5 1.5 0.5
9 0 1 0 0 0 1 0 0 0 1 -3.6712 -23.28 -1.000004 0.5 4.5 0.5
9 0 1 0 0 0 1 0 0 0 1 -18.6712 -44.28 -3.814697E-06 1.5 1.5 0.5
9 0 1 0 0 0 1 0 0 0 1 23.8288 -29.78 -3.814697E-06 2 1 0.5
9 0 1 0 0 0 1 0 0 0 1 8.8288 -18.78 -3.814697E-06 2 1 0.5
9 0 1 0 0 0 1 0 0 0 1 -8.1712 -40.78 -0.5000038 1 1 1
9 0 1 0 0 0 1 0 0 0 1 -7.6712 -28.28 0.9999962 3.5 0.5 0.5
9 0 1 0 0 0 1 0 0 0 1 -3.6712 -14.78 -3.814697E-06 0.5 3 0.5
9 0 1 0 0 0 1 0 0 0 1 -3.6712 -34.28 -1.000004 2.5 0.5 0.5
9 0 1 0 0 0 1 0 0 0 1 -3.6712 -34.28 0.9999962 2.5 0.5 0.5
9 0 1 0 0 0 1 0 0 0 1 39.8288 -12.28 -3.814697E-06 2 0.5 0.5
9 0 1 0 0 0 1 0 0 0 1 36.8288 -17.78 -3.814697E-06 1 1 0.5
9 0 1 0 0 0 1 0 0 0 1 27.8288 -22.78 -1.000004 1 1 0.5
9 0 1 0 0 0 1 0 0 0 1 27.8288 -22.78 0.9999962 1 1 0.5
9 0 1 0 0 0 1 0 0 0 1 19.8288 -23.78 -1.000004 1 1 0.5
9 0 1 0 0 0 1 0 0 0 1 19.8288 -23.78 0.9999962 1 1 0.5
9 0 1 0 0 0 1 0 0 0 1 16.8288 -14.78 -3.814697E-06 1 1 0.5
9 0 1 0 0 0 1 0 0 0 1 9.8288 -31.78 -3.814697E-06 1 1 0.5
9 0 1 0 0 0 1 0 0 0 1 -2.1712 -19.78 -1.000004 1 1 0.5
9 0 1 0 0 0 1 0 0 0 1 -2.1712 -19.78 0.9999962 1 1 0.5
9 0 1 0 0 0 1 0 0 0 1 -4.6712 -13.78 -2.000004 0.5 2 0.5
9 0 1 0 0 0 1 0 0 0 1 -4.1712 -19.78 -2.000004 1 1 0.5
9 0 1 0 0 0 1 0 0 0 1 -4.1712 -19.78 1.999996 1 1 0.5
9 0 1 0 0 0 1 0 0 0 1 -3.1712 -38.28 0.9999962 2 0.5 0.5
9 0 1 0 0 0 1 0 0 0 1 -12.1712 -29.78 -1.000004 1 1 0.5
9 0 1 0 0 0 1 0 0 0 1 -12.1712 -29.78 0.9999962 1 1 0.5
9 0 1 0 0 0 1 0 0 0 1 -17.1712 -35.78 -3.814697E-06 1 1 0.5
9 0 1 0 0 0 1 0 0 0 1 -22.1712 -44.28 -3.814697E-06 2 0.5 0.5
9 0 1 0 0 0 1 0 0 0 1 30.3288 -17.28 -3.814697E-06 1.5 0.5 0.5
9 0 1 0 0 0 1 0 0 0 1 19.3288 -27.28 -1.000004 1.5 0.5 0.5
9 0 1 0 0 0 1 0 0 0 1 19.3288 -27.28 0.9999962 1.5 0.5 0.5
9 0 1 0 0 0 1 0 0 0 1 12.3288 -26.28 -3.814697E-06 1.5 0.5 0.5
9 0 1 0 0 0 1 0 0 0 1 2.3288 -31.28 -3.814697E-06 1.5 0.5 0.5
9 0 1 0 0 0 1 0 0 0 1 0.3288002 -41.28 -3.814697E-06 0.5 1.5 0.5
9 0 1 0 0 0 1 0 0 0 1 -3.6712 -44.28 -3.814697E-06 1.5 0.5 0.5
9 0 1 0 0 0 1 0 0 0 1 -9.6712 -40.28 -3.814697E-06 0.5 0.5 1.5
9 0 1 0 0 0 1 0 0 0 1 -11.6712 -28.28 -2.000004 1.5 0.5 0.5
9 0 1 0 0 0 1 0 0 0 1 -13.6712 -10.28 -1.000004 0.5 1.5 0.5
9 0 1 0 0 0 1 0 0 0 1 -21.6712 -18.28 0.9999962 1.5 0.5 0.5
