9 0 1 0 0 0 1 0 0 0 1 -24.786 -2.5 -0.3869934 1 4 21.5
9 0 1 0 0 0 1 0 0 0 1 25.214 -2.5 2.613007 1 4 14.5
9 0 1 0 0 0 1 0 0 0 1 0.2140007 -14 84.61301 15 0.5 7.5
9 0 1 0 0 0 1 0 0 0 1 -0.2859993 -14 55.11301 15.5 0.5 7
9 0 1 0 0 0 1 0 0 0 1 0.2140007 -14.5 -118.887 3 7 2
9 0 1 0 0 0 1 0 0 0 1 -0.2859993 -17 132.113 2.5 4.5 3
9 0 1 0 0 0 1 0 0 0 1 5.714001 -15.5 115.613 1.5 4 5.5
9 0 1 0 0 0 1 0 0 0 1 -6.285999 -15.5 113.613 1.5 4 5.5
9 0 1 0 0 0 1 0 0 0 1 0.2140007 -6 120.113 2 4.5 3
9 0 1 0 0 0 1 0 0 0 1 9.214001 -16 109.613 2 1.5 8.5
9 0 1 0 0 0 1 0 0 0 1 0.2140007 -20 -102.387 4 0.5 11.5
9 0 1 0 0 0 1 0 0 0 1 7.214001 -17.5 -117.387 3 1 7.5
9 0 1 0 0 0 1 0 0 0 1 -0.2859993 -15.5 119.113 4.5 5 1
9 0 1 0 0 0 1 0 0 0 1 -23.786 -3.5 29.61301 1 4 5.5
9 0 1 0 0 0 1 0 0 0 1 -24.286 -9 0.6130066 0.5 2.5 17.5
9 0 1 0 0 0 1 0 0 0 1 -7.285999 -17.5 -116.387 2.5 1 8.5
9 0 1 0 0 0 1 0 0 0 1 24.214 -3 -24.88699 1 3.5 6
9 0 1 0 0 0 1 0 0 0 1 -9.285999 -15.5 107.113 1.5 2 7
9 0 1 0 0 0 1 0 0 0 1 -10.786 -15 -101.887 2 1.5 7
9 0 1 0 0 0 1 0 0 0 1 -26.286 -2.5 -0.3869934 0.5 3 13.5
9 0 1 0 0 0 1 0 0 0 1 24.214 -3.5 26.61301 1 3 6.5
9 0 1 0 0 0 1 0 0 0 1 12.214 -14.5 -99.38699 2 1 9.5
9 0 1 0 0 0 1 0 0 0 1 12.214 -13.5 96.61301 2 2 4.5
9 0 1 0 0 0 1 0 0 0 1 -22.786 -3 -34.88699 1 4.5 4
9 0 1 0 0 0 1 0 0 0 1 23.214 -4.5 -36.38699 1 3 5.5
9 0 1 0 0 0 1 0 0 0 1 0.2140007 -21.5 -59.88699 4 1 4
9 0 1 0 0 0 1 0 0 0 1 0.2140007 -4 -121.387 1 3.5 4.5
9 0 1 0 0 0 1 0 0 0 1 26.714 -3 0.1130066 0.5 2.5 12
9 0 1 0 0 0 1 0 0 0 1 11.214 -14 69.61301 4 0.5 7.5
9 0 1 0 0 0 1 0 0 0 1 -0.2859993 -16.5 -131.887 1.5 5 2
9 0 1 0 0 0 1 0 0 0 1 -3.785999 -13 116.113 1 7.5 2
9 0 1 0 0 0 1 0 0 0 1 -11.786 -14 69.61301 4 0.5 7.5
9 0 1 0 0 0 1 0 0 0 1 17.714 5.5 -0.3869934 0.5 1 28.5
9 0 1 0 0 0 1 0 0 0 1 -18.286 5.5 -0.3869934 0.5 1 28.5
9 0 1 0 0 0 1 0 0 0 1 6.714001 -18.5 126.613 2.5 1 5.5
9 0 1 0 0 0 1 0 0 0 1 -0.2859993 -8 126.613 1.5 2.5 3.5
9 0 1 0 0 0 1 0 0 0 1 -12.286 -14 99.61301 1.5 1.5 5.5
9 0 1 0 0 0 1 0 0 0 1 -14.286 -12 88.61301 1.5 1.5 5.5
9 0 1 0 0 0 1 0 0 0 1 25.214 -3 -15.38699 1 3.5 3.5
9 0 1 0 0 0 1 0 0 0 1 14.214 -12.5 -89.88699 2 1 6
9 0 1 0 0 0 1 0 0 0 1 8.714001 -12.5 105.113 1.5 2 4
9 0 1 0 0 0 1 0 0 0 1 9.214001 -16 -110.887 3 0.5 8
9 0 1 0 0 0 1 0 0 0 1 -6.785999 -18 124.113 2 1.5 4
9 0 1 0 0 0 1 0 0 0 1 -16.786 -11 79.11301 1 1.5 8
9 0 1 0 0 0 1 0 0 0 1 5.214001 -19 -106.887 1 0.5 23
9 0 1 0 0 0 1 0 0 0 1 17.714 -10 75.11301 1.5 1.5 5
9 0 1 0 0 0 1 0 0 0 1 14.714 -12 87.11301 1.5 1.5 5
9 0 1 0 0 0 1 0 0 0 1 -13.286 -13 -89.88699 1.5 1.5 5
9 0 1 0 0 0 1 0 0 0 1 -24.786 -4 -26.38699 1 2.5 4.5
9 0 1 0 0 0 1 0 0 0 1 6.214001 -12.5 108.613 1 7 1.5
9 0 1 0 0 0 1 0 0 0 1 3.214001 -13.5 116.613 1 7 1.5
9 0 1 0 0 0 1 0 0 0 1 -6.785999 -12.5 106.613 1 7 1.5
9 0 1 0 0 0 1 0 0 0 1 -5.785999 -19 -113.387 1 0.5 20.5
9 0 1 0 0 0 1 0 0 0 1 -0.2859993 -9 -125.387 1.5 1.5 4.5
9 0 1 0 0 0 1 0 0 0 1 21.214 -4.5 -37.88699 1 5 2
9 0 1 0 0 0 1 0 0 0 1 -8.785999 -16 -113.887 4 0.5 5
9 0 1 0 0 0 1 0 0 0 1 -16.786 -11 -76.38699 1 1.5 6.5
9 0 1 0 0 0 1 0 0 0 1 22.714 -4 33.11301 0.5 4.5 4
9 0 1 0 0 0 1 0 0 0 1 9.214001 -11.5 99.61301 1 6 1.5
9 0 1 0 0 0 1 0 0 0 1 3.214001 -18.5 132.113 1 3 3
9 0 1 0 0 0 1 0 0 0 1 -3.285999 -15 -116.887 0.5 4.5 4
9 0 1 0 0 0 1 0 0 0 1 -4.285999 -19.5 132.113 1.5 2 3
9 0 1 0 0 0 1 0 0 0 1 0.2140007 -16.5 91.61301 9 2 0.5
9 0 1 0 0 0 1 0 0 0 1 -8.785999 -11.5 104.613 1 2 4.5
9 0 1 0 0 0 1 0 0 0 1 -0.2859993 5.5 -28.38699 17.5 1 0.5
9 0 1 0 0 0 1 0 0 0 1 -0.2859993 5.5 27.61301 17.5 1 0.5
9 0 1 0 0 0 1 0 0 0 1 -9.785999 -12 98.61301 1 5.5 1.5
9 0 1 0 0 0 1 0 0 0 1 -18.786 -9 68.61301 1 1.5 5.5
9 0 1 0 0 0 1 0 0 0 1 -20.786 -8 57.61301 1 1.5 5.5
9 0 1 0 0 0 1 0 0 0 1 -21.786 -4 35.61301 1 5.5 1.5
9 0 1 0 0 0 1 0 0 0 1 15.714 -9.5 78.11301 0.5 4 4
9 0 1 0 0 0 1 0 0 0 1 0.2140007 -21 106.113 2 0.5 8
9 0 1 0 0 0 1 0 0 0 1 18.714 -9.5 -69.88699 1.5 1 5
9 0 1 0 0 0 1 0 0 0 1 16.214 -11 -77.88699 1 1.5 5
9 0 1 0 0 0 1 0 0 0 1 12.214 -15 106.113 1 1.5 5
9 0 1 0 0 0 1 0 0 0 1 -0.2859993 -21 -106.887 1.5 0.5 10
9 0 1 0 0 0 1 0 0 0 1 -4.285999 -15.5 -113.887 0.5 5 3
9 0 1 0 0 0 1 0 0 0 1 -21.286 -4.5 -36.38699 0.5 6 2.5
9 0 1 0 0 0 1 0 0 0 1 -23.286 -3.5 -27.88699 0.5 5 3
9 0 1 0 0 0 1 0 0 0 1 -7.285999 -18 -76.38699 0.5 0.5 29.5
9 0 1 0 0 0 1 0 0 0 1 -0.2859993 -11 -48.38699 1.5 9.5 0.5
9 0 1 0 0 0 1 0 0 0 1 5.214001 -9.5 113.613 1 2 3.5
9 0 1 0 0 0 1 0 0 0 1 3.714001 -15.5 -116.387 0.5 4 3.5
9 0 1 0 0 0 1 0 0 0 1 4.714001 -19.5 -131.887 3.5 1 2
9 0 1 0 0 0 1 0 0 0 1 -5.785999 -9.5 111.613 1 2 3.5
9 0 1 0 0 0 1 0 0 0 1 -11.786 -10.5 93.61301 1 2 3.5
9 0 1 0 0 0 1 0 0 0 1 -14.786 -10 81.11301 1 3.5 2
9 0 1 0 0 0 1 0 0 0 1 19.714 -7.5 60.61301 0.5 3 4.5
9 0 1 0 0 0 1 0 0 0 1 18.714 -7.5 64.61301 0.5 4 3.5
9 0 1 0 0 0 1 0 0 0 1 8.714001 -14.5 -104.387 1.5 1 4.5
9 0 1 0 0 0 1 0 0 0 1 8.714001 -18 112.113 1.5 0.5 9
9 0 1 0 0 0 1 0 0 0 1 -4.285999 -11.5 112.613 0.5 9 1.5
9 0 1 0 0 0 1 0 0 0 1 -9.285999 -17 117.113 1.5 1.5 3
9 0 1 0 0 0 1 0 0 0 1 24.714 -7 -2.386993 0.5 0.5 26.5
9 0 1 0 0 0 1 0 0 0 1 5.214001 -20 124.113 1 0.5 13
9 0 1 0 0 0 1 0 0 0 1 -18.786 -9.5 -69.38699 1 1 6.5
9 0 1 0 0 0 1 0 0 0 1 21.714 -7 50.11301 0.5 2.5 5
9 0 1 0 0 0 1 0 0 0 1 -2.785999 -20 -64.38699 1 0.5 12.5
9 0 1 0 0 0 1 0 0 0 1 -12.286 -13 -98.38699 3.5 0.5 3.5
9 0 1 0 0 0 1 0 0 0 1 23.714 -4.5 37.11301 0.5 3 4
9 0 1 0 0 0 1 0 0 0 1 12.714 -9.5 88.11301 0.5 4 3
9 0 1 0 0 0 1 0 0 0 1 6.714001 -11.5 105.613 0.5 8 1.5
9 0 1 0 0 0 1 0 0 0 1 -0.2859993 0.5 119.113 1.5 2 2
9 0 1 0 0 0 1 0 0 0 1 0.2140007 -10.5 131.613 2 2 1.5
9 0 1 0 0 0 1 0 0 0 1 -25.286 -4.5 27.11301 0.5 2 6
9 0 1 0 0 0 1 0 0 0 1 25.714 2.5 -0.3869934 0.5 1 11.5
9 0 1 0 0 0 1 0 0 0 1 20.714 -7 55.61301 0.5 2.5 4.5
9 0 1 0 0 0 1 0 0 0 1 9.714001 -15 -111.387 4.5 0.5 2.5
9 0 1 0 0 0 1 0 0 0 1 3.714001 -9 113.613 0.5 7.5 1.5
9 0 1 0 0 0 1 0 0 0 1 -9.285999 -15 -111.387 4.5 0.5 2.5
9 0 1 0 0 0 1 0 0 0 1 -7.785999 -15.5 -104.387 1 2 3.5
9 0 1 0 0 0 1 0 0 0 1 -19.286 -7 60.61301 0.5 4.5 2.5
9 0 1 0 0 0 1 0 0 0 1 -23.286 -5 39.61301 0.5 2.5 4.5
9 0 1 0 0 0 1 0 0 0 1 21.714 -4 35.11301 0.5 5.5 2
9 0 1 0 0 0 1 0 0 0 1 -5.285999 -19 -69.88699 0.5 0.5 22
9 0 1 0 0 0 1 0 0 0 1 -11.786 -15.5 110.613 1 1 5.5
9 0 1 0 0 0 1 0 0 0 1 -22.286 -6.5 -44.38699 0.5 2 5.5
9 0 1 0 0 0 1 0 0 0 1 -27.286 -3.5 0.1130066 0.5 1 11
9 0 1 0 0 0 1 0 0 0 1 2.714001 -20 -69.38699 0.5 0.5 21.5
9 0 1 0 0 0 1 0 0 0 1 22.714 0 -35.88699 0.5 1.5 7
9 0 1 0 0 0 1 0 0 0 1 22.714 -5 43.11301 0.5 3.5 3
9 0 1 0 0 0 1 0 0 0 1 11.214 -10 95.61301 1 1.5 3.5
9 0 1 0 0 0 1 0 0 0 1 12.714 -13 -98.88699 3.5 0.5 3
9 0 1 0 0 0 1 0 0 0 1 7.714001 -17.5 -106.387 1.5 1 3.5
9 0 1 0 0 0 1 0 0 0 1 5.214001 -16 124.613 1 1.5 3.5
9 0 1 0 0 0 1 0 0 0 1 -15.286 -12 -81.88699 0.5 1.5 7
9 0 1 0 0 0 1 0 0 0 1 -16.286 -6.5 73.61301 0.5 3 3.5
9 0 1 0 0 0 1 0 0 0 1 -21.286 -6.5 -51.38699 0.5 3 3.5
9 0 1 0 0 0 1 0 0 0 1 -22.286 -5.5 46.61301 0.5 3 3.5
9 0 1 0 0 0 1 0 0 0 1 22.714 -6 -45.88699 0.5 2.5 4
9 0 1 0 0 0 1 0 0 0 1 17.714 -7.5 68.11301 0.5 5 2
9 0 1 0 0 0 1 0 0 0 1 9.714001 -16.5 120.113 2.5 1 2
9 0 1 0 0 0 1 0 0 0 1 -1.285999 -5 -120.887 0.5 2.5 4
9 0 1 0 0 0 1 0 0 0 1 -2.285999 -6.5 119.613 0.5 4 2.5
9 0 1 0 0 0 1 0 0 0 1 -2.285999 -11.5 -115.887 0.5 10 1
9 0 1 0 0 0 1 0 0 0 1 -21.286 -5.5 49.61301 0.5 4 2.5
9 0 1 0 0 0 1 0 0 0 1 -10.286 -11 95.61301 0.5 6.5 1.5
9 0 1 0 0 0 1 0 0 0 1 -7.785999 -19 -124.387 1 0.5 9.5
9 0 1 0 0 0 1 0 0 0 1 25.714 -3.5 21.61301 0.5 2 4.5
9 0 1 0 0 0 1 0 0 0 1 21.714 -5.5 -48.88699 0.5 3 3
9 0 1 0 0 0 1 0 0 0 1 20.214 -8.5 -60.38699 1 1 4.5
9 0 1 0 0 0 1 0 0 0 1 14.714 -9 80.11301 0.5 4.5 2
9 0 1 0 0 0 1 0 0 0 1 10.214 -16.5 -98.38699 1 1 4.5
9 0 1 0 0 0 1 0 0 0 1 10.214 -2 -19.88699 3 0.5 3
9 0 1 0 0 0 1 0 0 0 1 10.214 -2 0.1130066 3 0.5 3
9 0 1 0 0 0 1 0 0 0 1 10.214 -2 20.11301 3 0.5 3
9 0 1 0 0 0 1 0 0 0 1 7.714001 -19 -123.887 1.5 0.5 6
9 0 1 0 0 0 1 0 0 0 1 4.714001 -19 -65.88699 0.5 0.5 18
9 0 1 0 0 0 1 0 0 0 1 2.714001 -11.5 -115.887 0.5 9 1
9 0 1 0 0 0 1 0 0 0 1 0.2140007 -18 -134.387 2 4.5 0.5
9 0 1 0 0 0 1 0 0 0 1 -3.285999 -20 -131.887 1.5 1.5 2
9 0 1 0 0 0 1 0 0 0 1 -6.285999 -20 -131.887 1.5 0.5 7
9 0 1 0 0 0 1 0 0 0 1 -4.785999 -21 -59.88699 1 1.5 3
9 0 1 0 0 0 1 0 0 0 1 -10.286 -17 -106.887 0.5 0.5 18
9 0 1 0 0 0 1 0 0 0 1 -9.785999 -2 -19.88699 3 0.5 3
9 0 1 0 0 0 1 0 0 0 1 -9.785999 -2 0.1130066 3 0.5 3
9 0 1 0 0 0 1 0 0 0 1 -9.785999 -2 20.11301 3 0.5 3
9 0 1 0 0 0 1 0 0 0 1 -23.286 -4.5 -41.88699 0.5 3 3
9 0 1 0 0 0 1 0 0 0 1 -24.286 -4.5 -35.38699 0.5 2 4.5
9 0 1 0 0 0 1 0 0 0 1 20.714 -6 -53.38699 0.5 3.5 2.5
9 0 1 0 0 0 1 0 0 0 1 -19.286 -7 -60.38699 0.5 3.5 2.5
9 0 1 0 0 0 1 0 0 0 1 -20.286 -6.5 -55.88699 0.5 3 3
9 0 1 0 0 0 1 0 0 0 1 25.714 -4 -24.38699 0.5 1.5 5.5
9 0 1 0 0 0 1 0 0 0 1 21.714 -4 -34.38699 0.5 5.5 1.5
9 0 1 0 0 0 1 0 0 0 1 -0.2859993 -21 -80.38699 0.5 0.5 16.5
9 0 1 0 0 0 1 0 0 0 1 -22.286 -4 32.61301 0.5 5.5 1.5
9 0 1 0 0 0 1 0 0 0 1 23.714 0.5 28.11301 0.5 1 8
9 0 1 0 0 0 1 0 0 0 1 14.714 -14 -92.88699 0.5 0.5 16
9 0 1 0 0 0 1 0 0 0 1 14.214 -8.5 84.11301 1 2 2
9 0 1 0 0 0 1 0 0 0 1 8.214001 -8.5 103.113 1 2 2
9 0 1 0 0 0 1 0 0 0 1 4.714001 -12.5 -111.887 0.5 4 2
9 0 1 0 0 0 1 0 0 0 1 6.214001 -15.5 47.61301 4 2 0.5
9 0 1 0 0 0 1 0 0 0 1 0.2140007 -3.5 125.113 1 2 2
9 0 1 0 0 0 1 0 0 0 1 0.2140007 -9.5 -131.887 1 2 2
9 0 1 0 0 0 1 0 0 0 1 -7.285999 -11.5 104.113 0.5 8 1
9 0 1 0 0 0 1 0 0 0 1 -6.785999 -19.5 132.113 1 1 4
9 0 1 0 0 0 1 0 0 0 1 -13.786 -8.5 85.11301 1 2 2
9 0 1 0 0 0 1 0 0 0 1 23.714 -9.5 -21.38699 0.5 3 2.5
9 0 1 0 0 0 1 0 0 0 1 15.714 -11 -85.88699 2.5 0.5 3
9 0 1 0 0 0 1 0 0 0 1 8.714001 -13.5 -98.38699 0.5 5 1.5
9 0 1 0 0 0 1 0 0 0 1 8.214001 -13 111.613 1 1.5 2.5
9 0 1 0 0 0 1 0 0 0 1 7.214001 -18 -127.387 3 0.5 2.5
9 0 1 0 0 0 1 0 0 0 1 3.214001 -9 120.613 1 1.5 2.5
9 0 1 0 0 0 1 0 0 0 1 0.2140007 -6 -128.387 1 1.5 2.5
9 0 1 0 0 0 1 0 0 0 1 -3.285999 -15.5 120.613 1.5 5 0.5
9 0 1 0 0 0 1 0 0 0 1 -5.785999 -15 122.113 1 1.5 3
9 0 1 0 0 0 1 0 0 0 1 -10.786 -14 -93.38699 1 2.5 1.5
9 0 1 0 0 0 1 0 0 0 1 -15.286 -8.5 77.61301 0.5 5 1.5
9 0 1 0 0 0 1 0 0 0 1 -17.286 -7 71.11301 0.5 2.5 3
9 0 1 0 0 0 1 0 0 0 1 -20.286 -5.5 -38.38699 0.5 5 1.5
9 0 1 0 0 0 1 0 0 0 1 -24.286 0 -26.88699 0.5 1.5 5
9 0 1 0 0 0 1 0 0 0 1 -26.286 -4 18.11301 0.5 1.5 5
9 0 1 0 0 0 1 0 0 0 1 9.714001 -10.5 97.11301 0.5 7 1
9 0 1 0 0 0 1 0 0 0 1 5.214001 -20 -122.887 1 0.5 7
9 0 1 0 0 0 1 0 0 0 1 -6.285999 -13 -106.887 0.5 3.5 2
9 0 1 0 0 0 1 0 0 0 1 -6.285999 -15.5 47.61301 3.5 2 0.5
9 0 1 0 0 0 1 0 0 0 1 -13.286 -14.5 -101.887 0.5 1 7
9 0 1 0 0 0 1 0 0 0 1 -20.286 -4.5 55.61301 0.5 2 3.5
9 0 1 0 0 0 1 0 0 0 1 11.714 -9 90.61301 0.5 4.5 1.5
9 0 1 0 0 0 1 0 0 0 1 -0.2859993 -14 136.613 1.5 1.5 1.5
9 0 1 0 0 0 1 0 0 0 1 -8.285999 -14 -99.38699 0.5 4.5 1.5
9 0 1 0 0 0 1 0 0 0 1 -12.286 -9 88.61301 0.5 4.5 1.5
9 0 1 0 0 0 1 0 0 0 1 -24.286 -3 22.61301 0.5 4.5 1.5
9 0 1 0 0 0 1 0 0 0 1 -26.286 -4 -18.38699 0.5 1.5 4.5
9 0 1 0 0 0 1 0 0 0 1 -8.785999 -18 107.613 1 0.5 6.5
9 0 1 0 0 0 1 0 0 0 1 6.714001 -13 -105.387 0.5 2.5 2.5
9 0 1 0 0 0 1 0 0 0 1 1.714001 -5 -119.387 0.5 2.5 2.5
9 0 1 0 0 0 1 0 0 0 1 -5.285999 -12 -110.387 0.5 2.5 2.5
9 0 1 0 0 0 1 0 0 0 1 -18.286 -5 65.61301 0.5 2.5 2.5
9 0 1 0 0 0 1 0 0 0 1 24.714 -4.5 -33.88699 0.5 2 3
9 0 1 0 0 0 1 0 0 0 1 24.714 -2.5 18.61301 0.5 4 1.5
9 0 1 0 0 0 1 0 0 0 1 19.714 -9.5 71.11301 0.5 1 6
9 0 1 0 0 0 1 0 0 0 1 19.714 -5.5 -38.88699 0.5 6 1
9 0 1 0 0 0 1 0 0 0 1 18.714 -7.5 -62.38699 0.5 4 1.5
9 0 1 0 0 0 1 0 0 0 1 17.214 -7 72.11301 1 1.5 2
9 0 1 0 0 0 1 0 0 0 1 16.714 -8.5 -70.38699 0.5 4 1.5
9 0 1 0 0 0 1 0 0 0 1 14.714 -11.5 -79.88699 0.5 2 3
9 0 1 0 0 0 1 0 0 0 1 15.214 -12.5 95.11301 1 1 3
9 0 1 0 0 0 1 0 0 0 1 13.214 -14.5 -86.88699 1 1 3
9 0 1 0 0 0 1 0 0 0 1 11.214 -12.5 -92.88699 1 1 3
9 0 1 0 0 0 1 0 0 0 1 9.714001 -17 -81.88699 0.5 0.5 12
9 0 1 0 0 0 1 0 0 0 1 7.714001 -18 -90.88699 0.5 0.5 12
9 0 1 0 0 0 1 0 0 0 1 5.714001 -14.5 -107.387 0.5 4 1.5
9 0 1 0 0 0 1 0 0 0 1 5.214001 -21 -59.88699 1 1.5 2
9 0 1 0 0 0 1 0 0 0 1 3.214001 -4.5 47.61301 1 6 0.5
9 0 1 0 0 0 1 0 0 0 1 0.2140007 -13.5 -136.387 1 2 1.5
9 0 1 0 0 0 1 0 0 0 1 -4.285999 -18.5 -119.887 0.5 2 3
9 0 1 0 0 0 1 0 0 0 1 -5.785999 -20 122.113 1 0.5 6
9 0 1 0 0 0 1 0 0 0 1 -8.785999 -8 102.113 1 1.5 2
9 0 1 0 0 0 1 0 0 0 1 -7.785999 -18 -126.887 3 0.5 2
9 0 1 0 0 0 1 0 0 0 1 -9.785999 -17.5 123.113 1 1 3
9 0 1 0 0 0 1 0 0 0 1 -13.786 -12.5 -83.38699 1 2 1.5
9 0 1 0 0 0 1 0 0 0 1 -17.286 -8.5 -68.38699 0.5 4 1.5
9 0 1 0 0 0 1 0 0 0 1 5.714001 -10 -47.38699 0.5 11.5 0.5
9 0 1 0 0 0 1 0 0 0 1 16.714 -11.5 85.61301 0.5 1 5.5
9 0 1 0 0 0 1 0 0 0 1 10.714 -17 -113.887 0.5 0.5 11
9 0 1 0 0 0 1 0 0 0 1 3.214001 -16 120.613 1 5.5 0.5
9 0 1 0 0 0 1 0 0 0 1 1.714001 -8 126.613 0.5 1.5 3.5
9 0 1 0 0 0 1 0 0 0 1 -10.286 -12 103.613 0.5 1.5 3.5
9 0 1 0 0 0 1 0 0 0 1 -11.286 -17 113.613 0.5 0.5 10.5
9 0 1 0 0 0 1 0 0 0 1 23.714 -7.5 25.11301 0.5 1 5
9 0 1 0 0 0 1 0 0 0 1 19.714 -5 -57.88699 0.5 2.5 2
9 0 1 0 0 0 1 0 0 0 1 11.214 -16 96.11301 1 0.5 5
9 0 1 0 0 0 1 0 0 0 1 8.714001 -17 124.113 2.5 0.5 2
9 0 1 0 0 0 1 0 0 0 1 2.714001 -4.5 117.613 0.5 2 2.5
9 0 1 0 0 0 1 0 0 0 1 1.714001 -16 -131.887 0.5 2.5 2
9 0 1 0 0 0 1 0 0 0 1 -0.2859993 -21.5 -54.88699 2.5 1 1
9 0 1 0 0 0 1 0 0 0 1 -0.2859993 -21.5 145.113 2.5 1 1
9 0 1 0 0 0 1 0 0 0 1 -3.285999 -8 -114.887 0.5 2.5 2
9 0 1 0 0 0 1 0 0 0 1 -3.285999 -8 120.113 0.5 2.5 2
9 0 1 0 0 0 1 0 0 0 1 -3.285999 -15 131.113 0.5 2.5 2
9 0 1 0 0 0 1 0 0 0 1 -11.786 -16 100.113 1 0.5 5
9 0 1 0 0 0 1 0 0 0 1 -12.786 -15 -89.88699 1 0.5 5
9 0 1 0 0 0 1 0 0 0 1 -14.286 -13.5 99.11301 0.5 1 5
9 0 1 0 0 0 1 0 0 0 1 -18.286 -11 -72.88699 0.5 0.5 10
9 0 1 0 0 0 1 0 0 0 1 -18.286 -10.5 79.11301 0.5 1 5
9 0 1 0 0 0 1 0 0 0 1 -22.286 -2.5 -45.38699 0.5 2 2.5
9 0 1 0 0 0 1 0 0 0 1 -22.286 -7.5 55.11301 0.5 1 5
9 0 1 0 0 0 1 0 0 0 1 -24.286 -7 -26.88699 0.5 0.5 10
9 0 1 0 0 0 1 0 0 0 1 24.714 -5 36.11301 0.5 1.5 3
9 0 1 0 0 0 1 0 0 0 1 24.214 1 -23.38699 1 0.5 4.5
9 0 1 0 0 0 1 0 0 0 1 21.714 -3 48.11301 0.5 1.5 3
9 0 1 0 0 0 1 0 0 0 1 20.714 -8.5 64.61301 0.5 1 4.5
9 0 1 0 0 0 1 0 0 0 1 17.714 -11 -73.88699 0.5 0.5 9
9 0 1 0 0 0 1 0 0 0 1 11.714 -13.5 -88.38699 0.5 3 1.5
9 0 1 0 0 0 1 0 0 0 1 11.714 -13 104.113 1.5 0.5 3
9 0 1 0 0 0 1 0 0 0 1 7.714001 -10.5 -101.387 0.5 3 1.5
9 0 1 0 0 0 1 0 0 0 1 6.714001 -19 -108.887 0.5 0.5 9
9 0 1 0 0 0 1 0 0 0 1 6.714001 -20 131.113 0.5 0.5 9
9 0 1 0 0 0 1 0 0 0 1 3.714001 -8.5 -114.387 0.5 3 1.5
9 0 1 0 0 0 1 0 0 0 1 0.2140007 2 -118.387 1 1.5 1.5
9 0 1 0 0 0 1 0 0 0 1 0.2140007 -11 134.613 1 1.5 1.5
9 0 1 0 0 0 1 0 0 0 1 -2.285999 -8 125.113 0.5 1.5 3
9 0 1 0 0 0 1 0 0 0 1 -0.7859993 -20 -89.38699 3 0.5 1.5
9 0 1 0 0 0 1 0 0 0 1 -4.285999 -17 128.113 0.5 4.5 1
9 0 1 0 0 0 1 0 0 0 1 -5.285999 -6 111.113 0.5 1.5 3
9 0 1 0 0 0 1 0 0 0 1 -5.285999 -21 139.113 0.5 1.5 3
9 0 1 0 0 0 1 0 0 0 1 -6.285999 -9.5 -47.38699 0.5 9 0.5
9 0 1 0 0 0 1 0 0 0 1 -5.785999 -21 -138.387 1 0.5 4.5
9 0 1 0 0 0 1 0 0 0 1 -7.285999 -10 111.113 0.5 1.5 3
9 0 1 0 0 0 1 0 0 0 1 -11.286 -13.5 -90.38699 0.5 3 1.5
9 0 1 0 0 0 1 0 0 0 1 -12.286 -14.5 46.61301 1.5 1 1.5
9 0 1 0 0 0 1 0 0 0 1 -16.286 -12 -91.88699 1.5 0.5 3
9 0 1 0 0 0 1 0 0 0 1 -17.286 -11 -85.88699 1.5 0.5 3
9 0 1 0 0 0 1 0 0 0 1 -24.286 -5 38.11301 0.5 1.5 3
9 0 1 0 0 0 1 0 0 0 1 -20.286 -9 -67.38699 0.5 0.5 8.5
9 0 1 0 0 0 1 0 0 0 1 26.714 -4.5 -15.88699 0.5 1 4
9 0 1 0 0 0 1 0 0 0 1 22.714 -6.5 48.11301 0.5 2 2
9 0 1 0 0 0 1 0 0 0 1 21.714 -7.5 59.11301 0.5 1 4
9 0 1 0 0 0 1 0 0 0 1 18.214 -10 -78.88699 1 0.5 4
9 0 1 0 0 0 1 0 0 0 1 13.714 -14.5 105.113 0.5 1 4
9 0 1 0 0 0 1 0 0 0 1 12.214 -15.5 113.113 1 1 2
9 0 1 0 0 0 1 0 0 0 1 9.714001 -11.5 -94.88699 0.5 4 1
9 0 1 0 0 0 1 0 0 0 1 7.714001 -8.5 107.113 0.5 2 2
9 0 1 0 0 0 1 0 0 0 1 7.214001 -10.5 112.113 1 1 2
9 0 1 0 0 0 1 0 0 0 1 6.214001 -20.5 -136.887 1 1 2
9 0 1 0 0 0 1 0 0 0 1 5.214001 -6.5 112.113 1 1 2
9 0 1 0 0 0 1 0 0 0 1 5.214001 -13.5 123.113 1 1 2
9 0 1 0 0 0 1 0 0 0 1 6.214001 -19 134.113 2 0.5 2
9 0 1 0 0 0 1 0 0 0 1 3.214001 -14.5 131.113 1 1 2
9 0 1 0 0 0 1 0 0 0 1 3.214001 -21 -131.887 2 0.5 2
9 0 1 0 0 0 1 0 0 0 1 0.2140007 -17.5 141.113 2 1 1
9 0 1 0 0 0 1 0 0 0 1 0.2140007 -19.5 143.113 2 1 1
9 0 1 0 0 0 1 0 0 0 1 -2.285999 -21 112.113 0.5 0.5 8
9 0 1 0 0 0 1 0 0 0 1 0.2140007 -19.5 91.61301 4 1 0.5
9 0 1 0 0 0 1 0 0 0 1 -5.285999 -9.5 117.113 0.5 2 2
9 0 1 0 0 0 1 0 0 0 1 -5.785999 -14 64.11301 2 0.5 2
9 0 1 0 0 0 1 0 0 0 1 -11.286 -6.5 92.11301 0.5 2 2
9 0 1 0 0 0 1 0 0 0 1 -11.786 -14.5 93.11301 2 1 1
9 0 1 0 0 0 1 0 0 0 1 -12.786 -14 107.113 2 0.5 2
9 0 1 0 0 0 1 0 0 0 1 -18.286 -6.5 -64.88699 0.5 2 2
9 0 1 0 0 0 1 0 0 0 1 -20.286 -8.5 67.11301 0.5 1 4
9 0 1 0 0 0 1 0 0 0 1 -20.786 -8 -62.88699 1 0.5 4
9 0 1 0 0 0 1 0 0 0 1 -22.286 -8.5 -34.88699 0.5 1 4
9 0 1 0 0 0 1 0 0 0 1 -23.786 1 28.11301 1 0.5 4
9 0 1 0 0 0 1 0 0 0 1 -26.286 1 3.113007 0.5 0.5 8
9 0 1 0 0 0 1 0 0 0 1 26.714 -4 14.61301 0.5 1.5 2.5
9 0 1 0 0 0 1 0 0 0 1 19.714 -3 57.61301 0.5 1.5 2.5
9 0 1 0 0 0 1 0 0 0 1 17.714 -6 -66.38699 0.5 2.5 1.5
9 0 1 0 0 0 1 0 0 0 1 10.714 -7 94.61301 0.5 1.5 2.5
9 0 1 0 0 0 1 0 0 0 1 4.714001 -10 119.613 0.5 1.5 2.5
9 0 1 0 0 0 1 0 0 0 1 1.714001 -8 -124.387 0.5 1.5 2.5
9 0 1 0 0 0 1 0 0 0 1 -0.2859993 -21 95.61301 1.5 0.5 2.5
9 0 1 0 0 0 1 0 0 0 1 -7.285999 -11 -103.387 0.5 2.5 1.5
9 0 1 0 0 0 1 0 0 0 1 -13.286 -9 89.61301 0.5 1.5 2.5
9 0 1 0 0 0 1 0 0 0 1 -13.286 -11 -87.38699 1.5 0.5 2.5
9 0 1 0 0 0 1 0 0 0 1 -14.286 -12 -80.38699 0.5 2.5 1.5
9 0 1 0 0 0 1 0 0 0 1 -16.286 -13 78.61301 0.5 0.5 7.5
9 0 1 0 0 0 1 0 0 0 1 -23.286 -1 37.61301 0.5 1.5 2.5
9 0 1 0 0 0 1 0 0 0 1 24.714 0.5 23.61301 0.5 1 3.5
9 0 1 0 0 0 1 0 0 0 1 22.714 -5 -29.88699 0.5 3.5 1
9 0 1 0 0 0 1 0 0 0 1 21.714 -8 -58.88699 0.5 0.5 7
9 0 1 0 0 0 1 0 0 0 1 17.214 -12 73.61301 1 0.5 3.5
9 0 1 0 0 0 1 0 0 0 1 7.714001 -19 114.113 0.5 0.5 7
9 0 1 0 0 0 1 0 0 0 1 5.714001 -21.5 139.613 0.5 1 3.5
9 0 1 0 0 0 1 0 0 0 1 -0.2859993 -11.5 129.613 3.5 1 0.5
9 0 1 0 0 0 1 0 0 0 1 -14.286 -14 -101.887 0.5 0.5 7
9 0 1 0 0 0 1 0 0 0 1 -16.786 -12 90.61301 1 0.5 3.5
9 0 1 0 0 0 1 0 0 0 1 -18.786 -10 -79.38699 1 0.5 3.5
9 0 1 0 0 0 1 0 0 0 1 -22.286 -7.5 -53.38699 0.5 1 3.5
9 0 1 0 0 0 1 0 0 0 1 23.714 -7 -48.38699 0.5 0.5 6.5
9 0 1 0 0 0 1 0 0 0 1 16.714 -12 -89.38699 0.5 0.5 6.5
9 0 1 0 0 0 1 0 0 0 1 11.714 -16 -96.38699 0.5 0.5 6.5
9 0 1 0 0 0 1 0 0 0 1 -9.285999 -17 -101.387 0.5 0.5 6.5
9 0 1 0 0 0 1 0 0 0 1 -19.286 -5 -39.38699 0.5 6.5 0.5
9 0 1 0 0 0 1 0 0 0 1 -23.286 -8 30.61301 0.5 0.5 6.5
9 0 1 0 0 0 1 0 0 0 1 23.714 0 -32.88699 0.5 1.5 2
9 0 1 0 0 0 1 0 0 0 1 23.714 -6 43.11301 0.5 1.5 2
9 0 1 0 0 0 1 0 0 0 1 23.714 -7.5 -26.88699 0.5 1 3
9 0 1 0 0 0 1 0 0 0 1 23.714 -10.5 21.61301 0.5 2 1.5
9 0 1 0 0 0 1 0 0 0 1 20.714 -3 53.11301 0.5 1.5 2
9 0 1 0 0 0 1 0 0 0 1 20.714 -4.5 36.61301 0.5 6 0.5
9 0 1 0 0 0 1 0 0 0 1 18.714 -8.5 69.11301 0.5 3 1
9 0 1 0 0 0 1 0 0 0 1 17.714 -10 82.11301 1.5 0.5 2
9 0 1 0 0 0 1 0 0 0 1 14.714 -13.5 101.113 0.5 1 3
9 0 1 0 0 0 1 0 0 0 1 13.714 -5 83.11301 0.5 1.5 2
9 0 1 0 0 0 1 0 0 0 1 13.714 -8.5 87.61301 0.5 2 1.5
9 0 1 0 0 0 1 0 0 0 1 13.714 -12.5 -81.88699 0.5 3 1
9 0 1 0 0 0 1 0 0 0 1 12.714 -9.5 92.61301 0.5 2 1.5
9 0 1 0 0 0 1 0 0 0 1 13.214 -14 46.61301 2 0.5 1.5
9 0 1 0 0 0 1 0 0 0 1 11.714 -17 112.113 0.5 0.5 6
9 0 1 0 0 0 1 0 0 0 1 10.714 -14 107.113 0.5 0.5 6
9 0 1 0 0 0 1 0 0 0 1 9.714001 -12.5 70.11301 0.5 1 3
9 0 1 0 0 0 1 0 0 0 1 8.214001 -16.5 -101.387 1 1 1.5
9 0 1 0 0 0 1 0 0 0 1 5.714001 -14 64.11301 1.5 0.5 2
9 0 1 0 0 0 1 0 0 0 1 5.214001 -16 -116.887 1 0.5 3
9 0 1 0 0 0 1 0 0 0 1 5.214001 -21 133.113 1 0.5 3
9 0 1 0 0 0 1 0 0 0 1 5.214001 -14 75.61301 2 0.5 1.5
9 0 1 0 0 0 1 0 0 0 1 3.714001 -17.5 -120.887 0.5 3 1
9 0 1 0 0 0 1 0 0 0 1 3.714001 -19.5 47.61301 1.5 2 0.5
9 0 1 0 0 0 1 0 0 0 1 2.714001 -21 114.113 0.5 0.5 6
9 0 1 0 0 0 1 0 0 0 1 1.714001 -14.5 -48.38699 0.5 6 0.5
9 0 1 0 0 0 1 0 0 0 1 1.714001 -21.5 -64.88699 1.5 1 1
9 0 1 0 0 0 1 0 0 0 1 0.2140007 0 122.113 1 1.5 1
9 0 1 0 0 0 1 0 0 0 1 0.2140007 -7.5 131.613 1 1 1.5
9 0 1 0 0 0 1 0 0 0 1 0.2140007 -15 139.113 1 1.5 1
9 0 1 0 0 0 1 0 0 0 1 -2.285999 -4.5 -117.887 0.5 3 1
9 0 1 0 0 0 1 0 0 0 1 0.2140007 -12.5 79.61301 3 1 0.5
9 0 1 0 0 0 1 0 0 0 1 -2.285999 -16.5 -130.387 0.5 2 1.5
9 0 1 0 0 0 1 0 0 0 1 0.2140007 -22 -145.887 3 0.5 1
9 0 1 0 0 0 1 0 0 0 1 -3.285999 -4.5 47.61301 0.5 6 0.5
9 0 1 0 0 0 1 0 0 0 1 -4.285999 -20 -104.887 0.5 0.5 6
9 0 1 0 0 0 1 0 0 0 1 -4.285999 -14.5 121.613 0.5 6 0.5
9 0 1 0 0 0 1 0 0 0 1 -5.285999 -11.5 120.613 0.5 2 1.5
9 0 1 0 0 0 1 0 0 0 1 -5.285999 -20 -118.887 0.5 0.5 6
9 0 1 0 0 0 1 0 0 0 1 -4.285999 -19.5 47.61301 1.5 2 0.5
9 0 1 0 0 0 1 0 0 0 1 -8.285999 -11.5 110.613 0.5 2 1.5
9 0 1 0 0 0 1 0 0 0 1 -7.285999 -18 130.113 1.5 0.5 2
9 0 1 0 0 0 1 0 0 0 1 -9.285999 -10.5 -96.38699 0.5 2 1.5
9 0 1 0 0 0 1 0 0 0 1 -8.785999 -15 117.113 1 0.5 3
9 0 1 0 0 0 1 0 0 0 1 -8.285999 -16 122.113 1.5 0.5 2
9 0 1 0 0 0 1 0 0 0 1 -11.286 -10.5 98.61301 0.5 2 1.5
9 0 1 0 0 0 1 0 0 0 1 -11.286 -17 -118.887 0.5 0.5 6
9 0 1 0 0 0 1 0 0 0 1 -14.286 -5 81.11301 0.5 1.5 2
9 0 1 0 0 0 1 0 0 0 1 -13.786 -12 97.11301 1 0.5 3
9 0 1 0 0 0 1 0 0 0 1 -16.286 -7.5 -71.38699 0.5 2 1.5
9 0 1 0 0 0 1 0 0 0 1 -17.786 -9 77.11301 1 0.5 3
9 0 1 0 0 0 1 0 0 0 1 -19.286 -6 65.11301 0.5 1.5 2
9 0 1 0 0 0 1 0 0 0 1 -20.286 -4.5 36.61301 0.5 6 0.5
9 0 1 0 0 0 1 0 0 0 1 -20.286 -10 58.11301 0.5 0.5 6
9 0 1 0 0 0 1 0 0 0 1 -21.286 -2 -49.88699 0.5 1.5 2
9 0 1 0 0 0 1 0 0 0 1 -21.286 -5 54.11301 0.5 1.5 2
9 0 1 0 0 0 1 0 0 0 1 -23.286 -7 -50.88699 0.5 0.5 6
9 0 1 0 0 0 1 0 0 0 1 -23.286 -6 46.11301 0.5 1.5 2
9 0 1 0 0 0 1 0 0 0 1 -25.286 -1.5 24.11301 0.5 1 3
9 0 1 0 0 0 1 0 0 0 1 -25.286 -5 -32.88699 0.5 1.5 2
9 0 1 0 0 0 1 0 0 0 1 -25.286 -7 -5.886993 0.5 0.5 6
9 0 1 0 0 0 1 0 0 0 1 22.714 -8 -36.38699 0.5 0.5 5.5
9 0 1 0 0 0 1 0 0 0 1 15.714 -13 -78.38699 0.5 0.5 5.5
9 0 1 0 0 0 1 0 0 0 1 10.714 -18 120.613 0.5 0.5 5.5
9 0 1 0 0 0 1 0 0 0 1 1.714001 -16 117.613 0.5 5.5 0.5
9 0 1 0 0 0 1 0 0 0 1 -2.285999 -20 -82.38699 0.5 0.5 5.5
9 0 1 0 0 0 1 0 0 0 1 -0.2859993 -21 143.613 5.5 0.5 0.5
9 0 1 0 0 0 1 0 0 0 1 -18.286 -11 68.61301 0.5 0.5 5.5
9 0 1 0 0 0 1 0 0 0 1 25.714 -4.5 28.61301 0.5 1 2.5
9 0 1 0 0 0 1 0 0 0 1 25.214 1 -14.38699 1 0.5 2.5
9 0 1 0 0 0 1 0 0 0 1 22.714 -7.5 -52.38699 0.5 1 2.5
9 0 1 0 0 0 1 0 0 0 1 20.714 -9 -69.88699 0.5 0.5 5
9 0 1 0 0 0 1 0 0 0 1 18.714 -2.5 62.61301 0.5 1 2.5
9 0 1 0 0 0 1 0 0 0 1 17.714 -11 85.11301 0.5 0.5 5
9 0 1 0 0 0 1 0 0 0 1 16.714 -7.5 76.61301 0.5 1 2.5
9 0 1 0 0 0 1 0 0 0 1 7.714001 -13.5 116.613 0.5 1 2.5
9 0 1 0 0 0 1 0 0 0 1 6.714001 -8 -103.887 0.5 2.5 1
9 0 1 0 0 0 1 0 0 0 1 5.714001 -12 -109.887 0.5 2.5 1
9 0 1 0 0 0 1 0 0 0 1 4.714001 -20 106.113 0.5 0.5 5
9 0 1 0 0 0 1 0 0 0 1 1.714001 -21 -111.887 0.5 0.5 5
9 0 1 0 0 0 1 0 0 0 1 0.2140007 0 -119.387 1 0.5 2.5
9 0 1 0 0 0 1 0 0 0 1 -1.285999 -1.5 -119.387 0.5 1 2.5
9 0 1 0 0 0 1 0 0 0 1 -2.285999 -15.5 117.613 0.5 5 0.5
9 0 1 0 0 0 1 0 0 0 1 -0.2859993 -22 134.113 2.5 0.5 1
9 0 1 0 0 0 1 0 0 0 1 -3.285999 -4.5 116.613 0.5 1 2.5
9 0 1 0 0 0 1 0 0 0 1 -4.285999 -8 -112.887 0.5 2.5 1
9 0 1 0 0 0 1 0 0 0 1 -4.285999 -16.5 131.613 0.5 1 2.5
9 0 1 0 0 0 1 0 0 0 1 -8.785999 -19 130.613 1 0.5 2.5
9 0 1 0 0 0 1 0 0 0 1 -13.286 -5.5 85.61301 0.5 1 2.5
9 0 1 0 0 0 1 0 0 0 1 24.714 -6 -41.38699 0.5 0.5 4.5
9 0 1 0 0 0 1 0 0 0 1 24.714 -9 -9.386993 0.5 1.5 1.5
9 0 1 0 0 0 1 0 0 0 1 23.714 -5 -43.38699 0.5 1.5 1.5
9 0 1 0 0 0 1 0 0 0 1 22.714 -2 -44.38699 0.5 1.5 1.5
9 0 1 0 0 0 1 0 0 0 1 22.714 -7 54.61301 0.5 0.5 4.5
9 0 1 0 0 0 1 0 0 0 1 21.714 -1 -47.38699 0.5 1.5 1.5
9 0 1 0 0 0 1 0 0 0 1 19.714 -10 -60.38699 0.5 0.5 4.5
9 0 1 0 0 0 1 0 0 0 1 16.714 -4 71.61301 0.5 1.5 1.5
9 0 1 0 0 0 1 0 0 0 1 15.714 -4 75.61301 0.5 1.5 1.5
9 0 1 0 0 0 1 0 0 0 1 9.714001 -9 102.613 0.5 1.5 1.5
9 0 1 0 0 0 1 0 0 0 1 9.714001 -18 125.613 0.5 0.5 4.5
9 0 1 0 0 0 1 0 0 0 1 7.714001 -5 102.613 0.5 1.5 1.5
9 0 1 0 0 0 1 0 0 0 1 7.714001 -20 133.613 0.5 0.5 4.5
9 0 1 0 0 0 1 0 0 0 1 6.714001 -20 -125.387 0.5 0.5 4.5
9 0 1 0 0 0 1 0 0 0 1 4.714001 -14 -115.387 0.5 1.5 1.5
9 0 1 0 0 0 1 0 0 0 1 4.714001 -20 -111.387 0.5 0.5 4.5
9 0 1 0 0 0 1 0 0 0 1 1.714001 0 118.613 0.5 1.5 1.5
9 0 1 0 0 0 1 0 0 0 1 -0.2859993 3 118.613 1.5 0.5 1.5
9 0 1 0 0 0 1 0 0 0 1 -1.285999 -4 124.613 0.5 1.5 1.5
9 0 1 0 0 0 1 0 0 0 1 -2.285999 -9 -122.387 0.5 1.5 1.5
9 0 1 0 0 0 1 0 0 0 1 -3.285999 -21 116.613 0.5 0.5 4.5
9 0 1 0 0 0 1 0 0 0 1 -4.285999 -9 119.613 0.5 1.5 1.5
9 0 1 0 0 0 1 0 0 0 1 -5.285999 -8 -109.387 0.5 1.5 1.5
9 0 1 0 0 0 1 0 0 0 1 -6.285999 -14 75.61301 1.5 0.5 1.5
9 0 1 0 0 0 1 0 0 0 1 -6.285999 -18 119.613 1.5 1.5 0.5
9 0 1 0 0 0 1 0 0 0 1 -8.285999 -8 105.613 0.5 1.5 1.5
9 0 1 0 0 0 1 0 0 0 1 -13.286 -15 109.613 0.5 0.5 4.5
9 0 1 0 0 0 1 0 0 0 1 -15.286 -13 98.61301 0.5 0.5 4.5
9 0 1 0 0 0 1 0 0 0 1 -15.286 -14 -51.38699 0.5 0.5 4.5
9 0 1 0 0 0 1 0 0 0 1 -16.286 -8 78.61301 0.5 1.5 1.5
9 0 1 0 0 0 1 0 0 0 1 -17.286 -11 69.61301 0.5 1.5 1.5
9 0 1 0 0 0 1 0 0 0 1 -21.286 -5 -39.38699 0.5 4.5 0.5
9 0 1 0 0 0 1 0 0 0 1 25.714 -1.5 -20.88699 0.5 1 2
9 0 1 0 0 0 1 0 0 0 1 22.714 1 33.11301 0.5 0.5 4
9 0 1 0 0 0 1 0 0 0 1 19.714 -7.5 67.11301 0.5 1 2
9 0 1 0 0 0 1 0 0 0 1 15.714 -7.5 -73.88699 0.5 2 1
9 0 1 0 0 0 1 0 0 0 1 10.714 -10.5 101.113 0.5 1 2
9 0 1 0 0 0 1 0 0 0 1 11.214 -15.5 47.11301 1 1 1
9 0 1 0 0 0 1 0 0 0 1 9.714001 -14.5 -97.88699 0.5 1 2
9 0 1 0 0 0 1 0 0 0 1 5.714001 -21.5 -140.887 0.5 1 2
9 0 1 0 0 0 1 0 0 0 1 4.714001 -3.5 111.113 0.5 2 1
9 0 1 0 0 0 1 0 0 0 1 4.714001 -16.5 130.113 0.5 1 2
9 0 1 0 0 0 1 0 0 0 1 3.714001 -5.5 117.113 0.5 1 2
9 0 1 0 0 0 1 0 0 0 1 3.714001 -20 -59.88699 0.5 0.5 4
9 0 1 0 0 0 1 0 0 0 1 3.714001 -18.5 114.113 0.5 2 1
9 0 1 0 0 0 1 0 0 0 1 4.214001 -20.5 -134.887 1 1 1
9 0 1 0 0 0 1 0 0 0 1 3.714001 -17.5 128.613 0.5 4 0.5
9 0 1 0 0 0 1 0 0 0 1 2.714001 -6.5 122.113 0.5 1 2
9 0 1 0 0 0 1 0 0 0 1 2.714001 -8.5 125.113 0.5 1 2
9 0 1 0 0 0 1 0 0 0 1 3.214001 -19.5 -129.387 1 2 0.5
9 0 1 0 0 0 1 0 0 0 1 2.214001 -10 128.113 1 0.5 2
9 0 1 0 0 0 1 0 0 0 1 0.2140007 -3.5 -126.887 1 1 1
9 0 1 0 0 0 1 0 0 0 1 0.2140007 -4.5 128.113 1 1 1
9 0 1 0 0 0 1 0 0 0 1 0.2140007 -10.5 -134.887 1 1 1
9 0 1 0 0 0 1 0 0 0 1 0.2140007 -14.5 -138.887 1 1 1
9 0 1 0 0 0 1 0 0 0 1 0.2140007 -16.5 -140.887 1 1 1
9 0 1 0 0 0 1 0 0 0 1 0.2140007 -21 119.113 2 0.5 1
9 0 1 0 0 0 1 0 0 0 1 -1.785999 -21.5 -64.88699 1 1 1
9 0 1 0 0 0 1 0 0 0 1 -3.785999 -20.5 -134.887 1 1 1
9 0 1 0 0 0 1 0 0 0 1 -4.285999 -19.5 -128.887 0.5 2 1
9 0 1 0 0 0 1 0 0 0 1 -5.285999 -15.5 127.113 0.5 1 2
9 0 1 0 0 0 1 0 0 0 1 -5.285999 -20 112.113 0.5 0.5 4
9 0 1 0 0 0 1 0 0 0 1 -5.285999 -22 -139.887 0.5 0.5 4
9 0 1 0 0 0 1 0 0 0 1 -6.285999 -4.5 107.113 0.5 1 2
9 0 1 0 0 0 1 0 0 0 1 -6.285999 -6.5 110.113 0.5 1 2
9 0 1 0 0 0 1 0 0 0 1 -6.285999 -7.5 -105.887 0.5 2 1
9 0 1 0 0 0 1 0 0 0 1 -6.285999 -20.5 138.113 0.5 1 2
9 0 1 0 0 0 1 0 0 0 1 -7.285999 -5.5 102.613 0.5 4 0.5
9 0 1 0 0 0 1 0 0 0 1 -8.285999 -5.5 102.113 0.5 1 2
9 0 1 0 0 0 1 0 0 0 1 -8.285999 -18 -93.88699 0.5 0.5 4
9 0 1 0 0 0 1 0 0 0 1 -7.785999 -18 -106.887 2 0.5 1
9 0 1 0 0 0 1 0 0 0 1 -11.786 -13 92.11301 1 0.5 2
9 0 1 0 0 0 1 0 0 0 1 -12.286 -16 -90.88699 0.5 0.5 4
9 0 1 0 0 0 1 0 0 0 1 -11.786 -16 118.113 1 0.5 2
9 0 1 0 0 0 1 0 0 0 1 -15.286 -10 -78.88699 0.5 0.5 4
9 0 1 0 0 0 1 0 0 0 1 -15.286 -9.5 85.11301 0.5 1 2
9 0 1 0 0 0 1 0 0 0 1 -14.786 -14 46.11301 1 0.5 2
9 0 1 0 0 0 1 0 0 0 1 -15.286 -14 81.11301 0.5 0.5 4
9 0 1 0 0 0 1 0 0 0 1 -16.286 -2.5 72.11301 0.5 1 2
9 0 1 0 0 0 1 0 0 0 1 -19.286 -9.5 76.11301 0.5 1 2
9 0 1 0 0 0 1 0 0 0 1 -21.286 -7.5 -55.88699 0.5 2 1
9 0 1 0 0 0 1 0 0 0 1 -23.286 -10.5 25.11301 0.5 2 1
9 0 1 0 0 0 1 0 0 0 1 -24.286 -5.5 -41.88699 0.5 1 2
9 0 1 0 0 0 1 0 0 0 1 -26.286 -1.5 15.11301 0.5 1 2
9 0 1 0 0 0 1 0 0 0 1 -26.286 -4.5 -24.88699 0.5 1 2
9 0 1 0 0 0 1 0 0 0 1 23.714 -7 48.61301 0.5 0.5 3.5
9 0 1 0 0 0 1 0 0 0 1 10.714 -17 97.61301 0.5 0.5 3.5
9 0 1 0 0 0 1 0 0 0 1 9.714001 -17 -106.387 0.5 0.5 3.5
9 0 1 0 0 0 1 0 0 0 1 7.714001 -18 -72.38699 0.5 0.5 3.5
9 0 1 0 0 0 1 0 0 0 1 2.714001 -13 -114.387 0.5 3.5 0.5
9 0 1 0 0 0 1 0 0 0 1 0.7140007 -21 -93.38699 0.5 0.5 3.5
9 0 1 0 0 0 1 0 0 0 1 0.7140007 -21 -69.38699 0.5 0.5 3.5
9 0 1 0 0 0 1 0 0 0 1 -3.285999 -20 -117.387 0.5 0.5 3.5
9 0 1 0 0 0 1 0 0 0 1 -4.285999 -20 100.613 0.5 0.5 3.5
9 0 1 0 0 0 1 0 0 0 1 -8.285999 -19 116.613 0.5 0.5 3.5
9 0 1 0 0 0 1 0 0 0 1 -9.285999 -19 -130.387 0.5 0.5 3.5
9 0 1 0 0 0 1 0 0 0 1 -13.286 -12 -95.38699 3.5 0.5 0.5
9 0 1 0 0 0 1 0 0 0 1 -23.286 -7 51.61301 0.5 0.5 3.5
9 0 1 0 0 0 1 0 0 0 1 -23.286 -8 -34.38699 0.5 0.5 3.5
9 0 1 0 0 0 1 0 0 0 1 26.714 -2.5 -13.38699 0.5 1 1.5
9 0 1 0 0 0 1 0 0 0 1 25.714 -6 -21.88699 0.5 0.5 3
9 0 1 0 0 0 1 0 0 0 1 23.714 -1 36.11301 0.5 0.5 3
9 0 1 0 0 0 1 0 0 0 1 21.714 -0.5 46.61301 0.5 1 1.5
9 0 1 0 0 0 1 0 0 0 1 21.714 -6 -52.88699 0.5 1.5 1
9 0 1 0 0 0 1 0 0 0 1 21.714 -9 -47.88699 0.5 0.5 3
9 0 1 0 0 0 1 0 0 0 1 21.214 1 -37.38699 1 0.5 1.5
9 0 1 0 0 0 1 0 0 0 1 20.714 -1 -51.88699 0.5 1.5 1
9 0 1 0 0 0 1 0 0 0 1 20.714 -6 -56.88699 0.5 1.5 1
9 0 1 0 0 0 1 0 0 0 1 20.714 -7 63.11301 0.5 0.5 3
9 0 1 0 0 0 1 0 0 0 1 19.714 -1 -56.88699 0.5 1.5 1
9 0 1 0 0 0 1 0 0 0 1 19.714 -6 -60.88699 0.5 1.5 1
9 0 1 0 0 0 1 0 0 0 1 19.714 -8 -65.88699 1.5 0.5 1
9 0 1 0 0 0 1 0 0 0 1 19.214 -8 71.61301 1 0.5 1.5
9 0 1 0 0 0 1 0 0 0 1 16.714 -13 72.11301 0.5 0.5 3
9 0 1 0 0 0 1 0 0 0 1 15.714 -9 83.11301 0.5 1.5 1
9 0 1 0 0 0 1 0 0 0 1 16.214 -10 85.61301 1 0.5 1.5
9 0 1 0 0 0 1 0 0 0 1 14.714 -14 95.11301 0.5 0.5 3
9 0 1 0 0 0 1 0 0 0 1 13.714 -9.5 90.61301 0.5 1 1.5
9 0 1 0 0 0 1 0 0 0 1 14.214 -11 93.61301 1 0.5 1.5
9 0 1 0 0 0 1 0 0 0 1 12.714 -4.5 86.61301 0.5 1 1.5
9 0 1 0 0 0 1 0 0 0 1 12.714 -11 -86.88699 0.5 0.5 3
9 0 1 0 0 0 1 0 0 0 1 11.714 -7 93.11301 0.5 1.5 1
9 0 1 0 0 0 1 0 0 0 1 12.214 -16 116.613 1 0.5 1.5
9 0 1 0 0 0 1 0 0 0 1 10.714 -10 -91.88699 0.5 1.5 1
9 0 1 0 0 0 1 0 0 0 1 9.714001 -13.5 110.613 0.5 1 1.5
9 0 1 0 0 0 1 0 0 0 1 9.714001 -17 -48.88699 0.5 0.5 3
9 0 1 0 0 0 1 0 0 0 1 8.714001 -4.5 99.61301 0.5 1 1.5
9 0 1 0 0 0 1 0 0 0 1 8.714001 -9.5 106.613 0.5 1 1.5
9 0 1 0 0 0 1 0 0 0 1 7.714001 -18 -49.88699 0.5 0.5 3
9 0 1 0 0 0 1 0 0 0 1 6.714001 -8 111.113 0.5 1.5 1
9 0 1 0 0 0 1 0 0 0 1 6.714001 -10.5 115.613 0.5 1 1.5
9 0 1 0 0 0 1 0 0 0 1 6.714001 -15 122.113 0.5 1.5 1
9 0 1 0 0 0 1 0 0 0 1 7.714001 -17 127.113 1.5 0.5 1
9 0 1 0 0 0 1 0 0 0 1 5.714001 -4 108.113 0.5 1.5 1
9 0 1 0 0 0 1 0 0 0 1 5.714001 -8.5 -108.387 0.5 1 1.5
9 0 1 0 0 0 1 0 0 0 1 5.714001 -10 118.113 0.5 1.5 1
9 0 1 0 0 0 1 0 0 0 1 4.714001 -6.5 115.613 0.5 1 1.5
9 0 1 0 0 0 1 0 0 0 1 4.714001 -7.5 -111.387 0.5 1 1.5
9 0 1 0 0 0 1 0 0 0 1 4.714001 -13.5 126.613 0.5 1 1.5
9 0 1 0 0 0 1 0 0 0 1 4.714001 -21 -62.88699 0.5 1.5 1
9 0 1 0 0 0 1 0 0 0 1 3.714001 -10 -116.887 0.5 1.5 1
9 0 1 0 0 0 1 0 0 0 1 3.714001 -20 -116.887 0.5 0.5 3
9 0 1 0 0 0 1 0 0 0 1 3.714001 -19.5 135.613 0.5 3 0.5
9 0 1 0 0 0 1 0 0 0 1 2.714001 -1.5 116.613 0.5 1 1.5
9 0 1 0 0 0 1 0 0 0 1 2.714001 -12 131.113 0.5 1.5 1
9 0 1 0 0 0 1 0 0 0 1 1.714001 -5 124.113 0.5 1.5 1
9 0 1 0 0 0 1 0 0 0 1 1.714001 -14 136.113 0.5 1.5 1
9 0 1 0 0 0 1 0 0 0 1 0.2140007 0 -48.38699 1 1.5 0.5
9 0 1 0 0 0 1 0 0 0 1 -0.2859993 -21 -50.88699 0.5 0.5 3
9 0 1 0 0 0 1 0 0 0 1 -1.285999 -6 -125.887 0.5 1.5 1
9 0 1 0 0 0 1 0 0 0 1 -1.285999 -10 -130.887 0.5 1.5 1
9 0 1 0 0 0 1 0 0 0 1 -1.285999 -11.5 134.613 0.5 1 1.5
9 0 1 0 0 0 1 0 0 0 1 -0.2859993 -12.5 -134.387 1.5 1 0.5
9 0 1 0 0 0 1 0 0 0 1 -1.285999 -14 -135.887 0.5 1.5 1
9 0 1 0 0 0 1 0 0 0 1 -2.285999 -1 117.113 0.5 1.5 1
9 0 1 0 0 0 1 0 0 0 1 -2.285999 -6.5 -120.387 0.5 1 1.5
9 0 1 0 0 0 1 0 0 0 1 -2.285999 -11 131.113 0.5 1.5 1
9 0 1 0 0 0 1 0 0 0 1 0.2140007 -19 141.613 3 0.5 0.5
9 0 1 0 0 0 1 0 0 0 1 -3.285999 -2.5 -114.387 0.5 3 0.5
9 0 1 0 0 0 1 0 0 0 1 -3.285999 -8.5 123.613 0.5 1 1.5
9 0 1 0 0 0 1 0 0 0 1 -3.285999 -9 -117.887 0.5 1.5 1
9 0 1 0 0 0 1 0 0 0 1 -3.285999 -16 134.113 0.5 1.5 1
9 0 1 0 0 0 1 0 0 0 1 -4.285999 -15 -117.887 0.5 1.5 1
9 0 1 0 0 0 1 0 0 0 1 -4.785999 -12 122.613 1 1.5 0.5
9 0 1 0 0 0 1 0 0 0 1 -4.785999 -20 135.613 1 1.5 0.5
9 0 1 0 0 0 1 0 0 0 1 -6.285999 -10 116.113 0.5 1.5 1
9 0 1 0 0 0 1 0 0 0 1 -6.285999 -20 -121.887 0.5 0.5 3
9 0 1 0 0 0 1 0 0 0 1 -7.285999 -14.5 120.613 0.5 1 1.5
9 0 1 0 0 0 1 0 0 0 1 -7.285999 -16.5 102.613 0.5 3 0.5
9 0 1 0 0 0 1 0 0 0 1 -8.285999 -12.5 113.613 0.5 1 1.5
9 0 1 0 0 0 1 0 0 0 1 -7.785999 -15 -108.387 1 1.5 0.5
9 0 1 0 0 0 1 0 0 0 1 -9.285999 -5 98.11301 0.5 1.5 1
9 0 1 0 0 0 1 0 0 0 1 -9.285999 -12.5 110.613 0.5 1 1.5
9 0 1 0 0 0 1 0 0 0 1 -10.286 -9 101.113 0.5 1.5 1
9 0 1 0 0 0 1 0 0 0 1 -10.286 -8.5 -92.38699 0.5 3 0.5
9 0 1 0 0 0 1 0 0 0 1 -9.785999 -15 46.61301 1 1.5 0.5
9 0 1 0 0 0 1 0 0 0 1 -9.785999 -16 91.61301 1 1.5 0.5
9 0 1 0 0 0 1 0 0 0 1 -10.286 -18 -121.887 0.5 0.5 3
9 0 1 0 0 0 1 0 0 0 1 -9.785999 -18 127.613 1 0.5 1.5
9 0 1 0 0 0 1 0 0 0 1 -11.286 -7.5 95.61301 0.5 1 1.5
9 0 1 0 0 0 1 0 0 0 1 -11.286 -11.5 101.613 0.5 1 1.5
9 0 1 0 0 0 1 0 0 0 1 -12.286 -7 91.11301 0.5 1.5 1
9 0 1 0 0 0 1 0 0 0 1 -12.286 -11.5 98.61301 0.5 1 1.5
9 0 1 0 0 0 1 0 0 0 1 -10.786 -13 -102.387 3 0.5 0.5
9 0 1 0 0 0 1 0 0 0 1 -13.286 -15 -51.88699 0.5 0.5 3
9 0 1 0 0 0 1 0 0 0 1 -14.286 -9.5 88.61301 0.5 1 1.5
9 0 1 0 0 0 1 0 0 0 1 -15.286 -6.5 -75.38699 0.5 3 0.5
9 0 1 0 0 0 1 0 0 0 1 -15.286 -13 -91.88699 0.5 0.5 3
9 0 1 0 0 0 1 0 0 0 1 -16.286 -12 -85.88699 0.5 0.5 3
9 0 1 0 0 0 1 0 0 0 1 -15.786 -12 95.61301 1 0.5 1.5
9 0 1 0 0 0 1 0 0 0 1 -17.286 -3 69.11301 0.5 1.5 1
9 0 1 0 0 0 1 0 0 0 1 -17.286 -7.5 75.61301 0.5 1 1.5
9 0 1 0 0 0 1 0 0 0 1 -16.786 -9 -74.38699 1 0.5 1.5
9 0 1 0 0 0 1 0 0 0 1 -16.786 -11 88.61301 1 0.5 1.5
9 0 1 0 0 0 1 0 0 0 1 -18.286 -1.5 63.61301 0.5 1 1.5
9 0 1 0 0 0 1 0 0 0 1 -18.286 -6 69.11301 0.5 1.5 1
9 0 1 0 0 0 1 0 0 0 1 -19.286 -1.5 59.61301 0.5 1 1.5
9 0 1 0 0 0 1 0 0 0 1 -20.286 -2 -54.88699 0.5 1.5 1
9 0 1 0 0 0 1 0 0 0 1 -20.286 -5.5 60.61301 0.5 1 1.5
9 0 1 0 0 0 1 0 0 0 1 -21.286 -8 66.11301 0.5 0.5 3
9 0 1 0 0 0 1 0 0 0 1 -22.286 -1 44.11301 0.5 1.5 1
9 0 1 0 0 0 1 0 0 0 1 -22.286 -8 63.11301 0.5 0.5 3
9 0 1 0 0 0 1 0 0 0 1 -23.286 1 35.11301 0.5 0.5 3
9 0 1 0 0 0 1 0 0 0 1 -23.286 -5 -45.88699 0.5 1.5 1
9 0 1 0 0 0 1 0 0 0 1 -24.286 -1 -32.88699 0.5 1.5 1
9 0 1 0 0 0 1 0 0 0 1 -24.286 -2.5 36.61301 0.5 1 1.5
9 0 1 0 0 0 1 0 0 0 1 -24.286 -12 -7.886993 0.5 0.5 3
9 0 1 0 0 0 1 0 0 0 1 -25.286 -0.5 -23.38699 0.5 1 1.5
9 0 1 0 0 0 1 0 0 0 1 -25.286 -4.5 34.61301 0.5 1 1.5
9 0 1 0 0 0 1 0 0 0 1 -26.286 -1.5 -15.38699 0.5 1 1.5
9 0 1 0 0 0 1 0 0 0 1 -26.286 -5 26.11301 0.5 0.5 3
9 0 1 0 0 0 1 0 0 0 1 25.714 -1 19.61301 0.5 0.5 2.5
9 0 1 0 0 0 1 0 0 0 1 25.714 -5 -32.38699 0.5 0.5 2.5
9 0 1 0 0 0 1 0 0 0 1 25.714 -5 33.61301 0.5 0.5 2.5
9 0 1 0 0 0 1 0 0 0 1 20.714 -9 71.61301 0.5 0.5 2.5
9 0 1 0 0 0 1 0 0 0 1 18.714 -1 -39.38699 0.5 2.5 0.5
9 0 1 0 0 0 1 0 0 0 1 18.714 -8 -64.38699 0.5 2.5 0.5
9 0 1 0 0 0 1 0 0 0 1 16.714 -12 93.61301 0.5 0.5 2.5
9 0 1 0 0 0 1 0 0 0 1 13.714 -15 -51.38699 0.5 0.5 2.5
9 0 1 0 0 0 1 0 0 0 1 12.714 -11 96.61301 0.5 0.5 2.5
9 0 1 0 0 0 1 0 0 0 1 9.714001 -5 95.61301 0.5 2.5 0.5
9 0 1 0 0 0 1 0 0 0 1 11.714 -15 91.61301 2.5 0.5 0.5
9 0 1 0 0 0 1 0 0 0 1 8.714001 -18 100.613 0.5 0.5 2.5
9 0 1 0 0 0 1 0 0 0 1 7.714001 -19 -115.387 0.5 0.5 2.5
9 0 1 0 0 0 1 0 0 0 1 7.714001 -20 -136.387 0.5 0.5 2.5
9 0 1 0 0 0 1 0 0 0 1 5.714001 -16 -111.387 0.5 0.5 2.5
9 0 1 0 0 0 1 0 0 0 1 2.714001 -5 -117.387 0.5 2.5 0.5
9 0 1 0 0 0 1 0 0 0 1 1.714001 -18 -116.387 0.5 2.5 0.5
9 0 1 0 0 0 1 0 0 0 1 -0.2859993 -17 139.613 2.5 0.5 0.5
9 0 1 0 0 0 1 0 0 0 1 -2.285999 -20 -134.387 0.5 2.5 0.5
9 0 1 0 0 0 1 0 0 0 1 -6.285999 -16 -119.387 2.5 0.5 0.5
9 0 1 0 0 0 1 0 0 0 1 -8.285999 -18 -103.387 0.5 0.5 2.5
9 0 1 0 0 0 1 0 0 0 1 -12.286 -5 86.61301 0.5 2.5 0.5
9 0 1 0 0 0 1 0 0 0 1 -12.286 -8 -85.38699 0.5 2.5 0.5
9 0 1 0 0 0 1 0 0 0 1 -19.286 -4 57.61301 0.5 2.5 0.5
9 0 1 0 0 0 1 0 0 0 1 -20.286 -9 73.61301 0.5 0.5 2.5
9 0 1 0 0 0 1 0 0 0 1 -22.286 -3 42.61301 0.5 2.5 0.5
9 0 1 0 0 0 1 0 0 0 1 26.714 -4 -21.88699 0.5 0.5 2
9 0 1 0 0 0 1 0 0 0 1 25.714 -6 19.11301 0.5 0.5 2
9 0 1 0 0 0 1 0 0 0 1 24.714 -1.5 -31.88699 0.5 1 1
9 0 1 0 0 0 1 0 0 0 1 24.714 -2.5 34.11301 0.5 1 1
9 0 1 0 0 0 1 0 0 0 1 24.714 -4.5 -37.88699 0.5 1 1
9 0 1 0 0 0 1 0 0 0 1 24.714 -5.5 40.11301 0.5 1 1
9 0 1 0 0 0 1 0 0 0 1 23.714 -0.5 -35.88699 0.5 1 1
9 0 1 0 0 0 1 0 0 0 1 22.714 -0.5 41.11301 0.5 1 1
9 0 1 0 0 0 1 0 0 0 1 22.214 -7 -55.88699 1 0.5 1
9 0 1 0 0 0 1 0 0 0 1 21.714 -8 65.11301 0.5 0.5 2
9 0 1 0 0 0 1 0 0 0 1 20.714 -3.5 56.11301 0.5 1 1
9 0 1 0 0 0 1 0 0 0 1 20.714 -5.5 50.61301 0.5 2 0.5
9 0 1 0 0 0 1 0 0 0 1 20.714 -7.5 -50.38699 0.5 2 0.5
9 0 1 0 0 0 1 0 0 0 1 20.714 -10 -37.88699 0.5 0.5 2
9 0 1 0 0 0 1 0 0 0 1 19.714 -3.5 61.11301 0.5 1 1
9 0 1 0 0 0 1 0 0 0 1 19.714 -10 -76.88699 0.5 0.5 2
9 0 1 0 0 0 1 0 0 0 1 17.714 -1.5 66.11301 0.5 1 1
9 0 1 0 0 0 1 0 0 0 1 16.714 -3.5 -69.88699 0.5 1 1
9 0 1 0 0 0 1 0 0 0 1 16.714 -5.5 75.11301 0.5 1 1
9 0 1 0 0 0 1 0 0 0 1 16.714 -9 -73.88699 0.5 0.5 2
9 0 1 0 0 0 1 0 0 0 1 15.714 -13 100.113 0.5 0.5 2
9 0 1 0 0 0 1 0 0 0 1 14.714 -3.5 79.11301 0.5 1 1
9 0 1 0 0 0 1 0 0 0 1 14.714 -7.5 -77.38699 0.5 2 0.5
9 0 1 0 0 0 1 0 0 0 1 14.714 -9.5 87.11301 0.5 1 1
9 0 1 0 0 0 1 0 0 0 1 14.214 -12.5 -83.38699 1 1 0.5
9 0 1 0 0 0 1 0 0 0 1 13.714 -13 103.113 0.5 0.5 2
9 0 1 0 0 0 1 0 0 0 1 12.714 -8.5 -84.38699 0.5 2 0.5
9 0 1 0 0 0 1 0 0 0 1 12.714 -16 99.11301 0.5 0.5 2
9 0 1 0 0 0 1 0 0 0 1 11.714 -8.5 -87.38699 0.5 2 0.5
9 0 1 0 0 0 1 0 0 0 1 10.714 -4.5 93.11301 0.5 1 1
9 0 1 0 0 0 1 0 0 0 1 11.214 -12 102.113 1 0.5 1
9 0 1 0 0 0 1 0 0 0 1 10.714 -11.5 104.113 0.5 1 1
9 0 1 0 0 0 1 0 0 0 1 10.714 -16 -91.88699 0.5 0.5 2
9 0 1 0 0 0 1 0 0 0 1 9.714001 -15.5 46.61301 0.5 2 0.5
9 0 1 0 0 0 1 0 0 0 1 10.214 -2 -23.38699 2 0.5 0.5
9 0 1 0 0 0 1 0 0 0 1 10.214 -2 -3.386993 2 0.5 0.5
9 0 1 0 0 0 1 0 0 0 1 10.214 -2 16.61301 2 0.5 0.5
9 0 1 0 0 0 1 0 0 0 1 8.714001 -13.5 115.113 0.5 1 1
9 0 1 0 0 0 1 0 0 0 1 8.714001 -19 -131.887 0.5 0.5 2
9 0 1 0 0 0 1 0 0 0 1 8.214001 -10.5 109.613 1 1 0.5
9 0 1 0 0 0 1 0 0 0 1 7.714001 -11.5 115.113 0.5 1 1
9 0 1 0 0 0 1 0 0 0 1 7.714001 -11.5 -103.387 0.5 2 0.5
9 0 1 0 0 0 1 0 0 0 1 8.214001 -15 119.113 1 0.5 1
9 0 1 0 0 0 1 0 0 0 1 8.214001 -16 123.113 1 0.5 1
9 0 1 0 0 0 1 0 0 0 1 6.714001 -2 -19.88699 0.5 0.5 2
9 0 1 0 0 0 1 0 0 0 1 6.714001 -2 0.1130066 0.5 0.5 2
9 0 1 0 0 0 1 0 0 0 1 6.714001 -2 20.11301 0.5 0.5 2
9 0 1 0 0 0 1 0 0 0 1 6.714001 -15.5 124.113 0.5 1 1
9 0 1 0 0 0 1 0 0 0 1 6.714001 -21.5 140.113 0.5 1 1
9 0 1 0 0 0 1 0 0 0 1 5.714001 -13.5 -111.887 0.5 1 1
9 0 1 0 0 0 1 0 0 0 1 5.714001 -19 -59.88699 0.5 0.5 2
9 0 1 0 0 0 1 0 0 0 1 5.714001 -20 139.113 0.5 0.5 2
9 0 1 0 0 0 1 0 0 0 1 4.714001 -4.5 113.113 0.5 1 1
9 0 1 0 0 0 1 0 0 0 1 4.714001 -7.5 118.113 0.5 1 1
9 0 1 0 0 0 1 0 0 0 1 5.214001 -12 122.113 1 0.5 1
9 0 1 0 0 0 1 0 0 0 1 5.214001 -18 133.113 1 0.5 1
9 0 1 0 0 0 1 0 0 0 1 3.714001 -3.5 -113.387 0.5 2 0.5
9 0 1 0 0 0 1 0 0 0 1 3.714001 -12.5 121.613 0.5 2 0.5
9 0 1 0 0 0 1 0 0 0 1 2.714001 -0.5 -115.387 0.5 2 0.5
9 0 1 0 0 0 1 0 0 0 1 3.214001 -7 119.113 1 0.5 1
9 0 1 0 0 0 1 0 0 0 1 2.714001 -14.5 134.113 0.5 1 1
9 0 1 0 0 0 1 0 0 0 1 3.214001 -21.5 144.613 1 1 0.5
9 0 1 0 0 0 1 0 0 0 1 1.714001 -0.5 -117.387 0.5 2 0.5
9 0 1 0 0 0 1 0 0 0 1 1.714001 -5.5 -122.887 0.5 1 1
9 0 1 0 0 0 1 0 0 0 1 1.714001 -9.5 -127.887 0.5 1 1
9 0 1 0 0 0 1 0 0 0 1 2.214001 -9.5 -121.387 1 1 0.5
9 0 1 0 0 0 1 0 0 0 1 1.714001 -11.5 134.113 0.5 1 1
9 0 1 0 0 0 1 0 0 0 1 1.714001 -12.5 -130.887 0.5 1 1
9 0 1 0 0 0 1 0 0 0 1 0.2140007 4.5 -117.387 1 1 0.5
9 0 1 0 0 0 1 0 0 0 1 0.2140007 4.5 117.613 1 1 0.5
9 0 1 0 0 0 1 0 0 0 1 0.2140007 1.5 -120.387 1 1 0.5
9 0 1 0 0 0 1 0 0 0 1 -0.2859993 0.5 -122.887 0.5 1 1
9 0 1 0 0 0 1 0 0 0 1 0.2140007 -0.5 123.613 1 1 0.5
9 0 1 0 0 0 1 0 0 0 1 0.2140007 -6.5 -131.387 1 1 0.5
9 0 1 0 0 0 1 0 0 0 1 0.2140007 -8.5 133.613 1 1 0.5
9 0 1 0 0 0 1 0 0 0 1 0.2140007 -11.5 136.613 1 1 0.5
9 0 1 0 0 0 1 0 0 0 1 0.2140007 -15.5 140.613 1 1 0.5
9 0 1 0 0 0 1 0 0 0 1 0.2140007 -18 -141.887 1 0.5 1
9 0 1 0 0 0 1 0 0 0 1 0.2140007 -17.5 142.613 1 1 0.5
9 0 1 0 0 0 1 0 0 0 1 0.2140007 -19 -142.887 1 0.5 1
9 0 1 0 0 0 1 0 0 0 1 0.2140007 -20 -143.887 1 0.5 1
9 0 1 0 0 0 1 0 0 0 1 0.2140007 -19.5 144.613 1 1 0.5
9 0 1 0 0 0 1 0 0 0 1 0.2140007 -21 -144.887 1 0.5 1
9 0 1 0 0 0 1 0 0 0 1 0.2140007 -21 92.11301 1 0.5 1
9 0 1 0 0 0 1 0 0 0 1 0.2140007 -22 -132.887 1 0.5 1
9 0 1 0 0 0 1 0 0 0 1 0.2140007 -21.5 146.613 1 1 0.5
9 0 1 0 0 0 1 0 0 0 1 -1.285999 -0.5 122.113 0.5 1 1
9 0 1 0 0 0 1 0 0 0 1 -1.285999 -15.5 139.113 0.5 1 1
9 0 1 0 0 0 1 0 0 0 1 -2.285999 -5.5 123.113 0.5 1 1
9 0 1 0 0 0 1 0 0 0 1 -2.285999 -9.5 129.113 0.5 1 1
9 0 1 0 0 0 1 0 0 0 1 -2.285999 -14.5 136.113 0.5 1 1
9 0 1 0 0 0 1 0 0 0 1 -2.285999 -17.5 -132.887 0.5 1 1
9 0 1 0 0 0 1 0 0 0 1 -2.285999 -18.5 -48.38699 0.5 2 0.5
9 0 1 0 0 0 1 0 0 0 1 -3.285999 -1.5 114.613 0.5 2 0.5
9 0 1 0 0 0 1 0 0 0 1 -2.785999 -10 127.113 1 0.5 1
9 0 1 0 0 0 1 0 0 0 1 -2.785999 -19.5 -129.387 1 1 0.5
9 0 1 0 0 0 1 0 0 0 1 -5.285999 -2.5 108.613 0.5 2 0.5
9 0 1 0 0 0 1 0 0 0 1 -5.285999 -18.5 128.613 0.5 2 0.5
9 0 1 0 0 0 1 0 0 0 1 -6.285999 -12.5 120.113 0.5 1 1
9 0 1 0 0 0 1 0 0 0 1 -6.285999 -13.5 -109.887 0.5 1 1
9 0 1 0 0 0 1 0 0 0 1 -5.785999 -19 137.113 1 0.5 1
9 0 1 0 0 0 1 0 0 0 1 -6.285999 -22 -139.887 0.5 0.5 2
9 0 1 0 0 0 1 0 0 0 1 -6.285999 -21.5 141.113 0.5 1 1
9 0 1 0 0 0 1 0 0 0 1 -7.285999 -7.5 109.113 0.5 1 1
9 0 1 0 0 0 1 0 0 0 1 -7.285999 -19 -112.887 0.5 0.5 2
9 0 1 0 0 0 1 0 0 0 1 -8.285999 -3.5 100.113 0.5 1 1
9 0 1 0 0 0 1 0 0 0 1 -8.285999 -11.5 -101.387 0.5 2 0.5
9 0 1 0 0 0 1 0 0 0 1 -8.285999 -14 117.113 0.5 0.5 2
9 0 1 0 0 0 1 0 0 0 1 -9.285999 -19 126.113 0.5 0.5 2
9 0 1 0 0 0 1 0 0 0 1 -10.286 -10.5 -93.88699 0.5 1 1
9 0 1 0 0 0 1 0 0 0 1 -10.286 -15 116.113 0.5 0.5 2
9 0 1 0 0 0 1 0 0 0 1 -10.286 -16.5 93.11301 0.5 1 1
9 0 1 0 0 0 1 0 0 0 1 -9.785999 -2 -23.38699 2 0.5 0.5
9 0 1 0 0 0 1 0 0 0 1 -9.785999 -2 -3.386993 2 0.5 0.5
9 0 1 0 0 0 1 0 0 0 1 -9.785999 -2 16.61301 2 0.5 0.5
9 0 1 0 0 0 1 0 0 0 1 -11.286 -14 111.113 0.5 0.5 2
9 0 1 0 0 0 1 0 0 0 1 -11.286 -16 93.11301 0.5 0.5 2
9 0 1 0 0 0 1 0 0 0 1 -10.786 -16 121.113 1 0.5 1
9 0 1 0 0 0 1 0 0 0 1 -11.786 -13 106.113 1 0.5 1
9 0 1 0 0 0 1 0 0 0 1 -13.286 -2 -19.88699 0.5 0.5 2
9 0 1 0 0 0 1 0 0 0 1 -13.286 -2 0.1130066 0.5 0.5 2
9 0 1 0 0 0 1 0 0 0 1 -13.286 -2 20.11301 0.5 0.5 2
9 0 1 0 0 0 1 0 0 0 1 -13.286 -3.5 84.11301 0.5 1 1
9 0 1 0 0 0 1 0 0 0 1 -15.286 -5.5 80.11301 0.5 1 1
9 0 1 0 0 0 1 0 0 0 1 -16.286 -13 97.11301 0.5 0.5 2
9 0 1 0 0 0 1 0 0 0 1 -16.786 -9 81.11301 1 0.5 1
9 0 1 0 0 0 1 0 0 0 1 -18.286 -2.5 -63.38699 0.5 2 0.5
9 0 1 0 0 0 1 0 0 0 1 -18.286 -11 86.11301 0.5 0.5 2
9 0 1 0 0 0 1 0 0 0 1 -19.286 -2.5 -59.88699 0.5 1 1
9 0 1 0 0 0 1 0 0 0 1 -19.286 -8 -64.88699 0.5 0.5 2
9 0 1 0 0 0 1 0 0 0 1 -19.286 -10 80.11301 0.5 0.5 2
9 0 1 0 0 0 1 0 0 0 1 -20.286 0.5 -37.88699 0.5 1 1
9 0 1 0 0 0 1 0 0 0 1 -20.286 -1.5 54.11301 0.5 1 1
9 0 1 0 0 0 1 0 0 0 1 -20.286 -6.5 -59.88699 0.5 1 1
9 0 1 0 0 0 1 0 0 0 1 -20.286 -7 65.11301 0.5 0.5 2
9 0 1 0 0 0 1 0 0 0 1 -21.286 -0.5 49.11301 0.5 1 1
9 0 1 0 0 0 1 0 0 0 1 -22.286 0.5 -43.88699 0.5 1 1
9 0 1 0 0 0 1 0 0 0 1 -22.286 -3.5 -48.88699 0.5 1 1
9 0 1 0 0 0 1 0 0 0 1 -22.286 -2.5 -39.38699 0.5 2 0.5
9 0 1 0 0 0 1 0 0 0 1 -22.286 -5.5 -50.88699 0.5 1 1
9 0 1 0 0 0 1 0 0 0 1 -22.286 -5.5 51.11301 0.5 1 1
9 0 1 0 0 0 1 0 0 0 1 -22.286 -8 -58.88699 0.5 0.5 2
9 0 1 0 0 0 1 0 0 0 1 -23.286 -1 -40.88699 0.5 0.5 2
9 0 1 0 0 0 1 0 0 0 1 -23.286 -10.5 -25.38699 0.5 2 0.5
9 0 1 0 0 0 1 0 0 0 1 -24.286 -2 -35.88699 0.5 0.5 2
9 0 1 0 0 0 1 0 0 0 1 -24.286 -5.5 42.11301 0.5 1 1
9 0 1 0 0 0 1 0 0 0 1 -25.286 -5.5 -35.88699 0.5 1 1
9 0 1 0 0 0 1 0 0 0 1 -25.286 -7 9.113007 0.5 0.5 2
9 0 1 0 0 0 1 0 0 0 1 -26.286 -5 -28.88699 0.5 0.5 2
9 0 1 0 0 0 1 0 0 0 1 -27.286 -4 -12.88699 0.5 0.5 2
9 0 1 0 0 0 1 0 0 0 1 26.714 -2 13.61301 0.5 0.5 1.5
9 0 1 0 0 0 1 0 0 0 1 26.714 -3 -16.38699 0.5 0.5 1.5
9 0 1 0 0 0 1 0 0 0 1 26.714 -4 18.61301 0.5 0.5 1.5
9 0 1 0 0 0 1 0 0 0 1 25.714 -2 -24.38699 0.5 0.5 1.5
9 0 1 0 0 0 1 0 0 0 1 25.714 -3 27.61301 0.5 0.5 1.5
9 0 1 0 0 0 1 0 0 0 1 24.714 0 28.61301 0.5 0.5 1.5
9 0 1 0 0 0 1 0 0 0 1 23.714 1 -29.38699 0.5 0.5 1.5
9 0 1 0 0 0 1 0 0 0 1 23.714 -7 31.61301 0.5 0.5 1.5
9 0 1 0 0 0 1 0 0 0 1 22.714 -9 30.61301 0.5 0.5 1.5
9 0 1 0 0 0 1 0 0 0 1 21.714 -7 -45.38699 0.5 1.5 0.5
9 0 1 0 0 0 1 0 0 0 1 19.714 -1 56.61301 0.5 0.5 1.5
9 0 1 0 0 0 1 0 0 0 1 19.714 -10 78.61301 0.5 0.5 1.5
9 0 1 0 0 0 1 0 0 0 1 18.714 -1 61.61301 0.5 0.5 1.5
9 0 1 0 0 0 1 0 0 0 1 17.714 -7 -68.38699 0.5 1.5 0.5
9 0 1 0 0 0 1 0 0 0 1 16.714 -11 -72.38699 0.5 1.5 0.5
9 0 1 0 0 0 1 0 0 0 1 16.714 -12 78.61301 0.5 0.5 1.5
9 0 1 0 0 0 1 0 0 0 1 15.714 -5 78.61301 0.5 0.5 1.5
9 0 1 0 0 0 1 0 0 0 1 14.714 -6 83.61301 0.5 0.5 1.5
9 0 1 0 0 0 1 0 0 0 1 14.714 -14 105.613 0.5 0.5 1.5
9 0 1 0 0 0 1 0 0 0 1 13.714 -2 -20.38699 0.5 0.5 1.5
9 0 1 0 0 0 1 0 0 0 1 13.714 -2 -0.3869934 0.5 0.5 1.5
9 0 1 0 0 0 1 0 0 0 1 13.714 -2 19.61301 0.5 0.5 1.5
9 0 1 0 0 0 1 0 0 0 1 13.714 -6 86.61301 0.5 0.5 1.5
9 0 1 0 0 0 1 0 0 0 1 13.714 -15 110.613 0.5 0.5 1.5
9 0 1 0 0 0 1 0 0 0 1 12.714 -15 46.61301 0.5 0.5 1.5
9 0 1 0 0 0 1 0 0 0 1 12.714 -16 -117.387 0.5 0.5 1.5
9 0 1 0 0 0 1 0 0 0 1 11.714 -8 95.61301 0.5 0.5 1.5
9 0 1 0 0 0 1 0 0 0 1 11.714 -11 100.613 0.5 0.5 1.5
9 0 1 0 0 0 1 0 0 0 1 10.714 -8 98.61301 0.5 0.5 1.5
9 0 1 0 0 0 1 0 0 0 1 9.714001 -10 105.613 0.5 0.5 1.5
9 0 1 0 0 0 1 0 0 0 1 9.714001 -11 -96.38699 0.5 1.5 0.5
9 0 1 0 0 0 1 0 0 0 1 9.714001 -2 -16.38699 1.5 0.5 0.5
9 0 1 0 0 0 1 0 0 0 1 9.714001 -2 3.613007 1.5 0.5 0.5
9 0 1 0 0 0 1 0 0 0 1 9.714001 -2 23.61301 1.5 0.5 0.5
9 0 1 0 0 0 1 0 0 0 1 8.714001 -6 102.613 0.5 0.5 1.5
9 0 1 0 0 0 1 0 0 0 1 8.714001 -7 -97.38699 0.5 1.5 0.5
9 0 1 0 0 0 1 0 0 0 1 8.714001 -12 -100.387 0.5 1.5 0.5
9 0 1 0 0 0 1 0 0 0 1 8.714001 -18 -101.387 0.5 0.5 1.5
9 0 1 0 0 0 1 0 0 0 1 8.714001 -19 119.613 0.5 0.5 1.5
9 0 1 0 0 0 1 0 0 0 1 8.714001 -19 133.613 0.5 0.5 1.5
9 0 1 0 0 0 1 0 0 0 1 7.714001 -6 -100.387 0.5 1.5 0.5
9 0 1 0 0 0 1 0 0 0 1 7.714001 -9 110.613 0.5 0.5 1.5
9 0 1 0 0 0 1 0 0 0 1 7.714001 -20 -128.387 0.5 0.5 1.5
9 0 1 0 0 0 1 0 0 0 1 6.714001 -9 113.613 0.5 0.5 1.5
9 0 1 0 0 0 1 0 0 0 1 6.714001 -9 -105.387 0.5 1.5 0.5
9 0 1 0 0 0 1 0 0 0 1 6.714001 -14 -108.387 0.5 1.5 0.5
9 0 1 0 0 0 1 0 0 0 1 6.714001 -21 -140.387 0.5 0.5 1.5
9 0 1 0 0 0 1 0 0 0 1 5.714001 -5 110.613 0.5 0.5 1.5
9 0 1 0 0 0 1 0 0 0 1 5.714001 -6 -107.387 0.5 1.5 0.5
9 0 1 0 0 0 1 0 0 0 1 5.714001 -11 120.613 0.5 0.5 1.5
9 0 1 0 0 0 1 0 0 0 1 6.714001 -17 128.613 1.5 0.5 0.5
9 0 1 0 0 0 1 0 0 0 1 5.714001 -19 -68.38699 0.5 0.5 1.5
9 0 1 0 0 0 1 0 0 0 1 5.714001 -19 -52.38699 0.5 0.5 1.5
9 0 1 0 0 0 1 0 0 0 1 4.714001 -5 -110.387 0.5 1.5 0.5
9 0 1 0 0 0 1 0 0 0 1 4.714001 -12 124.613 0.5 0.5 1.5
9 0 1 0 0 0 1 0 0 0 1 5.714001 -19 136.613 1.5 0.5 0.5
9 0 1 0 0 0 1 0 0 0 1 4.714001 -21 128.613 0.5 0.5 1.5
9 0 1 0 0 0 1 0 0 0 1 4.714001 -21 -136.387 0.5 1.5 0.5
9 0 1 0 0 0 1 0 0 0 1 4.714001 -21 -57.38699 0.5 1.5 0.5
9 0 1 0 0 0 1 0 0 0 1 3.714001 -6 74.61301 0.5 1.5 0.5
9 0 1 0 0 0 1 0 0 0 1 3.714001 -13 129.613 0.5 0.5 1.5
9 0 1 0 0 0 1 0 0 0 1 3.714001 -18 -112.387 0.5 1.5 0.5
9 0 1 0 0 0 1 0 0 0 1 3.714001 -21 -64.38699 0.5 1.5 0.5
9 0 1 0 0 0 1 0 0 0 1 2.714001 -21 -134.387 0.5 1.5 0.5
9 0 1 0 0 0 1 0 0 0 1 1.714001 -6 126.613 0.5 0.5 1.5
9 0 1 0 0 0 1 0 0 0 1 1.714001 -21 115.613 0.5 0.5 1.5
9 0 1 0 0 0 1 0 0 0 1 -1.285999 1 -117.387 0.5 1.5 0.5
9 0 1 0 0 0 1 0 0 0 1 -1.285999 -7 -128.387 0.5 0.5 1.5
9 0 1 0 0 0 1 0 0 0 1 -2.285999 0 -116.387 0.5 1.5 0.5
9 0 1 0 0 0 1 0 0 0 1 -2.285999 -20 -50.38699 0.5 0.5 1.5
9 0 1 0 0 0 1 0 0 0 1 -3.285999 -4 -115.387 0.5 1.5 0.5
9 0 1 0 0 0 1 0 0 0 1 -4.285999 0 47.61301 0.5 1.5 0.5
9 0 1 0 0 0 1 0 0 0 1 -4.285999 -5 115.613 0.5 0.5 1.5
9 0 1 0 0 0 1 0 0 0 1 -4.285999 -9 -114.387 0.5 1.5 0.5
9 0 1 0 0 0 1 0 0 0 1 -3.285999 -10 122.613 1.5 0.5 0.5
9 0 1 0 0 0 1 0 0 0 1 -4.285999 -15 130.613 0.5 0.5 1.5
9 0 1 0 0 0 1 0 0 0 1 -3.285999 -20 142.613 1.5 0.5 0.5
9 0 1 0 0 0 1 0 0 0 1 -4.285999 -21 -136.387 0.5 1.5 0.5
9 0 1 0 0 0 1 0 0 0 1 -4.285999 -21 -63.38699 0.5 1.5 0.5
9 0 1 0 0 0 1 0 0 0 1 -4.285999 -21 -56.38699 0.5 1.5 0.5
9 0 1 0 0 0 1 0 0 0 1 -5.285999 -4 110.613 0.5 0.5 1.5
9 0 1 0 0 0 1 0 0 0 1 -5.285999 -5 -108.387 0.5 1.5 0.5
9 0 1 0 0 0 1 0 0 0 1 -5.285999 -7 115.613 0.5 0.5 1.5
9 0 1 0 0 0 1 0 0 0 1 -5.285999 -13 124.613 0.5 0.5 1.5
9 0 1 0 0 0 1 0 0 0 1 -5.285999 -13 -113.387 0.5 1.5 0.5
9 0 1 0 0 0 1 0 0 0 1 -5.285999 -17 130.613 0.5 0.5 1.5
9 0 1 0 0 0 1 0 0 0 1 -6.285999 -2 -20.38699 0.5 0.5 1.5
9 0 1 0 0 0 1 0 0 0 1 -6.285999 -2 -0.3869934 0.5 0.5 1.5
9 0 1 0 0 0 1 0 0 0 1 -6.285999 -2 19.61301 0.5 0.5 1.5
9 0 1 0 0 0 1 0 0 0 1 -6.285999 -11 118.613 0.5 0.5 1.5
9 0 1 0 0 0 1 0 0 0 1 -6.285999 -16 126.613 0.5 0.5 1.5
9 0 1 0 0 0 1 0 0 0 1 -6.285999 -17 -106.387 0.5 0.5 1.5
9 0 1 0 0 0 1 0 0 0 1 -5.285999 -19 91.61301 1.5 0.5 0.5
9 0 1 0 0 0 1 0 0 0 1 -6.285999 -21 134.613 0.5 0.5 1.5
9 0 1 0 0 0 1 0 0 0 1 -7.285999 -7 -102.387 0.5 1.5 0.5
9 0 1 0 0 0 1 0 0 0 1 -7.285999 -11 115.613 0.5 0.5 1.5
9 0 1 0 0 0 1 0 0 0 1 -7.285999 -12 -105.387 0.5 1.5 0.5
9 0 1 0 0 0 1 0 0 0 1 -7.285999 -20 137.613 0.5 0.5 1.5
9 0 1 0 0 0 1 0 0 0 1 -8.285999 -8 -99.38699 0.5 1.5 0.5
9 0 1 0 0 0 1 0 0 0 1 -8.285999 -9 108.613 0.5 0.5 1.5
9 0 1 0 0 0 1 0 0 0 1 -8.285999 -17 99.61301 0.5 1.5 0.5
9 0 1 0 0 0 1 0 0 0 1 -9.285999 -6 100.613 0.5 0.5 1.5
9 0 1 0 0 0 1 0 0 0 1 -9.285999 -7 -95.38699 0.5 1.5 0.5
9 0 1 0 0 0 1 0 0 0 1 -8.285999 -17 -47.38699 1.5 0.5 0.5
9 0 1 0 0 0 1 0 0 0 1 -10.286 -10 103.613 0.5 0.5 1.5
9 0 1 0 0 0 1 0 0 0 1 -10.286 -13 108.613 0.5 0.5 1.5
9 0 1 0 0 0 1 0 0 0 1 -10.286 -15 47.61301 0.5 1.5 0.5
9 0 1 0 0 0 1 0 0 0 1 -10.286 -2 -16.38699 1.5 0.5 0.5
9 0 1 0 0 0 1 0 0 0 1 -10.286 -2 3.613007 1.5 0.5 0.5
9 0 1 0 0 0 1 0 0 0 1 -10.286 -2 23.61301 1.5 0.5 0.5
9 0 1 0 0 0 1 0 0 0 1 -11.286 -4 91.61301 0.5 0.5 1.5
9 0 1 0 0 0 1 0 0 0 1 -11.286 -9 -89.38699 0.5 1.5 0.5
9 0 1 0 0 0 1 0 0 0 1 -11.286 -15 -88.38699 0.5 1.5 0.5
9 0 1 0 0 0 1 0 0 0 1 -11.286 -16 46.61301 0.5 0.5 1.5
9 0 1 0 0 0 1 0 0 0 1 -12.286 -8 93.61301 0.5 0.5 1.5
9 0 1 0 0 0 1 0 0 0 1 -13.286 -9 -82.38699 0.5 1.5 0.5
9 0 1 0 0 0 1 0 0 0 1 -13.286 -10 93.61301 0.5 0.5 1.5
9 0 1 0 0 0 1 0 0 0 1 -13.286 -15 -83.38699 0.5 0.5 1.5
9 0 1 0 0 0 1 0 0 0 1 -12.286 -15 91.61301 1.5 0.5 0.5
9 0 1 0 0 0 1 0 0 0 1 -14.286 -13 -78.38699 0.5 1.5 0.5
9 0 1 0 0 0 1 0 0 0 1 -15.286 -14 96.61301 0.5 0.5 1.5
9 0 1 0 0 0 1 0 0 0 1 -16.286 -4 -71.38699 0.5 1.5 0.5
9 0 1 0 0 0 1 0 0 0 1 -17.286 -3 -67.38699 0.5 1.5 0.5
9 0 1 0 0 0 1 0 0 0 1 -17.286 -9 -71.38699 0.5 0.5 1.5
9 0 1 0 0 0 1 0 0 0 1 -17.286 -12 -87.38699 0.5 0.5 1.5
9 0 1 0 0 0 1 0 0 0 1 -18.286 -7 71.61301 0.5 0.5 1.5
9 0 1 0 0 0 1 0 0 0 1 -20.286 -10 -54.38699 0.5 0.5 1.5
9 0 1 0 0 0 1 0 0 0 1 -21.286 -6 57.61301 0.5 0.5 1.5
9 0 1 0 0 0 1 0 0 0 1 -21.286 -9 64.61301 0.5 0.5 1.5
9 0 1 0 0 0 1 0 0 0 1 -21.286 -10 35.61301 0.5 0.5 1.5
9 0 1 0 0 0 1 0 0 0 1 -22.286 -2 46.61301 0.5 0.5 1.5
9 0 1 0 0 0 1 0 0 0 1 -22.286 -9 -40.38699 0.5 0.5 1.5
9 0 1 0 0 0 1 0 0 0 1 -24.286 -7 19.61301 0.5 0.5 1.5
9 0 1 0 0 0 1 0 0 0 1 -25.286 0 22.61301 0.5 0.5 1.5
9 0 1 0 0 0 1 0 0 0 1 -25.286 -1 -26.38699 0.5 0.5 1.5
9 0 1 0 0 0 1 0 0 0 1 -25.286 -2 28.61301 0.5 0.5 1.5
9 0 1 0 0 0 1 0 0 0 1 -26.286 -2 -18.38699 0.5 0.5 1.5
9 0 1 0 0 0 1 0 0 0 1 -27.286 -4 12.61301 0.5 0.5 1.5
