9 0 1 0 0 0 1 0 0 0 1 -30 -2 -10 3.35 0.5 3.35
9 0 1 0 0 0 1 0 0 0 1 -10 -2 -10 3.35 0.5 3.35
9 0 1 0 0 0 1 0 0 0 1 -30 -2 10 3.35 0.5 3.35
9 0 1 0 0 0 1 0 0 0 1 -10 -2 10 3.35 0.5 3.35
9 0 1 0 0 0 1 0 0 0 1 10 -2 -10 3.35 0.5 3.35
9 0 1 0 0 0 1 0 0 0 1 30 -2 -10 3.35 0.5 3.35
9 0 1 0 0 0 1 0 0 0 1 10 -2 10 3.35 0.5 3.35
9 0 1 0 0 0 1 0 0 0 1 30 -2 10 3.35 0.5 3.35
9 0 1 0 0 0 1 0 0 0 1 0 33.5 -18 32.5 32 0.5
9 0 1 0 0 0 1 0 0 0 1 -8 32.5 18 26.5 31 0.5
9 0 1 0 0 0 1 0 0 0 1 18 36 0 0.5 34.5 17.5
9 0 1 0 0 0 1 0 0 0 1 -18 36 0 0.5 34.5 17.5
9 0 1 0 0 0 1 0 0 0 1 38 28 0 0.5 26.5 18.5
9 0 1 0 0 0 1 0 0 0 1 -38 28 0 0.5 26.5 18.5
9 0 1 0 0 0 1 0 0 0 1 0 2 0 17.5 0.5 17.5
9 0 1 0 0 0 1 0 0 0 1 28 30 18 9.5 28.5 0.5
9 0 1 0 0 0 1 0 0 0 1 28 2 0 9.5 0.5 17.5
9 0 1 0 0 0 1 0 0 0 1 -28 2 0 9.5 0.5 17.5
9 0 1 0 0 0 1 0 0 0 1 -46.5 24 -18 8 15.5 0.5
9 0 1 0 0 0 1 0 0 0 1 -46.5 24 18 8 15.5 0.5
9 0 1 0 0 0 1 0 0 0 1 58 24 0 0.5 6.5 18.5
9 0 1 0 0 0 1 0 0 0 1 -58 24 0 0.5 6.5 18.5
9 0 1 0 0 0 1 0 0 0 1 47.5 24 -18 9 12.5 0.5
9 0 1 0 0 0 1 0 0 0 1 47.5 24 18 9 12.5 0.5
9 0 1 0 0 0 1 0 0 0 1 0 67 18 22.5 3.5 0.5
9 0 1 0 0 0 1 0 0 0 1 35 30 -18 2.5 28.5 0.5
9 0 1 0 0 0 1 0 0 0 1 -35 30 -18 2.5 28.5 0.5
9 0 1 0 0 0 1 0 0 0 1 0 68 -18 22.5 2.5 0.5
9 0 1 0 0 0 1 0 0 0 1 -36 30 18 1.5 28.5 0.5
9 0 1 0 0 0 1 0 0 0 1 40.5 2 0 2 0.5 18.5
9 0 1 0 0 0 1 0 0 0 1 -40.5 2 0 2 0.5 18.5
9 0 1 0 0 0 1 0 0 0 1 43.5 40.5 -18 5 4 0.5
9 0 1 0 0 0 1 0 0 0 1 43.5 40.5 18 5 4 0.5
9 0 1 0 0 0 1 0 0 0 1 43.5 7.5 -18 5 4 0.5
9 0 1 0 0 0 1 0 0 0 1 43.5 7.5 18 5 4 0.5
9 0 1 0 0 0 1 0 0 0 1 57 14.5 0 0.5 1 18.5
9 0 1 0 0 0 1 0 0 0 1 45.5 3 0 1 0.5 18.5
9 0 1 0 0 0 1 0 0 0 1 -45.5 3 0 1 0.5 18.5
9 0 1 0 0 0 1 0 0 0 1 -57 14.5 0 0.5 1 18.5
9 0 1 0 0 0 1 0 0 0 1 27 62.5 18 4.5 4 0.5
9 0 1 0 0 0 1 0 0 0 1 -56 25 -18 1.5 9.5 0.5
9 0 1 0 0 0 1 0 0 0 1 -56 25 18 1.5 9.5 0.5
9 0 1 0 0 0 1 0 0 0 1 -43.5 42 -18 5 2.5 0.5
9 0 1 0 0 0 1 0 0 0 1 -43.5 42 18 5 2.5 0.5
9 0 1 0 0 0 1 0 0 0 1 -43.5 6 -18 5 2.5 0.5
9 0 1 0 0 0 1 0 0 0 1 -43.5 6 18 5 2.5 0.5
9 0 1 0 0 0 1 0 0 0 1 -56 12 0 0.5 0.5 18.5
9 0 1 0 0 0 1 0 0 0 1 56 12 0 0.5 0.5 17.5
9 0 1 0 0 0 1 0 0 0 1 48 4 0 0.5 0.5 17.5
9 0 1 0 0 0 1 0 0 0 1 -48 4 0 0.5 0.5 17.5
9 0 1 0 0 0 1 0 0 0 1 -25.5 66 18 3 2.5 0.5
9 0 1 0 0 0 1 0 0 0 1 51 38.5 -18 2.5 2 0.5
9 0 1 0 0 0 1 0 0 0 1 51 38.5 18 2.5 2 0.5
9 0 1 0 0 0 1 0 0 0 1 51 9.5 -18 2.5 2 0.5
9 0 1 0 0 0 1 0 0 0 1 51 9.5 18 2.5 2 0.5
9 0 1 0 0 0 1 0 0 0 1 20.5 61 18 2 2.5 0.5
9 0 1 0 0 0 1 0 0 0 1 57 25 -18 0.5 9.5 0.5
9 0 1 0 0 0 1 0 0 0 1 57 25 18 0.5 9.5 0.5
9 0 1 0 0 0 1 0 0 0 1 25.5 67 -18 3 1.5 0.5
9 0 1 0 0 0 1 0 0 0 1 -25.5 67 -18 3 1.5 0.5
9 0 1 0 0 0 1 0 0 0 1 33 61 18 1.5 2.5 0.5
9 0 1 0 0 0 1 0 0 0 1 25.5 67.5 18 3 1 0.5
9 0 1 0 0 0 1 0 0 0 1 33.5 61 -18 1 2.5 0.5
9 0 1 0 0 0 1 0 0 0 1 -33.5 61 -18 1 2.5 0.5
9 0 1 0 0 0 1 0 0 0 1 -30 65 18 1.5 1.5 0.5
9 0 1 0 0 0 1 0 0 0 1 -50 41 -18 1.5 1.5 0.5
9 0 1 0 0 0 1 0 0 0 1 -50 41 18 1.5 1.5 0.5
9 0 1 0 0 0 1 0 0 0 1 -50 7 -18 1.5 1.5 0.5
9 0 1 0 0 0 1 0 0 0 1 -50 7 18 1.5 1.5 0.5
9 0 1 0 0 0 1 0 0 0 1 42.5 45 -18 4 0.5 0.5
9 0 1 0 0 0 1 0 0 0 1 42.5 45 18 4 0.5 0.5
9 0 1 0 0 0 1 0 0 0 1 -40.5 45.5 -18 2 1 0.5
9 0 1 0 0 0 1 0 0 0 1 -40.5 45.5 18 2 1 0.5
9 0 1 0 0 0 1 0 0 0 1 50 41.5 -18 1.5 1 0.5
9 0 1 0 0 0 1 0 0 0 1 50 41.5 18 1.5 1 0.5
9 0 1 0 0 0 1 0 0 0 1 50 6.5 -18 1.5 1 0.5
9 0 1 0 0 0 1 0 0 0 1 50 6.5 18 1.5 1 0.5
9 0 1 0 0 0 1 0 0 0 1 41.5 3 -18 3 0.5 0.5
9 0 1 0 0 0 1 0 0 0 1 41.5 3 18 3 0.5 0.5
9 0 1 0 0 0 1 0 0 0 1 -41.5 3 -18 3 0.5 0.5
9 0 1 0 0 0 1 0 0 0 1 -41.5 3 18 3 0.5 0.5
9 0 1 0 0 0 1 0 0 0 1 -55.5 14 -18 1 1.5 0.5
9 0 1 0 0 0 1 0 0 0 1 -55.5 14 18 1 1.5 0.5
9 0 1 0 0 0 1 0 0 0 1 40.5 46 -18 2 0.5 0.5
9 0 1 0 0 0 1 0 0 0 1 40.5 46 18 2 0.5 0.5
9 0 1 0 0 0 1 0 0 0 1 35.5 59.5 -18 1 1 0.5
9 0 1 0 0 0 1 0 0 0 1 35.5 59.5 18 1 1 0.5
9 0 1 0 0 0 1 0 0 0 1 24.5 69 -18 2 0.5 0.5
9 0 1 0 0 0 1 0 0 0 1 24.5 69 18 2 0.5 0.5
9 0 1 0 0 0 1 0 0 0 1 -24.5 69 -18 2 0.5 0.5
9 0 1 0 0 0 1 0 0 0 1 -24.5 69 18 2 0.5 0.5
9 0 1 0 0 0 1 0 0 0 1 -35.5 59.5 -18 1 1 0.5
9 0 1 0 0 0 1 0 0 0 1 -35.5 59.5 18 1 1 0.5
9 0 1 0 0 0 1 0 0 0 1 -44.5 45 -18 2 0.5 0.5
9 0 1 0 0 0 1 0 0 0 1 -44.5 45 18 2 0.5 0.5
9 0 1 0 0 0 1 0 0 0 1 -55.5 35.5 -18 1 1 0.5
9 0 1 0 0 0 1 0 0 0 1 -55.5 35.5 18 1 1 0.5
9 0 1 0 0 0 1 0 0 0 1 54 38 -18 0.5 1.5 0.5
9 0 1 0 0 0 1 0 0 0 1 54 38 18 0.5 1.5 0.5
9 0 1 0 0 0 1 0 0 0 1 54 10 -18 0.5 1.5 0.5
9 0 1 0 0 0 1 0 0 0 1 54 10 18 0.5 1.5 0.5
9 0 1 0 0 0 1 0 0 0 1 30 66 -18 1.5 0.5 0.5
9 0 1 0 0 0 1 0 0 0 1 -30 66 -18 1.5 0.5 0.5
