9 0 1 0 0 0 1 0 0 0 1 -10 0 6.4641 0.5 6.5 4
9 0 1 0 0 0 1 0 0 0 1 -9 -1.5 1.9641 1.5 5 0.5
9 0 1 0 0 0 1 0 0 0 1 -18 -2 5.9641 1.5 1.5 1.5
9 0 1 0 0 0 1 0 0 0 1 13.5 0 9.9641 1 6.5 0.5
9 0 1 0 0 0 1 0 0 0 1 -8.5 0 9.9641 1 6.5 0.5
9 0 1 0 0 0 1 0 0 0 1 14 1.5 2.4641 0.5 5 1
9 0 1 0 0 0 1 0 0 0 1 -9 0 2.9641 0.5 6.5 0.5
9 0 1 0 0 0 1 0 0 0 1 14 -1.5 8.9641 0.5 5 0.5
9 0 1 0 0 0 1 0 0 0 1 13 1.5 1.9641 0.5 5 0.5
9 0 1 0 0 0 1 0 0 0 1 -9 -1.5 8.9641 0.5 5 0.5
9 0 1 0 0 0 1 0 0 0 1 -18 0 4.9641 1.5 0.5 1.5
9 0 1 0 0 0 1 0 0 0 1 -18 -4 6.9641 1.5 0.5 1.5
9 0 1 0 0 0 1 0 0 0 1 0 -7.5 9.4641 0.5 1 1
9 0 1 0 0 0 1 0 0 0 1 14 -5 2.9641 0.5 1.5 0.5
9 0 1 0 0 0 1 0 0 0 1 -18 -1 3.9641 1.5 0.5 0.5
9 0 1 0 0 0 1 0 0 0 1 -18 -3 7.9641 1.5 0.5 0.5
