9 0 -1.192093E-07 0 -1 0 1 0 1 0 -1.192093E-07 10 -2 10 3.35 0.5 3.35
9 0 -1.192093E-07 0 -1 0 1 0 1 0 -1.192093E-07 10 -2 -10 3.35 0.5 3.35
9 0 -1.192093E-07 0 -1 0 1 0 1 0 -1.192093E-07 30 -2 10 3.35 0.5 3.35
9 0 -1.192093E-07 0 -1 0 1 0 1 0 -1.192093E-07 30 -2 -10 3.35 0.5 3.35
9 0 -1.192093E-07 0 -1 0 1 0 1 0 -1.192093E-07 -30 -2 10 3.35 0.5 3.35
9 0 -1.192093E-07 0 -1 0 1 0 1 0 -1.192093E-07 -30 -2 -10 3.35 0.5 3.35
9 0 -1.192093E-07 0 -1 0 1 0 1 0 -1.192093E-07 -10 -2 10 3.35 0.5 3.35
9 0 -1.192093E-07 0 -1 0 1 0 1 0 -1.192093E-07 -10 -2 -10 3.35 0.5 3.35
9 0 1 0 0 0 1 0 0 0 1 0 2 0 38.5 0.5 18.5
9 0 1 0 0 0 1 0 0 0 1 0 4.5 -18 38.5 2 0.5
9 0 1 0 0 0 1 0 0 0 1 0 4.5 18 38.5 2 0.5
9 0 1 0 0 0 1 0 0 0 1 38 8 0 0.5 5.5 5.5
9 0 1 0 0 0 1 0 0 0 1 -38 8 0 0.5 5.5 5.5
9 0 1 0 0 0 1 0 0 0 1 38 4.5 -11.5 0.5 2 6
9 0 1 0 0 0 1 0 0 0 1 38 4.5 11.5 0.5 2 6
9 0 1 0 0 0 1 0 0 0 1 -38 4.5 -11.5 0.5 2 6
9 0 1 0 0 0 1 0 0 0 1 -38 4.5 11.5 0.5 2 6
9 0 1 0 0 0 1 0 0 0 1 38 14 0 0.5 0.5 4.5
9 0 1 0 0 0 1 0 0 0 1 38 8 -7 0.5 1.5 1.5
9 0 1 0 0 0 1 0 0 0 1 38 8 7 0.5 1.5 1.5
9 0 1 0 0 0 1 0 0 0 1 -38 14 0 0.5 0.5 4.5
9 0 1 0 0 0 1 0 0 0 1 -38 8 -7 0.5 1.5 1.5
9 0 1 0 0 0 1 0 0 0 1 -38 8 7 0.5 1.5 1.5
9 0 1 0 0 0 1 0 0 0 1 38 11 -6 0.5 1.5 0.5
9 0 1 0 0 0 1 0 0 0 1 38 11 6 0.5 1.5 0.5
9 0 1 0 0 0 1 0 0 0 1 -38 11 -6 0.5 1.5 0.5
9 0 1 0 0 0 1 0 0 0 1 -38 11 6 0.5 1.5 0.5
