9 0 -1.192093E-07 0 1 0 1 0 -1 0 -1.192093E-07 -10 70 410 3.35 0.5 3.35
9 0 -1.192093E-07 0 1 0 1 0 -1 0 -1.192093E-07 -10 70 430 3.35 0.5 3.35
9 0 -1.192093E-07 0 1 0 1 0 -1 0 -1.192093E-07 -30 70 410 3.35 0.5 3.35
9 0 -1.192093E-07 0 1 0 1 0 -1 0 -1.192093E-07 -30 70 430 3.35 0.5 3.35
9 0 -1.192093E-07 0 1 0 1 0 -1 0 -1.192093E-07 -50 70 410 3.35 0.5 3.35
9 0 -1.192093E-07 0 1 0 1 0 -1 0 -1.192093E-07 -50 70 430 3.35 0.5 3.35
9 0 -1.192093E-07 0 1 0 1 0 -1 0 -1.192093E-07 -70 70 410 3.35 0.5 3.35
9 0 -1.192093E-07 0 1 0 1 0 -1 0 -1.192093E-07 -70 70 430 3.35 0.5 3.35
9 0 -1.192093E-07 0 1 0 1 0 -1 0 -1.192093E-07 -50 70 450 3.35 0.5 3.35
9 0 -1.192093E-07 0 1 0 1 0 -1 0 -1.192093E-07 -50 70 470 3.35 0.5 3.35
9 0 -1.192093E-07 0 1 0 1 0 -1 0 -1.192093E-07 -70 70 450 3.35 0.5 3.35
9 0 -1.192093E-07 0 1 0 1 0 -1 0 -1.192093E-07 -70 70 470 3.35 0.5 3.35
9 0 -1.192093E-07 0 1 0 1 0 -1 0 -1.192093E-07 -10 70 450 3.35 0.5 3.35
9 0 -1.192093E-07 0 1 0 1 0 -1 0 -1.192093E-07 -10 70 470 3.35 0.5 3.35
9 0 -1.192093E-07 0 1 0 1 0 -1 0 -1.192093E-07 -30 70 450 3.35 0.5 3.35
9 0 -1.192093E-07 0 1 0 1 0 -1 0 -1.192093E-07 -30 70 470 3.35 0.5 3.35
9 0 -1.192093E-07 0 1 0 1 0 -1 0 -1.192093E-07 70 70 410 3.35 0.5 3.35
9 0 -1.192093E-07 0 1 0 1 0 -1 0 -1.192093E-07 70 70 430 3.35 0.5 3.35
9 0 -1.192093E-07 0 1 0 1 0 -1 0 -1.192093E-07 50 70 410 3.35 0.5 3.35
9 0 -1.192093E-07 0 1 0 1 0 -1 0 -1.192093E-07 50 70 430 3.35 0.5 3.35
9 0 -1.192093E-07 0 1 0 1 0 -1 0 -1.192093E-07 30 70 410 3.35 0.5 3.35
9 0 -1.192093E-07 0 1 0 1 0 -1 0 -1.192093E-07 30 70 430 3.35 0.5 3.35
9 0 -1.192093E-07 0 1 0 1 0 -1 0 -1.192093E-07 10 70 410 3.35 0.5 3.35
9 0 -1.192093E-07 0 1 0 1 0 -1 0 -1.192093E-07 10 70 430 3.35 0.5 3.35
9 0 -1.192093E-07 0 1 0 1 0 -1 0 -1.192093E-07 30 70 450 3.35 0.5 3.35
9 0 -1.192093E-07 0 1 0 1 0 -1 0 -1.192093E-07 30 70 470 3.35 0.5 3.35
9 0 -1.192093E-07 0 1 0 1 0 -1 0 -1.192093E-07 10 70 450 3.35 0.5 3.35
9 0 -1.192093E-07 0 1 0 1 0 -1 0 -1.192093E-07 10 70 470 3.35 0.5 3.35
9 0 -1.192093E-07 0 1 0 1 0 -1 0 -1.192093E-07 70 70 450 3.35 0.5 3.35
9 0 -1.192093E-07 0 1 0 1 0 -1 0 -1.192093E-07 70 70 470 3.35 0.5 3.35
9 0 -1.192093E-07 0 1 0 1 0 -1 0 -1.192093E-07 50 70 450 3.35 0.5 3.35
9 0 -1.192093E-07 0 1 0 1 0 -1 0 -1.192093E-07 50 70 470 3.35 0.5 3.35
9 0 -1.192093E-07 0 1 0 1 0 -1 0 -1.192093E-07 90 -2 410 3.35 0.5 3.35
9 0 -1.192093E-07 0 1 0 1 0 -1 0 -1.192093E-07 110 -2 410 3.35 0.5 3.35
9 0 -1.192093E-07 0 1 0 1 0 -1 0 -1.192093E-07 130 -2 410 3.35 0.5 3.35
9 0 -1.192093E-07 0 1 0 1 0 -1 0 -1.192093E-07 150 -2 410 3.35 0.5 3.35
9 0 -1.192093E-07 0 1 0 1 0 -1 0 -1.192093E-07 -150 -2 410 3.35 0.5 3.35
9 0 -1.192093E-07 0 1 0 1 0 -1 0 -1.192093E-07 -130 -2 410 3.35 0.5 3.35
9 0 -1.192093E-07 0 1 0 1 0 -1 0 -1.192093E-07 -110 -2 410 3.35 0.5 3.35
9 0 -1.192093E-07 0 1 0 1 0 -1 0 -1.192093E-07 -90 -2 410 3.35 0.5 3.35
9 0 -1.192093E-07 0 1 0 1 0 -1 0 -1.192093E-07 110 118 270 3.35 0.5 3.35
9 0 -1.192093E-07 0 1 0 1 0 -1 0 -1.192093E-07 90 118 270 3.35 0.5 3.35
9 0 -1.192093E-07 0 1 0 1 0 -1 0 -1.192093E-07 70 118 270 3.35 0.5 3.35
9 0 -1.192093E-07 0 1 0 1 0 -1 0 -1.192093E-07 110 118 290 3.35 0.5 3.35
9 0 -1.192093E-07 0 1 0 1 0 -1 0 -1.192093E-07 90 118 290 3.35 0.5 3.35
9 0 -1.192093E-07 0 1 0 1 0 -1 0 -1.192093E-07 70 118 290 3.35 0.5 3.35
9 0 -1.192093E-07 0 1 0 1 0 -1 0 -1.192093E-07 110 118 310 3.35 0.5 3.35
9 0 -1.192093E-07 0 1 0 1 0 -1 0 -1.192093E-07 90 118 310 3.35 0.5 3.35
9 0 -1.192093E-07 0 1 0 1 0 -1 0 -1.192093E-07 70 118 310 3.35 0.5 3.35
9 0 -1.192093E-07 0 1 0 1 0 -1 0 -1.192093E-07 50 118 270 3.35 0.5 3.35
9 0 -1.192093E-07 0 1 0 1 0 -1 0 -1.192093E-07 30 118 270 3.35 0.5 3.35
9 0 -1.192093E-07 0 1 0 1 0 -1 0 -1.192093E-07 10 118 270 3.35 0.5 3.35
9 0 -1.192093E-07 0 1 0 1 0 -1 0 -1.192093E-07 50 118 290 3.35 0.5 3.35
9 0 -1.192093E-07 0 1 0 1 0 -1 0 -1.192093E-07 30 118 290 3.35 0.5 3.35
9 0 -1.192093E-07 0 1 0 1 0 -1 0 -1.192093E-07 10 118 290 3.35 0.5 3.35
9 0 -1.192093E-07 0 1 0 1 0 -1 0 -1.192093E-07 50 118 310 3.35 0.5 3.35
9 0 -1.192093E-07 0 1 0 1 0 -1 0 -1.192093E-07 30 118 310 3.35 0.5 3.35
9 0 -1.192093E-07 0 1 0 1 0 -1 0 -1.192093E-07 10 118 310 3.35 0.5 3.35
9 0 -1.192093E-07 0 1 0 1 0 -1 0 -1.192093E-07 50 118 330 3.35 0.5 3.35
9 0 -1.192093E-07 0 1 0 1 0 -1 0 -1.192093E-07 30 118 330 3.35 0.5 3.35
9 0 -1.192093E-07 0 1 0 1 0 -1 0 -1.192093E-07 10 118 330 3.35 0.5 3.35
9 0 -1.192093E-07 0 1 0 1 0 -1 0 -1.192093E-07 50 118 350 3.35 0.5 3.35
9 0 -1.192093E-07 0 1 0 1 0 -1 0 -1.192093E-07 30 118 350 3.35 0.5 3.35
9 0 -1.192093E-07 0 1 0 1 0 -1 0 -1.192093E-07 10 118 350 3.35 0.5 3.35
9 0 -1.192093E-07 0 1 0 1 0 -1 0 -1.192093E-07 50 118 370 3.35 0.5 3.35
9 0 -1.192093E-07 0 1 0 1 0 -1 0 -1.192093E-07 30 118 370 3.35 0.5 3.35
9 0 -1.192093E-07 0 1 0 1 0 -1 0 -1.192093E-07 10 118 370 3.35 0.5 3.35
9 0 -1.192093E-07 0 1 0 1 0 -1 0 -1.192093E-07 110 118 330 3.35 0.5 3.35
9 0 -1.192093E-07 0 1 0 1 0 -1 0 -1.192093E-07 90 118 330 3.35 0.5 3.35
9 0 -1.192093E-07 0 1 0 1 0 -1 0 -1.192093E-07 70 118 330 3.35 0.5 3.35
9 0 -1.192093E-07 0 1 0 1 0 -1 0 -1.192093E-07 110 118 350 3.35 0.5 3.35
9 0 -1.192093E-07 0 1 0 1 0 -1 0 -1.192093E-07 90 118 350 3.35 0.5 3.35
9 0 -1.192093E-07 0 1 0 1 0 -1 0 -1.192093E-07 70 118 350 3.35 0.5 3.35
9 0 -1.192093E-07 0 1 0 1 0 -1 0 -1.192093E-07 110 118 370 3.35 0.5 3.35
9 0 -1.192093E-07 0 1 0 1 0 -1 0 -1.192093E-07 90 118 370 3.35 0.5 3.35
9 0 -1.192093E-07 0 1 0 1 0 -1 0 -1.192093E-07 70 118 370 3.35 0.5 3.35
9 0 -1.192093E-07 0 1 0 1 0 -1 0 -1.192093E-07 110 118 390 3.35 0.5 3.35
9 0 -1.192093E-07 0 1 0 1 0 -1 0 -1.192093E-07 90 118 390 3.35 0.5 3.35
9 0 -1.192093E-07 0 1 0 1 0 -1 0 -1.192093E-07 70 118 390 3.35 0.5 3.35
9 0 -1.192093E-07 0 1 0 1 0 -1 0 -1.192093E-07 50 118 390 3.35 0.5 3.35
9 0 -1.192093E-07 0 1 0 1 0 -1 0 -1.192093E-07 30 118 390 3.35 0.5 3.35
9 0 -1.192093E-07 0 1 0 1 0 -1 0 -1.192093E-07 10 118 390 3.35 0.5 3.35
9 0 -1.192093E-07 0 1 0 1 0 -1 0 -1.192093E-07 130 118 270 3.35 0.5 3.35
9 0 -1.192093E-07 0 1 0 1 0 -1 0 -1.192093E-07 130 118 290 3.35 0.5 3.35
9 0 -1.192093E-07 0 1 0 1 0 -1 0 -1.192093E-07 130 118 310 3.35 0.5 3.35
9 0 -1.192093E-07 0 1 0 1 0 -1 0 -1.192093E-07 130 118 330 3.35 0.5 3.35
9 0 -1.192093E-07 0 1 0 1 0 -1 0 -1.192093E-07 130 118 350 3.35 0.5 3.35
9 0 -1.192093E-07 0 1 0 1 0 -1 0 -1.192093E-07 130 118 370 3.35 0.5 3.35
9 0 -1.192093E-07 0 1 0 1 0 -1 0 -1.192093E-07 130 118 390 3.35 0.5 3.35
9 0 -1.192093E-07 0 1 0 1 0 -1 0 -1.192093E-07 -30 118 270 3.35 0.5 3.35
9 0 -1.192093E-07 0 1 0 1 0 -1 0 -1.192093E-07 -50 118 270 3.35 0.5 3.35
9 0 -1.192093E-07 0 1 0 1 0 -1 0 -1.192093E-07 -70 118 270 3.35 0.5 3.35
9 0 -1.192093E-07 0 1 0 1 0 -1 0 -1.192093E-07 -30 118 290 3.35 0.5 3.35
9 0 -1.192093E-07 0 1 0 1 0 -1 0 -1.192093E-07 -50 118 290 3.35 0.5 3.35
9 0 -1.192093E-07 0 1 0 1 0 -1 0 -1.192093E-07 -70 118 290 3.35 0.5 3.35
9 0 -1.192093E-07 0 1 0 1 0 -1 0 -1.192093E-07 -30 118 310 3.35 0.5 3.35
9 0 -1.192093E-07 0 1 0 1 0 -1 0 -1.192093E-07 -50 118 310 3.35 0.5 3.35
9 0 -1.192093E-07 0 1 0 1 0 -1 0 -1.192093E-07 -70 118 310 3.35 0.5 3.35
9 0 -1.192093E-07 0 1 0 1 0 -1 0 -1.192093E-07 -90 118 270 3.35 0.5 3.35
9 0 -1.192093E-07 0 1 0 1 0 -1 0 -1.192093E-07 -110 118 270 3.35 0.5 3.35
9 0 -1.192093E-07 0 1 0 1 0 -1 0 -1.192093E-07 -130 118 270 3.35 0.5 3.35
9 0 -1.192093E-07 0 1 0 1 0 -1 0 -1.192093E-07 -90 118 290 3.35 0.5 3.35
9 0 -1.192093E-07 0 1 0 1 0 -1 0 -1.192093E-07 -110 118 290 3.35 0.5 3.35
9 0 -1.192093E-07 0 1 0 1 0 -1 0 -1.192093E-07 -130 118 290 3.35 0.5 3.35
9 0 -1.192093E-07 0 1 0 1 0 -1 0 -1.192093E-07 -90 118 310 3.35 0.5 3.35
9 0 -1.192093E-07 0 1 0 1 0 -1 0 -1.192093E-07 -110 118 310 3.35 0.5 3.35
9 0 -1.192093E-07 0 1 0 1 0 -1 0 -1.192093E-07 -130 118 310 3.35 0.5 3.35
9 0 -1.192093E-07 0 1 0 1 0 -1 0 -1.192093E-07 -90 118 330 3.35 0.5 3.35
9 0 -1.192093E-07 0 1 0 1 0 -1 0 -1.192093E-07 -110 118 330 3.35 0.5 3.35
9 0 -1.192093E-07 0 1 0 1 0 -1 0 -1.192093E-07 -130 118 330 3.35 0.5 3.35
9 0 -1.192093E-07 0 1 0 1 0 -1 0 -1.192093E-07 -90 118 350 3.35 0.5 3.35
9 0 -1.192093E-07 0 1 0 1 0 -1 0 -1.192093E-07 -110 118 350 3.35 0.5 3.35
9 0 -1.192093E-07 0 1 0 1 0 -1 0 -1.192093E-07 -130 118 350 3.35 0.5 3.35
9 0 -1.192093E-07 0 1 0 1 0 -1 0 -1.192093E-07 -90 118 370 3.35 0.5 3.35
9 0 -1.192093E-07 0 1 0 1 0 -1 0 -1.192093E-07 -110 118 370 3.35 0.5 3.35
9 0 -1.192093E-07 0 1 0 1 0 -1 0 -1.192093E-07 -130 118 370 3.35 0.5 3.35
9 0 -1.192093E-07 0 1 0 1 0 -1 0 -1.192093E-07 -30 118 330 3.35 0.5 3.35
9 0 -1.192093E-07 0 1 0 1 0 -1 0 -1.192093E-07 -50 118 330 3.35 0.5 3.35
9 0 -1.192093E-07 0 1 0 1 0 -1 0 -1.192093E-07 -70 118 330 3.35 0.5 3.35
9 0 -1.192093E-07 0 1 0 1 0 -1 0 -1.192093E-07 -30 118 350 3.35 0.5 3.35
9 0 -1.192093E-07 0 1 0 1 0 -1 0 -1.192093E-07 -50 118 350 3.35 0.5 3.35
9 0 -1.192093E-07 0 1 0 1 0 -1 0 -1.192093E-07 -70 118 350 3.35 0.5 3.35
9 0 -1.192093E-07 0 1 0 1 0 -1 0 -1.192093E-07 -30 118 370 3.35 0.5 3.35
9 0 -1.192093E-07 0 1 0 1 0 -1 0 -1.192093E-07 -50 118 370 3.35 0.5 3.35
9 0 -1.192093E-07 0 1 0 1 0 -1 0 -1.192093E-07 -70 118 370 3.35 0.5 3.35
9 0 -1.192093E-07 0 1 0 1 0 -1 0 -1.192093E-07 -30 118 390 3.35 0.5 3.35
9 0 -1.192093E-07 0 1 0 1 0 -1 0 -1.192093E-07 -50 118 390 3.35 0.5 3.35
9 0 -1.192093E-07 0 1 0 1 0 -1 0 -1.192093E-07 -70 118 390 3.35 0.5 3.35
9 0 -1.192093E-07 0 1 0 1 0 -1 0 -1.192093E-07 -90 118 390 3.35 0.5 3.35
9 0 -1.192093E-07 0 1 0 1 0 -1 0 -1.192093E-07 -110 118 390 3.35 0.5 3.35
9 0 -1.192093E-07 0 1 0 1 0 -1 0 -1.192093E-07 -130 118 390 3.35 0.5 3.35
9 0 -1.192093E-07 0 1 0 1 0 -1 0 -1.192093E-07 -10 118 270 3.35 0.5 3.35
9 0 -1.192093E-07 0 1 0 1 0 -1 0 -1.192093E-07 -10 118 290 3.35 0.5 3.35
9 0 -1.192093E-07 0 1 0 1 0 -1 0 -1.192093E-07 -10 118 310 3.35 0.5 3.35
9 0 -1.192093E-07 0 1 0 1 0 -1 0 -1.192093E-07 -10 118 330 3.35 0.5 3.35
9 0 -1.192093E-07 0 1 0 1 0 -1 0 -1.192093E-07 -10 118 350 3.35 0.5 3.35
9 0 -1.192093E-07 0 1 0 1 0 -1 0 -1.192093E-07 -10 118 370 3.35 0.5 3.35
9 0 -1.192093E-07 0 1 0 1 0 -1 0 -1.192093E-07 -10 118 390 3.35 0.5 3.35
9 0 -1.192093E-07 0 1 0 1 0 -1 0 -1.192093E-07 110 118 130 3.35 0.5 3.35
9 0 -1.192093E-07 0 1 0 1 0 -1 0 -1.192093E-07 90 118 130 3.35 0.5 3.35
9 0 -1.192093E-07 0 1 0 1 0 -1 0 -1.192093E-07 70 118 130 3.35 0.5 3.35
9 0 -1.192093E-07 0 1 0 1 0 -1 0 -1.192093E-07 110 118 150 3.35 0.5 3.35
9 0 -1.192093E-07 0 1 0 1 0 -1 0 -1.192093E-07 90 118 150 3.35 0.5 3.35
9 0 -1.192093E-07 0 1 0 1 0 -1 0 -1.192093E-07 70 118 150 3.35 0.5 3.35
9 0 -1.192093E-07 0 1 0 1 0 -1 0 -1.192093E-07 110 118 170 3.35 0.5 3.35
9 0 -1.192093E-07 0 1 0 1 0 -1 0 -1.192093E-07 90 118 170 3.35 0.5 3.35
9 0 -1.192093E-07 0 1 0 1 0 -1 0 -1.192093E-07 70 118 170 3.35 0.5 3.35
9 0 -1.192093E-07 0 1 0 1 0 -1 0 -1.192093E-07 50 118 130 3.35 0.5 3.35
9 0 -1.192093E-07 0 1 0 1 0 -1 0 -1.192093E-07 30 118 130 3.35 0.5 3.35
9 0 -1.192093E-07 0 1 0 1 0 -1 0 -1.192093E-07 10 118 130 3.35 0.5 3.35
9 0 -1.192093E-07 0 1 0 1 0 -1 0 -1.192093E-07 50 118 150 3.35 0.5 3.35
9 0 -1.192093E-07 0 1 0 1 0 -1 0 -1.192093E-07 30 118 150 3.35 0.5 3.35
9 0 -1.192093E-07 0 1 0 1 0 -1 0 -1.192093E-07 10 118 150 3.35 0.5 3.35
9 0 -1.192093E-07 0 1 0 1 0 -1 0 -1.192093E-07 50 118 170 3.35 0.5 3.35
9 0 -1.192093E-07 0 1 0 1 0 -1 0 -1.192093E-07 30 118 170 3.35 0.5 3.35
9 0 -1.192093E-07 0 1 0 1 0 -1 0 -1.192093E-07 10 118 170 3.35 0.5 3.35
9 0 -1.192093E-07 0 1 0 1 0 -1 0 -1.192093E-07 50 118 190 3.35 0.5 3.35
9 0 -1.192093E-07 0 1 0 1 0 -1 0 -1.192093E-07 30 118 190 3.35 0.5 3.35
9 0 -1.192093E-07 0 1 0 1 0 -1 0 -1.192093E-07 10 118 190 3.35 0.5 3.35
9 0 -1.192093E-07 0 1 0 1 0 -1 0 -1.192093E-07 50 118 210 3.35 0.5 3.35
9 0 -1.192093E-07 0 1 0 1 0 -1 0 -1.192093E-07 30 118 210 3.35 0.5 3.35
9 0 -1.192093E-07 0 1 0 1 0 -1 0 -1.192093E-07 10 118 210 3.35 0.5 3.35
9 0 -1.192093E-07 0 1 0 1 0 -1 0 -1.192093E-07 50 118 230 3.35 0.5 3.35
9 0 -1.192093E-07 0 1 0 1 0 -1 0 -1.192093E-07 30 118 230 3.35 0.5 3.35
9 0 -1.192093E-07 0 1 0 1 0 -1 0 -1.192093E-07 10 118 230 3.35 0.5 3.35
9 0 -1.192093E-07 0 1 0 1 0 -1 0 -1.192093E-07 110 118 190 3.35 0.5 3.35
9 0 -1.192093E-07 0 1 0 1 0 -1 0 -1.192093E-07 90 118 190 3.35 0.5 3.35
9 0 -1.192093E-07 0 1 0 1 0 -1 0 -1.192093E-07 70 118 190 3.35 0.5 3.35
9 0 -1.192093E-07 0 1 0 1 0 -1 0 -1.192093E-07 110 118 210 3.35 0.5 3.35
9 0 -1.192093E-07 0 1 0 1 0 -1 0 -1.192093E-07 90 118 210 3.35 0.5 3.35
9 0 -1.192093E-07 0 1 0 1 0 -1 0 -1.192093E-07 70 118 210 3.35 0.5 3.35
9 0 -1.192093E-07 0 1 0 1 0 -1 0 -1.192093E-07 110 118 230 3.35 0.5 3.35
9 0 -1.192093E-07 0 1 0 1 0 -1 0 -1.192093E-07 90 118 230 3.35 0.5 3.35
9 0 -1.192093E-07 0 1 0 1 0 -1 0 -1.192093E-07 70 118 230 3.35 0.5 3.35
9 0 -1.192093E-07 0 1 0 1 0 -1 0 -1.192093E-07 110 118 250 3.35 0.5 3.35
9 0 -1.192093E-07 0 1 0 1 0 -1 0 -1.192093E-07 90 118 250 3.35 0.5 3.35
9 0 -1.192093E-07 0 1 0 1 0 -1 0 -1.192093E-07 70 118 250 3.35 0.5 3.35
9 0 -1.192093E-07 0 1 0 1 0 -1 0 -1.192093E-07 50 118 250 3.35 0.5 3.35
9 0 -1.192093E-07 0 1 0 1 0 -1 0 -1.192093E-07 30 118 250 3.35 0.5 3.35
9 0 -1.192093E-07 0 1 0 1 0 -1 0 -1.192093E-07 10 118 250 3.35 0.5 3.35
9 0 -1.192093E-07 0 1 0 1 0 -1 0 -1.192093E-07 130 118 130 3.35 0.5 3.35
9 0 -1.192093E-07 0 1 0 1 0 -1 0 -1.192093E-07 130 118 150 3.35 0.5 3.35
9 0 -1.192093E-07 0 1 0 1 0 -1 0 -1.192093E-07 130 118 170 3.35 0.5 3.35
9 0 -1.192093E-07 0 1 0 1 0 -1 0 -1.192093E-07 130 118 190 3.35 0.5 3.35
9 0 -1.192093E-07 0 1 0 1 0 -1 0 -1.192093E-07 130 118 210 3.35 0.5 3.35
9 0 -1.192093E-07 0 1 0 1 0 -1 0 -1.192093E-07 130 118 230 3.35 0.5 3.35
9 0 -1.192093E-07 0 1 0 1 0 -1 0 -1.192093E-07 130 118 250 3.35 0.5 3.35
9 0 -1.192093E-07 0 1 0 1 0 -1 0 -1.192093E-07 -30 118 130 3.35 0.5 3.35
9 0 -1.192093E-07 0 1 0 1 0 -1 0 -1.192093E-07 -50 118 130 3.35 0.5 3.35
9 0 -1.192093E-07 0 1 0 1 0 -1 0 -1.192093E-07 -70 118 130 3.35 0.5 3.35
9 0 -1.192093E-07 0 1 0 1 0 -1 0 -1.192093E-07 -30 118 150 3.35 0.5 3.35
9 0 -1.192093E-07 0 1 0 1 0 -1 0 -1.192093E-07 -50 118 150 3.35 0.5 3.35
9 0 -1.192093E-07 0 1 0 1 0 -1 0 -1.192093E-07 -70 118 150 3.35 0.5 3.35
9 0 -1.192093E-07 0 1 0 1 0 -1 0 -1.192093E-07 -30 118 170 3.35 0.5 3.35
9 0 -1.192093E-07 0 1 0 1 0 -1 0 -1.192093E-07 -50 118 170 3.35 0.5 3.35
9 0 -1.192093E-07 0 1 0 1 0 -1 0 -1.192093E-07 -70 118 170 3.35 0.5 3.35
9 0 -1.192093E-07 0 1 0 1 0 -1 0 -1.192093E-07 -90 118 130 3.35 0.5 3.35
9 0 -1.192093E-07 0 1 0 1 0 -1 0 -1.192093E-07 -110 118 130 3.35 0.5 3.35
9 0 -1.192093E-07 0 1 0 1 0 -1 0 -1.192093E-07 -130 118 130 3.35 0.5 3.35
9 0 -1.192093E-07 0 1 0 1 0 -1 0 -1.192093E-07 -90 118 150 3.35 0.5 3.35
9 0 -1.192093E-07 0 1 0 1 0 -1 0 -1.192093E-07 -110 118 150 3.35 0.5 3.35
9 0 -1.192093E-07 0 1 0 1 0 -1 0 -1.192093E-07 -130 118 150 3.35 0.5 3.35
9 0 -1.192093E-07 0 1 0 1 0 -1 0 -1.192093E-07 -90 118 170 3.35 0.5 3.35
9 0 -1.192093E-07 0 1 0 1 0 -1 0 -1.192093E-07 -110 118 170 3.35 0.5 3.35
9 0 -1.192093E-07 0 1 0 1 0 -1 0 -1.192093E-07 -130 118 170 3.35 0.5 3.35
9 0 -1.192093E-07 0 1 0 1 0 -1 0 -1.192093E-07 -90 118 190 3.35 0.5 3.35
9 0 -1.192093E-07 0 1 0 1 0 -1 0 -1.192093E-07 -110 118 190 3.35 0.5 3.35
9 0 -1.192093E-07 0 1 0 1 0 -1 0 -1.192093E-07 -130 118 190 3.35 0.5 3.35
9 0 -1.192093E-07 0 1 0 1 0 -1 0 -1.192093E-07 -90 118 210 3.35 0.5 3.35
9 0 -1.192093E-07 0 1 0 1 0 -1 0 -1.192093E-07 -110 118 210 3.35 0.5 3.35
9 0 -1.192093E-07 0 1 0 1 0 -1 0 -1.192093E-07 -130 118 210 3.35 0.5 3.35
9 0 -1.192093E-07 0 1 0 1 0 -1 0 -1.192093E-07 -90 118 230 3.35 0.5 3.35
9 0 -1.192093E-07 0 1 0 1 0 -1 0 -1.192093E-07 -110 118 230 3.35 0.5 3.35
9 0 -1.192093E-07 0 1 0 1 0 -1 0 -1.192093E-07 -130 118 230 3.35 0.5 3.35
9 0 -1.192093E-07 0 1 0 1 0 -1 0 -1.192093E-07 -30 118 190 3.35 0.5 3.35
9 0 -1.192093E-07 0 1 0 1 0 -1 0 -1.192093E-07 -50 118 190 3.35 0.5 3.35
9 0 -1.192093E-07 0 1 0 1 0 -1 0 -1.192093E-07 -70 118 190 3.35 0.5 3.35
9 0 -1.192093E-07 0 1 0 1 0 -1 0 -1.192093E-07 -30 118 210 3.35 0.5 3.35
9 0 -1.192093E-07 0 1 0 1 0 -1 0 -1.192093E-07 -50 118 210 3.35 0.5 3.35
9 0 -1.192093E-07 0 1 0 1 0 -1 0 -1.192093E-07 -70 118 210 3.35 0.5 3.35
9 0 -1.192093E-07 0 1 0 1 0 -1 0 -1.192093E-07 -30 118 230 3.35 0.5 3.35
9 0 -1.192093E-07 0 1 0 1 0 -1 0 -1.192093E-07 -50 118 230 3.35 0.5 3.35
9 0 -1.192093E-07 0 1 0 1 0 -1 0 -1.192093E-07 -70 118 230 3.35 0.5 3.35
9 0 -1.192093E-07 0 1 0 1 0 -1 0 -1.192093E-07 -30 118 250 3.35 0.5 3.35
9 0 -1.192093E-07 0 1 0 1 0 -1 0 -1.192093E-07 -50 118 250 3.35 0.5 3.35
9 0 -1.192093E-07 0 1 0 1 0 -1 0 -1.192093E-07 -70 118 250 3.35 0.5 3.35
9 0 -1.192093E-07 0 1 0 1 0 -1 0 -1.192093E-07 -90 118 250 3.35 0.5 3.35
9 0 -1.192093E-07 0 1 0 1 0 -1 0 -1.192093E-07 -110 118 250 3.35 0.5 3.35
9 0 -1.192093E-07 0 1 0 1 0 -1 0 -1.192093E-07 -130 118 250 3.35 0.5 3.35
9 0 -1.192093E-07 0 1 0 1 0 -1 0 -1.192093E-07 -10 118 130 3.35 0.5 3.35
9 0 -1.192093E-07 0 1 0 1 0 -1 0 -1.192093E-07 -10 118 150 3.35 0.5 3.35
9 0 -1.192093E-07 0 1 0 1 0 -1 0 -1.192093E-07 -10 118 170 3.35 0.5 3.35
9 0 -1.192093E-07 0 1 0 1 0 -1 0 -1.192093E-07 -10 118 190 3.35 0.5 3.35
9 0 -1.192093E-07 0 1 0 1 0 -1 0 -1.192093E-07 -10 118 210 3.35 0.5 3.35
9 0 -1.192093E-07 0 1 0 1 0 -1 0 -1.192093E-07 -10 118 230 3.35 0.5 3.35
9 0 -1.192093E-07 0 1 0 1 0 -1 0 -1.192093E-07 -10 118 250 3.35 0.5 3.35
9 0 -1.192093E-07 0 1 0 1 0 -1 0 -1.192093E-07 110 118 -10 3.35 0.5 3.35
9 0 -1.192093E-07 0 1 0 1 0 -1 0 -1.192093E-07 90 118 -10 3.35 0.5 3.35
9 0 -1.192093E-07 0 1 0 1 0 -1 0 -1.192093E-07 70 118 -10 3.35 0.5 3.35
9 0 -1.192093E-07 0 1 0 1 0 -1 0 -1.192093E-07 110 118 10 3.35 0.5 3.35
9 0 -1.192093E-07 0 1 0 1 0 -1 0 -1.192093E-07 90 118 10 3.35 0.5 3.35
9 0 -1.192093E-07 0 1 0 1 0 -1 0 -1.192093E-07 70 118 10 3.35 0.5 3.35
9 0 -1.192093E-07 0 1 0 1 0 -1 0 -1.192093E-07 110 118 30 3.35 0.5 3.35
9 0 -1.192093E-07 0 1 0 1 0 -1 0 -1.192093E-07 90 118 30 3.35 0.5 3.35
9 0 -1.192093E-07 0 1 0 1 0 -1 0 -1.192093E-07 70 118 30 3.35 0.5 3.35
9 0 -1.192093E-07 0 1 0 1 0 -1 0 -1.192093E-07 50 118 -10 3.35 0.5 3.35
9 0 -1.192093E-07 0 1 0 1 0 -1 0 -1.192093E-07 30 118 -10 3.35 0.5 3.35
9 0 -1.192093E-07 0 1 0 1 0 -1 0 -1.192093E-07 10 118 -10 3.35 0.5 3.35
9 0 -1.192093E-07 0 1 0 1 0 -1 0 -1.192093E-07 50 118 10 3.35 0.5 3.35
9 0 -1.192093E-07 0 1 0 1 0 -1 0 -1.192093E-07 30 118 10 3.35 0.5 3.35
9 0 -1.192093E-07 0 1 0 1 0 -1 0 -1.192093E-07 10 118 10 3.35 0.5 3.35
9 0 -1.192093E-07 0 1 0 1 0 -1 0 -1.192093E-07 50 118 30 3.35 0.5 3.35
9 0 -1.192093E-07 0 1 0 1 0 -1 0 -1.192093E-07 30 118 30 3.35 0.5 3.35
9 0 -1.192093E-07 0 1 0 1 0 -1 0 -1.192093E-07 10 118 30 3.35 0.5 3.35
9 0 -1.192093E-07 0 1 0 1 0 -1 0 -1.192093E-07 50 118 50 3.35 0.5 3.35
9 0 -1.192093E-07 0 1 0 1 0 -1 0 -1.192093E-07 30 118 50 3.35 0.5 3.35
9 0 -1.192093E-07 0 1 0 1 0 -1 0 -1.192093E-07 10 118 50 3.35 0.5 3.35
9 0 -1.192093E-07 0 1 0 1 0 -1 0 -1.192093E-07 50 118 70 3.35 0.5 3.35
9 0 -1.192093E-07 0 1 0 1 0 -1 0 -1.192093E-07 30 118 70 3.35 0.5 3.35
9 0 -1.192093E-07 0 1 0 1 0 -1 0 -1.192093E-07 10 118 70 3.35 0.5 3.35
9 0 -1.192093E-07 0 1 0 1 0 -1 0 -1.192093E-07 50 118 90 3.35 0.5 3.35
9 0 -1.192093E-07 0 1 0 1 0 -1 0 -1.192093E-07 30 118 90 3.35 0.5 3.35
9 0 -1.192093E-07 0 1 0 1 0 -1 0 -1.192093E-07 10 118 90 3.35 0.5 3.35
9 0 -1.192093E-07 0 1 0 1 0 -1 0 -1.192093E-07 110 118 50 3.35 0.5 3.35
9 0 -1.192093E-07 0 1 0 1 0 -1 0 -1.192093E-07 90 118 50 3.35 0.5 3.35
9 0 -1.192093E-07 0 1 0 1 0 -1 0 -1.192093E-07 70 118 50 3.35 0.5 3.35
9 0 -1.192093E-07 0 1 0 1 0 -1 0 -1.192093E-07 110 118 70 3.35 0.5 3.35
9 0 -1.192093E-07 0 1 0 1 0 -1 0 -1.192093E-07 90 118 70 3.35 0.5 3.35
9 0 -1.192093E-07 0 1 0 1 0 -1 0 -1.192093E-07 70 118 70 3.35 0.5 3.35
9 0 -1.192093E-07 0 1 0 1 0 -1 0 -1.192093E-07 110 118 90 3.35 0.5 3.35
9 0 -1.192093E-07 0 1 0 1 0 -1 0 -1.192093E-07 90 118 90 3.35 0.5 3.35
9 0 -1.192093E-07 0 1 0 1 0 -1 0 -1.192093E-07 70 118 90 3.35 0.5 3.35
9 0 -1.192093E-07 0 1 0 1 0 -1 0 -1.192093E-07 110 118 110 3.35 0.5 3.35
9 0 -1.192093E-07 0 1 0 1 0 -1 0 -1.192093E-07 90 118 110 3.35 0.5 3.35
9 0 -1.192093E-07 0 1 0 1 0 -1 0 -1.192093E-07 70 118 110 3.35 0.5 3.35
9 0 -1.192093E-07 0 1 0 1 0 -1 0 -1.192093E-07 50 118 110 3.35 0.5 3.35
9 0 -1.192093E-07 0 1 0 1 0 -1 0 -1.192093E-07 30 118 110 3.35 0.5 3.35
9 0 -1.192093E-07 0 1 0 1 0 -1 0 -1.192093E-07 10 118 110 3.35 0.5 3.35
9 0 -1.192093E-07 0 1 0 1 0 -1 0 -1.192093E-07 130 118 -10 3.35 0.5 3.35
9 0 -1.192093E-07 0 1 0 1 0 -1 0 -1.192093E-07 130 118 10 3.35 0.5 3.35
9 0 -1.192093E-07 0 1 0 1 0 -1 0 -1.192093E-07 130 118 30 3.35 0.5 3.35
9 0 -1.192093E-07 0 1 0 1 0 -1 0 -1.192093E-07 130 118 50 3.35 0.5 3.35
9 0 -1.192093E-07 0 1 0 1 0 -1 0 -1.192093E-07 130 118 70 3.35 0.5 3.35
9 0 -1.192093E-07 0 1 0 1 0 -1 0 -1.192093E-07 130 118 90 3.35 0.5 3.35
9 0 -1.192093E-07 0 1 0 1 0 -1 0 -1.192093E-07 130 118 110 3.35 0.5 3.35
9 0 -1.192093E-07 0 1 0 1 0 -1 0 -1.192093E-07 -30 118 -10 3.35 0.5 3.35
9 0 -1.192093E-07 0 1 0 1 0 -1 0 -1.192093E-07 -50 118 -10 3.35 0.5 3.35
9 0 -1.192093E-07 0 1 0 1 0 -1 0 -1.192093E-07 -70 118 -10 3.35 0.5 3.35
9 0 -1.192093E-07 0 1 0 1 0 -1 0 -1.192093E-07 -30 118 10 3.35 0.5 3.35
9 0 -1.192093E-07 0 1 0 1 0 -1 0 -1.192093E-07 -50 118 10 3.35 0.5 3.35
9 0 -1.192093E-07 0 1 0 1 0 -1 0 -1.192093E-07 -70 118 10 3.35 0.5 3.35
9 0 -1.192093E-07 0 1 0 1 0 -1 0 -1.192093E-07 -30 118 30 3.35 0.5 3.35
9 0 -1.192093E-07 0 1 0 1 0 -1 0 -1.192093E-07 -50 118 30 3.35 0.5 3.35
9 0 -1.192093E-07 0 1 0 1 0 -1 0 -1.192093E-07 -70 118 30 3.35 0.5 3.35
9 0 -1.192093E-07 0 1 0 1 0 -1 0 -1.192093E-07 -90 118 -10 3.35 0.5 3.35
9 0 -1.192093E-07 0 1 0 1 0 -1 0 -1.192093E-07 -110 118 -10 3.35 0.5 3.35
9 0 -1.192093E-07 0 1 0 1 0 -1 0 -1.192093E-07 -130 118 -10 3.35 0.5 3.35
9 0 -1.192093E-07 0 1 0 1 0 -1 0 -1.192093E-07 -90 118 10 3.35 0.5 3.35
9 0 -1.192093E-07 0 1 0 1 0 -1 0 -1.192093E-07 -110 118 10 3.35 0.5 3.35
9 0 -1.192093E-07 0 1 0 1 0 -1 0 -1.192093E-07 -130 118 10 3.35 0.5 3.35
9 0 -1.192093E-07 0 1 0 1 0 -1 0 -1.192093E-07 -90 118 30 3.35 0.5 3.35
9 0 -1.192093E-07 0 1 0 1 0 -1 0 -1.192093E-07 -110 118 30 3.35 0.5 3.35
9 0 -1.192093E-07 0 1 0 1 0 -1 0 -1.192093E-07 -130 118 30 3.35 0.5 3.35
9 0 -1.192093E-07 0 1 0 1 0 -1 0 -1.192093E-07 -90 118 50 3.35 0.5 3.35
9 0 -1.192093E-07 0 1 0 1 0 -1 0 -1.192093E-07 -110 118 50 3.35 0.5 3.35
9 0 -1.192093E-07 0 1 0 1 0 -1 0 -1.192093E-07 -130 118 50 3.35 0.5 3.35
9 0 -1.192093E-07 0 1 0 1 0 -1 0 -1.192093E-07 -90 118 70 3.35 0.5 3.35
9 0 -1.192093E-07 0 1 0 1 0 -1 0 -1.192093E-07 -110 118 70 3.35 0.5 3.35
9 0 -1.192093E-07 0 1 0 1 0 -1 0 -1.192093E-07 -130 118 70 3.35 0.5 3.35
9 0 -1.192093E-07 0 1 0 1 0 -1 0 -1.192093E-07 -90 118 90 3.35 0.5 3.35
9 0 -1.192093E-07 0 1 0 1 0 -1 0 -1.192093E-07 -110 118 90 3.35 0.5 3.35
9 0 -1.192093E-07 0 1 0 1 0 -1 0 -1.192093E-07 -130 118 90 3.35 0.5 3.35
9 0 -1.192093E-07 0 1 0 1 0 -1 0 -1.192093E-07 -30 118 50 3.35 0.5 3.35
9 0 -1.192093E-07 0 1 0 1 0 -1 0 -1.192093E-07 -50 118 50 3.35 0.5 3.35
9 0 -1.192093E-07 0 1 0 1 0 -1 0 -1.192093E-07 -70 118 50 3.35 0.5 3.35
9 0 -1.192093E-07 0 1 0 1 0 -1 0 -1.192093E-07 -30 118 70 3.35 0.5 3.35
9 0 -1.192093E-07 0 1 0 1 0 -1 0 -1.192093E-07 -50 118 70 3.35 0.5 3.35
9 0 -1.192093E-07 0 1 0 1 0 -1 0 -1.192093E-07 -70 118 70 3.35 0.5 3.35
9 0 -1.192093E-07 0 1 0 1 0 -1 0 -1.192093E-07 -30 118 90 3.35 0.5 3.35
9 0 -1.192093E-07 0 1 0 1 0 -1 0 -1.192093E-07 -50 118 90 3.35 0.5 3.35
9 0 -1.192093E-07 0 1 0 1 0 -1 0 -1.192093E-07 -70 118 90 3.35 0.5 3.35
9 0 -1.192093E-07 0 1 0 1 0 -1 0 -1.192093E-07 -30 118 110 3.35 0.5 3.35
9 0 -1.192093E-07 0 1 0 1 0 -1 0 -1.192093E-07 -50 118 110 3.35 0.5 3.35
9 0 -1.192093E-07 0 1 0 1 0 -1 0 -1.192093E-07 -70 118 110 3.35 0.5 3.35
9 0 -1.192093E-07 0 1 0 1 0 -1 0 -1.192093E-07 -90 118 110 3.35 0.5 3.35
9 0 -1.192093E-07 0 1 0 1 0 -1 0 -1.192093E-07 -110 118 110 3.35 0.5 3.35
9 0 -1.192093E-07 0 1 0 1 0 -1 0 -1.192093E-07 -130 118 110 3.35 0.5 3.35
9 0 -1.192093E-07 0 1 0 1 0 -1 0 -1.192093E-07 -10 118 -10 3.35 0.5 3.35
9 0 -1.192093E-07 0 1 0 1 0 -1 0 -1.192093E-07 -10 118 10 3.35 0.5 3.35
9 0 -1.192093E-07 0 1 0 1 0 -1 0 -1.192093E-07 -10 118 30 3.35 0.5 3.35
9 0 -1.192093E-07 0 1 0 1 0 -1 0 -1.192093E-07 -10 118 50 3.35 0.5 3.35
9 0 -1.192093E-07 0 1 0 1 0 -1 0 -1.192093E-07 -10 118 70 3.35 0.5 3.35
9 0 -1.192093E-07 0 1 0 1 0 -1 0 -1.192093E-07 -10 118 90 3.35 0.5 3.35
9 0 -1.192093E-07 0 1 0 1 0 -1 0 -1.192093E-07 -10 118 110 3.35 0.5 3.35
9 0 -1.192093E-07 0 1 0 1 0 -1 0 -1.192093E-07 110 118 -150 3.35 0.5 3.35
9 0 -1.192093E-07 0 1 0 1 0 -1 0 -1.192093E-07 90 118 -150 3.35 0.5 3.35
9 0 -1.192093E-07 0 1 0 1 0 -1 0 -1.192093E-07 70 118 -150 3.35 0.5 3.35
9 0 -1.192093E-07 0 1 0 1 0 -1 0 -1.192093E-07 110 118 -130 3.35 0.5 3.35
9 0 -1.192093E-07 0 1 0 1 0 -1 0 -1.192093E-07 90 118 -130 3.35 0.5 3.35
9 0 -1.192093E-07 0 1 0 1 0 -1 0 -1.192093E-07 70 118 -130 3.35 0.5 3.35
9 0 -1.192093E-07 0 1 0 1 0 -1 0 -1.192093E-07 110 118 -110 3.35 0.5 3.35
9 0 -1.192093E-07 0 1 0 1 0 -1 0 -1.192093E-07 90 118 -110 3.35 0.5 3.35
9 0 -1.192093E-07 0 1 0 1 0 -1 0 -1.192093E-07 70 118 -110 3.35 0.5 3.35
9 0 -1.192093E-07 0 1 0 1 0 -1 0 -1.192093E-07 50 118 -150 3.35 0.5 3.35
9 0 -1.192093E-07 0 1 0 1 0 -1 0 -1.192093E-07 30 118 -150 3.35 0.5 3.35
9 0 -1.192093E-07 0 1 0 1 0 -1 0 -1.192093E-07 10 118 -150 3.35 0.5 3.35
9 0 -1.192093E-07 0 1 0 1 0 -1 0 -1.192093E-07 50 118 -130 3.35 0.5 3.35
9 0 -1.192093E-07 0 1 0 1 0 -1 0 -1.192093E-07 30 118 -130 3.35 0.5 3.35
9 0 -1.192093E-07 0 1 0 1 0 -1 0 -1.192093E-07 10 118 -130 3.35 0.5 3.35
9 0 -1.192093E-07 0 1 0 1 0 -1 0 -1.192093E-07 50 118 -110 3.35 0.5 3.35
9 0 -1.192093E-07 0 1 0 1 0 -1 0 -1.192093E-07 30 118 -110 3.35 0.5 3.35
9 0 -1.192093E-07 0 1 0 1 0 -1 0 -1.192093E-07 10 118 -110 3.35 0.5 3.35
9 0 -1.192093E-07 0 1 0 1 0 -1 0 -1.192093E-07 50 118 -90 3.35 0.5 3.35
9 0 -1.192093E-07 0 1 0 1 0 -1 0 -1.192093E-07 30 118 -90 3.35 0.5 3.35
9 0 -1.192093E-07 0 1 0 1 0 -1 0 -1.192093E-07 10 118 -90 3.35 0.5 3.35
9 0 -1.192093E-07 0 1 0 1 0 -1 0 -1.192093E-07 50 118 -70 3.35 0.5 3.35
9 0 -1.192093E-07 0 1 0 1 0 -1 0 -1.192093E-07 30 118 -70 3.35 0.5 3.35
9 0 -1.192093E-07 0 1 0 1 0 -1 0 -1.192093E-07 10 118 -70 3.35 0.5 3.35
9 0 -1.192093E-07 0 1 0 1 0 -1 0 -1.192093E-07 50 118 -50 3.35 0.5 3.35
9 0 -1.192093E-07 0 1 0 1 0 -1 0 -1.192093E-07 30 118 -50 3.35 0.5 3.35
9 0 -1.192093E-07 0 1 0 1 0 -1 0 -1.192093E-07 10 118 -50 3.35 0.5 3.35
9 0 -1.192093E-07 0 1 0 1 0 -1 0 -1.192093E-07 110 118 -90 3.35 0.5 3.35
9 0 -1.192093E-07 0 1 0 1 0 -1 0 -1.192093E-07 90 118 -90 3.35 0.5 3.35
9 0 -1.192093E-07 0 1 0 1 0 -1 0 -1.192093E-07 70 118 -90 3.35 0.5 3.35
9 0 -1.192093E-07 0 1 0 1 0 -1 0 -1.192093E-07 110 118 -70 3.35 0.5 3.35
9 0 -1.192093E-07 0 1 0 1 0 -1 0 -1.192093E-07 90 118 -70 3.35 0.5 3.35
9 0 -1.192093E-07 0 1 0 1 0 -1 0 -1.192093E-07 70 118 -70 3.35 0.5 3.35
9 0 -1.192093E-07 0 1 0 1 0 -1 0 -1.192093E-07 110 118 -50 3.35 0.5 3.35
9 0 -1.192093E-07 0 1 0 1 0 -1 0 -1.192093E-07 90 118 -50 3.35 0.5 3.35
9 0 -1.192093E-07 0 1 0 1 0 -1 0 -1.192093E-07 70 118 -50 3.35 0.5 3.35
9 0 -1.192093E-07 0 1 0 1 0 -1 0 -1.192093E-07 110 118 -30 3.35 0.5 3.35
9 0 -1.192093E-07 0 1 0 1 0 -1 0 -1.192093E-07 90 118 -30 3.35 0.5 3.35
9 0 -1.192093E-07 0 1 0 1 0 -1 0 -1.192093E-07 70 118 -30 3.35 0.5 3.35
9 0 -1.192093E-07 0 1 0 1 0 -1 0 -1.192093E-07 50 118 -30 3.35 0.5 3.35
9 0 -1.192093E-07 0 1 0 1 0 -1 0 -1.192093E-07 30 118 -30 3.35 0.5 3.35
9 0 -1.192093E-07 0 1 0 1 0 -1 0 -1.192093E-07 10 118 -30 3.35 0.5 3.35
9 0 -1.192093E-07 0 1 0 1 0 -1 0 -1.192093E-07 130 118 -150 3.35 0.5 3.35
9 0 -1.192093E-07 0 1 0 1 0 -1 0 -1.192093E-07 130 118 -130 3.35 0.5 3.35
9 0 -1.192093E-07 0 1 0 1 0 -1 0 -1.192093E-07 130 118 -110 3.35 0.5 3.35
9 0 -1.192093E-07 0 1 0 1 0 -1 0 -1.192093E-07 130 118 -90 3.35 0.5 3.35
9 0 -1.192093E-07 0 1 0 1 0 -1 0 -1.192093E-07 130 118 -70 3.35 0.5 3.35
9 0 -1.192093E-07 0 1 0 1 0 -1 0 -1.192093E-07 130 118 -50 3.35 0.5 3.35
9 0 -1.192093E-07 0 1 0 1 0 -1 0 -1.192093E-07 130 118 -30 3.35 0.5 3.35
9 0 -1.192093E-07 0 1 0 1 0 -1 0 -1.192093E-07 -30 118 -150 3.35 0.5 3.35
9 0 -1.192093E-07 0 1 0 1 0 -1 0 -1.192093E-07 -50 118 -150 3.35 0.5 3.35
9 0 -1.192093E-07 0 1 0 1 0 -1 0 -1.192093E-07 -70 118 -150 3.35 0.5 3.35
9 0 -1.192093E-07 0 1 0 1 0 -1 0 -1.192093E-07 -30 118 -130 3.35 0.5 3.35
9 0 -1.192093E-07 0 1 0 1 0 -1 0 -1.192093E-07 -50 118 -130 3.35 0.5 3.35
9 0 -1.192093E-07 0 1 0 1 0 -1 0 -1.192093E-07 -70 118 -130 3.35 0.5 3.35
9 0 -1.192093E-07 0 1 0 1 0 -1 0 -1.192093E-07 -30 118 -110 3.35 0.5 3.35
9 0 -1.192093E-07 0 1 0 1 0 -1 0 -1.192093E-07 -50 118 -110 3.35 0.5 3.35
9 0 -1.192093E-07 0 1 0 1 0 -1 0 -1.192093E-07 -70 118 -110 3.35 0.5 3.35
9 0 -1.192093E-07 0 1 0 1 0 -1 0 -1.192093E-07 -90 118 -150 3.35 0.5 3.35
9 0 -1.192093E-07 0 1 0 1 0 -1 0 -1.192093E-07 -110 118 -150 3.35 0.5 3.35
9 0 -1.192093E-07 0 1 0 1 0 -1 0 -1.192093E-07 -130 118 -150 3.35 0.5 3.35
9 0 -1.192093E-07 0 1 0 1 0 -1 0 -1.192093E-07 -90 118 -130 3.35 0.5 3.35
9 0 -1.192093E-07 0 1 0 1 0 -1 0 -1.192093E-07 -110 118 -130 3.35 0.5 3.35
9 0 -1.192093E-07 0 1 0 1 0 -1 0 -1.192093E-07 -130 118 -130 3.35 0.5 3.35
9 0 -1.192093E-07 0 1 0 1 0 -1 0 -1.192093E-07 -90 118 -110 3.35 0.5 3.35
9 0 -1.192093E-07 0 1 0 1 0 -1 0 -1.192093E-07 -110 118 -110 3.35 0.5 3.35
9 0 -1.192093E-07 0 1 0 1 0 -1 0 -1.192093E-07 -130 118 -110 3.35 0.5 3.35
9 0 -1.192093E-07 0 1 0 1 0 -1 0 -1.192093E-07 -90 118 -90 3.35 0.5 3.35
9 0 -1.192093E-07 0 1 0 1 0 -1 0 -1.192093E-07 -110 118 -90 3.35 0.5 3.35
9 0 -1.192093E-07 0 1 0 1 0 -1 0 -1.192093E-07 -130 118 -90 3.35 0.5 3.35
9 0 -1.192093E-07 0 1 0 1 0 -1 0 -1.192093E-07 -90 118 -70 3.35 0.5 3.35
9 0 -1.192093E-07 0 1 0 1 0 -1 0 -1.192093E-07 -110 118 -70 3.35 0.5 3.35
9 0 -1.192093E-07 0 1 0 1 0 -1 0 -1.192093E-07 -130 118 -70 3.35 0.5 3.35
9 0 -1.192093E-07 0 1 0 1 0 -1 0 -1.192093E-07 -90 118 -50 3.35 0.5 3.35
9 0 -1.192093E-07 0 1 0 1 0 -1 0 -1.192093E-07 -110 118 -50 3.35 0.5 3.35
9 0 -1.192093E-07 0 1 0 1 0 -1 0 -1.192093E-07 -130 118 -50 3.35 0.5 3.35
9 0 -1.192093E-07 0 1 0 1 0 -1 0 -1.192093E-07 -30 118 -90 3.35 0.5 3.35
9 0 -1.192093E-07 0 1 0 1 0 -1 0 -1.192093E-07 -50 118 -90 3.35 0.5 3.35
9 0 -1.192093E-07 0 1 0 1 0 -1 0 -1.192093E-07 -70 118 -90 3.35 0.5 3.35
9 0 -1.192093E-07 0 1 0 1 0 -1 0 -1.192093E-07 -30 118 -70 3.35 0.5 3.35
9 0 -1.192093E-07 0 1 0 1 0 -1 0 -1.192093E-07 -50 118 -70 3.35 0.5 3.35
9 0 -1.192093E-07 0 1 0 1 0 -1 0 -1.192093E-07 -70 118 -70 3.35 0.5 3.35
9 0 -1.192093E-07 0 1 0 1 0 -1 0 -1.192093E-07 -30 118 -50 3.35 0.5 3.35
9 0 -1.192093E-07 0 1 0 1 0 -1 0 -1.192093E-07 -50 118 -50 3.35 0.5 3.35
9 0 -1.192093E-07 0 1 0 1 0 -1 0 -1.192093E-07 -70 118 -50 3.35 0.5 3.35
9 0 -1.192093E-07 0 1 0 1 0 -1 0 -1.192093E-07 -30 118 -30 3.35 0.5 3.35
9 0 -1.192093E-07 0 1 0 1 0 -1 0 -1.192093E-07 -50 118 -30 3.35 0.5 3.35
9 0 -1.192093E-07 0 1 0 1 0 -1 0 -1.192093E-07 -70 118 -30 3.35 0.5 3.35
9 0 -1.192093E-07 0 1 0 1 0 -1 0 -1.192093E-07 -90 118 -30 3.35 0.5 3.35
9 0 -1.192093E-07 0 1 0 1 0 -1 0 -1.192093E-07 -110 118 -30 3.35 0.5 3.35
9 0 -1.192093E-07 0 1 0 1 0 -1 0 -1.192093E-07 -130 118 -30 3.35 0.5 3.35
9 0 -1.192093E-07 0 1 0 1 0 -1 0 -1.192093E-07 -10 118 -150 3.35 0.5 3.35
9 0 -1.192093E-07 0 1 0 1 0 -1 0 -1.192093E-07 -10 118 -130 3.35 0.5 3.35
9 0 -1.192093E-07 0 1 0 1 0 -1 0 -1.192093E-07 -10 118 -110 3.35 0.5 3.35
9 0 -1.192093E-07 0 1 0 1 0 -1 0 -1.192093E-07 -10 118 -90 3.35 0.5 3.35
9 0 -1.192093E-07 0 1 0 1 0 -1 0 -1.192093E-07 -10 118 -70 3.35 0.5 3.35
9 0 -1.192093E-07 0 1 0 1 0 -1 0 -1.192093E-07 -10 118 -50 3.35 0.5 3.35
9 0 -1.192093E-07 0 1 0 1 0 -1 0 -1.192093E-07 -10 118 -30 3.35 0.5 3.35
9 0 -1.192093E-07 0 1 0 1 0 -1 0 -1.192093E-07 -130 118 -170 3.35 0.5 3.35
9 0 -1.192093E-07 0 1 0 1 0 -1 0 -1.192093E-07 -110 118 -170 3.35 0.5 3.35
9 0 -1.192093E-07 0 1 0 1 0 -1 0 -1.192093E-07 -90 118 -170 3.35 0.5 3.35
9 0 -1.192093E-07 0 1 0 1 0 -1 0 -1.192093E-07 -70 118 -170 3.35 0.5 3.35
9 0 -1.192093E-07 0 1 0 1 0 -1 0 -1.192093E-07 -50 118 -170 3.35 0.5 3.35
9 0 -1.192093E-07 0 1 0 1 0 -1 0 -1.192093E-07 -30 118 -170 3.35 0.5 3.35
9 0 -1.192093E-07 0 1 0 1 0 -1 0 -1.192093E-07 -10 118 -170 3.35 0.5 3.35
9 0 -1.192093E-07 0 1 0 1 0 -1 0 -1.192093E-07 -130 118 -190 3.35 0.5 3.35
9 0 -1.192093E-07 0 1 0 1 0 -1 0 -1.192093E-07 -110 118 -190 3.35 0.5 3.35
9 0 -1.192093E-07 0 1 0 1 0 -1 0 -1.192093E-07 -90 118 -190 3.35 0.5 3.35
9 0 -1.192093E-07 0 1 0 1 0 -1 0 -1.192093E-07 -70 118 -190 3.35 0.5 3.35
9 0 -1.192093E-07 0 1 0 1 0 -1 0 -1.192093E-07 -50 118 -190 3.35 0.5 3.35
9 0 -1.192093E-07 0 1 0 1 0 -1 0 -1.192093E-07 -30 118 -190 3.35 0.5 3.35
9 0 -1.192093E-07 0 1 0 1 0 -1 0 -1.192093E-07 -10 118 -190 3.35 0.5 3.35
9 0 -1.192093E-07 0 1 0 1 0 -1 0 -1.192093E-07 -130 118 -210 3.35 0.5 3.35
9 0 -1.192093E-07 0 1 0 1 0 -1 0 -1.192093E-07 -110 118 -210 3.35 0.5 3.35
9 0 -1.192093E-07 0 1 0 1 0 -1 0 -1.192093E-07 -90 118 -210 3.35 0.5 3.35
9 0 -1.192093E-07 0 1 0 1 0 -1 0 -1.192093E-07 -70 118 -210 3.35 0.5 3.35
9 0 -1.192093E-07 0 1 0 1 0 -1 0 -1.192093E-07 -50 118 -210 3.35 0.5 3.35
9 0 -1.192093E-07 0 1 0 1 0 -1 0 -1.192093E-07 -30 118 -210 3.35 0.5 3.35
9 0 -1.192093E-07 0 1 0 1 0 -1 0 -1.192093E-07 -10 118 -210 3.35 0.5 3.35
9 0 -1.192093E-07 0 1 0 1 0 -1 0 -1.192093E-07 10 118 -170 3.35 0.5 3.35
9 0 -1.192093E-07 0 1 0 1 0 -1 0 -1.192093E-07 30 118 -170 3.35 0.5 3.35
9 0 -1.192093E-07 0 1 0 1 0 -1 0 -1.192093E-07 50 118 -170 3.35 0.5 3.35
9 0 -1.192093E-07 0 1 0 1 0 -1 0 -1.192093E-07 70 118 -170 3.35 0.5 3.35
9 0 -1.192093E-07 0 1 0 1 0 -1 0 -1.192093E-07 90 118 -170 3.35 0.5 3.35
9 0 -1.192093E-07 0 1 0 1 0 -1 0 -1.192093E-07 110 118 -170 3.35 0.5 3.35
9 0 -1.192093E-07 0 1 0 1 0 -1 0 -1.192093E-07 130 118 -170 3.35 0.5 3.35
9 0 -1.192093E-07 0 1 0 1 0 -1 0 -1.192093E-07 10 118 -190 3.35 0.5 3.35
9 0 -1.192093E-07 0 1 0 1 0 -1 0 -1.192093E-07 30 118 -190 3.35 0.5 3.35
9 0 -1.192093E-07 0 1 0 1 0 -1 0 -1.192093E-07 50 118 -190 3.35 0.5 3.35
9 0 -1.192093E-07 0 1 0 1 0 -1 0 -1.192093E-07 70 118 -190 3.35 0.5 3.35
9 0 -1.192093E-07 0 1 0 1 0 -1 0 -1.192093E-07 90 118 -190 3.35 0.5 3.35
9 0 -1.192093E-07 0 1 0 1 0 -1 0 -1.192093E-07 110 118 -190 3.35 0.5 3.35
9 0 -1.192093E-07 0 1 0 1 0 -1 0 -1.192093E-07 130 118 -190 3.35 0.5 3.35
9 0 -1.192093E-07 0 1 0 1 0 -1 0 -1.192093E-07 10 118 -210 3.35 0.5 3.35
9 0 -1.192093E-07 0 1 0 1 0 -1 0 -1.192093E-07 30 118 -210 3.35 0.5 3.35
9 0 -1.192093E-07 0 1 0 1 0 -1 0 -1.192093E-07 50 118 -210 3.35 0.5 3.35
9 0 -1.192093E-07 0 1 0 1 0 -1 0 -1.192093E-07 70 118 -210 3.35 0.5 3.35
9 0 -1.192093E-07 0 1 0 1 0 -1 0 -1.192093E-07 90 118 -210 3.35 0.5 3.35
9 0 -1.192093E-07 0 1 0 1 0 -1 0 -1.192093E-07 110 118 -210 3.35 0.5 3.35
9 0 -1.192093E-07 0 1 0 1 0 -1 0 -1.192093E-07 130 118 -210 3.35 0.5 3.35
9 0 -1.192093E-07 0 1 0 1 0 -1 0 -1.192093E-07 -150 -2 190 3.35 0.5 3.35
9 0 -1.192093E-07 0 1 0 1 0 -1 0 -1.192093E-07 -150 -2 210 3.35 0.5 3.35
9 0 -1.192093E-07 0 1 0 1 0 -1 0 -1.192093E-07 -150 -2 230 3.35 0.5 3.35
9 0 -1.192093E-07 0 1 0 1 0 -1 0 -1.192093E-07 -150 -2 250 3.35 0.5 3.35
9 0 -1.192093E-07 0 1 0 1 0 -1 0 -1.192093E-07 -150 -2 270 3.35 0.5 3.35
9 0 -1.192093E-07 0 1 0 1 0 -1 0 -1.192093E-07 -150 -2 290 3.35 0.5 3.35
9 0 -1.192093E-07 0 1 0 1 0 -1 0 -1.192093E-07 -150 -2 310 3.35 0.5 3.35
9 0 -1.192093E-07 0 1 0 1 0 -1 0 -1.192093E-07 -150 -2 330 3.35 0.5 3.35
9 0 -1.192093E-07 0 1 0 1 0 -1 0 -1.192093E-07 -150 -2 350 3.35 0.5 3.35
9 0 -1.192093E-07 0 1 0 1 0 -1 0 -1.192093E-07 -150 -2 370 3.35 0.5 3.35
9 0 -1.192093E-07 0 1 0 1 0 -1 0 -1.192093E-07 -150 -2 390 3.35 0.5 3.35
9 0 -1.192093E-07 0 1 0 1 0 -1 0 -1.192093E-07 150 -2 190 3.35 0.5 3.35
9 0 -1.192093E-07 0 1 0 1 0 -1 0 -1.192093E-07 150 -2 210 3.35 0.5 3.35
9 0 -1.192093E-07 0 1 0 1 0 -1 0 -1.192093E-07 150 -2 230 3.35 0.5 3.35
9 0 -1.192093E-07 0 1 0 1 0 -1 0 -1.192093E-07 150 -2 250 3.35 0.5 3.35
9 0 -1.192093E-07 0 1 0 1 0 -1 0 -1.192093E-07 150 -2 270 3.35 0.5 3.35
9 0 -1.192093E-07 0 1 0 1 0 -1 0 -1.192093E-07 150 -2 290 3.35 0.5 3.35
9 0 -1.192093E-07 0 1 0 1 0 -1 0 -1.192093E-07 150 -2 310 3.35 0.5 3.35
9 0 -1.192093E-07 0 1 0 1 0 -1 0 -1.192093E-07 150 -2 330 3.35 0.5 3.35
9 0 -1.192093E-07 0 1 0 1 0 -1 0 -1.192093E-07 150 -2 350 3.35 0.5 3.35
9 0 -1.192093E-07 0 1 0 1 0 -1 0 -1.192093E-07 150 -2 370 3.35 0.5 3.35
9 0 -1.192093E-07 0 1 0 1 0 -1 0 -1.192093E-07 150 -2 390 3.35 0.5 3.35
9 0 -1.192093E-07 0 1 0 1 0 -1 0 -1.192093E-07 -150 -2 -50 3.35 0.5 3.35
9 0 -1.192093E-07 0 1 0 1 0 -1 0 -1.192093E-07 -150 -2 -30 3.35 0.5 3.35
9 0 -1.192093E-07 0 1 0 1 0 -1 0 -1.192093E-07 -150 -2 -10 3.35 0.5 3.35
9 0 -1.192093E-07 0 1 0 1 0 -1 0 -1.192093E-07 -150 -2 10 3.35 0.5 3.35
9 0 -1.192093E-07 0 1 0 1 0 -1 0 -1.192093E-07 -150 -2 30 3.35 0.5 3.35
9 0 -1.192093E-07 0 1 0 1 0 -1 0 -1.192093E-07 -150 -2 50 3.35 0.5 3.35
9 0 -1.192093E-07 0 1 0 1 0 -1 0 -1.192093E-07 -150 -2 70 3.35 0.5 3.35
9 0 -1.192093E-07 0 1 0 1 0 -1 0 -1.192093E-07 -150 -2 90 3.35 0.5 3.35
9 0 -1.192093E-07 0 1 0 1 0 -1 0 -1.192093E-07 -150 -2 110 3.35 0.5 3.35
9 0 -1.192093E-07 0 1 0 1 0 -1 0 -1.192093E-07 -150 -2 130 3.35 0.5 3.35
9 0 -1.192093E-07 0 1 0 1 0 -1 0 -1.192093E-07 -150 -2 150 3.35 0.5 3.35
9 0 -1.192093E-07 0 1 0 1 0 -1 0 -1.192093E-07 -150 -2 170 3.35 0.5 3.35
9 0 -1.192093E-07 0 1 0 1 0 -1 0 -1.192093E-07 150 -2 -50 3.35 0.5 3.35
9 0 -1.192093E-07 0 1 0 1 0 -1 0 -1.192093E-07 150 -2 -30 3.35 0.5 3.35
9 0 -1.192093E-07 0 1 0 1 0 -1 0 -1.192093E-07 150 -2 -10 3.35 0.5 3.35
9 0 -1.192093E-07 0 1 0 1 0 -1 0 -1.192093E-07 150 -2 10 3.35 0.5 3.35
9 0 -1.192093E-07 0 1 0 1 0 -1 0 -1.192093E-07 150 -2 30 3.35 0.5 3.35
9 0 -1.192093E-07 0 1 0 1 0 -1 0 -1.192093E-07 150 -2 50 3.35 0.5 3.35
9 0 -1.192093E-07 0 1 0 1 0 -1 0 -1.192093E-07 150 -2 70 3.35 0.5 3.35
9 0 -1.192093E-07 0 1 0 1 0 -1 0 -1.192093E-07 150 -2 90 3.35 0.5 3.35
9 0 -1.192093E-07 0 1 0 1 0 -1 0 -1.192093E-07 150 -2 110 3.35 0.5 3.35
9 0 -1.192093E-07 0 1 0 1 0 -1 0 -1.192093E-07 150 -2 130 3.35 0.5 3.35
9 0 -1.192093E-07 0 1 0 1 0 -1 0 -1.192093E-07 150 -2 150 3.35 0.5 3.35
9 0 -1.192093E-07 0 1 0 1 0 -1 0 -1.192093E-07 150 -2 170 3.35 0.5 3.35
9 0 -1.192093E-07 0 1 0 1 0 -1 0 -1.192093E-07 -150 -2 -290 3.35 0.5 3.35
9 0 -1.192093E-07 0 1 0 1 0 -1 0 -1.192093E-07 -150 -2 -270 3.35 0.5 3.35
9 0 -1.192093E-07 0 1 0 1 0 -1 0 -1.192093E-07 -150 -2 -250 3.35 0.5 3.35
9 0 -1.192093E-07 0 1 0 1 0 -1 0 -1.192093E-07 -150 -2 -230 3.35 0.5 3.35
9 0 -1.192093E-07 0 1 0 1 0 -1 0 -1.192093E-07 -150 -2 -210 3.35 0.5 3.35
9 0 -1.192093E-07 0 1 0 1 0 -1 0 -1.192093E-07 -150 -2 -190 3.35 0.5 3.35
9 0 -1.192093E-07 0 1 0 1 0 -1 0 -1.192093E-07 -150 -2 -170 3.35 0.5 3.35
9 0 -1.192093E-07 0 1 0 1 0 -1 0 -1.192093E-07 -150 -2 -150 3.35 0.5 3.35
9 0 -1.192093E-07 0 1 0 1 0 -1 0 -1.192093E-07 -150 -2 -130 3.35 0.5 3.35
9 0 -1.192093E-07 0 1 0 1 0 -1 0 -1.192093E-07 -150 -2 -110 3.35 0.5 3.35
9 0 -1.192093E-07 0 1 0 1 0 -1 0 -1.192093E-07 -150 -2 -90 3.35 0.5 3.35
9 0 -1.192093E-07 0 1 0 1 0 -1 0 -1.192093E-07 -150 -2 -70 3.35 0.5 3.35
9 0 -1.192093E-07 0 1 0 1 0 -1 0 -1.192093E-07 150 -2 -290 3.35 0.5 3.35
9 0 -1.192093E-07 0 1 0 1 0 -1 0 -1.192093E-07 150 -2 -270 3.35 0.5 3.35
9 0 -1.192093E-07 0 1 0 1 0 -1 0 -1.192093E-07 150 -2 -250 3.35 0.5 3.35
9 0 -1.192093E-07 0 1 0 1 0 -1 0 -1.192093E-07 150 -2 -230 3.35 0.5 3.35
9 0 -1.192093E-07 0 1 0 1 0 -1 0 -1.192093E-07 150 -2 -210 3.35 0.5 3.35
9 0 -1.192093E-07 0 1 0 1 0 -1 0 -1.192093E-07 150 -2 -190 3.35 0.5 3.35
9 0 -1.192093E-07 0 1 0 1 0 -1 0 -1.192093E-07 150 -2 -170 3.35 0.5 3.35
9 0 -1.192093E-07 0 1 0 1 0 -1 0 -1.192093E-07 150 -2 -150 3.35 0.5 3.35
9 0 -1.192093E-07 0 1 0 1 0 -1 0 -1.192093E-07 150 -2 -130 3.35 0.5 3.35
9 0 -1.192093E-07 0 1 0 1 0 -1 0 -1.192093E-07 150 -2 -110 3.35 0.5 3.35
9 0 -1.192093E-07 0 1 0 1 0 -1 0 -1.192093E-07 150 -2 -90 3.35 0.5 3.35
9 0 -1.192093E-07 0 1 0 1 0 -1 0 -1.192093E-07 150 -2 -70 3.35 0.5 3.35
9 0 -1.192093E-07 0 1 0 1 0 -1 0 -1.192093E-07 -110 118 -230 3.35 0.5 3.35
9 0 -1.192093E-07 0 1 0 1 0 -1 0 -1.192093E-07 -90 118 -230 3.35 0.5 3.35
9 0 -1.192093E-07 0 1 0 1 0 -1 0 -1.192093E-07 -70 118 -230 3.35 0.5 3.35
9 0 -1.192093E-07 0 1 0 1 0 -1 0 -1.192093E-07 -50 118 -230 3.35 0.5 3.35
9 0 -1.192093E-07 0 1 0 1 0 -1 0 -1.192093E-07 -30 118 -230 3.35 0.5 3.35
9 0 -1.192093E-07 0 1 0 1 0 -1 0 -1.192093E-07 -10 118 -230 3.35 0.5 3.35
9 0 -1.192093E-07 0 1 0 1 0 -1 0 -1.192093E-07 10 118 -230 3.35 0.5 3.35
9 0 -1.192093E-07 0 1 0 1 0 -1 0 -1.192093E-07 30 118 -230 3.35 0.5 3.35
9 0 -1.192093E-07 0 1 0 1 0 -1 0 -1.192093E-07 50 118 -230 3.35 0.5 3.35
9 0 -1.192093E-07 0 1 0 1 0 -1 0 -1.192093E-07 70 118 -230 3.35 0.5 3.35
9 0 -1.192093E-07 0 1 0 1 0 -1 0 -1.192093E-07 90 118 -230 3.35 0.5 3.35
9 0 -1.192093E-07 0 1 0 1 0 -1 0 -1.192093E-07 110 118 -230 3.35 0.5 3.35
9 0 -1.192093E-07 0 1 0 1 0 -1 0 -1.192093E-07 -110 118 -250 3.35 0.5 3.35
9 0 -1.192093E-07 0 1 0 1 0 -1 0 -1.192093E-07 -90 118 -250 3.35 0.5 3.35
9 0 -1.192093E-07 0 1 0 1 0 -1 0 -1.192093E-07 -70 118 -250 3.35 0.5 3.35
9 0 -1.192093E-07 0 1 0 1 0 -1 0 -1.192093E-07 -50 118 -250 3.35 0.5 3.35
9 0 -1.192093E-07 0 1 0 1 0 -1 0 -1.192093E-07 -30 118 -250 3.35 0.5 3.35
9 0 -1.192093E-07 0 1 0 1 0 -1 0 -1.192093E-07 -10 118 -250 3.35 0.5 3.35
9 0 -1.192093E-07 0 1 0 1 0 -1 0 -1.192093E-07 10 118 -250 3.35 0.5 3.35
9 0 -1.192093E-07 0 1 0 1 0 -1 0 -1.192093E-07 30 118 -250 3.35 0.5 3.35
9 0 -1.192093E-07 0 1 0 1 0 -1 0 -1.192093E-07 50 118 -250 3.35 0.5 3.35
9 0 -1.192093E-07 0 1 0 1 0 -1 0 -1.192093E-07 70 118 -250 3.35 0.5 3.35
9 0 -1.192093E-07 0 1 0 1 0 -1 0 -1.192093E-07 90 118 -250 3.35 0.5 3.35
9 0 -1.192093E-07 0 1 0 1 0 -1 0 -1.192093E-07 110 118 -250 3.35 0.5 3.35
9 0 -1.192093E-07 0 1 0 1 0 -1 0 -1.192093E-07 -90 118 -270 3.35 0.5 3.35
9 0 -1.192093E-07 0 1 0 1 0 -1 0 -1.192093E-07 -70 118 -270 3.35 0.5 3.35
9 0 -1.192093E-07 0 1 0 1 0 -1 0 -1.192093E-07 -50 118 -270 3.35 0.5 3.35
9 0 -1.192093E-07 0 1 0 1 0 -1 0 -1.192093E-07 -30 118 -270 3.35 0.5 3.35
9 0 -1.192093E-07 0 1 0 1 0 -1 0 -1.192093E-07 -10 118 -270 3.35 0.5 3.35
9 0 -1.192093E-07 0 1 0 1 0 -1 0 -1.192093E-07 10 118 -270 3.35 0.5 3.35
9 0 -1.192093E-07 0 1 0 1 0 -1 0 -1.192093E-07 30 118 -270 3.35 0.5 3.35
9 0 -1.192093E-07 0 1 0 1 0 -1 0 -1.192093E-07 50 118 -270 3.35 0.5 3.35
9 0 -1.192093E-07 0 1 0 1 0 -1 0 -1.192093E-07 70 118 -270 3.35 0.5 3.35
9 0 -1.192093E-07 0 1 0 1 0 -1 0 -1.192093E-07 90 118 -270 3.35 0.5 3.35
9 0 -1.192093E-07 0 1 0 1 0 -1 0 -1.192093E-07 -90 118 -290 3.35 0.5 3.35
9 0 -1.192093E-07 0 1 0 1 0 -1 0 -1.192093E-07 -70 118 -290 3.35 0.5 3.35
9 0 -1.192093E-07 0 1 0 1 0 -1 0 -1.192093E-07 -50 118 -290 3.35 0.5 3.35
9 0 -1.192093E-07 0 1 0 1 0 -1 0 -1.192093E-07 -30 118 -290 3.35 0.5 3.35
9 0 -1.192093E-07 0 1 0 1 0 -1 0 -1.192093E-07 -10 118 -290 3.35 0.5 3.35
9 0 -1.192093E-07 0 1 0 1 0 -1 0 -1.192093E-07 10 118 -290 3.35 0.5 3.35
9 0 -1.192093E-07 0 1 0 1 0 -1 0 -1.192093E-07 30 118 -290 3.35 0.5 3.35
9 0 -1.192093E-07 0 1 0 1 0 -1 0 -1.192093E-07 50 118 -290 3.35 0.5 3.35
9 0 -1.192093E-07 0 1 0 1 0 -1 0 -1.192093E-07 70 118 -290 3.35 0.5 3.35
9 0 -1.192093E-07 0 1 0 1 0 -1 0 -1.192093E-07 90 118 -290 3.35 0.5 3.35
9 0 -1.192093E-07 0 1 0 1 0 -1 0 -1.192093E-07 -70 118 -310 3.35 0.5 3.35
9 0 -1.192093E-07 0 1 0 1 0 -1 0 -1.192093E-07 -50 118 -310 3.35 0.5 3.35
9 0 -1.192093E-07 0 1 0 1 0 -1 0 -1.192093E-07 -30 118 -310 3.35 0.5 3.35
9 0 -1.192093E-07 0 1 0 1 0 -1 0 -1.192093E-07 -10 118 -310 3.35 0.5 3.35
9 0 -1.192093E-07 0 1 0 1 0 -1 0 -1.192093E-07 10 118 -310 3.35 0.5 3.35
9 0 -1.192093E-07 0 1 0 1 0 -1 0 -1.192093E-07 30 118 -310 3.35 0.5 3.35
9 0 -1.192093E-07 0 1 0 1 0 -1 0 -1.192093E-07 50 118 -310 3.35 0.5 3.35
9 0 -1.192093E-07 0 1 0 1 0 -1 0 -1.192093E-07 70 118 -310 3.35 0.5 3.35
9 0 -1.192093E-07 0 1 0 1 0 -1 0 -1.192093E-07 -50 118 -330 3.35 0.5 3.35
9 0 -1.192093E-07 0 1 0 1 0 -1 0 -1.192093E-07 -30 118 -330 3.35 0.5 3.35
9 0 -1.192093E-07 0 1 0 1 0 -1 0 -1.192093E-07 -10 118 -330 3.35 0.5 3.35
9 0 -1.192093E-07 0 1 0 1 0 -1 0 -1.192093E-07 10 118 -330 3.35 0.5 3.35
9 0 -1.192093E-07 0 1 0 1 0 -1 0 -1.192093E-07 30 118 -330 3.35 0.5 3.35
9 0 -1.192093E-07 0 1 0 1 0 -1 0 -1.192093E-07 50 118 -330 3.35 0.5 3.35
9 0 -1.192093E-07 0 1 0 1 0 -1 0 -1.192093E-07 -30 118 -350 3.35 0.5 3.35
9 0 -1.192093E-07 0 1 0 1 0 -1 0 -1.192093E-07 -10 118 -350 3.35 0.5 3.35
9 0 -1.192093E-07 0 1 0 1 0 -1 0 -1.192093E-07 10 118 -350 3.35 0.5 3.35
9 0 -1.192093E-07 0 1 0 1 0 -1 0 -1.192093E-07 30 118 -350 3.35 0.5 3.35
9 0 -1.192093E-07 0 1 0 1 0 -1 0 -1.192093E-07 90 -2 -430 3.35 0.5 3.35
9 0 -1.192093E-07 0 1 0 1 0 -1 0 -1.192093E-07 -90 -2 -430 3.35 0.5 3.35
9 0 -1.192093E-07 0 1 0 1 0 -1 0 -1.192093E-07 30 -2 -490 3.35 0.5 3.35
9 0 -1.192093E-07 0 1 0 1 0 -1 0 -1.192093E-07 -30 -2 -490 3.35 0.5 3.35
9 0 1 0 0 0 1 0 0 0 1 -1 122.5 75.5 129.5 1 328
9 0 1 0 0 0 1 0 0 0 1 142.5 61 100 1 59.5 319.5
9 0 1 0 0 0 1 0 0 0 1 -142.5 61 100 1 59.5 319.5
9 0 1 0 0 0 1 0 0 0 1 0 97.5 402.5 141.5 24 1
9 0 1 0 0 0 1 0 0 0 1 0 122.5 -300 66.5 1 47.5
9 0 1 0 0 0 1 0 0 0 1 0 74.5 441 83.5 1 37.5
9 0 1 0 0 0 1 0 0 0 1 151 2.5 63.5 7.5 1 348
9 0 1 0 0 0 1 0 0 0 1 -151 2.5 63.5 7.5 1 348
9 0 1 0 0 0 1 0 0 0 1 134.5 122.5 91 6 1 312.5
9 0 1 0 0 0 1 0 0 0 1 -135.5 122.5 91 5 1 312.5
9 0 1 0 0 0 1 0 0 0 1 111.5 37.5 402.5 30 36 1
9 0 1 0 0 0 1 0 0 0 1 -111.5 37.5 402.5 30 36 1
9 0 1 0 0 0 1 0 0 0 1 85 122.5 -279 18.5 1 26.5
9 0 1 0 0 0 1 0 0 0 1 -85 122.5 -279 18.5 1 26.5
9 0 1 0 0 0 1 0 0 0 1 142.5 30.5 -236 1 29 16.5
9 0 1 0 0 0 1 0 0 0 1 -142.5 30.5 -236 1 29 16.5
9 0 1 0 0 0 1 0 0 0 1 82.5 49.5 421.5 1 24 18
9 0 1 0 0 0 1 0 0 0 1 -82.5 49.5 421.5 1 24 18
9 0 1 0 0 0 1 0 0 0 1 0 122.5 -363 24.5 1 15.5
9 0 1 0 0 0 1 0 0 0 1 142.5 85 429 1 35.5 9.5
9 0 1 0 0 0 1 0 0 0 1 -142.5 85 429 1 35.5 9.5
9 0 1 0 0 0 1 0 0 0 1 111.5 2.5 411.5 30 1 8
9 0 1 0 0 0 1 0 0 0 1 -111.5 2.5 411.5 30 1 8
9 0 1 0 0 0 1 0 0 0 1 142 121.5 119.5 0.5 1 339
9 0 1 0 0 0 1 0 0 0 1 -142 121.5 119.5 0.5 1 339
9 0 1 0 0 0 1 0 0 0 1 142.5 75.5 -227.5 1 16 8
9 0 1 0 0 0 1 0 0 0 1 -142.5 75.5 -227.5 1 16 8
9 0 1 0 0 0 1 0 0 0 1 82.5 61.5 449.5 1 12 10
9 0 1 0 0 0 1 0 0 0 1 -82.5 61.5 449.5 1 12 10
9 0 1 0 0 0 1 0 0 0 1 76 122.5 -317 9.5 1 11.5
9 0 1 0 0 0 1 0 0 0 1 -76 122.5 -317 9.5 1 11.5
9 0 1 0 0 0 1 0 0 0 1 142.5 16 -260 1 14.5 7.5
9 0 1 0 0 0 1 0 0 0 1 -142.5 16 -260 1 14.5 7.5
9 0 1 0 0 0 1 0 0 0 1 142.5 101.5 444 1 19 5.5
9 0 1 0 0 0 1 0 0 0 1 -142.5 101.5 444 1 19 5.5
9 0 1 0 0 0 1 0 0 0 1 145.5 2.5 -307 5 1 20.5
9 0 1 0 0 0 1 0 0 0 1 -145.5 2.5 -307 5 1 20.5
9 0 1 0 0 0 1 0 0 0 1 -110.5 122.5 -267 7 1 14.5
9 0 1 0 0 0 1 0 0 0 1 111.5 122.5 -265 8 1 12.5
9 0 1 0 0 0 1 0 0 0 1 82.5 16 413.5 1 9.5 10
9 0 1 0 0 0 1 0 0 0 1 -82.5 16 413.5 1 9.5 10
9 0 1 0 0 0 1 0 0 0 1 -36 122.5 -355.5 11.5 1 8
9 0 1 0 0 0 1 0 0 0 1 36.5 122.5 -355 12 1 7.5
9 0 1 0 0 0 1 0 0 0 1 141 122 90 0.5 0.5 313.5
9 0 1 0 0 0 1 0 0 0 1 -141 122 90 0.5 0.5 313.5
9 0 1 0 0 0 1 0 0 0 1 0 2.5 -506.5 10.5 1 7
9 0 1 0 0 0 1 0 0 0 1 137 2.5 -342 4.5 1 14.5
9 0 1 0 0 0 1 0 0 0 1 -136 2.5 -345 4.5 1 14.5
9 0 1 0 0 0 1 0 0 0 1 0 121 517 83.5 1.5 0.5
9 0 1 0 0 0 1 0 0 0 1 142.5 37 424.5 1 12.5 5
9 0 1 0 0 0 1 0 0 0 1 -142.5 37 424.5 1 12.5 5
9 0 1 0 0 0 1 0 0 0 1 126.5 2.5 -370 4 1 12.5
9 0 1 0 0 0 1 0 0 0 1 -125.5 2.5 -372.5 5 1 10
9 0 1 0 0 0 1 0 0 0 1 113 2.5 -397.5 4.5 1 10
9 0 1 0 0 0 1 0 0 0 1 -112.5 2.5 -398.5 5 1 9
9 0 1 0 0 0 1 0 0 0 1 0 109.5 508 87.5 1 0.5
9 0 1 0 0 0 1 0 0 0 1 0 115.5 513 84.5 1 0.5
9 0 1 0 0 0 1 0 0 0 1 0 104.5 504 80.5 1 0.5
9 0 1 0 0 0 1 0 0 0 1 101.5 2.5 -416.5 5 1 8
9 0 1 0 0 0 1 0 0 0 1 20.5 2.5 -496.5 8 1 5
9 0 1 0 0 0 1 0 0 0 1 -20.5 2.5 -496.5 8 1 5
9 0 1 0 0 0 1 0 0 0 1 -101.5 2.5 -416.5 5 1 8
9 0 1 0 0 0 1 0 0 0 1 0 110.5 509 79.5 1 0.5
9 0 1 0 0 0 1 0 0 0 1 0 74.5 479 79.5 1 0.5
9 0 1 0 0 0 1 0 0 0 1 0 116.5 514 78.5 1 0.5
9 0 1 0 0 0 1 0 0 0 1 0 105.5 505 78.5 1 0.5
9 0 1 0 0 0 1 0 0 0 1 0 122.5 -383 8.5 1 4.5
9 0 1 0 0 0 1 0 0 0 1 79.5 2.5 -445 5 1 7.5
9 0 1 0 0 0 1 0 0 0 1 48 2.5 -475.5 7.5 1 5
9 0 1 0 0 0 1 0 0 0 1 -37 2.5 -484.5 7.5 1 5
9 0 1 0 0 0 1 0 0 0 1 -79.5 2.5 -445 5 1 7.5
9 0 1 0 0 0 1 0 0 0 1 -91.5 2.5 -430 5 1 7.5
9 0 1 0 0 0 1 0 0 0 1 91.5 2.5 -430.5 6 1 6
9 0 1 0 0 0 1 0 0 0 1 63.5 2.5 -461.5 6 1 6
9 0 1 0 0 0 1 0 0 0 1 36.5 2.5 -485 8 1 4.5
9 0 1 0 0 0 1 0 0 0 1 -48.5 2.5 -475 8 1 4.5
9 0 1 0 0 0 1 0 0 0 1 -60.5 2.5 -464.5 6 1 6
9 0 1 0 0 0 1 0 0 0 1 142.5 66.5 -240.5 1 7 5
9 0 1 0 0 0 1 0 0 0 1 -142.5 66.5 -240.5 1 7 5
9 0 1 0 0 0 1 0 0 0 1 142 12 -274 0.5 10.5 6.5
9 0 1 0 0 0 1 0 0 0 1 -142 12 -274 0.5 10.5 6.5
9 0 1 0 0 0 1 0 0 0 1 -70.5 2.5 -454.5 4 1 8
9 0 1 0 0 0 1 0 0 0 1 142.5 100.5 -223 1 9 3.5
9 0 1 0 0 0 1 0 0 0 1 -142.5 100.5 -223 1 9 3.5
9 0 1 0 0 0 1 0 0 0 1 120 2.5 -382 2.5 1 12.5
9 0 1 0 0 0 1 0 0 0 1 142.5 110.5 452.5 1 10 3
9 0 1 0 0 0 1 0 0 0 1 131.5 122.5 -231.5 3 1 10
9 0 1 0 0 0 1 0 0 0 1 107.5 122.5 -285 4 1 7.5
9 0 1 0 0 0 1 0 0 0 1 82.5 67.5 464.5 1 6 5
9 0 1 0 0 0 1 0 0 0 1 82.5 43.5 444.5 1 6 5
9 0 1 0 0 0 1 0 0 0 1 -82.5 67.5 464.5 1 6 5
9 0 1 0 0 0 1 0 0 0 1 -82.5 43.5 444.5 1 6 5
9 0 1 0 0 0 1 0 0 0 1 -142.5 110.5 452.5 1 10 3
9 0 1 0 0 0 1 0 0 0 1 142.5 37.5 -256.5 1 7 4
9 0 1 0 0 0 1 0 0 0 1 -142.5 37.5 -256.5 1 7 4
9 0 1 0 0 0 1 0 0 0 1 90.5 122.5 -311 5 1 5.5
9 0 1 0 0 0 1 0 0 0 1 -90.5 122.5 -311 5 1 5.5
9 0 1 0 0 0 1 0 0 0 1 0 79 483 106.5 0.5 0.5
9 0 1 0 0 0 1 0 0 0 1 0 84 487 105.5 0.5 0.5
9 0 1 0 0 0 1 0 0 0 1 -121 122.5 -260 3.5 1 7.5
9 0 1 0 0 0 1 0 0 0 1 -119 2.5 -386 7.5 1 3.5
9 0 1 0 0 0 1 0 0 0 1 0 89 491 103.5 0.5 0.5
9 0 1 0 0 0 1 0 0 0 1 0 85 488 103.5 0.5 0.5
9 0 1 0 0 0 1 0 0 0 1 0 90 492 101.5 0.5 0.5
9 0 1 0 0 0 1 0 0 0 1 153 2.5 -294.5 2.5 1 10
9 0 1 0 0 0 1 0 0 0 1 29.5 122.5 -367.5 5 1 5
9 0 1 0 0 0 1 0 0 0 1 -152.5 2.5 -297 2 1 12.5
9 0 1 0 0 0 1 0 0 0 1 0 95 496 99.5 0.5 0.5
9 0 1 0 0 0 1 0 0 0 1 0 100 500 98.5 0.5 0.5
9 0 1 0 0 0 1 0 0 0 1 0 96 497 98.5 0.5 0.5
9 0 1 0 0 0 1 0 0 0 1 0 101 501 97.5 0.5 0.5
9 0 1 0 0 0 1 0 0 0 1 0 102 502 96.5 0.5 0.5
9 0 1 0 0 0 1 0 0 0 1 0 91 493 96.5 0.5 0.5
9 0 1 0 0 0 1 0 0 0 1 0 107 506 93.5 0.5 0.5
9 0 1 0 0 0 1 0 0 0 1 0 97 498 93.5 0.5 0.5
9 0 1 0 0 0 1 0 0 0 1 0 112 510 92.5 0.5 0.5
9 0 1 0 0 0 1 0 0 0 1 0 113 511 91.5 0.5 0.5
9 0 1 0 0 0 1 0 0 0 1 0 118 515 90.5 0.5 0.5
9 0 1 0 0 0 1 0 0 0 1 0 108 507 90.5 0.5 0.5
9 0 1 0 0 0 1 0 0 0 1 0 103 503 90.5 0.5 0.5
9 0 1 0 0 0 1 0 0 0 1 71.5 122.5 -333 5 1 4.5
9 0 1 0 0 0 1 0 0 0 1 -29.5 122.5 -368 5 1 4.5
9 0 1 0 0 0 1 0 0 0 1 -71 122.5 -333.5 4.5 1 5
9 0 1 0 0 0 1 0 0 0 1 -107.5 122.5 -287 4 1 5.5
9 0 1 0 0 0 1 0 0 0 1 0 114 512 87.5 0.5 0.5
9 0 1 0 0 0 1 0 0 0 1 0 119 516 86.5 0.5 0.5
9 0 1 0 0 0 1 0 0 0 1 142.5 74 441 1 8.5 2.5
9 0 1 0 0 0 1 0 0 0 1 -133 122.5 -230 2.5 1 8.5
9 0 1 0 0 0 1 0 0 0 1 -142.5 74 441 1 8.5 2.5
9 0 1 0 0 0 1 0 0 0 1 -143 2.5 -336 2.5 1 8.5
9 0 1 0 0 0 1 0 0 0 1 72 2.5 -451.5 2.5 1 8
9 0 1 0 0 0 1 0 0 0 1 -129 2.5 -354.5 2.5 1 8
9 0 1 0 0 0 1 0 0 0 1 -138 2.5 -322.5 2.5 1 8
9 0 1 0 0 0 1 0 0 0 1 0 92 494 79.5 0.5 0.5
9 0 1 0 0 0 1 0 0 0 1 0 86 489 79.5 0.5 0.5
9 0 1 0 0 0 1 0 0 0 1 0 87 490 78.5 0.5 0.5
9 0 1 0 0 0 1 0 0 0 1 -53 122.5 -351 5.5 1 3.5
9 0 1 0 0 0 1 0 0 0 1 131.5 2.5 -352.5 1 1 19
9 0 1 0 0 0 1 0 0 0 1 122 122.5 -260 2.5 1 7.5
9 0 1 0 0 0 1 0 0 0 1 82.5 21.5 428 1 4 4.5
9 0 1 0 0 0 1 0 0 0 1 -82.5 21.5 428 1 4 4.5
9 0 1 0 0 0 1 0 0 0 1 144 2.5 -334.5 2.5 1 7
9 0 1 0 0 0 1 0 0 0 1 138.5 2.5 -319 2 1 8.5
9 0 1 0 0 0 1 0 0 0 1 54 122.5 -350.5 5.5 1 3
9 0 1 0 0 0 1 0 0 0 1 142.5 18 422 1 6.5 2.5
9 0 1 0 0 0 1 0 0 0 1 -142.5 18 422 1 6.5 2.5
9 0 1 0 0 0 1 0 0 0 1 149.5 2.5 414 6 1 2.5
9 0 1 0 0 0 1 0 0 0 1 143 7.5 -272.5 0.5 6 5
9 0 1 0 0 0 1 0 0 0 1 54.5 2.5 -469 10 1 1.5
9 0 1 0 0 0 1 0 0 0 1 -143 7.5 -272.5 0.5 6 5
9 0 1 0 0 0 1 0 0 0 1 -148.5 2.5 414.5 5 1 3
9 0 1 0 0 0 1 0 0 0 1 143 121 236.5 0.5 0.5 59
9 0 1 0 0 0 1 0 0 0 1 -143 121 236.5 0.5 0.5 59
9 0 1 0 0 0 1 0 0 0 1 141 123 -1 0.5 0.5 58.5
9 0 1 0 0 0 1 0 0 0 1 -141 123 -1 0.5 0.5 58.5
9 0 1 0 0 0 1 0 0 0 1 105 2.5 -404.5 3.5 1 4
9 0 1 0 0 0 1 0 0 0 1 142.5 44 432 1 5.5 2.5
9 0 1 0 0 0 1 0 0 0 1 -142.5 44 432 1 5.5 2.5
9 0 1 0 0 0 1 0 0 0 1 15 2.5 -504.5 4.5 1 3
9 0 1 0 0 0 1 0 0 0 1 -15 2.5 -504.5 4.5 1 3
9 0 1 0 0 0 1 0 0 0 1 142 112 458.5 0.5 8.5 3
9 0 1 0 0 0 1 0 0 0 1 82.5 5 412 1 1.5 8.5
9 0 1 0 0 0 1 0 0 0 1 -82.5 5 412 1 1.5 8.5
9 0 1 0 0 0 1 0 0 0 1 -142 112 458.5 0.5 8.5 3
9 0 1 0 0 0 1 0 0 0 1 135 2.5 -361.5 2.5 1 5
9 0 1 0 0 0 1 0 0 0 1 88 2.5 -440 3.5 1 3.5
9 0 1 0 0 0 1 0 0 0 1 32.5 2.5 -492.5 4 1 3
9 0 1 0 0 0 1 0 0 0 1 -25.5 2.5 -488.5 4 1 3
9 0 1 0 0 0 1 0 0 0 1 -104.5 2.5 -404.5 3 1 4
9 0 1 0 0 0 1 0 0 0 1 -133.5 2.5 -365.5 2 1 6
9 0 1 0 0 0 1 0 0 0 1 142 93 452.5 0.5 7.5 3
9 0 1 0 0 0 1 0 0 0 1 142 81 -238.5 0.5 7.5 3
9 0 1 0 0 0 1 0 0 0 1 -118 2.5 -378 2.5 1 4.5
9 0 1 0 0 0 1 0 0 0 1 -142 93 452.5 0.5 7.5 3
9 0 1 0 0 0 1 0 0 0 1 -142 81 -238.5 0.5 7.5 3
9 0 1 0 0 0 1 0 0 0 1 128.5 2.5 -352 2 1 5.5
9 0 1 0 0 0 1 0 0 0 1 142 98.5 -229.5 0.5 7 3
9 0 1 0 0 0 1 0 0 0 1 142 36.5 -264 0.5 6 3.5
9 0 1 0 0 0 1 0 0 0 1 93.5 2.5 -421 3 1 3.5
9 0 1 0 0 0 1 0 0 0 1 25 2.5 -488.5 3.5 1 3
9 0 1 0 0 0 1 0 0 0 1 -33 2.5 -492.5 3.5 1 3
9 0 1 0 0 0 1 0 0 0 1 -83.5 2.5 -434 3 1 3.5
9 0 1 0 0 0 1 0 0 0 1 -87.5 2.5 -441 3 1 3.5
9 0 1 0 0 0 1 0 0 0 1 -120.5 2.5 -393 3 1 3.5
9 0 1 0 0 0 1 0 0 0 1 -142 98.5 -229.5 0.5 7 3
9 0 1 0 0 0 1 0 0 0 1 -142 36.5 -264 0.5 6 3.5
9 0 1 0 0 0 1 0 0 0 1 142 74.5 446 0.5 8 2.5
9 0 1 0 0 0 1 0 0 0 1 115.5 2.5 -382.5 2 1 5
9 0 1 0 0 0 1 0 0 0 1 109 2.5 -412.5 2.5 1 4
9 0 1 0 0 0 1 0 0 0 1 -50.5 2.5 -468 4 1 2.5
9 0 1 0 0 0 1 0 0 0 1 -109 2.5 -412.5 2.5 1 4
9 0 1 0 0 0 1 0 0 0 1 -142 74.5 446 0.5 8 2.5
9 0 1 0 0 0 1 0 0 0 1 66.5 2.5 -452.5 3 1 3
9 0 1 0 0 0 1 0 0 0 1 54.5 2.5 -464.5 3 1 3
9 0 1 0 0 0 1 0 0 0 1 13 122.5 -380.5 4.5 1 2
9 0 1 0 0 0 1 0 0 0 1 -13 122.5 -380.5 4.5 1 2
9 0 1 0 0 0 1 0 0 0 1 38 122.5 -365 3.5 1 2.5
9 0 1 0 0 0 1 0 0 0 1 142 50 -255.5 0.5 5.5 3
9 0 1 0 0 0 1 0 0 0 1 142 7 -283.5 0.5 5.5 3
9 0 1 0 0 0 1 0 0 0 1 -142 50 -255.5 0.5 5.5 3
9 0 1 0 0 0 1 0 0 0 1 -142 7 -283.5 0.5 5.5 3
9 0 1 0 0 0 1 0 0 0 1 142 29 -270 0.5 6.5 2.5
9 0 1 0 0 0 1 0 0 0 1 -142 29 -270 0.5 6.5 2.5
9 0 1 0 0 0 1 0 0 0 1 124.5 2.5 -386.5 2 1 4
9 0 1 0 0 0 1 0 0 0 1 113.5 122.5 -281.5 2 1 4
9 0 1 0 0 0 1 0 0 0 1 -94.5 2.5 -418.5 2 1 4
9 0 1 0 0 0 1 0 0 0 1 -98.5 2.5 -428.5 2 1 4
9 0 1 0 0 0 1 0 0 0 1 152 2.5 -309.5 1.5 1 5
9 0 1 0 0 0 1 0 0 0 1 142 64.5 -248.5 0.5 5 3
9 0 1 0 0 0 1 0 0 0 1 142 59.5 441 0.5 6 2.5
9 0 1 0 0 0 1 0 0 0 1 88.5 122.5 -319 3 1 2.5
9 0 1 0 0 0 1 0 0 0 1 82.5 58.5 462 1 3 2.5
9 0 1 0 0 0 1 0 0 0 1 82.5 46.5 452 1 3 2.5
9 0 1 0 0 0 1 0 0 0 1 82.5 34.5 442 1 3 2.5
9 0 1 0 0 0 1 0 0 0 1 83 2.5 -433.5 2.5 1 3
9 0 1 0 0 0 1 0 0 0 1 37.5 2.5 -478 3 1 2.5
9 0 1 0 0 0 1 0 0 0 1 -47.5 2.5 -482 3 1 2.5
9 0 1 0 0 0 1 0 0 0 1 -63.5 2.5 -456 3 1 2.5
9 0 1 0 0 0 1 0 0 0 1 -82.5 58.5 462 1 3 2.5
9 0 1 0 0 0 1 0 0 0 1 -82.5 46.5 452 1 3 2.5
9 0 1 0 0 0 1 0 0 0 1 -82.5 34.5 442 1 3 2.5
9 0 1 0 0 0 1 0 0 0 1 -88 122.5 -319.5 2.5 1 3
9 0 1 0 0 0 1 0 0 0 1 -139.5 2.5 -307 1 1 7.5
9 0 1 0 0 0 1 0 0 0 1 -142 64.5 -248.5 0.5 5 3
9 0 1 0 0 0 1 0 0 0 1 -142 59.5 441 0.5 6 2.5
9 0 1 0 0 0 1 0 0 0 1 142 113.5 -223 0.5 4 3.5
9 0 1 0 0 0 1 0 0 0 1 82.5 70 471.5 1 3.5 2
9 0 1 0 0 0 1 0 0 0 1 0 2.5 -515.5 3.5 1 2
9 0 1 0 0 0 1 0 0 0 1 -38 122.5 -365.5 3.5 1 2
9 0 1 0 0 0 1 0 0 0 1 -82.5 70 471.5 1 3.5 2
9 0 1 0 0 0 1 0 0 0 1 -142 113.5 -223 0.5 4 3.5
9 0 1 0 0 0 1 0 0 0 1 -155.5 2.5 -291.5 1 1 7
9 0 1 0 0 0 1 0 0 0 1 141 8 -289.5 0.5 4.5 3
9 0 1 0 0 0 1 0 0 0 1 140 6 -296.5 0.5 4.5 3
9 0 1 0 0 0 1 0 0 0 1 136 122.5 -226 1.5 1 4.5
9 0 1 0 0 0 1 0 0 0 1 -140 6 -296.5 0.5 4.5 3
9 0 1 0 0 0 1 0 0 0 1 -141 8 -289.5 0.5 4.5 3
9 0 1 0 0 0 1 0 0 0 1 106 122.5 -295 2.5 1 2.5
9 0 1 0 0 0 1 0 0 0 1 82.5 15 426 1 2.5 2.5
9 0 1 0 0 0 1 0 0 0 1 77 2.5 -455 2.5 1 2.5
9 0 1 0 0 0 1 0 0 0 1 69 122.5 -340 2.5 1 2.5
9 0 1 0 0 0 1 0 0 0 1 58 2.5 -473 2.5 1 2.5
9 0 1 0 0 0 1 0 0 0 1 -77 2.5 -455 2.5 1 2.5
9 0 1 0 0 0 1 0 0 0 1 -78 122.5 -331 2.5 1 2.5
9 0 1 0 0 0 1 0 0 0 1 -82.5 15 426 1 2.5 2.5
9 0 1 0 0 0 1 0 0 0 1 -106 122.5 -295 2.5 1 2.5
9 0 1 0 0 0 1 0 0 0 1 141 115.5 465.5 0.5 6 2
9 0 1 0 0 0 1 0 0 0 1 130 122.5 -245.5 1.5 1 4
9 0 1 0 0 0 1 0 0 0 1 100.5 2.5 -426.5 3 1 2
9 0 1 0 0 0 1 0 0 0 1 51.5 122.5 -355.5 3 1 2
9 0 1 0 0 0 1 0 0 0 1 47.5 2.5 -482.5 3 1 2
9 0 1 0 0 0 1 0 0 0 1 -37.5 2.5 -477.5 3 1 2
9 0 1 0 0 0 1 0 0 0 1 -50.5 122.5 -356.5 3 1 2
9 0 1 0 0 0 1 0 0 0 1 -119 122.5 -271.5 1.5 1 4
9 0 1 0 0 0 1 0 0 0 1 -126 122.5 -256.5 1.5 1 4
9 0 1 0 0 0 1 0 0 0 1 -141 115.5 465.5 0.5 6 2
9 0 1 0 0 0 1 0 0 0 1 143 79 -237.5 0.5 5.5 2
9 0 1 0 0 0 1 0 0 0 1 142 33 431.5 0.5 5.5 2
9 0 1 0 0 0 1 0 0 0 1 -142 33 431.5 0.5 5.5 2
9 0 1 0 0 0 1 0 0 0 1 -143 79 -237.5 0.5 5.5 2
9 0 1 0 0 0 1 0 0 0 1 141 17 -284.5 0.5 3.5 3
9 0 1 0 0 0 1 0 0 0 1 126 122.5 -257 1.5 1 3.5
9 0 1 0 0 0 1 0 0 0 1 119 2.5 -398 1.5 1 3.5
9 0 1 0 0 0 1 0 0 0 1 107 2.5 -397 1.5 1 3.5
9 0 1 0 0 0 1 0 0 0 1 9 2.5 -498 3.5 1 1.5
9 0 1 0 0 0 1 0 0 0 1 -9 2.5 -498 3.5 1 1.5
9 0 1 0 0 0 1 0 0 0 1 -97 122.5 -309 1.5 1 3.5
9 0 1 0 0 0 1 0 0 0 1 -125 2.5 -359 1.5 1 3.5
9 0 1 0 0 0 1 0 0 0 1 -141 17 -284.5 0.5 3.5 3
9 0 1 0 0 0 1 0 0 0 1 -147 2.5 -331 1.5 1 3.5
9 0 1 0 0 0 1 0 0 0 1 143 96.5 -228.5 0.5 5 2
9 0 1 0 0 0 1 0 0 0 1 141 103.5 461.5 0.5 5 2
9 0 1 0 0 0 1 0 0 0 1 139 5.5 -302 0.5 4 2.5
9 0 1 0 0 0 1 0 0 0 1 79 122.5 -330.5 2.5 1 2
9 0 1 0 0 0 1 0 0 0 1 -58.5 2.5 -473 2 1 2.5
9 0 1 0 0 0 1 0 0 0 1 -68.5 122.5 -341 2 1 2.5
9 0 1 0 0 0 1 0 0 0 1 -136.5 122.5 -226.5 1 1 5
9 0 1 0 0 0 1 0 0 0 1 -141 103.5 461.5 0.5 5 2
9 0 1 0 0 0 1 0 0 0 1 -143 96.5 -228.5 0.5 5 2
9 0 1 0 0 0 1 0 0 0 1 143 18 -269.5 0.5 4.5 2
9 0 1 0 0 0 1 0 0 0 1 142 45 436.5 0.5 4.5 2
9 0 1 0 0 0 1 0 0 0 1 143 2.5 -344.5 1.5 1 3
9 0 1 0 0 0 1 0 0 0 1 141 94.5 458 0.5 6 1.5
9 0 1 0 0 0 1 0 0 0 1 141 26 -279.5 0.5 4.5 2
9 0 1 0 0 0 1 0 0 0 1 -130 2.5 -343.5 1.5 1 3
9 0 1 0 0 0 1 0 0 0 1 -141 94.5 458 0.5 6 1.5
9 0 1 0 0 0 1 0 0 0 1 -141 26 -279.5 0.5 4.5 2
9 0 1 0 0 0 1 0 0 0 1 -142 45 436.5 0.5 4.5 2
9 0 1 0 0 0 1 0 0 0 1 -141.5 2.5 -349 1 1 4.5
9 0 1 0 0 0 1 0 0 0 1 -143 18 -269.5 0.5 4.5 2
9 0 1 0 0 0 1 0 0 0 1 -151.5 2.5 -314 1 1 4.5
9 0 1 0 0 0 1 0 0 0 1 -131 2.5 -371 0.5 1 8.5
9 0 1 0 0 0 1 0 0 0 1 141 86 455 0.5 5.5 1.5
9 0 1 0 0 0 1 0 0 0 1 141 78 452 0.5 5.5 1.5
9 0 1 0 0 0 1 0 0 0 1 -132 122 -244 1.5 0.5 5.5
9 0 1 0 0 0 1 0 0 0 1 -141 86 455 0.5 5.5 1.5
9 0 1 0 0 0 1 0 0 0 1 -141 78 452 0.5 5.5 1.5
9 0 1 0 0 0 1 0 0 0 1 156.5 2.5 -288.5 1 1 4
9 0 1 0 0 0 1 0 0 0 1 147.5 2.5 417.5 4 1 1
9 0 1 0 0 0 1 0 0 0 1 146.5 2.5 -285.5 4 1 1
9 0 1 0 0 0 1 0 0 0 1 142.5 20.5 425.5 1 4 1
9 0 1 0 0 0 1 0 0 0 1 141 33.5 -275.5 0.5 4 2
9 0 1 0 0 0 1 0 0 0 1 140 44.5 -274.5 0.5 4 2
9 0 1 0 0 0 1 0 0 0 1 140 36.5 -279.5 0.5 4 2
9 0 1 0 0 0 1 0 0 0 1 140 26.5 -285.5 0.5 4 2
9 0 1 0 0 0 1 0 0 0 1 98.5 122.5 -307.5 2 1 2
9 0 1 0 0 0 1 0 0 0 1 86.5 2.5 -445.5 2 1 2
9 0 1 0 0 0 1 0 0 0 1 71.5 2.5 -461.5 2 1 2
9 0 1 0 0 0 1 0 0 0 1 -68.5 2.5 -464.5 2 1 2
9 0 1 0 0 0 1 0 0 0 1 -72.5 2.5 -444.5 2 1 2
9 0 1 0 0 0 1 0 0 0 1 -113.5 122.5 -283.5 2 1 2
9 0 1 0 0 0 1 0 0 0 1 -140 44.5 -274.5 0.5 4 2
9 0 1 0 0 0 1 0 0 0 1 -140 36.5 -279.5 0.5 4 2
9 0 1 0 0 0 1 0 0 0 1 -140 26.5 -285.5 0.5 4 2
9 0 1 0 0 0 1 0 0 0 1 -141 33.5 -275.5 0.5 4 2
9 0 1 0 0 0 1 0 0 0 1 -142 20.5 426.5 0.5 4 2
9 0 1 0 0 0 1 0 0 0 1 -146.5 2.5 -285.5 4 1 1
9 0 1 0 0 0 1 0 0 0 1 142.5 9 421 1 2.5 1.5
9 0 1 0 0 0 1 0 0 0 1 140 62.5 -264 0.5 3 2.5
9 0 1 0 0 0 1 0 0 0 1 140 55.5 -268 0.5 3 2.5
9 0 1 0 0 0 1 0 0 0 1 140 17.5 -291 0.5 3 2.5
9 0 1 0 0 0 1 0 0 0 1 139 2.5 -308 1.5 1 2.5
9 0 1 0 0 0 1 0 0 0 1 136 4.5 -317 0.5 3 2.5
9 0 1 0 0 0 1 0 0 0 1 134 2.5 -369 1.5 1 2.5
9 0 1 0 0 0 1 0 0 0 1 27 122.5 -374 2.5 1 1.5
9 0 1 0 0 0 1 0 0 0 1 -27 122.5 -374 2.5 1 1.5
9 0 1 0 0 0 1 0 0 0 1 -106 2.5 -398 1.5 1 2.5
9 0 1 0 0 0 1 0 0 0 1 -119 2.5 -399 1.5 1 2.5
9 0 1 0 0 0 1 0 0 0 1 -138 4.5 -308 0.5 3 2.5
9 0 1 0 0 0 1 0 0 0 1 -139 6.5 -302 0.5 3 2.5
9 0 1 0 0 0 1 0 0 0 1 -140 62.5 -264 0.5 3 2.5
9 0 1 0 0 0 1 0 0 0 1 -140 55.5 -268 0.5 3 2.5
9 0 1 0 0 0 1 0 0 0 1 -140 17.5 -291 0.5 3 2.5
9 0 1 0 0 0 1 0 0 0 1 -142.5 9 421 1 2.5 1.5
9 0 1 0 0 0 1 0 0 0 1 147.5 2.5 -331 1 1 3.5
9 0 1 0 0 0 1 0 0 0 1 143 113.5 456.5 0.5 7 1
9 0 1 0 0 0 1 0 0 0 1 143 48 -254.5 0.5 3.5 2
9 0 1 0 0 0 1 0 0 0 1 142 77 -243.5 0.5 3.5 2
9 0 1 0 0 0 1 0 0 0 1 141 68 448.5 0.5 3.5 2
9 0 1 0 0 0 1 0 0 0 1 135.5 2.5 -324 1 1 3.5
9 0 1 0 0 0 1 0 0 0 1 121.5 2.5 -366 1 1 3.5
9 0 1 0 0 0 1 0 0 0 1 95.5 73 478 14 0.5 0.5
9 0 1 0 0 0 1 0 0 0 1 -95.5 73 478 14 0.5 0.5
9 0 1 0 0 0 1 0 0 0 1 -134.5 2.5 -327 1 1 3.5
9 0 1 0 0 0 1 0 0 0 1 -136.5 2.5 -363 1 1 3.5
9 0 1 0 0 0 1 0 0 0 1 -137 5 -312.5 0.5 3.5 2
9 0 1 0 0 0 1 0 0 0 1 -141 68 448.5 0.5 3.5 2
9 0 1 0 0 0 1 0 0 0 1 -142 77 -243.5 0.5 3.5 2
9 0 1 0 0 0 1 0 0 0 1 -143 113.5 456.5 0.5 7 1
9 0 1 0 0 0 1 0 0 0 1 -143 48 -254.5 0.5 3.5 2
9 0 1 0 0 0 1 0 0 0 1 140 111 468 0.5 4.5 1.5
9 0 1 0 0 0 1 0 0 0 1 -28 121 518 13.5 0.5 0.5
9 0 1 0 0 0 1 0 0 0 1 -140 111 468 0.5 4.5 1.5
9 0 1 0 0 0 1 0 0 0 1 143 4 -280 0.5 2.5 2.5
9 0 1 0 0 0 1 0 0 0 1 -143 4 -280 0.5 2.5 2.5
9 0 1 0 0 0 1 0 0 0 1 143 97.5 451.5 0.5 3 2
9 0 1 0 0 0 1 0 0 0 1 143 79.5 445.5 0.5 3 2
9 0 1 0 0 0 1 0 0 0 1 143 33.5 -262.5 0.5 3 2
9 0 1 0 0 0 1 0 0 0 1 142 116.5 463 0.5 4 1.5
9 0 1 0 0 0 1 0 0 0 1 142 100.5 457.5 0.5 3 2
9 0 1 0 0 0 1 0 0 0 1 142 95.5 -234 0.5 4 1.5
9 0 1 0 0 0 1 0 0 0 1 142 82.5 451.5 0.5 3 2
9 0 1 0 0 0 1 0 0 0 1 142 26.5 -274 0.5 4 1.5
9 0 1 0 0 0 1 0 0 0 1 141 58.5 445 0.5 4 1.5
9 0 1 0 0 0 1 0 0 0 1 141 40.5 -271.5 0.5 3 2
9 0 1 0 0 0 1 0 0 0 1 140 83.5 -251.5 0.5 3 2
9 0 1 0 0 0 1 0 0 0 1 140 73.5 -257.5 0.5 3 2
9 0 1 0 0 0 1 0 0 0 1 132 2.5 -373.5 1.5 1 2
9 0 1 0 0 0 1 0 0 0 1 129.5 2.5 -343.5 1 1 3
9 0 1 0 0 0 1 0 0 0 1 121.5 122 -270.5 2 0.5 3
9 0 1 0 0 0 1 0 0 0 1 113.5 2.5 -409 2 1 1.5
9 0 1 0 0 0 1 0 0 0 1 99 2.5 -430.5 1.5 1 2
9 0 1 0 0 0 1 0 0 0 1 95.5 2.5 -414.5 1 1 3
9 0 1 0 0 0 1 0 0 0 1 82.5 24 434.5 1 1.5 2
9 0 1 0 0 0 1 0 0 0 1 38.5 2.5 -491 2 1 1.5
9 0 1 0 0 0 1 0 0 0 1 30.5 2.5 -497 2 1 1.5
9 0 1 0 0 0 1 0 0 0 1 22.5 2.5 -502.5 3 1 1
9 0 1 0 0 0 1 0 0 0 1 20 2.5 -489.5 1.5 1 2
9 0 1 0 0 0 1 0 0 0 1 13.5 2.5 -508.5 3 1 1
9 0 1 0 0 0 1 0 0 0 1 -12 2.5 -509.5 1.5 1 2
9 0 1 0 0 0 1 0 0 0 1 -18.5 2.5 -490.5 3 1 1
9 0 1 0 0 0 1 0 0 0 1 -21 2.5 -503.5 1.5 1 2
9 0 1 0 0 0 1 0 0 0 1 -27.5 2.5 -484 2 1 1.5
9 0 1 0 0 0 1 0 0 0 1 -30.5 2.5 -497 2 1 1.5
9 0 1 0 0 0 1 0 0 0 1 -38.5 2.5 -491 2 1 1.5
9 0 1 0 0 0 1 0 0 0 1 -52.5 2.5 -464 2 1 1.5
9 0 1 0 0 0 1 0 0 0 1 -60 122.5 -349.5 1.5 1 2
9 0 1 0 0 0 1 0 0 0 1 -65 2.5 -451.5 1.5 1 2
9 0 1 0 0 0 1 0 0 0 1 -82.5 24 434.5 1 1.5 2
9 0 1 0 0 0 1 0 0 0 1 -86 2.5 -446.5 1.5 1 2
9 0 1 0 0 0 1 0 0 0 1 -91 2.5 -420.5 1.5 1 2
9 0 1 0 0 0 1 0 0 0 1 -92 2.5 -439.5 1.5 1 2
9 0 1 0 0 0 1 0 0 0 1 -102 2.5 -426.5 1.5 1 2
9 0 1 0 0 0 1 0 0 0 1 -112.5 2.5 -410.5 1 1 3
9 0 1 0 0 0 1 0 0 0 1 -119 2.5 -371.5 1.5 1 2
9 0 1 0 0 0 1 0 0 0 1 -140 83.5 -251.5 0.5 3 2
9 0 1 0 0 0 1 0 0 0 1 -140 73.5 -257.5 0.5 3 2
9 0 1 0 0 0 1 0 0 0 1 -141 58.5 445 0.5 4 1.5
9 0 1 0 0 0 1 0 0 0 1 -141 40.5 -271.5 0.5 3 2
9 0 1 0 0 0 1 0 0 0 1 -142 116.5 463 0.5 4 1.5
9 0 1 0 0 0 1 0 0 0 1 -142 100.5 457.5 0.5 3 2
9 0 1 0 0 0 1 0 0 0 1 -142 95.5 -234 0.5 4 1.5
9 0 1 0 0 0 1 0 0 0 1 -142 82.5 451.5 0.5 3 2
9 0 1 0 0 0 1 0 0 0 1 -142 25.5 -274.5 0.5 3 2
9 0 1 0 0 0 1 0 0 0 1 -143 97.5 451.5 0.5 3 2
9 0 1 0 0 0 1 0 0 0 1 -143 79.5 445.5 0.5 3 2
9 0 1 0 0 0 1 0 0 0 1 -143 33.5 -262.5 0.5 3 2
9 0 1 0 0 0 1 0 0 0 1 -155 2.5 413.5 1.5 1 2
9 0 1 0 0 0 1 0 0 0 1 143 113 -221 0.5 3.5 1.5
9 0 1 0 0 0 1 0 0 0 1 143 63 -247 0.5 3.5 1.5
9 0 1 0 0 0 1 0 0 0 1 141 47 -268 0.5 3.5 1.5
9 0 1 0 0 0 1 0 0 0 1 140 100 464 0.5 3.5 1.5
9 0 1 0 0 0 1 0 0 0 1 138 7 -307 0.5 3.5 1.5
9 0 1 0 0 0 1 0 0 0 1 105 122 -301 1.5 0.5 3.5
9 0 1 0 0 0 1 0 0 0 1 97 122 -313 1.5 0.5 3.5
9 0 1 0 0 0 1 0 0 0 1 -105 122 -301 1.5 0.5 3.5
9 0 1 0 0 0 1 0 0 0 1 -135 5 -321 0.5 3.5 1.5
9 0 1 0 0 0 1 0 0 0 1 -136 7 -316 0.5 3.5 1.5
9 0 1 0 0 0 1 0 0 0 1 -140 100 464 0.5 3.5 1.5
9 0 1 0 0 0 1 0 0 0 1 -141 47 -268 0.5 3.5 1.5
9 0 1 0 0 0 1 0 0 0 1 -143 113 -221 0.5 3.5 1.5
9 0 1 0 0 0 1 0 0 0 1 -143 63 -247 0.5 3.5 1.5
9 0 1 0 0 0 1 0 0 0 1 142 47 -260.5 0.5 2.5 2
9 0 1 0 0 0 1 0 0 0 1 141.5 75 449.5 1 2.5 1
9 0 1 0 0 0 1 0 0 0 1 140 118 470.5 0.5 2.5 2
9 0 1 0 0 0 1 0 0 0 1 140 104 -239.5 0.5 2.5 2
9 0 1 0 0 0 1 0 0 0 1 140 89 -248.5 0.5 2.5 2
9 0 1 0 0 0 1 0 0 0 1 140 68 -260.5 0.5 2.5 2
9 0 1 0 0 0 1 0 0 0 1 140 50.5 -271 0.5 2 2.5
9 0 1 0 0 0 1 0 0 0 1 140 31.5 -282.5 0.5 5 1
9 0 1 0 0 0 1 0 0 0 1 140 12.5 -294 0.5 2 2.5
9 0 1 0 0 0 1 0 0 0 1 139 12 -299.5 0.5 2.5 2
9 0 1 0 0 0 1 0 0 0 1 138.5 2.5 -359 1 1 2.5
9 0 1 0 0 0 1 0 0 0 1 137 6 -312.5 0.5 2.5 2
9 0 1 0 0 0 1 0 0 0 1 134 4 -325.5 0.5 2.5 2
9 0 1 0 0 0 1 0 0 0 1 125.5 2.5 -355 1 1 2.5
9 0 1 0 0 0 1 0 0 0 1 112.5 2.5 -385 1 1 2.5
9 0 1 0 0 0 1 0 0 0 1 100.5 2.5 -406 1 1 2.5
9 0 1 0 0 0 1 0 0 0 1 92.5 2.5 -439 1 1 2.5
9 0 1 0 0 0 1 0 0 0 1 88 122 -323.5 2.5 0.5 2
9 0 1 0 0 0 1 0 0 0 1 49 2.5 -466.5 2.5 1 1
9 0 1 0 0 0 1 0 0 0 1 11 122.5 -383.5 2.5 1 1
9 0 1 0 0 0 1 0 0 0 1 1 122.5 -388.5 2.5 1 1
9 0 1 0 0 0 1 0 0 0 1 -11 122.5 -383.5 2.5 1 1
9 0 1 0 0 0 1 0 0 0 1 -85.5 2.5 -428 1 1 2.5
9 0 1 0 0 0 1 0 0 0 1 -100.5 2.5 -406 1 1 2.5
9 0 1 0 0 0 1 0 0 0 1 -100.5 122 -308 2 0.5 2.5
9 0 1 0 0 0 1 0 0 0 1 -114.5 2.5 -380 1 1 2.5
9 0 1 0 0 0 1 0 0 0 1 -131 4 -335.5 0.5 2.5 2
9 0 1 0 0 0 1 0 0 0 1 -139 12 -299.5 0.5 2.5 2
9 0 1 0 0 0 1 0 0 0 1 -140 118 470.5 0.5 2.5 2
9 0 1 0 0 0 1 0 0 0 1 -140 104 -239.5 0.5 2.5 2
9 0 1 0 0 0 1 0 0 0 1 -140 89 -248.5 0.5 2.5 2
9 0 1 0 0 0 1 0 0 0 1 -140 68 -260.5 0.5 2.5 2
9 0 1 0 0 0 1 0 0 0 1 -140 50.5 -271 0.5 2 2.5
9 0 1 0 0 0 1 0 0 0 1 -140 31.5 -282.5 0.5 5 1
9 0 1 0 0 0 1 0 0 0 1 -140 12.5 -294 0.5 2 2.5
9 0 1 0 0 0 1 0 0 0 1 -141.5 75 449.5 1 2.5 1
9 0 1 0 0 0 1 0 0 0 1 -142 47 -260.5 0.5 2.5 2
9 0 1 0 0 0 1 0 0 0 1 151 2.5 -319 0.5 1 4.5
9 0 1 0 0 0 1 0 0 0 1 143 62.5 440 0.5 3 1.5
9 0 1 0 0 0 1 0 0 0 1 143 35.5 431 0.5 3 1.5
9 0 1 0 0 0 1 0 0 0 1 142 108.5 -228 0.5 3 1.5
9 0 1 0 0 0 1 0 0 0 1 142 21.5 428 0.5 3 1.5
9 0 1 0 0 0 1 0 0 0 1 141 62.5 -259 0.5 3 1.5
9 0 1 0 0 0 1 0 0 0 1 141 50.5 442 0.5 3 1.5
9 0 1 0 0 0 1 0 0 0 1 140 98.5 -243 0.5 3 1.5
9 0 1 0 0 0 1 0 0 0 1 140 93 461.5 0.5 4.5 1
9 0 1 0 0 0 1 0 0 0 1 139 112.5 472 0.5 3 1.5
9 0 1 0 0 0 1 0 0 0 1 139 85.5 -254 0.5 3 1.5
9 0 1 0 0 0 1 0 0 0 1 139 80.5 -257 0.5 3 1.5
9 0 1 0 0 0 1 0 0 0 1 139 74.5 -261 0.5 3 1.5
9 0 1 0 0 0 1 0 0 0 1 139 69.5 -264 0.5 3 1.5
9 0 1 0 0 0 1 0 0 0 1 139 64.5 -267 0.5 3 1.5
9 0 1 0 0 0 1 0 0 0 1 139 56.5 -272 0.5 3 1.5
9 0 1 0 0 0 1 0 0 0 1 139 48.5 -277 0.5 3 1.5
9 0 1 0 0 0 1 0 0 0 1 139 43.5 -280 0.5 3 1.5
9 0 1 0 0 0 1 0 0 0 1 139 38.5 -283 0.5 3 1.5
9 0 1 0 0 0 1 0 0 0 1 139 33.5 -286 0.5 3 1.5
9 0 1 0 0 0 1 0 0 0 1 139 28.5 -289 0.5 3 1.5
9 0 1 0 0 0 1 0 0 0 1 138.5 122 -226 1 0.5 4.5
9 0 1 0 0 0 1 0 0 0 1 136 122 -233.5 1.5 0.5 3
9 0 1 0 0 0 1 0 0 0 1 132 4.5 -332 0.5 3 1.5
9 0 1 0 0 0 1 0 0 0 1 117 122 -280.5 1.5 0.5 3
9 0 1 0 0 0 1 0 0 0 1 113 122 -288.5 1.5 0.5 3
9 0 1 0 0 0 1 0 0 0 1 108 2.5 -418 1.5 1 1.5
9 0 1 0 0 0 1 0 0 0 1 89 2.5 -423 1.5 1 1.5
9 0 1 0 0 0 1 0 0 0 1 82.5 72 475 1 1.5 1.5
9 0 1 0 0 0 1 0 0 0 1 87.5 106 505 9 0.5 0.5
9 0 1 0 0 0 1 0 0 0 1 79 2.5 -436 1.5 1 1.5
9 0 1 0 0 0 1 0 0 0 1 68 2.5 -448 1.5 1 1.5
9 0 1 0 0 0 1 0 0 0 1 56 2.5 -460 1.5 1 1.5
9 0 1 0 0 0 1 0 0 0 1 43 122.5 -364 1.5 1 1.5
9 0 1 0 0 0 1 0 0 0 1 27 2.5 -484 1.5 1 1.5
9 0 1 0 0 0 1 0 0 0 1 11 2.5 -495 1.5 1 1.5
9 0 1 0 0 0 1 0 0 0 1 -11 2.5 -495 1.5 1 1.5
9 0 1 0 0 0 1 0 0 0 1 -59 2.5 -457 1.5 1 1.5
9 0 1 0 0 0 1 0 0 0 1 -79 2.5 -436 1.5 1 1.5
9 0 1 0 0 0 1 0 0 0 1 -82.5 72 475 1 1.5 1.5
9 0 1 0 0 0 1 0 0 0 1 -92 122 -319.5 1.5 0.5 3
9 0 1 0 0 0 1 0 0 0 1 -87.5 106 505 9 0.5 0.5
9 0 1 0 0 0 1 0 0 0 1 -108 2.5 -418 1.5 1 1.5
9 0 1 0 0 0 1 0 0 0 1 -113 122 -288.5 1.5 0.5 3
9 0 1 0 0 0 1 0 0 0 1 -122 122 -270.5 1.5 0.5 3
9 0 1 0 0 0 1 0 0 0 1 -138.5 122 -226 1 0.5 4.5
9 0 1 0 0 0 1 0 0 0 1 -139 112.5 472 0.5 3 1.5
9 0 1 0 0 0 1 0 0 0 1 -139 85.5 -254 0.5 3 1.5
9 0 1 0 0 0 1 0 0 0 1 -139 80.5 -257 0.5 3 1.5
9 0 1 0 0 0 1 0 0 0 1 -139 74.5 -261 0.5 3 1.5
9 0 1 0 0 0 1 0 0 0 1 -139 69.5 -264 0.5 3 1.5
9 0 1 0 0 0 1 0 0 0 1 -139 64.5 -267 0.5 3 1.5
9 0 1 0 0 0 1 0 0 0 1 -139 56.5 -272 0.5 3 1.5
9 0 1 0 0 0 1 0 0 0 1 -139 48.5 -277 0.5 3 1.5
9 0 1 0 0 0 1 0 0 0 1 -139 43.5 -280 0.5 3 1.5
9 0 1 0 0 0 1 0 0 0 1 -139 38.5 -283 0.5 3 1.5
9 0 1 0 0 0 1 0 0 0 1 -139 33.5 -286 0.5 3 1.5
9 0 1 0 0 0 1 0 0 0 1 -139 28.5 -289 0.5 3 1.5
9 0 1 0 0 0 1 0 0 0 1 -140 98.5 -243 0.5 3 1.5
9 0 1 0 0 0 1 0 0 0 1 -140 93 461.5 0.5 4.5 1
9 0 1 0 0 0 1 0 0 0 1 -140 78.5 456 0.5 3 1.5
9 0 1 0 0 0 1 0 0 0 1 -141 62.5 -259 0.5 3 1.5
9 0 1 0 0 0 1 0 0 0 1 -141 52 442.5 0.5 4.5 1
9 0 1 0 0 0 1 0 0 0 1 -142 108.5 -228 0.5 3 1.5
9 0 1 0 0 0 1 0 0 0 1 -143 62.5 440 0.5 3 1.5
9 0 1 0 0 0 1 0 0 0 1 -143 35.5 431 0.5 3 1.5
9 0 1 0 0 0 1 0 0 0 1 89 105 504 8.5 0.5 0.5
9 0 1 0 0 0 1 0 0 0 1 -89 105 504 8.5 0.5 0.5
9 0 1 0 0 0 1 0 0 0 1 142 90.5 -237.5 0.5 2 2
9 0 1 0 0 0 1 0 0 0 1 142 73.5 -246.5 0.5 4 1
9 0 1 0 0 0 1 0 0 0 1 142 59.5 -253.5 0.5 4 1
9 0 1 0 0 0 1 0 0 0 1 142 49.5 439.5 0.5 4 1
9 0 1 0 0 0 1 0 0 0 1 141 41.5 438.5 0.5 4 1
9 0 1 0 0 0 1 0 0 0 1 140 87.5 459.5 0.5 4 1
9 0 1 0 0 0 1 0 0 0 1 140 82.5 457.5 0.5 4 1
9 0 1 0 0 0 1 0 0 0 1 140 78.5 -254.5 0.5 2 2
9 0 1 0 0 0 1 0 0 0 1 139 106.5 469.5 0.5 4 1
9 0 1 0 0 0 1 0 0 0 1 139 98.5 -246.5 0.5 2 2
9 0 1 0 0 0 1 0 0 0 1 139 19.5 -294.5 0.5 2 2
9 0 1 0 0 0 1 0 0 0 1 137 34.5 -294.5 0.5 2 2
9 0 1 0 0 0 1 0 0 0 1 136 53.5 -286.5 0.5 2 2
9 0 1 0 0 0 1 0 0 0 1 136 45.5 -291.5 0.5 2 2
9 0 1 0 0 0 1 0 0 0 1 136 38.5 -296.5 0.5 2 2
9 0 1 0 0 0 1 0 0 0 1 132.5 122 -245.5 1 0.5 4
9 0 1 0 0 0 1 0 0 0 1 129.5 122 -253.5 1 0.5 4
9 0 1 0 0 0 1 0 0 0 1 127.5 2.5 -384.5 1 1 2
9 0 1 0 0 0 1 0 0 0 1 123.5 2.5 -392.5 1 1 2
9 0 1 0 0 0 1 0 0 0 1 116.5 2.5 -375.5 1 1 2
9 0 1 0 0 0 1 0 0 0 1 94.5 94 495 8 0.5 0.5
9 0 1 0 0 0 1 0 0 0 1 62.5 2.5 -471.5 2 1 1
9 0 1 0 0 0 1 0 0 0 1 61.5 122 -349.5 2 0.5 2
9 0 1 0 0 0 1 0 0 0 1 36.5 122.5 -368.5 2 1 1
9 0 1 0 0 0 1 0 0 0 1 19.5 122.5 -379.5 2 1 1
9 0 1 0 0 0 1 0 0 0 1 -19.5 122.5 -379.5 2 1 1
9 0 1 0 0 0 1 0 0 0 1 -36.5 122.5 -368.5 2 1 1
9 0 1 0 0 0 1 0 0 0 1 -62.5 2.5 -471.5 2 1 1
9 0 1 0 0 0 1 0 0 0 1 -87.5 122 -324.5 2 0.5 2
9 0 1 0 0 0 1 0 0 0 1 -94.5 94 495 8 0.5 0.5
9 0 1 0 0 0 1 0 0 0 1 -127.5 2.5 -384.5 1 1 2
9 0 1 0 0 0 1 0 0 0 1 -131.5 123 -242.5 1 0.5 4
9 0 1 0 0 0 1 0 0 0 1 -132.5 2.5 -373.5 1 1 2
9 0 1 0 0 0 1 0 0 0 1 -136 53.5 -286.5 0.5 2 2
9 0 1 0 0 0 1 0 0 0 1 -136 45.5 -291.5 0.5 2 2
9 0 1 0 0 0 1 0 0 0 1 -136 38.5 -296.5 0.5 2 2
9 0 1 0 0 0 1 0 0 0 1 -137 34.5 -294.5 0.5 2 2
9 0 1 0 0 0 1 0 0 0 1 -139 106.5 469.5 0.5 4 1
9 0 1 0 0 0 1 0 0 0 1 -139 98.5 -246.5 0.5 2 2
9 0 1 0 0 0 1 0 0 0 1 -139 19.5 -294.5 0.5 2 2
9 0 1 0 0 0 1 0 0 0 1 -140 87.5 459.5 0.5 4 1
9 0 1 0 0 0 1 0 0 0 1 -140 78.5 -254.5 0.5 2 2
9 0 1 0 0 0 1 0 0 0 1 -141 41.5 438.5 0.5 4 1
9 0 1 0 0 0 1 0 0 0 1 -142 90.5 -237.5 0.5 2 2
9 0 1 0 0 0 1 0 0 0 1 -142 73.5 -246.5 0.5 4 1
9 0 1 0 0 0 1 0 0 0 1 -142 59.5 -253.5 0.5 4 1
9 0 1 0 0 0 1 0 0 0 1 -142 49.5 439.5 0.5 4 1
9 0 1 0 0 0 1 0 0 0 1 -143 20.5 425.5 0.5 4 1
9 0 1 0 0 0 1 0 0 0 1 -147.5 2.5 418 4 1 0.5
9 0 1 0 0 0 1 0 0 0 1 -157 2.5 -288.5 0.5 1 4
9 0 1 0 0 0 1 0 0 0 1 143 76 -241 0.5 2.5 1.5
9 0 1 0 0 0 1 0 0 0 1 143 16 -273 0.5 2.5 1.5
9 0 1 0 0 0 1 0 0 0 1 142 64 445 0.5 2.5 1.5
9 0 1 0 0 0 1 0 0 0 1 141 56 -263 0.5 2.5 1.5
9 0 1 0 0 0 1 0 0 0 1 141 23 -283 0.5 2.5 1.5
9 0 1 0 0 0 1 0 0 0 1 140 112 -235 0.5 2.5 1.5
9 0 1 0 0 0 1 0 0 0 1 140 94 -246 0.5 2.5 1.5
9 0 1 0 0 0 1 0 0 0 1 139 118 474 0.5 2.5 1.5
9 0 1 0 0 0 1 0 0 0 1 139 104 -243 0.5 2.5 1.5
9 0 1 0 0 0 1 0 0 0 1 139 93 -250 0.5 2.5 1.5
9 0 1 0 0 0 1 0 0 0 1 139 16 -297 0.5 1.5 2.5
9 0 1 0 0 0 1 0 0 0 1 136 60 -282 0.5 2.5 1.5
9 0 1 0 0 0 1 0 0 0 1 136 29 -303 0.5 2.5 1.5
9 0 1 0 0 0 1 0 0 0 1 136 24 -306 0.5 2.5 1.5
9 0 1 0 0 0 1 0 0 0 1 136 18 -310 0.5 2.5 1.5
9 0 1 0 0 0 1 0 0 0 1 135 6 -321 0.5 2.5 1.5
9 0 1 0 0 0 1 0 0 0 1 130 4 -339 0.5 2.5 1.5
9 0 1 0 0 0 1 0 0 0 1 126 4 -351 0.5 2.5 1.5
9 0 1 0 0 0 1 0 0 0 1 -126 4 -351 0.5 2.5 1.5
9 0 1 0 0 0 1 0 0 0 1 -129 122 -255 1.5 0.5 2.5
9 0 1 0 0 0 1 0 0 0 1 -130 4 -339 0.5 2.5 1.5
9 0 1 0 0 0 1 0 0 0 1 -133 4 -329 0.5 2.5 1.5
9 0 1 0 0 0 1 0 0 0 1 -136 60 -282 0.5 2.5 1.5
9 0 1 0 0 0 1 0 0 0 1 -136 29 -303 0.5 2.5 1.5
9 0 1 0 0 0 1 0 0 0 1 -136 24 -306 0.5 2.5 1.5
9 0 1 0 0 0 1 0 0 0 1 -136 18 -310 0.5 2.5 1.5
9 0 1 0 0 0 1 0 0 0 1 -139 118 474 0.5 2.5 1.5
9 0 1 0 0 0 1 0 0 0 1 -139 104 -243 0.5 2.5 1.5
9 0 1 0 0 0 1 0 0 0 1 -139 93 -250 0.5 2.5 1.5
9 0 1 0 0 0 1 0 0 0 1 -139 16 -297 0.5 1.5 2.5
9 0 1 0 0 0 1 0 0 0 1 -140 112 -235 0.5 2.5 1.5
9 0 1 0 0 0 1 0 0 0 1 -140 94 -246 0.5 2.5 1.5
9 0 1 0 0 0 1 0 0 0 1 -141 56 -263 0.5 2.5 1.5
9 0 1 0 0 0 1 0 0 0 1 -141 23 -283 0.5 2.5 1.5
9 0 1 0 0 0 1 0 0 0 1 -143 76 -241 0.5 2.5 1.5
9 0 1 0 0 0 1 0 0 0 1 -143 16 -273 0.5 2.5 1.5
9 0 1 0 0 0 1 0 0 0 1 140 72 453.5 0.5 3.5 1
9 0 1 0 0 0 1 0 0 0 1 140 24 -288.5 0.5 3.5 1
9 0 1 0 0 0 1 0 0 0 1 139 99 466.5 0.5 3.5 1
9 0 1 0 0 0 1 0 0 0 1 139 25 -291.5 0.5 3.5 1
9 0 1 0 0 0 1 0 0 0 1 125.5 122 -264 1 0.5 3.5
9 0 1 0 0 0 1 0 0 0 1 86.5 111 509 7 0.5 0.5
9 0 1 0 0 0 1 0 0 0 1 -86.5 111 509 7 0.5 0.5
9 0 1 0 0 0 1 0 0 0 1 -125.5 122 -264 1 0.5 3.5
9 0 1 0 0 0 1 0 0 0 1 -139 99 466.5 0.5 3.5 1
9 0 1 0 0 0 1 0 0 0 1 -139 25 -291.5 0.5 3.5 1
9 0 1 0 0 0 1 0 0 0 1 -140 72 453.5 0.5 3.5 1
9 0 1 0 0 0 1 0 0 0 1 -140 24 -288.5 0.5 3.5 1
9 0 1 0 0 0 1 0 0 0 1 -141 47 440.5 0.5 3.5 1
9 0 1 0 0 0 1 0 0 0 1 -142 63 444.5 0.5 3.5 1
9 0 1 0 0 0 1 0 0 0 1 -146 2.5 -338 0.5 1 3.5
9 0 1 0 0 0 1 0 0 0 1 85 117 514 6.5 0.5 0.5
9 0 1 0 0 0 1 0 0 0 1 -85 117 514 6.5 0.5 0.5
9 0 1 0 0 0 1 0 0 0 1 -88 115 512 6.5 0.5 0.5
9 0 1 0 0 0 1 0 0 0 1 156 2.5 -295.5 0.5 1 3
9 0 1 0 0 0 1 0 0 0 1 143 116.5 458.5 0.5 3 1
9 0 1 0 0 0 1 0 0 0 1 143 94.5 -231.5 0.5 3 1
9 0 1 0 0 0 1 0 0 0 1 143 91.5 450.5 0.5 3 1
9 0 1 0 0 0 1 0 0 0 1 142 119.5 -221 0.5 2 1.5
9 0 1 0 0 0 1 0 0 0 1 142 94.5 456.5 0.5 3 1
9 0 1 0 0 0 1 0 0 0 1 142 37.5 435.5 0.5 3 1
9 0 1 0 0 0 1 0 0 0 1 142 15.5 -281.5 0.5 3 1
9 0 1 0 0 0 1 0 0 0 1 142.5 2.5 -349 1 1 1.5
9 0 1 0 0 0 1 0 0 0 1 141 116.5 -228 0.5 2 1.5
9 0 1 0 0 0 1 0 0 0 1 141 112.5 -230.5 0.5 3 1
9 0 1 0 0 0 1 0 0 0 1 141 108.5 -232.5 0.5 3 1
9 0 1 0 0 0 1 0 0 0 1 141 74.5 -252 0.5 2 1.5
9 0 1 0 0 0 1 0 0 0 1 141 69.5 -255 0.5 2 1.5
9 0 1 0 0 0 1 0 0 0 1 141 52 -265.5 0.5 1.5 2
9 0 1 0 0 0 1 0 0 0 1 141 36.5 436.5 0.5 3 1
9 0 1 0 0 0 1 0 0 0 1 141 11.5 -285 0.5 2 1.5
9 0 1 0 0 0 1 0 0 0 1 140 116.5 -232 0.5 2 1.5
9 0 1 0 0 0 1 0 0 0 1 140 108 -237.5 0.5 1.5 2
9 0 1 0 0 0 1 0 0 0 1 140 106.5 465.5 0.5 3 1
9 0 1 0 0 0 1 0 0 0 1 140 77.5 455.5 0.5 3 1
9 0 1 0 0 0 1 0 0 0 1 140 67.5 451.5 0.5 3 1
9 0 1 0 0 0 1 0 0 0 1 140 54.5 446.5 0.5 3 1
9 0 1 0 0 0 1 0 0 0 1 140 3.5 -301 0.5 2 1.5
9 0 1 0 0 0 1 0 0 0 1 139 116.5 -236 0.5 2 1.5
9 0 1 0 0 0 1 0 0 0 1 139 109.5 -240 0.5 2 1.5
9 0 1 0 0 0 1 0 0 0 1 139 88.5 462.5 0.5 3 1
9 0 1 0 0 0 1 0 0 0 1 138 115.5 475.5 0.5 3 1
9 0 1 0 0 0 1 0 0 0 1 138 19.5 -300 0.5 2 1.5
9 0 1 0 0 0 1 0 0 0 1 138 13.5 -304 0.5 2 1.5
9 0 1 0 0 0 1 0 0 0 1 137 51.5 -283.5 0.5 3 1
9 0 1 0 0 0 1 0 0 0 1 137 44.5 -288 0.5 2 1.5
9 0 1 0 0 0 1 0 0 0 1 137 40.5 -290.5 0.5 3 1
9 0 1 0 0 0 1 0 0 0 1 137 30.5 -297 0.5 2 1.5
9 0 1 0 0 0 1 0 0 0 1 137 27 -299.5 0.5 1.5 2
9 0 1 0 0 0 1 0 0 0 1 137 24 -301.5 0.5 1.5 2
9 0 1 0 0 0 1 0 0 0 1 137 20.5 -304 0.5 2 1.5
9 0 1 0 0 0 1 0 0 0 1 137 16.5 -306.5 0.5 3 1
9 0 1 0 0 0 1 0 0 0 1 137 12.5 -309 0.5 2 1.5
9 0 1 0 0 0 1 0 0 0 1 136 77.5 -271 0.5 2 1.5
9 0 1 0 0 0 1 0 0 0 1 136 73.5 -273.5 0.5 3 1
9 0 1 0 0 0 1 0 0 0 1 136 69.5 -276 0.5 2 1.5
9 0 1 0 0 0 1 0 0 0 1 136 65.5 -278.5 0.5 3 1
9 0 1 0 0 0 1 0 0 0 1 136 50 -288.5 0.5 1.5 2
9 0 1 0 0 0 1 0 0 0 1 136 35 -298.5 0.5 1.5 2
9 0 1 0 0 0 1 0 0 0 1 136 11.5 -314 0.5 2 1.5
9 0 1 0 0 0 1 0 0 0 1 135 93.5 -264 0.5 2 1.5
9 0 1 0 0 0 1 0 0 0 1 135 85.5 -269 0.5 2 1.5
9 0 1 0 0 0 1 0 0 0 1 135 79.5 -273 0.5 2 1.5
9 0 1 0 0 0 1 0 0 0 1 135 52.5 -291 0.5 2 1.5
9 0 1 0 0 0 1 0 0 0 1 131 5.5 -335 0.5 2 1.5
9 0 1 0 0 0 1 0 0 0 1 128 4.5 -344.5 0.5 3 1
9 0 1 0 0 0 1 0 0 0 1 122 2.5 -395.5 1.5 1 1
9 0 1 0 0 0 1 0 0 0 1 121 123 -269.5 1.5 0.5 2
9 0 1 0 0 0 1 0 0 0 1 112.5 2.5 -412 1 1 1.5
9 0 1 0 0 0 1 0 0 0 1 110 122 -294.5 1.5 0.5 2
9 0 1 0 0 0 1 0 0 0 1 104.5 2.5 -399 1 1 1.5
9 0 1 0 0 0 1 0 0 0 1 102 122 -307.5 1.5 0.5 2
9 0 1 0 0 0 1 0 0 0 1 93.5 2.5 -416 1 1 1.5
9 0 1 0 0 0 1 0 0 0 1 93.5 122 -318 2 0.5 1.5
9 0 1 0 0 0 1 0 0 0 1 84.5 2.5 -429 1 1 1.5
9 0 1 0 0 0 1 0 0 0 1 88.5 119 515 6 0.5 0.5
9 0 1 0 0 0 1 0 0 0 1 88.5 115 512 6 0.5 0.5
9 0 1 0 0 0 1 0 0 0 1 82.5 60.5 466 1 1 1.5
9 0 1 0 0 0 1 0 0 0 1 82.5 54.5 461 1 1 1.5
9 0 1 0 0 0 1 0 0 0 1 82.5 48.5 456 1 1 1.5
9 0 1 0 0 0 1 0 0 0 1 82.5 42.5 451 1 1 1.5
9 0 1 0 0 0 1 0 0 0 1 82.5 36.5 446 1 1 1.5
9 0 1 0 0 0 1 0 0 0 1 82.5 30.5 441 1 1 1.5
9 0 1 0 0 0 1 0 0 0 1 82.5 21 433.5 1 1.5 1
9 0 1 0 0 0 1 0 0 0 1 82.5 11.5 425 1 1 1.5
9 0 1 0 0 0 1 0 0 0 1 80.5 2.5 -454 1 1 1.5
9 0 1 0 0 0 1 0 0 0 1 78.5 122 -334 2 0.5 1.5
9 0 1 0 0 0 1 0 0 0 1 76 2.5 -458.5 1.5 1 1
9 0 1 0 0 0 1 0 0 0 1 73.5 2.5 -442 1 1 1.5
9 0 1 0 0 0 1 0 0 0 1 73.5 122 -339 2 0.5 1.5
9 0 1 0 0 0 1 0 0 0 1 68.5 122 -344 2 0.5 1.5
9 0 1 0 0 0 1 0 0 0 1 66 2.5 -468.5 1.5 1 1
9 0 1 0 0 0 1 0 0 0 1 62.5 2.5 -454 1 1 1.5
9 0 1 0 0 0 1 0 0 0 1 57 2.5 -476.5 1.5 1 1
9 0 1 0 0 0 1 0 0 0 1 50.5 122 -359 2 0.5 1.5
9 0 1 0 0 0 1 0 0 0 1 46 2.5 -485.5 1.5 1 1
9 0 1 0 0 0 1 0 0 0 1 39.5 2.5 -474 1 1 1.5
9 0 1 0 0 0 1 0 0 0 1 33.5 2.5 -479 1 1 1.5
9 0 1 0 0 0 1 0 0 0 1 21 2.5 -504.5 1.5 1 1
9 0 1 0 0 0 1 0 0 0 1 17 2.5 -490.5 1.5 1 1
9 0 1 0 0 0 1 0 0 0 1 12 2.5 -510.5 1.5 1 1
9 0 1 0 0 0 1 0 0 0 1 5 2.5 -514.5 1.5 1 1
9 0 1 0 0 0 1 0 0 0 1 -5 2.5 -514.5 1.5 1 1
9 0 1 0 0 0 1 0 0 0 1 -15 2.5 -508.5 1.5 1 1
9 0 1 0 0 0 1 0 0 0 1 -20 2.5 -488.5 1.5 1 1
9 0 1 0 0 0 1 0 0 0 1 -24 2.5 -502.5 1.5 1 1
9 0 1 0 0 0 1 0 0 0 1 -39 2.5 -474.5 1.5 1 1
9 0 1 0 0 0 1 0 0 0 1 -43 122.5 -364.5 1.5 1 1
9 0 1 0 0 0 1 0 0 0 1 -45.5 2.5 -486 1 1 1.5
9 0 1 0 0 0 1 0 0 0 1 -45 2.5 -469.5 1.5 1 1
9 0 1 0 0 0 1 0 0 0 1 -48.5 122.5 -360 1 1 1.5
9 0 1 0 0 0 1 0 0 0 1 -51.5 2.5 -481 1 1 1.5
9 0 1 0 0 0 1 0 0 0 1 -71.5 122.5 -340 1 1 1.5
9 0 1 0 0 0 1 0 0 0 1 -75.5 2.5 -459 1 1 1.5
9 0 1 0 0 0 1 0 0 0 1 -76.5 122.5 -335 1 1 1.5
9 0 1 0 0 0 1 0 0 0 1 -80.5 2.5 -454 1 1 1.5
9 0 1 0 0 0 1 0 0 0 1 -82 122 -330.5 1.5 0.5 2
9 0 1 0 0 0 1 0 0 0 1 -82.5 60.5 466 1 1 1.5
9 0 1 0 0 0 1 0 0 0 1 -82.5 54.5 461 1 1 1.5
9 0 1 0 0 0 1 0 0 0 1 -82.5 48.5 456 1 1 1.5
9 0 1 0 0 0 1 0 0 0 1 -82.5 42.5 451 1 1 1.5
9 0 1 0 0 0 1 0 0 0 1 -82.5 36.5 446 1 1 1.5
9 0 1 0 0 0 1 0 0 0 1 -82.5 30.5 441 1 1 1.5
9 0 1 0 0 0 1 0 0 0 1 -82.5 21 433.5 1 1.5 1
9 0 1 0 0 0 1 0 0 0 1 -82.5 11.5 425 1 1 1.5
9 0 1 0 0 0 1 0 0 0 1 -88.5 119 515 6 0.5 0.5
9 0 1 0 0 0 1 0 0 0 1 -95.5 2.5 -413 1 1 1.5
9 0 1 0 0 0 1 0 0 0 1 -97 122 -314.5 1.5 0.5 2
9 0 1 0 0 0 1 0 0 0 1 -109.5 122 -295.5 1 0.5 3
9 0 1 0 0 0 1 0 0 0 1 -110 2.5 -388.5 1.5 1 1
9 0 1 0 0 0 1 0 0 0 1 -114.5 2.5 -409 1 1 1.5
9 0 1 0 0 0 1 0 0 0 1 -118.5 122 -278.5 1 0.5 3
9 0 1 0 0 0 1 0 0 0 1 -124.5 2.5 -391 1 1 1.5
9 0 1 0 0 0 1 0 0 0 1 -125 3.5 -354 0.5 2 1.5
9 0 1 0 0 0 1 0 0 0 1 -128 4.5 -344.5 0.5 3 1
9 0 1 0 0 0 1 0 0 0 1 -132 5.5 -332 0.5 2 1.5
9 0 1 0 0 0 1 0 0 0 1 -134 6.5 -324.5 0.5 3 1
9 0 1 0 0 0 1 0 0 0 1 -135 93.5 -264 0.5 2 1.5
9 0 1 0 0 0 1 0 0 0 1 -135 85.5 -269 0.5 2 1.5
9 0 1 0 0 0 1 0 0 0 1 -135 79.5 -273 0.5 2 1.5
9 0 1 0 0 0 1 0 0 0 1 -135 52.5 -291 0.5 2 1.5
9 0 1 0 0 0 1 0 0 0 1 -136 77.5 -271 0.5 2 1.5
9 0 1 0 0 0 1 0 0 0 1 -136 73.5 -273.5 0.5 3 1
9 0 1 0 0 0 1 0 0 0 1 -136 69.5 -276 0.5 2 1.5
9 0 1 0 0 0 1 0 0 0 1 -136 65.5 -278.5 0.5 3 1
9 0 1 0 0 0 1 0 0 0 1 -136 50 -288.5 0.5 1.5 2
9 0 1 0 0 0 1 0 0 0 1 -136 35 -298.5 0.5 1.5 2
9 0 1 0 0 0 1 0 0 0 1 -137 51.5 -283.5 0.5 3 1
9 0 1 0 0 0 1 0 0 0 1 -137 44.5 -288 0.5 2 1.5
9 0 1 0 0 0 1 0 0 0 1 -137 40.5 -290.5 0.5 3 1
9 0 1 0 0 0 1 0 0 0 1 -137 30.5 -297 0.5 2 1.5
9 0 1 0 0 0 1 0 0 0 1 -137 27 -299.5 0.5 1.5 2
9 0 1 0 0 0 1 0 0 0 1 -137 24 -301.5 0.5 1.5 2
9 0 1 0 0 0 1 0 0 0 1 -137 20.5 -304 0.5 2 1.5
9 0 1 0 0 0 1 0 0 0 1 -137 16.5 -306.5 0.5 3 1
9 0 1 0 0 0 1 0 0 0 1 -137 12.5 -309 0.5 2 1.5
9 0 1 0 0 0 1 0 0 0 1 -138 115.5 475.5 0.5 3 1
9 0 1 0 0 0 1 0 0 0 1 -138 19.5 -300 0.5 2 1.5
9 0 1 0 0 0 1 0 0 0 1 -138 13.5 -304 0.5 2 1.5
9 0 1 0 0 0 1 0 0 0 1 -139 116.5 -236 0.5 2 1.5
9 0 1 0 0 0 1 0 0 0 1 -139 109.5 -240 0.5 2 1.5
9 0 1 0 0 0 1 0 0 0 1 -139 88.5 462.5 0.5 3 1
9 0 1 0 0 0 1 0 0 0 1 -140 116.5 -232 0.5 2 1.5
9 0 1 0 0 0 1 0 0 0 1 -140 108 -237.5 0.5 1.5 2
9 0 1 0 0 0 1 0 0 0 1 -140 106.5 465.5 0.5 3 1
9 0 1 0 0 0 1 0 0 0 1 -140 67.5 451.5 0.5 3 1
9 0 1 0 0 0 1 0 0 0 1 -140 54.5 446.5 0.5 3 1
9 0 1 0 0 0 1 0 0 0 1 -141 116.5 -228 0.5 2 1.5
9 0 1 0 0 0 1 0 0 0 1 -141 112.5 -230.5 0.5 3 1
9 0 1 0 0 0 1 0 0 0 1 -141 111.5 462.5 0.5 3 1
9 0 1 0 0 0 1 0 0 0 1 -141 108.5 -232.5 0.5 3 1
9 0 1 0 0 0 1 0 0 0 1 -141 74.5 -252 0.5 2 1.5
9 0 1 0 0 0 1 0 0 0 1 -141 69.5 -255 0.5 2 1.5
9 0 1 0 0 0 1 0 0 0 1 -141 51.5 -265 0.5 2 1.5
9 0 1 0 0 0 1 0 0 0 1 -141 36.5 436.5 0.5 3 1
9 0 1 0 0 0 1 0 0 0 1 -141 11.5 -285 0.5 2 1.5
9 0 1 0 0 0 1 0 0 0 1 -142 119.5 -221 0.5 2 1.5
9 0 1 0 0 0 1 0 0 0 1 -141.5 94.5 456 1 3 0.5
9 0 1 0 0 0 1 0 0 0 1 -142 37.5 435.5 0.5 3 1
9 0 1 0 0 0 1 0 0 0 1 -142 15.5 -281.5 0.5 3 1
9 0 1 0 0 0 1 0 0 0 1 -143 116.5 458.5 0.5 3 1
9 0 1 0 0 0 1 0 0 0 1 -143 94.5 -231.5 0.5 3 1
9 0 1 0 0 0 1 0 0 0 1 -143 91.5 450.5 0.5 3 1
9 0 1 0 0 0 1 0 0 0 1 -143 2.5 -347.5 0.5 1 3
9 0 1 0 0 0 1 0 0 0 1 -155 2.5 -301.5 0.5 1 3
9 0 1 0 0 0 1 0 0 0 1 90 114 511 5.5 0.5 0.5
9 0 1 0 0 0 1 0 0 0 1 86 120 516 5.5 0.5 0.5
9 0 1 0 0 0 1 0 0 0 1 -90 114 511 5.5 0.5 0.5
9 0 1 0 0 0 1 0 0 0 1 154 2.5 -307 0.5 1 2.5
9 0 1 0 0 0 1 0 0 0 1 143 74 444.5 0.5 2.5 1
9 0 1 0 0 0 1 0 0 0 1 143 47 435.5 0.5 2.5 1
9 0 1 0 0 0 1 0 0 0 1 142 6 -287.5 0.5 2.5 1
9 0 1 0 0 0 1 0 0 0 1 141 118 468.5 0.5 2.5 1
9 0 1 0 0 0 1 0 0 0 1 141 113.5 463 0.5 5 0.5
9 0 1 0 0 0 1 0 0 0 1 141 107 464.5 0.5 2.5 1
9 0 1 0 0 0 1 0 0 0 1 141 105 -234.5 0.5 2.5 1
9 0 1 0 0 0 1 0 0 0 1 141 101 -236.5 0.5 2.5 1
9 0 1 0 0 0 1 0 0 0 1 141 96 460.5 0.5 2.5 1
9 0 1 0 0 0 1 0 0 0 1 141 80 -248.5 0.5 2.5 1
9 0 1 0 0 0 1 0 0 0 1 141 63.5 447 0.5 1 2.5
9 0 1 0 0 0 1 0 0 0 1 141 45.5 440 0.5 5 0.5
9 0 1 0 0 0 1 0 0 0 1 141 31 434.5 0.5 2.5 1
9 0 1 0 0 0 1 0 0 0 1 141 6 -293.5 0.5 2.5 1
9 0 1 0 0 0 1 0 0 0 1 140 60 448.5 0.5 2.5 1
9 0 1 0 0 0 1 0 0 0 1 140 50 444.5 0.5 2.5 1
9 0 1 0 0 0 1 0 0 0 1 140 38 -276.5 0.5 2.5 1
9 0 1 0 0 0 1 0 0 0 1 139 94 464.5 0.5 2.5 1
9 0 1 0 0 0 1 0 0 0 1 139 89.5 -252 0.5 1 2.5
9 0 1 0 0 0 1 0 0 0 1 139 81 459.5 0.5 2.5 1
9 0 1 0 0 0 1 0 0 0 1 139 71 455.5 0.5 2.5 1
9 0 1 0 0 0 1 0 0 0 1 139 60 -269.5 0.5 2.5 1
9 0 1 0 0 0 1 0 0 0 1 139 52 -274.5 0.5 2.5 1
9 0 1 0 0 0 1 0 0 0 1 138 110 473.5 0.5 2.5 1
9 0 1 0 0 0 1 0 0 0 1 138 28 -294.5 0.5 2.5 1
9 0 1 0 0 0 1 0 0 0 1 137 59 -278.5 0.5 2.5 1
9 0 1 0 0 0 1 0 0 0 1 137 49 -285.5 0.5 2.5 1
9 0 1 0 0 0 1 0 0 0 1 136 89 -263.5 0.5 2.5 1
9 0 1 0 0 0 1 0 0 0 1 136 84 -266.5 0.5 2.5 1
9 0 1 0 0 0 1 0 0 0 1 136 81 -268.5 0.5 2.5 1
9 0 1 0 0 0 1 0 0 0 1 135 102 -258.5 0.5 2.5 1
9 0 1 0 0 0 1 0 0 0 1 135 90 -266.5 0.5 2.5 1
9 0 1 0 0 0 1 0 0 0 1 135 73 -277.5 0.5 2.5 1
9 0 1 0 0 0 1 0 0 0 1 135 70 -279.5 0.5 2.5 1
9 0 1 0 0 0 1 0 0 0 1 128 122.5 -255 0.5 1 2.5
9 0 1 0 0 0 1 0 0 0 1 120.5 122 -276 1 0.5 2.5
9 0 1 0 0 0 1 0 0 0 1 102.5 78 482 5 0.5 0.5
9 0 1 0 0 0 1 0 0 0 1 -4 122 -388.5 2.5 0.5 1
9 0 1 0 0 0 1 0 0 0 1 -14.5 94 495 5 0.5 0.5
9 0 1 0 0 0 1 0 0 0 1 -47.5 94 495 5 0.5 0.5
9 0 1 0 0 0 1 0 0 0 1 -64 122 -348.5 2.5 0.5 1
9 0 1 0 0 0 1 0 0 0 1 -65.5 94 495 5 0.5 0.5
9 0 1 0 0 0 1 0 0 0 1 -86.5 120 516 5 0.5 0.5
9 0 1 0 0 0 1 0 0 0 1 -102.5 78 482 5 0.5 0.5
9 0 1 0 0 0 1 0 0 0 1 -123 4 -358.5 0.5 2.5 1
9 0 1 0 0 0 1 0 0 0 1 -135 102 -258.5 0.5 2.5 1
9 0 1 0 0 0 1 0 0 0 1 -135 90 -266.5 0.5 2.5 1
9 0 1 0 0 0 1 0 0 0 1 -135 73 -277.5 0.5 2.5 1
9 0 1 0 0 0 1 0 0 0 1 -135 70 -279.5 0.5 2.5 1
9 0 1 0 0 0 1 0 0 0 1 -136 89 -263.5 0.5 2.5 1
9 0 1 0 0 0 1 0 0 0 1 -136 84 -266.5 0.5 2.5 1
9 0 1 0 0 0 1 0 0 0 1 -136 81 -268.5 0.5 2.5 1
9 0 1 0 0 0 1 0 0 0 1 -136 14 -312.5 0.5 2.5 1
9 0 1 0 0 0 1 0 0 0 1 -136.5 122 -234 1 0.5 2.5
9 0 1 0 0 0 1 0 0 0 1 -137 59 -278.5 0.5 2.5 1
9 0 1 0 0 0 1 0 0 0 1 -137 49 -285.5 0.5 2.5 1
9 0 1 0 0 0 1 0 0 0 1 -138 110 473.5 0.5 2.5 1
9 0 1 0 0 0 1 0 0 0 1 -138 28 -294.5 0.5 2.5 1
9 0 1 0 0 0 1 0 0 0 1 -139 94 464.5 0.5 2.5 1
9 0 1 0 0 0 1 0 0 0 1 -139 89.5 -252 0.5 1 2.5
9 0 1 0 0 0 1 0 0 0 1 -139 81 459.5 0.5 2.5 1
9 0 1 0 0 0 1 0 0 0 1 -139 71 455.5 0.5 2.5 1
9 0 1 0 0 0 1 0 0 0 1 -139 60 -269.5 0.5 2.5 1
9 0 1 0 0 0 1 0 0 0 1 -139 52 -274.5 0.5 2.5 1
9 0 1 0 0 0 1 0 0 0 1 -140 84 457.5 0.5 2.5 1
9 0 1 0 0 0 1 0 0 0 1 -140 60 448.5 0.5 2.5 1
9 0 1 0 0 0 1 0 0 0 1 -140 50 444.5 0.5 2.5 1
9 0 1 0 0 0 1 0 0 0 1 -140 38 -276.5 0.5 2.5 1
9 0 1 0 0 0 1 0 0 0 1 -141 118 468.5 0.5 2.5 1
9 0 1 0 0 0 1 0 0 0 1 -141 107 464.5 0.5 2.5 1
9 0 1 0 0 0 1 0 0 0 1 -141 105 -234.5 0.5 2.5 1
9 0 1 0 0 0 1 0 0 0 1 -141 101 -236.5 0.5 2.5 1
9 0 1 0 0 0 1 0 0 0 1 -141 96 460.5 0.5 2.5 1
9 0 1 0 0 0 1 0 0 0 1 -141 80 -248.5 0.5 2.5 1
9 0 1 0 0 0 1 0 0 0 1 -141 63.5 447 0.5 1 2.5
9 0 1 0 0 0 1 0 0 0 1 -141 31 434.5 0.5 2.5 1
9 0 1 0 0 0 1 0 0 0 1 -141 6 -293.5 0.5 2.5 1
9 0 1 0 0 0 1 0 0 0 1 -142 6 -287.5 0.5 2.5 1
9 0 1 0 0 0 1 0 0 0 1 -143 74 444.5 0.5 2.5 1
9 0 1 0 0 0 1 0 0 0 1 -143 47 435.5 0.5 2.5 1
9 0 1 0 0 0 1 0 0 0 1 -151 2.5 -321 0.5 1 2.5
9 0 1 0 0 0 1 0 0 0 1 -153 2.5 -312 0.5 1 2.5
9 0 1 0 0 0 1 0 0 0 1 143 8 -279 0.5 1.5 1.5
9 0 1 0 0 0 1 0 0 0 1 142 24 -277 0.5 1.5 1.5
9 0 1 0 0 0 1 0 0 0 1 141 95 -240 0.5 1.5 1.5
9 0 1 0 0 0 1 0 0 0 1 141 14 -289 0.5 1.5 1.5
9 0 1 0 0 0 1 0 0 0 1 140 42 -278 0.5 1.5 1.5
9 0 1 0 0 0 1 0 0 0 1 139 113 -238 0.5 1.5 1.5
9 0 1 0 0 0 1 0 0 0 1 139 77 458 0.5 1.5 1.5
9 0 1 0 0 0 1 0 0 0 1 138 35 -290 0.5 1.5 1.5
9 0 1 0 0 0 1 0 0 0 1 138 32 -292 0.5 1.5 1.5
9 0 1 0 0 0 1 0 0 0 1 138 24 -297 0.5 1.5 1.5
9 0 1 0 0 0 1 0 0 0 1 137 66 -274 0.5 1.5 1.5
9 0 1 0 0 0 1 0 0 0 1 136 96 -259 0.5 1.5 1.5
9 0 1 0 0 0 1 0 0 0 1 136 93 -261 0.5 1.5 1.5
9 0 1 0 0 0 1 0 0 0 1 136 42 -294 0.5 1.5 1.5
9 0 1 0 0 0 1 0 0 0 1 136 32 -300 0.5 1.5 1.5
9 0 1 0 0 0 1 0 0 0 1 135 97 -262 0.5 1.5 1.5
9 0 1 0 0 0 1 0 0 0 1 135 66 -282 0.5 1.5 1.5
9 0 1 0 0 0 1 0 0 0 1 135 63 -284 0.5 1.5 1.5
9 0 1 0 0 0 1 0 0 0 1 133 5 -329 0.5 1.5 1.5
9 0 1 0 0 0 1 0 0 0 1 131 48 -307 0.5 1.5 1.5
9 0 1 0 0 0 1 0 0 0 1 129 5 -342 0.5 1.5 1.5
9 0 1 0 0 0 1 0 0 0 1 127 5 -348 0.5 1.5 1.5
9 0 1 0 0 0 1 0 0 0 1 120 4 -366 0.5 1.5 1.5
9 0 1 0 0 0 1 0 0 0 1 105 123 -299 1.5 0.5 1.5
9 0 1 0 0 0 1 0 0 0 1 97 123 -311 1.5 0.5 1.5
9 0 1 0 0 0 1 0 0 0 1 87 123 -323 1.5 0.5 1.5
9 0 1 0 0 0 1 0 0 0 1 83 122 -330 1.5 0.5 1.5
9 0 1 0 0 0 1 0 0 0 1 61 123 -349 1.5 0.5 1.5
9 0 1 0 0 0 1 0 0 0 1 56 122 -355 1.5 0.5 1.5
9 0 1 0 0 0 1 0 0 0 1 10 122 -386 1.5 0.5 1.5
9 0 1 0 0 0 1 0 0 0 1 -10 122 -386 1.5 0.5 1.5
9 0 1 0 0 0 1 0 0 0 1 -31 94 495 4.5 0.5 0.5
9 0 1 0 0 0 1 0 0 0 1 -55 122 -356 1.5 0.5 1.5
9 0 1 0 0 0 1 0 0 0 1 -68 122 -345 1.5 0.5 1.5
9 0 1 0 0 0 1 0 0 0 1 -105 123 -299 1.5 0.5 1.5
9 0 1 0 0 0 1 0 0 0 1 -120 4 -366 0.5 1.5 1.5
9 0 1 0 0 0 1 0 0 0 1 -127 5 -348 0.5 1.5 1.5
9 0 1 0 0 0 1 0 0 0 1 -129 5 -342 0.5 1.5 1.5
9 0 1 0 0 0 1 0 0 0 1 -131 48 -307 0.5 1.5 1.5
9 0 1 0 0 0 1 0 0 0 1 -135 97 -262 0.5 1.5 1.5
9 0 1 0 0 0 1 0 0 0 1 -135 66 -282 0.5 1.5 1.5
9 0 1 0 0 0 1 0 0 0 1 -135 63 -284 0.5 1.5 1.5
9 0 1 0 0 0 1 0 0 0 1 -136 96 -259 0.5 1.5 1.5
9 0 1 0 0 0 1 0 0 0 1 -136 93 -261 0.5 1.5 1.5
9 0 1 0 0 0 1 0 0 0 1 -136 42 -294 0.5 1.5 1.5
9 0 1 0 0 0 1 0 0 0 1 -136 32 -300 0.5 1.5 1.5
9 0 1 0 0 0 1 0 0 0 1 -137 66 -274 0.5 1.5 1.5
9 0 1 0 0 0 1 0 0 0 1 -138 35 -290 0.5 1.5 1.5
9 0 1 0 0 0 1 0 0 0 1 -138 32 -292 0.5 1.5 1.5
9 0 1 0 0 0 1 0 0 0 1 -138 24 -297 0.5 1.5 1.5
9 0 1 0 0 0 1 0 0 0 1 -138 9 -307 0.5 1.5 1.5
9 0 1 0 0 0 1 0 0 0 1 -139 113 -238 0.5 1.5 1.5
9 0 1 0 0 0 1 0 0 0 1 -139 103 468 0.5 4.5 0.5
9 0 1 0 0 0 1 0 0 0 1 -139 77 458 0.5 1.5 1.5
9 0 1 0 0 0 1 0 0 0 1 -140 42 -278 0.5 1.5 1.5
9 0 1 0 0 0 1 0 0 0 1 -141 95 -240 0.5 1.5 1.5
9 0 1 0 0 0 1 0 0 0 1 -143 8 -279 0.5 1.5 1.5
9 0 1 0 0 0 1 0 0 0 1 156.5 2.5 412.5 1 1 1
9 0 1 0 0 0 1 0 0 0 1 152 2.5 -316.5 0.5 1 2
9 0 1 0 0 0 1 0 0 0 1 143 111.5 -223.5 0.5 2 1
9 0 1 0 0 0 1 0 0 0 1 143 103.5 -227.5 0.5 2 1
9 0 1 0 0 0 1 0 0 0 1 143 53.5 -253.5 0.5 2 1
9 0 1 0 0 0 1 0 0 0 1 143 38.5 -261.5 0.5 2 1
9 0 1 0 0 0 1 0 0 0 1 143 24.5 -268.5 0.5 2 1
9 0 1 0 0 0 1 0 0 0 1 142 82.5 -242.5 0.5 2 1
9 0 1 0 0 0 1 0 0 0 1 142 78.5 450.5 0.5 1 2
9 0 1 0 0 0 1 0 0 0 1 142 71.5 -248.5 0.5 2 1
9 0 1 0 0 0 1 0 0 0 1 142 57.5 -255.5 0.5 2 1
9 0 1 0 0 0 1 0 0 0 1 142 44.5 -263.5 0.5 2 1
9 0 1 0 0 0 1 0 0 0 1 142 37.5 -268.5 0.5 2 1
9 0 1 0 0 0 1 0 0 0 1 142 34.5 434 0.5 4 0.5
9 0 1 0 0 0 1 0 0 0 1 142 25.5 430.5 0.5 2 1
9 0 1 0 0 0 1 0 0 0 1 142 14.5 425.5 0.5 2 1
9 0 1 0 0 0 1 0 0 0 1 141.5 110.5 462 1 2 0.5
9 0 1 0 0 0 1 0 0 0 1 141 90.5 -242.5 0.5 2 1
9 0 1 0 0 0 1 0 0 0 1 141 86.5 -244.5 0.5 2 1
9 0 1 0 0 0 1 0 0 0 1 141 82.5 -246.5 0.5 2 1
9 0 1 0 0 0 1 0 0 0 1 141 66.5 -256.5 0.5 1 2
9 0 1 0 0 0 1 0 0 0 1 141 35.5 -272.5 0.5 2 1
9 0 1 0 0 0 1 0 0 0 1 141 27.5 -276.5 0.5 2 1
9 0 1 0 0 0 1 0 0 0 1 141 19.5 -280.5 0.5 2 1
9 0 1 0 0 0 1 0 0 0 1 140 46.5 -271.5 0.5 2 1
9 0 1 0 0 0 1 0 0 0 1 140 44.5 442.5 0.5 2 1
9 0 1 0 0 0 1 0 0 0 1 140.5 39.5 -274.5 1 1 1
9 0 1 0 0 0 1 0 0 0 1 139 102.5 468 0.5 4 0.5
9 0 1 0 0 0 1 0 0 0 1 139 61.5 451.5 0.5 2 1
9 0 1 0 0 0 1 0 0 0 1 138 119.5 477.5 0.5 2 1
9 0 1 0 0 0 1 0 0 0 1 138 113.5 -241.5 0.5 2 1
9 0 1 0 0 0 1 0 0 0 1 138 110.5 -243.5 0.5 2 1
9 0 1 0 0 0 1 0 0 0 1 138 104.5 471.5 0.5 2 1
9 0 1 0 0 0 1 0 0 0 1 138 97.5 468.5 0.5 2 1
9 0 1 0 0 0 1 0 0 0 1 138 87.5 464.5 0.5 2 1
9 0 1 0 0 0 1 0 0 0 1 138 80.5 461.5 0.5 2 1
9 0 1 0 0 0 1 0 0 0 1 138 5.5 -309.5 0.5 2 1
9 0 1 0 0 0 1 0 0 0 1 137 118.5 479.5 0.5 2 1
9 0 1 0 0 0 1 0 0 0 1 137 117.5 -242.5 0.5 2 1
9 0 1 0 0 0 1 0 0 0 1 137 112.5 -245.5 0.5 2 1
9 0 1 0 0 0 1 0 0 0 1 137 111.5 476.5 0.5 2 1
9 0 1 0 0 0 1 0 0 0 1 137 107.5 -248.5 0.5 2 1
9 0 1 0 0 0 1 0 0 0 1 137 104.5 473.5 0.5 2 1
9 0 1 0 0 0 1 0 0 0 1 137 102.5 -251.5 0.5 2 1
9 0 1 0 0 0 1 0 0 0 1 137 99.5 -253.5 0.5 2 1
9 0 1 0 0 0 1 0 0 0 1 137 97.5 470.5 0.5 2 1
9 0 1 0 0 0 1 0 0 0 1 137 90.5 467.5 0.5 2 1
9 0 1 0 0 0 1 0 0 0 1 137 70.5 -271.5 0.5 2 1
9 0 1 0 0 0 1 0 0 0 1 137 62.5 -276.5 0.5 2 1
9 0 1 0 0 0 1 0 0 0 1 137 56.5 -280.5 0.5 2 1
9 0 1 0 0 0 1 0 0 0 1 137 38.5 -292.5 0.5 2 1
9 0 1 0 0 0 1 0 0 0 1 137 9.5 -310.5 0.5 1 2
9 0 1 0 0 0 1 0 0 0 1 136 118.5 481.5 0.5 2 1
9 0 1 0 0 0 1 0 0 0 1 136 114.5 -247.5 0.5 2 1
9 0 1 0 0 0 1 0 0 0 1 136 111.5 478.5 0.5 2 1
9 0 1 0 0 0 1 0 0 0 1 136 104.5 -253.5 0.5 2 1
9 0 1 0 0 0 1 0 0 0 1 136 104.5 475.5 0.5 2 1
9 0 1 0 0 0 1 0 0 0 1 136 101.5 -255.5 0.5 2 1
9 0 1 0 0 0 1 0 0 0 1 136 97.5 472.5 0.5 2 1
9 0 1 0 0 0 1 0 0 0 1 136 57.5 -284.5 0.5 2 1
9 0 1 0 0 0 1 0 0 0 1 135.5 123 -232.5 1 0.5 2
9 0 1 0 0 0 1 0 0 0 1 135 113.5 -251.5 0.5 2 1
9 0 1 0 0 0 1 0 0 0 1 135 110.5 -253.5 0.5 2 1
9 0 1 0 0 0 1 0 0 0 1 135 107.5 -255.5 0.5 2 1
9 0 1 0 0 0 1 0 0 0 1 135 75.5 -275.5 0.5 2 1
9 0 1 0 0 0 1 0 0 0 1 135 57.5 -287.5 0.5 2 1
9 0 1 0 0 0 1 0 0 0 1 135 48.5 -293.5 0.5 2 1
9 0 1 0 0 0 1 0 0 0 1 135 45.5 -295.5 0.5 2 1
9 0 1 0 0 0 1 0 0 0 1 135 42.5 -297.5 0.5 2 1
9 0 1 0 0 0 1 0 0 0 1 135 25.5 -308.5 0.5 2 1
9 0 1 0 0 0 1 0 0 0 1 135 18.5 -313.5 0.5 2 1
9 0 1 0 0 0 1 0 0 0 1 132 46.5 -304.5 0.5 2 1
9 0 1 0 0 0 1 0 0 0 1 131.5 2.5 -376.5 1 1 1
9 0 1 0 0 0 1 0 0 0 1 130 86.5 -283.5 0.5 2 1
9 0 1 0 0 0 1 0 0 0 1 124 3.5 -356.5 0.5 2 1
9 0 1 0 0 0 1 0 0 0 1 122 3.5 -361.5 0.5 2 1
9 0 1 0 0 0 1 0 0 0 1 119.5 2.5 -368.5 1 1 1
9 0 1 0 0 0 1 0 0 0 1 118.5 2.5 -402.5 1 1 1
9 0 1 0 0 0 1 0 0 0 1 116.5 123 -279.5 1 0.5 2
9 0 1 0 0 0 1 0 0 0 1 108 3.5 -390.5 0.5 2 1
9 0 1 0 0 0 1 0 0 0 1 107.5 2.5 -392.5 1 1 1
9 0 1 0 0 0 1 0 0 0 1 96 122.5 -307.5 0.5 1 2
9 0 1 0 0 0 1 0 0 0 1 99.5 93 494 4 0.5 0.5
9 0 1 0 0 0 1 0 0 0 1 97.5 98 498 4 0.5 0.5
9 0 1 0 0 0 1 0 0 0 1 94.5 2.5 -437.5 1 1 1
9 0 1 0 0 0 1 0 0 0 1 91.5 110 508 4 0.5 0.5
9 0 1 0 0 0 1 0 0 0 1 88.5 116 513 4 0.5 0.5
9 0 1 0 0 0 1 0 0 0 1 85.5 2.5 -448.5 1 1 1
9 0 1 0 0 0 1 0 0 0 1 82.5 65.5 470.5 1 1 1
9 0 1 0 0 0 1 0 0 0 1 82.5 16.5 429.5 1 1 1
9 0 1 0 0 0 1 0 0 0 1 82.5 2.5 -437 2 1 0.5
9 0 1 0 0 0 1 0 0 0 1 74.5 2.5 -460.5 1 1 1
9 0 1 0 0 0 1 0 0 0 1 70.5 2.5 -464.5 1 1 1
9 0 1 0 0 0 1 0 0 0 1 51.5 2.5 -481.5 1 1 1
9 0 1 0 0 0 1 0 0 0 1 50.5 2.5 -464.5 1 1 1
9 0 1 0 0 0 1 0 0 0 1 26.5 122 -376.5 2 0.5 1
9 0 1 0 0 0 1 0 0 0 1 11.5 2.5 -500.5 1 1 1
9 0 1 0 0 0 1 0 0 0 1 4.5 2.5 -498.5 1 1 1
9 0 1 0 0 0 1 0 0 0 1 2.5 94 495 4 0.5 0.5
9 0 1 0 0 0 1 0 0 0 1 -4.5 2.5 -498.5 1 1 1
9 0 1 0 0 0 1 0 0 0 1 -11.5 2.5 -500.5 1 1 1
9 0 1 0 0 0 1 0 0 0 1 -26.5 122 -376.5 2 0.5 1
9 0 1 0 0 0 1 0 0 0 1 -29 2.5 -493.5 0.5 1 2
9 0 1 0 0 0 1 0 0 0 1 -33.5 2.5 -478.5 1 1 1
9 0 1 0 0 0 1 0 0 0 1 -53.5 2.5 -461.5 1 1 1
9 0 1 0 0 0 1 0 0 0 1 -57.5 2.5 -476.5 1 1 1
9 0 1 0 0 0 1 0 0 0 1 -67.5 2.5 -467.5 1 1 1
9 0 1 0 0 0 1 0 0 0 1 -69.5 2.5 -445.5 1 1 1
9 0 1 0 0 0 1 0 0 0 1 -71.5 2.5 -463.5 1 1 1
9 0 1 0 0 0 1 0 0 0 1 -73.5 2.5 -441.5 1 1 1
9 0 1 0 0 0 1 0 0 0 1 -74.5 115 512 4 0.5 0.5
9 0 1 0 0 0 1 0 0 0 1 -82.5 65.5 470.5 1 1 1
9 0 1 0 0 0 1 0 0 0 1 -82.5 16.5 429.5 1 1 1
9 0 1 0 0 0 1 0 0 0 1 -83.5 2.5 -429.5 1 1 1
9 0 1 0 0 0 1 0 0 0 1 -88.5 116 513 4 0.5 0.5
9 0 1 0 0 0 1 0 0 0 1 -91.5 110 508 4 0.5 0.5
9 0 1 0 0 0 1 0 0 0 1 -97 2.5 -434.5 0.5 1 2
9 0 1 0 0 0 1 0 0 0 1 -99.5 123 -307.5 1 0.5 2
9 0 1 0 0 0 1 0 0 0 1 -97.5 98 498 4 0.5 0.5
9 0 1 0 0 0 1 0 0 0 1 -99.5 93 494 4 0.5 0.5
9 0 1 0 0 0 1 0 0 0 1 -106.5 2.5 -394.5 1 1 1
9 0 1 0 0 0 1 0 0 0 1 -107 3.5 -392.5 0.5 2 1
9 0 1 0 0 0 1 0 0 0 1 -109.5 2.5 -408 2 1 0.5
9 0 1 0 0 0 1 0 0 0 1 -116.5 122 -283.5 1 0.5 2
9 0 1 0 0 0 1 0 0 0 1 -118.5 2.5 -402.5 1 1 1
9 0 1 0 0 0 1 0 0 0 1 -119 3.5 -368.5 0.5 2 1
9 0 1 0 0 0 1 0 0 0 1 -121.5 123 -269.5 1 0.5 2
9 0 1 0 0 0 1 0 0 0 1 -122 3.5 -361.5 0.5 2 1
9 0 1 0 0 0 1 0 0 0 1 -130 86.5 -283.5 0.5 2 1
9 0 1 0 0 0 1 0 0 0 1 -132 46.5 -304.5 0.5 2 1
9 0 1 0 0 0 1 0 0 0 1 -134 122 -242.5 0.5 0.5 4
9 0 1 0 0 0 1 0 0 0 1 -135 113.5 -251.5 0.5 2 1
9 0 1 0 0 0 1 0 0 0 1 -135 110.5 -253.5 0.5 2 1
9 0 1 0 0 0 1 0 0 0 1 -135 107.5 -255.5 0.5 2 1
9 0 1 0 0 0 1 0 0 0 1 -135 75.5 -275.5 0.5 2 1
9 0 1 0 0 0 1 0 0 0 1 -135 57.5 -287.5 0.5 2 1
9 0 1 0 0 0 1 0 0 0 1 -135 48.5 -293.5 0.5 2 1
9 0 1 0 0 0 1 0 0 0 1 -135 45.5 -295.5 0.5 2 1
9 0 1 0 0 0 1 0 0 0 1 -135 42.5 -297.5 0.5 2 1
9 0 1 0 0 0 1 0 0 0 1 -135 25.5 -308.5 0.5 2 1
9 0 1 0 0 0 1 0 0 0 1 -135 18.5 -313.5 0.5 2 1
9 0 1 0 0 0 1 0 0 0 1 -136 118.5 481.5 0.5 2 1
9 0 1 0 0 0 1 0 0 0 1 -136 114.5 -247.5 0.5 2 1
9 0 1 0 0 0 1 0 0 0 1 -136 111.5 478.5 0.5 2 1
9 0 1 0 0 0 1 0 0 0 1 -136 104.5 -253.5 0.5 2 1
9 0 1 0 0 0 1 0 0 0 1 -136 104.5 475.5 0.5 2 1
9 0 1 0 0 0 1 0 0 0 1 -136 101.5 -255.5 0.5 2 1
9 0 1 0 0 0 1 0 0 0 1 -136 97.5 472.5 0.5 2 1
9 0 1 0 0 0 1 0 0 0 1 -136 57.5 -284.5 0.5 2 1
9 0 1 0 0 0 1 0 0 0 1 -136 5.5 -318.5 0.5 2 1
9 0 1 0 0 0 1 0 0 0 1 -137 118.5 479.5 0.5 2 1
9 0 1 0 0 0 1 0 0 0 1 -137 117.5 -242.5 0.5 2 1
9 0 1 0 0 0 1 0 0 0 1 -137 112.5 -245.5 0.5 2 1
9 0 1 0 0 0 1 0 0 0 1 -137 111.5 476.5 0.5 2 1
9 0 1 0 0 0 1 0 0 0 1 -137 107.5 -248.5 0.5 2 1
9 0 1 0 0 0 1 0 0 0 1 -137 104.5 473.5 0.5 2 1
9 0 1 0 0 0 1 0 0 0 1 -137 102.5 -251.5 0.5 2 1
9 0 1 0 0 0 1 0 0 0 1 -137 99.5 -253.5 0.5 2 1
9 0 1 0 0 0 1 0 0 0 1 -137 97.5 470.5 0.5 2 1
9 0 1 0 0 0 1 0 0 0 1 -137 90.5 467.5 0.5 2 1
9 0 1 0 0 0 1 0 0 0 1 -137 70.5 -271.5 0.5 2 1
9 0 1 0 0 0 1 0 0 0 1 -137 62.5 -276.5 0.5 2 1
9 0 1 0 0 0 1 0 0 0 1 -137 56.5 -280.5 0.5 2 1
9 0 1 0 0 0 1 0 0 0 1 -137 38.5 -292.5 0.5 2 1
9 0 1 0 0 0 1 0 0 0 1 -137 9.5 -310.5 0.5 1 2
9 0 1 0 0 0 1 0 0 0 1 -138 119.5 477.5 0.5 2 1
9 0 1 0 0 0 1 0 0 0 1 -138 113.5 -241.5 0.5 2 1
9 0 1 0 0 0 1 0 0 0 1 -138 110.5 -243.5 0.5 2 1
9 0 1 0 0 0 1 0 0 0 1 -138 104.5 471.5 0.5 2 1
9 0 1 0 0 0 1 0 0 0 1 -138 97.5 468.5 0.5 2 1
9 0 1 0 0 0 1 0 0 0 1 -138 87.5 464.5 0.5 2 1
9 0 1 0 0 0 1 0 0 0 1 -138 80.5 461.5 0.5 2 1
9 0 1 0 0 0 1 0 0 0 1 -138 2.5 -361.5 0.5 1 2
9 0 1 0 0 0 1 0 0 0 1 -138 2.5 -312.5 0.5 1 2
9 0 1 0 0 0 1 0 0 0 1 -139 61.5 451.5 0.5 2 1
9 0 1 0 0 0 1 0 0 0 1 -140 46.5 -271.5 0.5 2 1
9 0 1 0 0 0 1 0 0 0 1 -140 44.5 442.5 0.5 2 1
9 0 1 0 0 0 1 0 0 0 1 -141 90.5 -242.5 0.5 2 1
9 0 1 0 0 0 1 0 0 0 1 -141 86.5 -244.5 0.5 2 1
9 0 1 0 0 0 1 0 0 0 1 -141 82.5 -246.5 0.5 2 1
9 0 1 0 0 0 1 0 0 0 1 -141 66.5 -256.5 0.5 1 2
9 0 1 0 0 0 1 0 0 0 1 -140.5 39.5 -274.5 1 1 1
9 0 1 0 0 0 1 0 0 0 1 -141 35.5 -272.5 0.5 2 1
9 0 1 0 0 0 1 0 0 0 1 -141 27.5 -276.5 0.5 2 1
9 0 1 0 0 0 1 0 0 0 1 -141 26.5 432.5 0.5 2 1
9 0 1 0 0 0 1 0 0 0 1 -141 19.5 -280.5 0.5 2 1
9 0 1 0 0 0 1 0 0 0 1 -141 14.5 -288.5 0.5 2 1
9 0 1 0 0 0 1 0 0 0 1 -142 82.5 -242.5 0.5 2 1
9 0 1 0 0 0 1 0 0 0 1 -142 71.5 -248.5 0.5 2 1
9 0 1 0 0 0 1 0 0 0 1 -142 57.5 -255.5 0.5 2 1
9 0 1 0 0 0 1 0 0 0 1 -142 44.5 -263.5 0.5 2 1
9 0 1 0 0 0 1 0 0 0 1 -142 37.5 -268.5 0.5 2 1
9 0 1 0 0 0 1 0 0 0 1 -142 34.5 434 0.5 4 0.5
9 0 1 0 0 0 1 0 0 0 1 -142 25.5 430.5 0.5 2 1
9 0 1 0 0 0 1 0 0 0 1 -142 14.5 425.5 0.5 2 1
9 0 1 0 0 0 1 0 0 0 1 -143 111.5 -223.5 0.5 2 1
9 0 1 0 0 0 1 0 0 0 1 -143 103.5 -227.5 0.5 2 1
9 0 1 0 0 0 1 0 0 0 1 -143 53.5 -253.5 0.5 2 1
9 0 1 0 0 0 1 0 0 0 1 -143 38.5 -261.5 0.5 2 1
9 0 1 0 0 0 1 0 0 0 1 -143 24.5 -268.5 0.5 2 1
9 0 1 0 0 0 1 0 0 0 1 142 63 -252 0.5 3.5 0.5
9 0 1 0 0 0 1 0 0 0 1 140 64 450 0.5 3.5 0.5
9 0 1 0 0 0 1 0 0 0 1 139 85 461 0.5 3.5 0.5
9 0 1 0 0 0 1 0 0 0 1 139 77 -259 0.5 3.5 0.5
9 0 1 0 0 0 1 0 0 0 1 101 92 493 3.5 0.5 0.5
9 0 1 0 0 0 1 0 0 0 1 101 88 490 3.5 0.5 0.5
9 0 1 0 0 0 1 0 0 0 1 99 97 497 3.5 0.5 0.5
9 0 1 0 0 0 1 0 0 0 1 98 102 501 3.5 0.5 0.5
9 0 1 0 0 0 1 0 0 0 1 96 99 499 3.5 0.5 0.5
9 0 1 0 0 0 1 0 0 0 1 94 104 503 3.5 0.5 0.5
9 0 1 0 0 0 1 0 0 0 1 93 109 507 3.5 0.5 0.5
9 0 1 0 0 0 1 0 0 0 1 -93 109 507 3.5 0.5 0.5
9 0 1 0 0 0 1 0 0 0 1 -94 104 503 3.5 0.5 0.5
9 0 1 0 0 0 1 0 0 0 1 -96 99 499 3.5 0.5 0.5
9 0 1 0 0 0 1 0 0 0 1 -98 102 501 3.5 0.5 0.5
9 0 1 0 0 0 1 0 0 0 1 -99 97 497 3.5 0.5 0.5
9 0 1 0 0 0 1 0 0 0 1 -101 92 493 3.5 0.5 0.5
9 0 1 0 0 0 1 0 0 0 1 -101 88 490 3.5 0.5 0.5
9 0 1 0 0 0 1 0 0 0 1 -139 85 461 0.5 3.5 0.5
9 0 1 0 0 0 1 0 0 0 1 -139 77 -259 0.5 3.5 0.5
9 0 1 0 0 0 1 0 0 0 1 -140 64 450 0.5 3.5 0.5
9 0 1 0 0 0 1 0 0 0 1 -142 63 -252 0.5 3.5 0.5
9 0 1 0 0 0 1 0 0 0 1 149 2.5 -329 0.5 1 1.5
9 0 1 0 0 0 1 0 0 0 1 147 2.5 -336 0.5 1 1.5
9 0 1 0 0 0 1 0 0 0 1 145 2.5 -343 0.5 1 1.5
9 0 1 0 0 0 1 0 0 0 1 143 86 -236.5 0.5 1.5 1
9 0 1 0 0 0 1 0 0 0 1 143 61 -249.5 0.5 1.5 1
9 0 1 0 0 0 1 0 0 0 1 143 56.5 439 0.5 3 0.5
9 0 1 0 0 0 1 0 0 0 1 143 46 -257.5 0.5 1.5 1
9 0 1 0 0 0 1 0 0 0 1 142 94 -236.5 0.5 1.5 1
9 0 1 0 0 0 1 0 0 0 1 142 14 -283.5 0.5 1.5 1
9 0 1 0 0 0 1 0 0 0 1 142 10 423.5 0.5 1.5 1
9 0 1 0 0 0 1 0 0 0 1 142.5 5 420 1 1.5 0.5
9 0 1 0 0 0 1 0 0 0 1 142 2.5 -352 0.5 1 1.5
9 0 1 0 0 0 1 0 0 0 1 141 119.5 -226 0.5 1 1.5
9 0 1 0 0 0 1 0 0 0 1 141 102 458.5 0.5 1.5 1
9 0 1 0 0 0 1 0 0 0 1 141 98 -238.5 0.5 1.5 1
9 0 1 0 0 0 1 0 0 0 1 141 94.5 456 0.5 3 0.5
9 0 1 0 0 0 1 0 0 0 1 141 87 457.5 0.5 1.5 1
9 0 1 0 0 0 1 0 0 0 1 141 79 454.5 0.5 1.5 1
9 0 1 0 0 0 1 0 0 0 1 141 78 -250.5 0.5 1.5 1
9 0 1 0 0 0 1 0 0 0 1 141 71 451.5 0.5 1.5 1
9 0 1 0 0 0 1 0 0 0 1 141 60 -261.5 0.5 1.5 1
9 0 1 0 0 0 1 0 0 0 1 141 56.5 443 0.5 3 0.5
9 0 1 0 0 0 1 0 0 0 1 141 53 444.5 0.5 1.5 1
9 0 1 0 0 0 1 0 0 0 1 141 46 441.5 0.5 1.5 1
9 0 1 0 0 0 1 0 0 0 1 141 45 -270.5 0.5 1.5 1
9 0 1 0 0 0 1 0 0 0 1 141 32 -278.5 0.5 1.5 1
9 0 1 0 0 0 1 0 0 0 1 141 27.5 433 0.5 3 0.5
9 0 1 0 0 0 1 0 0 0 1 141 24 431.5 0.5 1.5 1
9 0 1 0 0 0 1 0 0 0 1 140 119.5 -230 0.5 1 1.5
9 0 1 0 0 0 1 0 0 0 1 140 112.5 470 0.5 3 0.5
9 0 1 0 0 0 1 0 0 0 1 140 100 -240.5 0.5 1.5 1
9 0 1 0 0 0 1 0 0 0 1 140 95 463.5 0.5 1.5 1
9 0 1 0 0 0 1 0 0 0 1 140 82 -254.5 0.5 1.5 1
9 0 1 0 0 0 1 0 0 0 1 140 67 -263.5 0.5 1.5 1
9 0 1 0 0 0 1 0 0 0 1 140 60 -267.5 0.5 1.5 1
9 0 1 0 0 0 1 0 0 0 1 140 58 -264.5 0.5 1.5 1
9 0 1 0 0 0 1 0 0 0 1 140 54 -271.5 0.5 1.5 1
9 0 1 0 0 0 1 0 0 0 1 140 36 438.5 0.5 1.5 1
9 0 1 0 0 0 1 0 0 0 1 140 32 -284.5 0.5 1.5 1
9 0 1 0 0 0 1 0 0 0 1 140 31.5 -280 0.5 1 1.5
9 0 1 0 0 0 1 0 0 0 1 140 22 -290.5 0.5 1.5 1
9 0 1 0 0 0 1 0 0 0 1 140 21 -286.5 0.5 1.5 1
9 0 1 0 0 0 1 0 0 0 1 140 2.5 -358 0.5 1 1.5
9 0 1 0 0 0 1 0 0 0 1 140 2.5 -304 0.5 1 1.5
9 0 1 0 0 0 1 0 0 0 1 139 119 -233.5 0.5 1.5 1
9 0 1 0 0 0 1 0 0 0 1 139 102 -245.5 0.5 1.5 1
9 0 1 0 0 0 1 0 0 0 1 139 95 -247.5 0.5 1.5 1
9 0 1 0 0 0 1 0 0 0 1 139 67.5 454 0.5 3 0.5
9 0 1 0 0 0 1 0 0 0 1 139 52 447.5 0.5 1.5 1
9 0 1 0 0 0 1 0 0 0 1 139 23 -293.5 0.5 1.5 1
9 0 1 0 0 0 1 0 0 0 1 139 5 -305.5 0.5 1.5 1
9 0 1 0 0 0 1 0 0 0 1 138.5 123 -223 1 0.5 1.5
9 0 1 0 0 0 1 0 0 0 1 138 118 -238.5 0.5 1.5 1
9 0 1 0 0 0 1 0 0 0 1 138.5 114 474 1 1.5 0.5
9 0 1 0 0 0 1 0 0 0 1 138 107 -245.5 0.5 1.5 1
9 0 1 0 0 0 1 0 0 0 1 138 104.5 -247 0.5 1 1.5
9 0 1 0 0 0 1 0 0 0 1 138 102 -248.5 0.5 1.5 1
9 0 1 0 0 0 1 0 0 0 1 138 101.5 470 0.5 3 0.5
9 0 1 0 0 0 1 0 0 0 1 138 99 -250.5 0.5 1.5 1
9 0 1 0 0 0 1 0 0 0 1 138 96.5 -252 0.5 1 1.5
9 0 1 0 0 0 1 0 0 0 1 138 94 -253.5 0.5 1.5 1
9 0 1 0 0 0 1 0 0 0 1 138 94 467.5 0.5 1.5 1
9 0 1 0 0 0 1 0 0 0 1 138 91.5 -255 0.5 1 1.5
9 0 1 0 0 0 1 0 0 0 1 138 91.5 466 0.5 3 0.5
9 0 1 0 0 0 1 0 0 0 1 138 89 -256.5 0.5 1.5 1
9 0 1 0 0 0 1 0 0 0 1 138 86 -258.5 0.5 1.5 1
9 0 1 0 0 0 1 0 0 0 1 138 81 -261.5 0.5 1.5 1
9 0 1 0 0 0 1 0 0 0 1 138 78.5 -263 0.5 1 1.5
9 0 1 0 0 0 1 0 0 0 1 138 76 -264.5 0.5 1.5 1
9 0 1 0 0 0 1 0 0 0 1 138 76 459.5 0.5 1.5 1
9 0 1 0 0 0 1 0 0 0 1 138 73 -266.5 0.5 1.5 1
9 0 1 0 0 0 1 0 0 0 1 138 70.5 -268 0.5 1 1.5
9 0 1 0 0 0 1 0 0 0 1 138 71 457.5 0.5 1.5 1
9 0 1 0 0 0 1 0 0 0 1 138 68 -269.5 0.5 1.5 1
9 0 1 0 0 0 1 0 0 0 1 138 65 -271.5 0.5 1.5 1
9 0 1 0 0 0 1 0 0 0 1 138 62.5 -273 0.5 1 1.5
9 0 1 0 0 0 1 0 0 0 1 138 62 453.5 0.5 1.5 1
9 0 1 0 0 0 1 0 0 0 1 138 60 -274.5 0.5 1.5 1
9 0 1 0 0 0 1 0 0 0 1 138 55 -277.5 0.5 1.5 1
9 0 1 0 0 0 1 0 0 0 1 138 52 -279.5 0.5 1.5 1
9 0 1 0 0 0 1 0 0 0 1 138 49 -281.5 0.5 1.5 1
9 0 1 0 0 0 1 0 0 0 1 138 46.5 -283 0.5 1 1.5
9 0 1 0 0 0 1 0 0 0 1 138 44 -284.5 0.5 1.5 1
9 0 1 0 0 0 1 0 0 0 1 138 41 -286.5 0.5 1.5 1
9 0 1 0 0 0 1 0 0 0 1 138 38.5 -288 0.5 1 1.5
9 0 1 0 0 0 1 0 0 0 1 138 17 -302.5 0.5 1.5 1
9 0 1 0 0 0 1 0 0 0 1 137 96 -255.5 0.5 1.5 1
9 0 1 0 0 0 1 0 0 0 1 137 93.5 -257 0.5 1 1.5
9 0 1 0 0 0 1 0 0 0 1 137 94 469.5 0.5 1.5 1
9 0 1 0 0 0 1 0 0 0 1 137 91 -258.5 0.5 1.5 1
9 0 1 0 0 0 1 0 0 0 1 137 88 -260.5 0.5 1.5 1
9 0 1 0 0 0 1 0 0 0 1 137 85.5 -262 0.5 1 1.5
9 0 1 0 0 0 1 0 0 0 1 137 86.5 466 0.5 3 0.5
9 0 1 0 0 0 1 0 0 0 1 137 83 -263.5 0.5 1.5 1
9 0 1 0 0 0 1 0 0 0 1 137 83 464.5 0.5 1.5 1
9 0 1 0 0 0 1 0 0 0 1 137 80 -265.5 0.5 1.5 1
9 0 1 0 0 0 1 0 0 0 1 137 76 461.5 0.5 1.5 1
9 0 1 0 0 0 1 0 0 0 1 137 75 -268.5 0.5 1.5 1
9 0 1 0 0 0 1 0 0 0 1 136 115.5 480 0.5 3 0.5
9 0 1 0 0 0 1 0 0 0 1 136 110.5 -250 0.5 1 1.5
9 0 1 0 0 0 1 0 0 0 1 136 108 -251.5 0.5 1.5 1
9 0 1 0 0 0 1 0 0 0 1 136 91 469.5 0.5 1.5 1
9 0 1 0 0 0 1 0 0 0 1 136 86.5 -265 0.5 3 0.5
9 0 1 0 0 0 1 0 0 0 1 136 77 463.5 0.5 1.5 1
9 0 1 0 0 0 1 0 0 0 1 136 64 -280.5 0.5 1.5 1
9 0 1 0 0 0 1 0 0 0 1 136 22 -308.5 0.5 1.5 1
9 0 1 0 0 0 1 0 0 0 1 136 15 -312.5 0.5 1.5 1
9 0 1 0 0 0 1 0 0 0 1 136 9 -316.5 0.5 1.5 1
9 0 1 0 0 0 1 0 0 0 1 135.5 122 -238 1 0.5 1.5
9 0 1 0 0 0 1 0 0 0 1 135 119 483.5 0.5 1.5 1
9 0 1 0 0 0 1 0 0 0 1 135 117.5 -249 0.5 1 1.5
9 0 1 0 0 0 1 0 0 0 1 135 114 481.5 0.5 1.5 1
9 0 1 0 0 0 1 0 0 0 1 135 100 -260.5 0.5 1.5 1
9 0 1 0 0 0 1 0 0 0 1 135 83 -271.5 0.5 1.5 1
9 0 1 0 0 0 1 0 0 0 1 135 60 -285.5 0.5 1.5 1
9 0 1 0 0 0 1 0 0 0 1 135 38.5 -300 0.5 1 1.5
9 0 1 0 0 0 1 0 0 0 1 135 35 -302.5 0.5 1.5 1
9 0 1 0 0 0 1 0 0 0 1 135 30 -305.5 0.5 1.5 1
9 0 1 0 0 0 1 0 0 0 1 135 23 -310.5 0.5 1.5 1
9 0 1 0 0 0 1 0 0 0 1 135 14.5 -316 0.5 1 1.5
9 0 1 0 0 0 1 0 0 0 1 135 12 -317.5 0.5 1.5 1
9 0 1 0 0 0 1 0 0 0 1 135 10 -319.5 0.5 1.5 1
9 0 1 0 0 0 1 0 0 0 1 134 117.5 -252 0.5 1 1.5
9 0 1 0 0 0 1 0 0 0 1 134 115 -253.5 0.5 1.5 1
9 0 1 0 0 0 1 0 0 0 1 134 112 -255.5 0.5 1.5 1
9 0 1 0 0 0 1 0 0 0 1 134 109.5 -257 0.5 1 1.5
9 0 1 0 0 0 1 0 0 0 1 134 106 -259.5 0.5 1.5 1
9 0 1 0 0 0 1 0 0 0 1 134 97 -265.5 0.5 1.5 1
9 0 1 0 0 0 1 0 0 0 1 134 89 -270.5 0.5 1.5 1
9 0 1 0 0 0 1 0 0 0 1 134 8 -324.5 0.5 1.5 1
9 0 1 0 0 0 1 0 0 0 1 133 40 -305.5 0.5 1.5 1
9 0 1 0 0 0 1 0 0 0 1 133 29 -313.5 0.5 1.5 1
9 0 1 0 0 0 1 0 0 0 1 133 23 -317.5 0.5 1.5 1
9 0 1 0 0 0 1 0 0 0 1 133 20 -319.5 0.5 1.5 1
9 0 1 0 0 0 1 0 0 0 1 133 16 -322.5 0.5 1.5 1
9 0 1 0 0 0 1 0 0 0 1 133 13 -324.5 0.5 1.5 1
9 0 1 0 0 0 1 0 0 0 1 133 10 -326.5 0.5 1.5 1
9 0 1 0 0 0 1 0 0 0 1 132 54 -299.5 0.5 1.5 1
9 0 1 0 0 0 1 0 0 0 1 132 51 -301.5 0.5 1.5 1
9 0 1 0 0 0 1 0 0 0 1 132 44 -306.5 0.5 1.5 1
9 0 1 0 0 0 1 0 0 0 1 132 39 -309.5 0.5 1.5 1
9 0 1 0 0 0 1 0 0 0 1 132 24 -320.5 0.5 1.5 1
9 0 1 0 0 0 1 0 0 0 1 132 21.5 -322 0.5 1 1.5
9 0 1 0 0 0 1 0 0 0 1 132 17 -325.5 0.5 1.5 1
9 0 1 0 0 0 1 0 0 0 1 131 82 -283.5 0.5 1.5 1
9 0 1 0 0 0 1 0 0 0 1 131 79 -285.5 0.5 1.5 1
9 0 1 0 0 0 1 0 0 0 1 131 73 -289.5 0.5 1.5 1
9 0 1 0 0 0 1 0 0 0 1 131 70 -291.5 0.5 1.5 1
9 0 1 0 0 0 1 0 0 0 1 131 66 -294.5 0.5 1.5 1
9 0 1 0 0 0 1 0 0 0 1 131 63 -296.5 0.5 1.5 1
9 0 1 0 0 0 1 0 0 0 1 131 60 -298.5 0.5 1.5 1
9 0 1 0 0 0 1 0 0 0 1 131 56.5 -301 0.5 1 1.5
9 0 1 0 0 0 1 0 0 0 1 131 52.5 -304 0.5 1 1.5
9 0 1 0 0 0 1 0 0 0 1 131 43 -310.5 0.5 1.5 1
9 0 1 0 0 0 1 0 0 0 1 131 40.5 -312 0.5 1 1.5
9 0 1 0 0 0 1 0 0 0 1 131 37 -314.5 0.5 1.5 1
9 0 1 0 0 0 1 0 0 0 1 131 33.5 -317 0.5 1 1.5
9 0 1 0 0 0 1 0 0 0 1 130 97 -276.5 0.5 1.5 1
9 0 1 0 0 0 1 0 0 0 1 130 94 -278.5 0.5 1.5 1
9 0 1 0 0 0 1 0 0 0 1 130 91.5 -280 0.5 1 1.5
9 0 1 0 0 0 1 0 0 0 1 130 84 -285.5 0.5 1.5 1
9 0 1 0 0 0 1 0 0 0 1 130 81.5 -287 0.5 1 1.5
9 0 1 0 0 0 1 0 0 0 1 130 79 -288.5 0.5 1.5 1
9 0 1 0 0 0 1 0 0 0 1 130 74 -292.5 0.5 1.5 1
9 0 1 0 0 0 1 0 0 0 1 130 69 -295.5 0.5 1.5 1
9 0 1 0 0 0 1 0 0 0 1 129.5 123 -251 1 0.5 1.5
9 0 1 0 0 0 1 0 0 0 1 126 122.5 -253 1.5 1 0.5
9 0 1 0 0 0 1 0 0 0 1 125 4.5 -354 0.5 1 1.5
9 0 1 0 0 0 1 0 0 0 1 123 5 -358.5 0.5 1.5 1
9 0 1 0 0 0 1 0 0 0 1 121 2.5 -398 0.5 1 1.5
9 0 1 0 0 0 1 0 0 0 1 117 4 -372.5 0.5 1.5 1
9 0 1 0 0 0 1 0 0 0 1 113 3 -381.5 0.5 1.5 1
9 0 1 0 0 0 1 0 0 0 1 112.5 123 -287 1 0.5 1.5
9 0 1 0 0 0 1 0 0 0 1 111 3 -385.5 0.5 1.5 1
9 0 1 0 0 0 1 0 0 0 1 110 2.5 -408 1.5 1 0.5
9 0 1 0 0 0 1 0 0 0 1 108 122 -298.5 1.5 0.5 1
9 0 1 0 0 0 1 0 0 0 1 107 2.5 -421 0.5 1 1.5
9 0 1 0 0 0 1 0 0 0 1 108.5 72 477 3 0.5 0.5
9 0 1 0 0 0 1 0 0 0 1 105 3 -396.5 0.5 1.5 1
9 0 1 0 0 0 1 0 0 0 1 100 122 -310.5 1.5 0.5 1
9 0 1 0 0 0 1 0 0 0 1 99 2.5 -407 0.5 1 1.5
9 0 1 0 0 0 1 0 0 0 1 94 118.5 514 1.5 1 0.5
9 0 1 0 0 0 1 0 0 0 1 95.5 103 502 3 0.5 0.5
9 0 1 0 0 0 1 0 0 0 1 92.5 122 -321 1 0.5 1.5
9 0 1 0 0 0 1 0 0 0 1 94.5 108 506 3 0.5 0.5
9 0 1 0 0 0 1 0 0 0 1 93.5 117 513 3 0.5 0.5
9 0 1 0 0 0 1 0 0 0 1 93.5 113 510 3 0.5 0.5
9 0 1 0 0 0 1 0 0 0 1 90 3 -419.5 0.5 1.5 1
9 0 1 0 0 0 1 0 0 0 1 87 3 -423.5 0.5 1.5 1
9 0 1 0 0 0 1 0 0 0 1 87 122 -326.5 1.5 0.5 1
9 0 1 0 0 0 1 0 0 0 1 82.5 9 424 1 1.5 0.5
9 0 1 0 0 0 1 0 0 0 1 78 123 -333.5 1.5 0.5 1
9 0 1 0 0 0 1 0 0 0 1 73 123 -338.5 1.5 0.5 1
9 0 1 0 0 0 1 0 0 0 1 68 123 -343.5 1.5 0.5 1
9 0 1 0 0 0 1 0 0 0 1 65 122 -348.5 1.5 0.5 1
9 0 1 0 0 0 1 0 0 0 1 49.5 123 -359 1 0.5 1.5
9 0 1 0 0 0 1 0 0 0 1 46 122.5 -363 1.5 1 0.5
9 0 1 0 0 0 1 0 0 0 1 35.5 122 -371 1 0.5 1.5
9 0 1 0 0 0 1 0 0 0 1 31 122.5 -373 1.5 1 0.5
9 0 1 0 0 0 1 0 0 0 1 31 2.5 -480 1.5 1 0.5
9 0 1 0 0 0 1 0 0 0 1 15 122 -383.5 1.5 0.5 1
9 0 1 0 0 0 1 0 0 0 1 5 122 -388.5 1.5 0.5 1
9 0 1 0 0 0 1 0 0 0 1 0 122.5 -390 1.5 1 0.5
9 0 1 0 0 0 1 0 0 0 1 0 2.5 -518 1.5 1 0.5
9 0 1 0 0 0 1 0 0 0 1 -15 122 -383.5 1.5 0.5 1
9 0 1 0 0 0 1 0 0 0 1 -30.5 122 -374 1 0.5 1.5
9 0 1 0 0 0 1 0 0 0 1 -35.5 122 -371 1 0.5 1.5
9 0 1 0 0 0 1 0 0 0 1 -50.5 122 -360 1 0.5 1.5
9 0 1 0 0 0 1 0 0 0 1 -54 2.5 -480 1.5 1 0.5
9 0 1 0 0 0 1 0 0 0 1 -60 122 -352.5 1.5 0.5 1
9 0 1 0 0 0 1 0 0 0 1 -73.5 122 -340 1 0.5 1.5
9 0 1 0 0 0 1 0 0 0 1 -78.5 122 -335 1 0.5 1.5
9 0 1 0 0 0 1 0 0 0 1 -80.5 94 495 3 0.5 0.5
9 0 1 0 0 0 1 0 0 0 1 -82.5 9 424 1 1.5 0.5
9 0 1 0 0 0 1 0 0 0 1 -86.5 123 -324 1 0.5 1.5
9 0 1 0 0 0 1 0 0 0 1 -88 2.5 -446 0.5 1 1.5
9 0 1 0 0 0 1 0 0 0 1 -91.5 123 -318 1 0.5 1.5
9 0 1 0 0 0 1 0 0 0 1 -94.5 122 -318 1 0.5 1.5
9 0 1 0 0 0 1 0 0 0 1 -92.5 118 514 3 0.5 0.5
9 0 1 0 0 0 1 0 0 0 1 -93.5 117 513 3 0.5 0.5
9 0 1 0 0 0 1 0 0 0 1 -93.5 113 510 3 0.5 0.5
9 0 1 0 0 0 1 0 0 0 1 -94.5 108 506 3 0.5 0.5
9 0 1 0 0 0 1 0 0 0 1 -95.5 103 502 3 0.5 0.5
9 0 1 0 0 0 1 0 0 0 1 -99 2.5 -407 0.5 1 1.5
9 0 1 0 0 0 1 0 0 0 1 -104 3 -398.5 0.5 1.5 1
9 0 1 0 0 0 1 0 0 0 1 -107 2.5 -421 0.5 1 1.5
9 0 1 0 0 0 1 0 0 0 1 -107.5 122 -299 1 0.5 1.5
9 0 1 0 0 0 1 0 0 0 1 -108.5 72 477 3 0.5 0.5
9 0 1 0 0 0 1 0 0 0 1 -111 3 -385.5 0.5 1.5 1
9 0 1 0 0 0 1 0 0 0 1 -112.5 123 -287 1 0.5 1.5
9 0 1 0 0 0 1 0 0 0 1 -113 3 -381.5 0.5 1.5 1
9 0 1 0 0 0 1 0 0 0 1 -117 4 -372.5 0.5 1.5 1
9 0 1 0 0 0 1 0 0 0 1 -120.5 122 -277 1 0.5 1.5
9 0 1 0 0 0 1 0 0 0 1 -121 2.5 -398 0.5 1 1.5
9 0 1 0 0 0 1 0 0 0 1 -123 2.5 -361 0.5 1 1.5
9 0 1 0 0 0 1 0 0 0 1 -126 2.5 -354 0.5 1 1.5
9 0 1 0 0 0 1 0 0 0 1 -130 97 -276.5 0.5 1.5 1
9 0 1 0 0 0 1 0 0 0 1 -130 94 -278.5 0.5 1.5 1
9 0 1 0 0 0 1 0 0 0 1 -130 91.5 -280 0.5 1 1.5
9 0 1 0 0 0 1 0 0 0 1 -130 84 -285.5 0.5 1.5 1
9 0 1 0 0 0 1 0 0 0 1 -130 81.5 -287 0.5 1 1.5
9 0 1 0 0 0 1 0 0 0 1 -130 79 -288.5 0.5 1.5 1
9 0 1 0 0 0 1 0 0 0 1 -130 74 -292.5 0.5 1.5 1
9 0 1 0 0 0 1 0 0 0 1 -130 69 -295.5 0.5 1.5 1
9 0 1 0 0 0 1 0 0 0 1 -131 82 -283.5 0.5 1.5 1
9 0 1 0 0 0 1 0 0 0 1 -131 79 -285.5 0.5 1.5 1
9 0 1 0 0 0 1 0 0 0 1 -131 73 -289.5 0.5 1.5 1
9 0 1 0 0 0 1 0 0 0 1 -131 70 -291.5 0.5 1.5 1
9 0 1 0 0 0 1 0 0 0 1 -131 66 -294.5 0.5 1.5 1
9 0 1 0 0 0 1 0 0 0 1 -131 63 -296.5 0.5 1.5 1
9 0 1 0 0 0 1 0 0 0 1 -131 60 -298.5 0.5 1.5 1
9 0 1 0 0 0 1 0 0 0 1 -131 56.5 -301 0.5 1 1.5
9 0 1 0 0 0 1 0 0 0 1 -131 52.5 -304 0.5 1 1.5
9 0 1 0 0 0 1 0 0 0 1 -131 43 -310.5 0.5 1.5 1
9 0 1 0 0 0 1 0 0 0 1 -131 40.5 -312 0.5 1 1.5
9 0 1 0 0 0 1 0 0 0 1 -131 37 -314.5 0.5 1.5 1
9 0 1 0 0 0 1 0 0 0 1 -131 33.5 -317 0.5 1 1.5
9 0 1 0 0 0 1 0 0 0 1 -131 2.5 -339 0.5 1 1.5
9 0 1 0 0 0 1 0 0 0 1 -132 54 -299.5 0.5 1.5 1
9 0 1 0 0 0 1 0 0 0 1 -132 51 -301.5 0.5 1.5 1
9 0 1 0 0 0 1 0 0 0 1 -132 44 -306.5 0.5 1.5 1
9 0 1 0 0 0 1 0 0 0 1 -132 39 -309.5 0.5 1.5 1
9 0 1 0 0 0 1 0 0 0 1 -132 24 -320.5 0.5 1.5 1
9 0 1 0 0 0 1 0 0 0 1 -132 21.5 -322 0.5 1 1.5
9 0 1 0 0 0 1 0 0 0 1 -132 17 -325.5 0.5 1.5 1
9 0 1 0 0 0 1 0 0 0 1 -133 40 -305.5 0.5 1.5 1
9 0 1 0 0 0 1 0 0 0 1 -133 29 -313.5 0.5 1.5 1
9 0 1 0 0 0 1 0 0 0 1 -133 23 -317.5 0.5 1.5 1
9 0 1 0 0 0 1 0 0 0 1 -133 20 -319.5 0.5 1.5 1
9 0 1 0 0 0 1 0 0 0 1 -133 16 -322.5 0.5 1.5 1
9 0 1 0 0 0 1 0 0 0 1 -133 13 -324.5 0.5 1.5 1
9 0 1 0 0 0 1 0 0 0 1 -133 10 -326.5 0.5 1.5 1
9 0 1 0 0 0 1 0 0 0 1 -133.5 123 -240 1 0.5 1.5
9 0 1 0 0 0 1 0 0 0 1 -134 117.5 -252 0.5 1 1.5
9 0 1 0 0 0 1 0 0 0 1 -134 115 -253.5 0.5 1.5 1
9 0 1 0 0 0 1 0 0 0 1 -134 112 -255.5 0.5 1.5 1
9 0 1 0 0 0 1 0 0 0 1 -134 109.5 -257 0.5 1 1.5
9 0 1 0 0 0 1 0 0 0 1 -134 106 -259.5 0.5 1.5 1
9 0 1 0 0 0 1 0 0 0 1 -134 97 -265.5 0.5 1.5 1
9 0 1 0 0 0 1 0 0 0 1 -134 89 -270.5 0.5 1.5 1
9 0 1 0 0 0 1 0 0 0 1 -134 5 -326.5 0.5 1.5 1
9 0 1 0 0 0 1 0 0 0 1 -135 119 483.5 0.5 1.5 1
9 0 1 0 0 0 1 0 0 0 1 -135 117.5 -249 0.5 1 1.5
9 0 1 0 0 0 1 0 0 0 1 -135 114 481.5 0.5 1.5 1
9 0 1 0 0 0 1 0 0 0 1 -135 100 -260.5 0.5 1.5 1
9 0 1 0 0 0 1 0 0 0 1 -135 83 -271.5 0.5 1.5 1
9 0 1 0 0 0 1 0 0 0 1 -135 60 -285.5 0.5 1.5 1
9 0 1 0 0 0 1 0 0 0 1 -135 38.5 -300 0.5 1 1.5
9 0 1 0 0 0 1 0 0 0 1 -135 35 -302.5 0.5 1.5 1
9 0 1 0 0 0 1 0 0 0 1 -135 30 -305.5 0.5 1.5 1
9 0 1 0 0 0 1 0 0 0 1 -135 23 -310.5 0.5 1.5 1
9 0 1 0 0 0 1 0 0 0 1 -135 14.5 -316 0.5 1 1.5
9 0 1 0 0 0 1 0 0 0 1 -135 12 -317.5 0.5 1.5 1
9 0 1 0 0 0 1 0 0 0 1 -135 10 -319.5 0.5 1.5 1
9 0 1 0 0 0 1 0 0 0 1 -136 115.5 480 0.5 3 0.5
9 0 1 0 0 0 1 0 0 0 1 -136 110.5 -250 0.5 1 1.5
9 0 1 0 0 0 1 0 0 0 1 -136 108 -251.5 0.5 1.5 1
9 0 1 0 0 0 1 0 0 0 1 -136 91 469.5 0.5 1.5 1
9 0 1 0 0 0 1 0 0 0 1 -136 86.5 -265 0.5 3 0.5
9 0 1 0 0 0 1 0 0 0 1 -136 77 463.5 0.5 1.5 1
9 0 1 0 0 0 1 0 0 0 1 -136 64 -280.5 0.5 1.5 1
9 0 1 0 0 0 1 0 0 0 1 -136 22 -308.5 0.5 1.5 1
9 0 1 0 0 0 1 0 0 0 1 -136 12 -314.5 0.5 1.5 1
9 0 1 0 0 0 1 0 0 0 1 -137 96 -255.5 0.5 1.5 1
9 0 1 0 0 0 1 0 0 0 1 -137 93.5 -257 0.5 1 1.5
9 0 1 0 0 0 1 0 0 0 1 -137 94 469.5 0.5 1.5 1
9 0 1 0 0 0 1 0 0 0 1 -137 91 -258.5 0.5 1.5 1
9 0 1 0 0 0 1 0 0 0 1 -137 88 -260.5 0.5 1.5 1
9 0 1 0 0 0 1 0 0 0 1 -137 85.5 -262 0.5 1 1.5
9 0 1 0 0 0 1 0 0 0 1 -137 86.5 466 0.5 3 0.5
9 0 1 0 0 0 1 0 0 0 1 -137 83 -263.5 0.5 1.5 1
9 0 1 0 0 0 1 0 0 0 1 -137 83 464.5 0.5 1.5 1
9 0 1 0 0 0 1 0 0 0 1 -137 80 -265.5 0.5 1.5 1
9 0 1 0 0 0 1 0 0 0 1 -137 76 461.5 0.5 1.5 1
9 0 1 0 0 0 1 0 0 0 1 -137 75 -268.5 0.5 1.5 1
9 0 1 0 0 0 1 0 0 0 1 -138 123 -224.5 0.5 0.5 3
9 0 1 0 0 0 1 0 0 0 1 -138 118 -238.5 0.5 1.5 1
9 0 1 0 0 0 1 0 0 0 1 -138 107 -245.5 0.5 1.5 1
9 0 1 0 0 0 1 0 0 0 1 -138 104.5 -247 0.5 1 1.5
9 0 1 0 0 0 1 0 0 0 1 -138 102 -248.5 0.5 1.5 1
9 0 1 0 0 0 1 0 0 0 1 -138 101.5 470 0.5 3 0.5
9 0 1 0 0 0 1 0 0 0 1 -138 99 -250.5 0.5 1.5 1
9 0 1 0 0 0 1 0 0 0 1 -138 96.5 -252 0.5 1 1.5
9 0 1 0 0 0 1 0 0 0 1 -138 94 -253.5 0.5 1.5 1
9 0 1 0 0 0 1 0 0 0 1 -138 94 467.5 0.5 1.5 1
9 0 1 0 0 0 1 0 0 0 1 -138 91.5 -255 0.5 1 1.5
9 0 1 0 0 0 1 0 0 0 1 -138 91.5 466 0.5 3 0.5
9 0 1 0 0 0 1 0 0 0 1 -138 89 -256.5 0.5 1.5 1
9 0 1 0 0 0 1 0 0 0 1 -138 86 -258.5 0.5 1.5 1
9 0 1 0 0 0 1 0 0 0 1 -138 81 -261.5 0.5 1.5 1
9 0 1 0 0 0 1 0 0 0 1 -138 78.5 -263 0.5 1 1.5
9 0 1 0 0 0 1 0 0 0 1 -138 76 -264.5 0.5 1.5 1
9 0 1 0 0 0 1 0 0 0 1 -138 76 459.5 0.5 1.5 1
9 0 1 0 0 0 1 0 0 0 1 -138 73 -266.5 0.5 1.5 1
9 0 1 0 0 0 1 0 0 0 1 -138 70.5 -268 0.5 1 1.5
9 0 1 0 0 0 1 0 0 0 1 -138 71 457.5 0.5 1.5 1
9 0 1 0 0 0 1 0 0 0 1 -138 68 -269.5 0.5 1.5 1
9 0 1 0 0 0 1 0 0 0 1 -138 65 -271.5 0.5 1.5 1
9 0 1 0 0 0 1 0 0 0 1 -138 62.5 -273 0.5 1 1.5
9 0 1 0 0 0 1 0 0 0 1 -138 62 453.5 0.5 1.5 1
9 0 1 0 0 0 1 0 0 0 1 -138 60 -274.5 0.5 1.5 1
9 0 1 0 0 0 1 0 0 0 1 -138 55 -277.5 0.5 1.5 1
9 0 1 0 0 0 1 0 0 0 1 -138 52 -279.5 0.5 1.5 1
9 0 1 0 0 0 1 0 0 0 1 -138 49 -281.5 0.5 1.5 1
9 0 1 0 0 0 1 0 0 0 1 -138 46.5 -283 0.5 1 1.5
9 0 1 0 0 0 1 0 0 0 1 -138 44 -284.5 0.5 1.5 1
9 0 1 0 0 0 1 0 0 0 1 -138 41 -286.5 0.5 1.5 1
9 0 1 0 0 0 1 0 0 0 1 -138 38.5 -288 0.5 1 1.5
9 0 1 0 0 0 1 0 0 0 1 -138 17 -302.5 0.5 1.5 1
9 0 1 0 0 0 1 0 0 0 1 -139 119 -233.5 0.5 1.5 1
9 0 1 0 0 0 1 0 0 0 1 -138.5 114 474 1 1.5 0.5
9 0 1 0 0 0 1 0 0 0 1 -139 102 -245.5 0.5 1.5 1
9 0 1 0 0 0 1 0 0 0 1 -139 95 -247.5 0.5 1.5 1
9 0 1 0 0 0 1 0 0 0 1 -139 67.5 454 0.5 3 0.5
9 0 1 0 0 0 1 0 0 0 1 -139 52 447.5 0.5 1.5 1
9 0 1 0 0 0 1 0 0 0 1 -139 23 -293.5 0.5 1.5 1
9 0 1 0 0 0 1 0 0 0 1 -139 5 -305.5 0.5 1.5 1
9 0 1 0 0 0 1 0 0 0 1 -140 119.5 -230 0.5 1 1.5
9 0 1 0 0 0 1 0 0 0 1 -140 112.5 470 0.5 3 0.5
9 0 1 0 0 0 1 0 0 0 1 -140 100 -240.5 0.5 1.5 1
9 0 1 0 0 0 1 0 0 0 1 -140 95 463.5 0.5 1.5 1
9 0 1 0 0 0 1 0 0 0 1 -140 67 -263.5 0.5 1.5 1
9 0 1 0 0 0 1 0 0 0 1 -139.5 60 -268 1 1.5 0.5
9 0 1 0 0 0 1 0 0 0 1 -140 58 -264.5 0.5 1.5 1
9 0 1 0 0 0 1 0 0 0 1 -140 54 -271.5 0.5 1.5 1
9 0 1 0 0 0 1 0 0 0 1 -140 36 438.5 0.5 1.5 1
9 0 1 0 0 0 1 0 0 0 1 -140 32 -284.5 0.5 1.5 1
9 0 1 0 0 0 1 0 0 0 1 -140 31.5 -280 0.5 1 1.5
9 0 1 0 0 0 1 0 0 0 1 -140 22 -290.5 0.5 1.5 1
9 0 1 0 0 0 1 0 0 0 1 -140 21 -286.5 0.5 1.5 1
9 0 1 0 0 0 1 0 0 0 1 -140 4.5 -301 0.5 1 1.5
9 0 1 0 0 0 1 0 0 0 1 -141 119.5 -226 0.5 1 1.5
9 0 1 0 0 0 1 0 0 0 1 -141 102 458.5 0.5 1.5 1
9 0 1 0 0 0 1 0 0 0 1 -141 98 -238.5 0.5 1.5 1
9 0 1 0 0 0 1 0 0 0 1 -141 87 457.5 0.5 1.5 1
9 0 1 0 0 0 1 0 0 0 1 -141 79 454.5 0.5 1.5 1
9 0 1 0 0 0 1 0 0 0 1 -141 78 -250.5 0.5 1.5 1
9 0 1 0 0 0 1 0 0 0 1 -141 71 451.5 0.5 1.5 1
9 0 1 0 0 0 1 0 0 0 1 -141 60 -261.5 0.5 1.5 1
9 0 1 0 0 0 1 0 0 0 1 -141 53 444.5 0.5 1.5 1
9 0 1 0 0 0 1 0 0 0 1 -141 45 -270.5 0.5 1.5 1
9 0 1 0 0 0 1 0 0 0 1 -141 32 -278.5 0.5 1.5 1
9 0 1 0 0 0 1 0 0 0 1 -141 2.5 -355 0.5 1 1.5
9 0 1 0 0 0 1 0 0 0 1 -142 111 462.5 0.5 1.5 1
9 0 1 0 0 0 1 0 0 0 1 -142 94 -236.5 0.5 1.5 1
9 0 1 0 0 0 1 0 0 0 1 -142 94.5 457 0.5 3 0.5
9 0 1 0 0 0 1 0 0 0 1 -142 78.5 451 0.5 1 1.5
9 0 1 0 0 0 1 0 0 0 1 -141.5 52 441 1 1.5 0.5
9 0 1 0 0 0 1 0 0 0 1 -142 30 -273.5 0.5 1.5 1
9 0 1 0 0 0 1 0 0 0 1 -142 24 -277.5 0.5 1.5 1
9 0 1 0 0 0 1 0 0 0 1 -142 21.5 429 0.5 3 0.5
9 0 1 0 0 0 1 0 0 0 1 -142 14 -283.5 0.5 1.5 1
9 0 1 0 0 0 1 0 0 0 1 -142 10 423.5 0.5 1.5 1
9 0 1 0 0 0 1 0 0 0 1 -143 86 -236.5 0.5 1.5 1
9 0 1 0 0 0 1 0 0 0 1 -143 61 -249.5 0.5 1.5 1
9 0 1 0 0 0 1 0 0 0 1 -143 56.5 439 0.5 3 0.5
9 0 1 0 0 0 1 0 0 0 1 -143 46 -257.5 0.5 1.5 1
9 0 1 0 0 0 1 0 0 0 1 -142.5 5 420 1 1.5 0.5
9 0 1 0 0 0 1 0 0 0 1 -144 2.5 -346 0.5 1 1.5
9 0 1 0 0 0 1 0 0 0 1 -147 2.5 -336 0.5 1 1.5
9 0 1 0 0 0 1 0 0 0 1 -149 2.5 -329 0.5 1 1.5
9 0 1 0 0 0 1 0 0 0 1 143 30 430 0.5 2.5 0.5
9 0 1 0 0 0 1 0 0 0 1 143 22 427 0.5 2.5 0.5
9 0 1 0 0 0 1 0 0 0 1 142 121 461 0.5 0.5 2.5
9 0 1 0 0 0 1 0 0 0 1 142 118 465 0.5 2.5 0.5
9 0 1 0 0 0 1 0 0 0 1 142 59 444 0.5 2.5 0.5
9 0 1 0 0 0 1 0 0 0 1 142 51 441 0.5 2.5 0.5
9 0 1 0 0 0 1 0 0 0 1 141 86 453 0.5 2.5 0.5
9 0 1 0 0 0 1 0 0 0 1 141 60 447 0.5 2.5 0.5
9 0 1 0 0 0 1 0 0 0 1 140 122 -224 0.5 0.5 2.5
9 0 1 0 0 0 1 0 0 0 1 140 104 467 0.5 2.5 0.5
9 0 1 0 0 0 1 0 0 0 1 140 39 440 0.5 2.5 0.5
9 0 1 0 0 0 1 0 0 0 1 140 32 437 0.5 2.5 0.5
9 0 1 0 0 0 1 0 0 0 1 139 65 453 0.5 2.5 0.5
9 0 1 0 0 0 1 0 0 0 1 139 58 450 0.5 2.5 0.5
9 0 1 0 0 0 1 0 0 0 1 138 116 -240 0.5 2.5 0.5
9 0 1 0 0 0 1 0 0 0 1 138 84 463 0.5 2.5 0.5
9 0 1 0 0 0 1 0 0 0 1 138 68 456 0.5 2.5 0.5
9 0 1 0 0 0 1 0 0 0 1 137 115 -244 0.5 2.5 0.5
9 0 1 0 0 0 1 0 0 0 1 137 115 478 0.5 2.5 0.5
9 0 1 0 0 0 1 0 0 0 1 137 110 -247 0.5 2.5 0.5
9 0 1 0 0 0 1 0 0 0 1 137 108 475 0.5 2.5 0.5
9 0 1 0 0 0 1 0 0 0 1 137 105 -250 0.5 2.5 0.5
9 0 1 0 0 0 1 0 0 0 1 137 101 472 0.5 2.5 0.5
9 0 1 0 0 0 1 0 0 0 1 137 80 463 0.5 2.5 0.5
9 0 1 0 0 0 1 0 0 0 1 137 54 -282 0.5 2.5 0.5
9 0 1 0 0 0 1 0 0 0 1 136 108 477 0.5 2.5 0.5
9 0 1 0 0 0 1 0 0 0 1 136 101 474 0.5 2.5 0.5
9 0 1 0 0 0 1 0 0 0 1 136 99 -257 0.5 2.5 0.5
9 0 1 0 0 0 1 0 0 0 1 136 94 471 0.5 2.5 0.5
9 0 1 0 0 0 1 0 0 0 1 136 87 468 0.5 2.5 0.5
9 0 1 0 0 0 1 0 0 0 1 135 111 480 0.5 2.5 0.5
9 0 1 0 0 0 1 0 0 0 1 135 106 478 0.5 2.5 0.5
9 0 1 0 0 0 1 0 0 0 1 135 105 -257 0.5 2.5 0.5
9 0 1 0 0 0 1 0 0 0 1 135 28 -307 0.5 2.5 0.5
9 0 1 0 0 0 1 0 0 0 1 134 122 -244 0.5 0.5 2.5
9 0 1 0 0 0 1 0 0 0 1 133 119 487 0.5 2.5 0.5
9 0 1 0 0 0 1 0 0 0 1 133 110 483 0.5 2.5 0.5
9 0 1 0 0 0 1 0 0 0 1 132 123 -244 0.5 0.5 2.5
9 0 1 0 0 0 1 0 0 0 1 131 122 -252 0.5 0.5 2.5
9 0 1 0 0 0 1 0 0 0 1 128 122 -260 0.5 0.5 2.5
9 0 1 0 0 0 1 0 0 0 1 115 4 -377 0.5 2.5 0.5
9 0 1 0 0 0 1 0 0 0 1 110 67 473 2.5 0.5 0.5
9 0 1 0 0 0 1 0 0 0 1 107 77 481 2.5 0.5 0.5
9 0 1 0 0 0 1 0 0 0 1 104 83 486 2.5 0.5 0.5
9 0 1 0 0 0 1 0 0 0 1 100 108 505 2.5 0.5 0.5
9 0 1 0 0 0 1 0 0 0 1 100 105 503 2.5 0.5 0.5
9 0 1 0 0 0 1 0 0 0 1 100 101 500 2.5 0.5 0.5
9 0 1 0 0 0 1 0 0 0 1 99 109 506 2.5 0.5 0.5
9 0 1 0 0 0 1 0 0 0 1 99 106 504 2.5 0.5 0.5
9 0 1 0 0 0 1 0 0 0 1 96 115 511 2.5 0.5 0.5
9 0 1 0 0 0 1 0 0 0 1 95 116 512 2.5 0.5 0.5
9 0 1 0 0 0 1 0 0 0 1 94 120 515 2.5 0.5 0.5
9 0 1 0 0 0 1 0 0 0 1 91 121 516 2.5 0.5 0.5
9 0 1 0 0 0 1 0 0 0 1 89 67 473 2.5 0.5 0.5
9 0 1 0 0 0 1 0 0 0 1 86 121 517 2.5 0.5 0.5
9 0 1 0 0 0 1 0 0 0 1 0 4 -500 2.5 0.5 0.5
9 0 1 0 0 0 1 0 0 0 1 -86 121 517 2.5 0.5 0.5
9 0 1 0 0 0 1 0 0 0 1 -89 67 473 2.5 0.5 0.5
9 0 1 0 0 0 1 0 0 0 1 -91 121 516 2.5 0.5 0.5
9 0 1 0 0 0 1 0 0 0 1 -94 120 515 2.5 0.5 0.5
9 0 1 0 0 0 1 0 0 0 1 -95 119 514 2.5 0.5 0.5
9 0 1 0 0 0 1 0 0 0 1 -95 116 512 2.5 0.5 0.5
9 0 1 0 0 0 1 0 0 0 1 -96 115 511 2.5 0.5 0.5
9 0 1 0 0 0 1 0 0 0 1 -99 109 506 2.5 0.5 0.5
9 0 1 0 0 0 1 0 0 0 1 -99 106 504 2.5 0.5 0.5
9 0 1 0 0 0 1 0 0 0 1 -100 108 505 2.5 0.5 0.5
9 0 1 0 0 0 1 0 0 0 1 -100 105 503 2.5 0.5 0.5
9 0 1 0 0 0 1 0 0 0 1 -100 101 500 2.5 0.5 0.5
9 0 1 0 0 0 1 0 0 0 1 -104 83 486 2.5 0.5 0.5
9 0 1 0 0 0 1 0 0 0 1 -107 77 481 2.5 0.5 0.5
9 0 1 0 0 0 1 0 0 0 1 -110 67 473 2.5 0.5 0.5
9 0 1 0 0 0 1 0 0 0 1 -115 4 -377 0.5 2.5 0.5
9 0 1 0 0 0 1 0 0 0 1 -128 123 -255 0.5 0.5 2.5
9 0 1 0 0 0 1 0 0 0 1 -128 122 -260 0.5 0.5 2.5
9 0 1 0 0 0 1 0 0 0 1 -131 122 -252 0.5 0.5 2.5
9 0 1 0 0 0 1 0 0 0 1 -133 119 487 0.5 2.5 0.5
9 0 1 0 0 0 1 0 0 0 1 -133 110 483 0.5 2.5 0.5
9 0 1 0 0 0 1 0 0 0 1 -135 111 480 0.5 2.5 0.5
9 0 1 0 0 0 1 0 0 0 1 -135 106 478 0.5 2.5 0.5
9 0 1 0 0 0 1 0 0 0 1 -135 105 -257 0.5 2.5 0.5
9 0 1 0 0 0 1 0 0 0 1 -135 28 -307 0.5 2.5 0.5
9 0 1 0 0 0 1 0 0 0 1 -136 108 477 0.5 2.5 0.5
9 0 1 0 0 0 1 0 0 0 1 -136 101 474 0.5 2.5 0.5
9 0 1 0 0 0 1 0 0 0 1 -136 99 -257 0.5 2.5 0.5
9 0 1 0 0 0 1 0 0 0 1 -136 94 471 0.5 2.5 0.5
9 0 1 0 0 0 1 0 0 0 1 -136 87 468 0.5 2.5 0.5
9 0 1 0 0 0 1 0 0 0 1 -137 115 -244 0.5 2.5 0.5
9 0 1 0 0 0 1 0 0 0 1 -137 115 478 0.5 2.5 0.5
9 0 1 0 0 0 1 0 0 0 1 -137 110 -247 0.5 2.5 0.5
9 0 1 0 0 0 1 0 0 0 1 -137 108 475 0.5 2.5 0.5
9 0 1 0 0 0 1 0 0 0 1 -137 105 -250 0.5 2.5 0.5
9 0 1 0 0 0 1 0 0 0 1 -137 101 472 0.5 2.5 0.5
9 0 1 0 0 0 1 0 0 0 1 -137 80 463 0.5 2.5 0.5
9 0 1 0 0 0 1 0 0 0 1 -137 54 -282 0.5 2.5 0.5
9 0 1 0 0 0 1 0 0 0 1 -138 116 -240 0.5 2.5 0.5
9 0 1 0 0 0 1 0 0 0 1 -138 84 463 0.5 2.5 0.5
9 0 1 0 0 0 1 0 0 0 1 -138 68 456 0.5 2.5 0.5
9 0 1 0 0 0 1 0 0 0 1 -139 65 453 0.5 2.5 0.5
9 0 1 0 0 0 1 0 0 0 1 -139 58 450 0.5 2.5 0.5
9 0 1 0 0 0 1 0 0 0 1 -140 122 -224 0.5 0.5 2.5
9 0 1 0 0 0 1 0 0 0 1 -140 104 467 0.5 2.5 0.5
9 0 1 0 0 0 1 0 0 0 1 -140 39 440 0.5 2.5 0.5
9 0 1 0 0 0 1 0 0 0 1 -140 32 437 0.5 2.5 0.5
9 0 1 0 0 0 1 0 0 0 1 -141 86 453 0.5 2.5 0.5
9 0 1 0 0 0 1 0 0 0 1 -141 60 447 0.5 2.5 0.5
9 0 1 0 0 0 1 0 0 0 1 -141 23 431 0.5 2.5 0.5
9 0 1 0 0 0 1 0 0 0 1 -142 121 461 0.5 0.5 2.5
9 0 1 0 0 0 1 0 0 0 1 -142 118 465 0.5 2.5 0.5
9 0 1 0 0 0 1 0 0 0 1 -142 80 449 0.5 2.5 0.5
9 0 1 0 0 0 1 0 0 0 1 -142 64 446 0.5 2.5 0.5
9 0 1 0 0 0 1 0 0 0 1 -143 30 430 0.5 2.5 0.5
9 0 1 0 0 0 1 0 0 0 1 -143 22 427 0.5 2.5 0.5
9 0 1 0 0 0 1 0 0 0 1 156 2.5 414.5 0.5 1 1
9 0 1 0 0 0 1 0 0 0 1 152.5 2.5 417 1 1 0.5
9 0 1 0 0 0 1 0 0 0 1 143 117.5 -220.5 0.5 1 1
9 0 1 0 0 0 1 0 0 0 1 143 93.5 -233 0.5 2 0.5
9 0 1 0 0 0 1 0 0 0 1 143 79.5 -240.5 0.5 1 1
9 0 1 0 0 0 1 0 0 0 1 143 68.5 -246 0.5 2 0.5
9 0 1 0 0 0 1 0 0 0 1 143 32.5 -265 0.5 2 0.5
9 0 1 0 0 0 1 0 0 0 1 143 3.5 -283 0.5 2 0.5
9 0 1 0 0 0 1 0 0 0 1 142 118.5 -223.5 0.5 1 1
9 0 1 0 0 0 1 0 0 0 1 142 112.5 -227.5 0.5 1 1
9 0 1 0 0 0 1 0 0 0 1 142 107.5 -230 0.5 2 0.5
9 0 1 0 0 0 1 0 0 0 1 142 101.5 -233 0.5 2 0.5
9 0 1 0 0 0 1 0 0 0 1 142 51.5 -259 0.5 2 0.5
9 0 1 0 0 0 1 0 0 0 1 142 43.5 -261.5 0.5 1 1
9 0 1 0 0 0 1 0 0 0 1 142 17.5 427.5 0.5 1 1
9 0 1 0 0 0 1 0 0 0 1 142 4.5 -289.5 0.5 1 1
9 0 1 0 0 0 1 0 0 0 1 141 73.5 -254 0.5 2 0.5
9 0 1 0 0 0 1 0 0 0 1 141 64.5 -256.5 0.5 1 1
9 0 1 0 0 0 1 0 0 0 1 141 57.5 -260.5 0.5 1 1
9 0 1 0 0 0 1 0 0 0 1 141 49.5 -265.5 0.5 1 1
9 0 1 0 0 0 1 0 0 0 1 141 42.5 -268.5 0.5 1 1
9 0 1 0 0 0 1 0 0 0 1 141.5 32.5 -273 1 1 0.5
9 0 1 0 0 0 1 0 0 0 1 141 26.5 -282.5 0.5 1 1
9 0 1 0 0 0 1 0 0 0 1 141 21.5 430.5 0.5 1 1
9 0 1 0 0 0 1 0 0 0 1 141 8.5 -285.5 0.5 1 1
9 0 1 0 0 0 1 0 0 0 1 141 4.5 -295.5 0.5 1 1
9 0 1 0 0 0 1 0 0 0 1 140 101.5 466 0.5 2 0.5
9 0 1 0 0 0 1 0 0 0 1 140 94.5 -243.5 0.5 1 1
9 0 1 0 0 0 1 0 0 0 1 140.5 92.5 460 1 1 0.5
9 0 1 0 0 0 1 0 0 0 1 140 85.5 -248.5 0.5 1 1
9 0 1 0 0 0 1 0 0 0 1 140.5 76.5 454 1 1 0.5
9 0 1 0 0 0 1 0 0 0 1 140 75.5 -254.5 0.5 1 1
9 0 1 0 0 0 1 0 0 0 1 140 72.5 -260 0.5 2 0.5
9 0 1 0 0 0 1 0 0 0 1 140 64.5 -260.5 0.5 1 1
9 0 1 0 0 0 1 0 0 0 1 140.5 62.5 -261 1 1 0.5
9 0 1 0 0 0 1 0 0 0 1 140.5 55.5 -265 1 1 0.5
9 0 1 0 0 0 1 0 0 0 1 140 41.5 441 0.5 2 0.5
9 0 1 0 0 0 1 0 0 0 1 140.5 17.5 -288 1 1 0.5
9 0 1 0 0 0 1 0 0 0 1 140 16.5 -294 0.5 2 0.5
9 0 1 0 0 0 1 0 0 0 1 139 108.5 471.5 0.5 1 1
9 0 1 0 0 0 1 0 0 0 1 139 107.5 -242.5 0.5 1 1
9 0 1 0 0 0 1 0 0 0 1 139.5 92.5 463 1 1 0.5
9 0 1 0 0 0 1 0 0 0 1 139.5 87.5 -251 1 1 0.5
9 0 1 0 0 0 1 0 0 0 1 139 84.5 -256.5 0.5 1 1
9 0 1 0 0 0 1 0 0 0 1 139.5 77 -257.5 1 0.5 1
9 0 1 0 0 0 1 0 0 0 1 139 74.5 456.5 0.5 1 1
9 0 1 0 0 0 1 0 0 0 1 139.5 71 -261.5 1 0.5 1
9 0 1 0 0 0 1 0 0 0 1 139 68.5 -266.5 0.5 1 1
9 0 1 0 0 0 1 0 0 0 1 139 55.5 449 0.5 2 0.5
9 0 1 0 0 0 1 0 0 0 1 139 49.5 446.5 0.5 1 1
9 0 1 0 0 0 1 0 0 0 1 139 47.5 445.5 0.5 1 1
9 0 1 0 0 0 1 0 0 0 1 139 39.5 -280.5 0.5 1 1
9 0 1 0 0 0 1 0 0 0 1 139 34.5 -283.5 0.5 1 1
9 0 1 0 0 0 1 0 0 0 1 139 35.5 440 0.5 2 0.5
9 0 1 0 0 0 1 0 0 0 1 139.5 12.5 -297 1 1 0.5
9 0 1 0 0 0 1 0 0 0 1 138.5 119.5 476 1 1 0.5
9 0 1 0 0 0 1 0 0 0 1 138 83.5 -259.5 0.5 1 1
9 0 1 0 0 0 1 0 0 0 1 138 73.5 458.5 0.5 1 1
9 0 1 0 0 0 1 0 0 0 1 138 65.5 455 0.5 2 0.5
9 0 1 0 0 0 1 0 0 0 1 138 59.5 452.5 0.5 1 1
9 0 1 0 0 0 1 0 0 0 1 138 57.5 -276 0.5 2 0.5
9 0 1 0 0 0 1 0 0 0 1 138 51.5 449 0.5 2 0.5
9 0 1 0 0 0 1 0 0 0 1 138 10.5 -304.5 0.5 1 1
9 0 1 0 0 0 1 0 0 0 1 138 2.5 -362.5 0.5 1 1
9 0 1 0 0 0 1 0 0 0 1 137 119.5 -240.5 0.5 1 1
9 0 1 0 0 0 1 0 0 0 1 137 77.5 -266.5 0.5 1 1
9 0 1 0 0 0 1 0 0 0 1 137 73.5 460.5 0.5 1 1
9 0 1 0 0 0 1 0 0 0 1 137 72.5 -270 0.5 2 0.5
9 0 1 0 0 0 1 0 0 0 1 137 70.5 459 0.5 2 0.5
9 0 1 0 0 0 1 0 0 0 1 137 68.5 458 0.5 2 0.5
9 0 1 0 0 0 1 0 0 0 1 137 63.5 456 0.5 2 0.5
9 0 1 0 0 0 1 0 0 0 1 137 58.5 453.5 0.5 1 1
9 0 1 0 0 0 1 0 0 0 1 137 41.5 -288.5 0.5 1 1
9 0 1 0 0 0 1 0 0 0 1 137 17.5 -304.5 0.5 1 1
9 0 1 0 0 0 1 0 0 0 1 137 5.5 -315 0.5 2 0.5
9 0 1 0 0 0 1 0 0 0 1 136 119.5 -243.5 0.5 1 1
9 0 1 0 0 0 1 0 0 0 1 136 117.5 -245.5 0.5 1 1
9 0 1 0 0 0 1 0 0 0 1 136 82.5 466 0.5 2 0.5
9 0 1 0 0 0 1 0 0 0 1 136 74.5 -271.5 0.5 1 1
9 0 1 0 0 0 1 0 0 0 1 136 66.5 -276.5 0.5 1 1
9 0 1 0 0 0 1 0 0 0 1 136 48 -289.5 0.5 0.5 2
9 0 1 0 0 0 1 0 0 0 1 136 25.5 -303.5 0.5 1 1
9 0 1 0 0 0 1 0 0 0 1 136 19.5 -307.5 0.5 1 1
9 0 1 0 0 0 1 0 0 0 1 136 2.5 -367.5 0.5 1 1
9 0 1 0 0 0 1 0 0 0 1 136 3.5 -320 0.5 2 0.5
9 0 1 0 0 0 1 0 0 0 1 135 123 -236.5 0.5 0.5 2
9 0 1 0 0 0 1 0 0 0 1 135 116.5 482.5 0.5 1 1
9 0 1 0 0 0 1 0 0 0 1 135 108.5 479 0.5 2 0.5
9 0 1 0 0 0 1 0 0 0 1 135 103.5 477 0.5 2 0.5
9 0 1 0 0 0 1 0 0 0 1 135 101.5 476 0.5 2 0.5
9 0 1 0 0 0 1 0 0 0 1 135 98.5 474.5 0.5 1 1
9 0 1 0 0 0 1 0 0 0 1 135 94.5 473 0.5 2 0.5
9 0 1 0 0 0 1 0 0 0 1 135 92.5 472 0.5 2 0.5
9 0 1 0 0 0 1 0 0 0 1 135 83.5 468 0.5 2 0.5
9 0 1 0 0 0 1 0 0 0 1 135 71.5 462.5 0.5 1 1
9 0 1 0 0 0 1 0 0 0 1 135 55.5 -289.5 0.5 1 1
9 0 1 0 0 0 1 0 0 0 1 135 32.5 -303.5 0.5 1 1
9 0 1 0 0 0 1 0 0 0 1 135 20.5 -312 0.5 2 0.5
9 0 1 0 0 0 1 0 0 0 1 135 4.5 -323.5 0.5 1 1
9 0 1 0 0 0 1 0 0 0 1 134 115.5 484 0.5 2 0.5
9 0 1 0 0 0 1 0 0 0 1 134 103.5 -260.5 0.5 1 1
9 0 1 0 0 0 1 0 0 0 1 134 104.5 479 0.5 2 0.5
9 0 1 0 0 0 1 0 0 0 1 134 101.5 477.5 0.5 1 1
9 0 1 0 0 0 1 0 0 0 1 134 101.5 -262 0.5 2 0.5
9 0 1 0 0 0 1 0 0 0 1 134 99.5 -263.5 0.5 1 1
9 0 1 0 0 0 1 0 0 0 1 134 95.5 475 0.5 2 0.5
9 0 1 0 0 0 1 0 0 0 1 134 94.5 -267 0.5 2 0.5
9 0 1 0 0 0 1 0 0 0 1 134 92.5 -268.5 0.5 1 1
9 0 1 0 0 0 1 0 0 0 1 134 91.5 473 0.5 2 0.5
9 0 1 0 0 0 1 0 0 0 1 134 89.5 472 0.5 2 0.5
9 0 1 0 0 0 1 0 0 0 1 134 86.5 -272 0.5 2 0.5
9 0 1 0 0 0 1 0 0 0 1 134 84.5 -273.5 0.5 1 1
9 0 1 0 0 0 1 0 0 0 1 134 81.5 -275.5 0.5 1 1
9 0 1 0 0 0 1 0 0 0 1 134 78.5 -277.5 0.5 1 1
9 0 1 0 0 0 1 0 0 0 1 134 73.5 -280.5 0.5 1 1
9 0 1 0 0 0 1 0 0 0 1 134 69.5 -283.5 0.5 1 1
9 0 1 0 0 0 1 0 0 0 1 134 61.5 -288.5 0.5 1 1
9 0 1 0 0 0 1 0 0 0 1 134 35.5 -305.5 0.5 1 1
9 0 1 0 0 0 1 0 0 0 1 134 28.5 -310.5 0.5 1 1
9 0 1 0 0 0 1 0 0 0 1 134 26.5 -312 0.5 2 0.5
9 0 1 0 0 0 1 0 0 0 1 134 24.5 -313.5 0.5 1 1
9 0 1 0 0 0 1 0 0 0 1 134 22.5 -314.5 0.5 1 1
9 0 1 0 0 0 1 0 0 0 1 134 19.5 -316.5 0.5 1 1
9 0 1 0 0 0 1 0 0 0 1 134 16.5 -318.5 0.5 1 1
9 0 1 0 0 0 1 0 0 0 1 134 14.5 -320 0.5 2 0.5
9 0 1 0 0 0 1 0 0 0 1 134 12.5 -321.5 0.5 1 1
9 0 1 0 0 0 1 0 0 0 1 134 10.5 -322.5 0.5 1 1
9 0 1 0 0 0 1 0 0 0 1 134 2.5 -372.5 0.5 1 1
9 0 1 0 0 0 1 0 0 0 1 133 116.5 -255.5 0.5 1 1
9 0 1 0 0 0 1 0 0 0 1 133 116.5 486 0.5 2 0.5
9 0 1 0 0 0 1 0 0 0 1 133 113.5 -257.5 0.5 1 1
9 0 1 0 0 0 1 0 0 0 1 133 112.5 484 0.5 2 0.5
9 0 1 0 0 0 1 0 0 0 1 133 110.5 -259.5 0.5 1 1
9 0 1 0 0 0 1 0 0 0 1 133 102.5 -264.5 0.5 1 1
9 0 1 0 0 0 1 0 0 0 1 133 103.5 480 0.5 2 0.5
9 0 1 0 0 0 1 0 0 0 1 133 101.5 479 0.5 2 0.5
9 0 1 0 0 0 1 0 0 0 1 133 98.5 478 0.5 2 0.5
9 0 1 0 0 0 1 0 0 0 1 133 96.5 -268.5 0.5 1 1
9 0 1 0 0 0 1 0 0 0 1 133 94.5 -270 0.5 2 0.5
9 0 1 0 0 0 1 0 0 0 1 133 92.5 475 0.5 2 0.5
9 0 1 0 0 0 1 0 0 0 1 133 90.5 -272.5 0.5 1 1
9 0 1 0 0 0 1 0 0 0 1 133 73.5 -283.5 0.5 1 1
9 0 1 0 0 0 1 0 0 0 1 133 70.5 -285.5 0.5 1 1
9 0 1 0 0 0 1 0 0 0 1 133 67.5 -287.5 0.5 1 1
9 0 1 0 0 0 1 0 0 0 1 133 57.5 -294 0.5 2 0.5
9 0 1 0 0 0 1 0 0 0 1 133 53.5 -296.5 0.5 1 1
9 0 1 0 0 0 1 0 0 0 1 133 47.5 -300.5 0.5 1 1
9 0 1 0 0 0 1 0 0 0 1 133 45.5 -302 0.5 2 0.5
9 0 1 0 0 0 1 0 0 0 1 133 43.5 -303.5 0.5 1 1
9 0 1 0 0 0 1 0 0 0 1 133 38.5 -307 0.5 2 0.5
9 0 1 0 0 0 1 0 0 0 1 133 34.5 -309.5 0.5 1 1
9 0 1 0 0 0 1 0 0 0 1 133 32.5 -310.5 0.5 1 1
9 0 1 0 0 0 1 0 0 0 1 133 26.5 -314.5 0.5 1 1
9 0 1 0 0 0 1 0 0 0 1 132 117.5 -257.5 0.5 1 1
9 0 1 0 0 0 1 0 0 0 1 132 115.5 -259 0.5 2 0.5
9 0 1 0 0 0 1 0 0 0 1 132 115.5 487 0.5 2 0.5
9 0 1 0 0 0 1 0 0 0 1 132 113.5 486 0.5 2 0.5
9 0 1 0 0 0 1 0 0 0 1 132 111.5 -261.5 0.5 1 1
9 0 1 0 0 0 1 0 0 0 1 132 108.5 -263.5 0.5 1 1
9 0 1 0 0 0 1 0 0 0 1 132 108.5 483.5 0.5 1 1
9 0 1 0 0 0 1 0 0 0 1 132 106.5 -264.5 0.5 1 1
9 0 1 0 0 0 1 0 0 0 1 132 103.5 -266.5 0.5 1 1
9 0 1 0 0 0 1 0 0 0 1 132 102.5 481 0.5 2 0.5
9 0 1 0 0 0 1 0 0 0 1 132 100.5 -268.5 0.5 1 1
9 0 1 0 0 0 1 0 0 0 1 132 99.5 479.5 0.5 1 1
9 0 1 0 0 0 1 0 0 0 1 132 94.5 -272.5 0.5 1 1
9 0 1 0 0 0 1 0 0 0 1 132 91.5 -274.5 0.5 1 1
9 0 1 0 0 0 1 0 0 0 1 132 88.5 -276.5 0.5 1 1
9 0 1 0 0 0 1 0 0 0 1 132 83.5 -279.5 0.5 1 1
9 0 1 0 0 0 1 0 0 0 1 132 74.5 -285.5 0.5 1 1
9 0 1 0 0 0 1 0 0 0 1 132 70.5 -288.5 0.5 1 1
9 0 1 0 0 0 1 0 0 0 1 132 65.5 -291.5 0.5 1 1
9 0 1 0 0 0 1 0 0 0 1 132 61.5 -294 0.5 2 0.5
9 0 1 0 0 0 1 0 0 0 1 132 58.5 -296.5 0.5 1 1
9 0 1 0 0 0 1 0 0 0 1 132 56.5 -297.5 0.5 1 1
9 0 1 0 0 0 1 0 0 0 1 132 48.5 -303 0.5 2 0.5
9 0 1 0 0 0 1 0 0 0 1 132 41.5 -307.5 0.5 1 1
9 0 1 0 0 0 1 0 0 0 1 132 36.5 -311.5 0.5 1 1
9 0 1 0 0 0 1 0 0 0 1 132 34.5 -313 0.5 2 0.5
9 0 1 0 0 0 1 0 0 0 1 132 32.5 -314.5 0.5 1 1
9 0 1 0 0 0 1 0 0 0 1 132 30.5 -315.5 0.5 1 1
9 0 1 0 0 0 1 0 0 0 1 132 28.5 -317.5 0.5 1 1
9 0 1 0 0 0 1 0 0 0 1 132 26.5 -318.5 0.5 1 1
9 0 1 0 0 0 1 0 0 0 1 132 19.5 -323.5 0.5 1 1
9 0 1 0 0 0 1 0 0 0 1 132 14.5 -326.5 0.5 1 1
9 0 1 0 0 0 1 0 0 0 1 132 12.5 -328.5 0.5 1 1
9 0 1 0 0 0 1 0 0 0 1 132 10.5 -329.5 0.5 1 1
9 0 1 0 0 0 1 0 0 0 1 131 115.5 -261.5 0.5 1 1
9 0 1 0 0 0 1 0 0 0 1 131 116.5 489 0.5 2 0.5
9 0 1 0 0 0 1 0 0 0 1 131 114.5 488 0.5 2 0.5
9 0 1 0 0 0 1 0 0 0 1 131 113.5 -263 0.5 2 0.5
9 0 1 0 0 0 1 0 0 0 1 131 112.5 487 0.5 2 0.5
9 0 1 0 0 0 1 0 0 0 1 131 111.5 -264 0.5 2 0.5
9 0 1 0 0 0 1 0 0 0 1 131 109.5 -265.5 0.5 1 1
9 0 1 0 0 0 1 0 0 0 1 131 107.5 -266.5 0.5 1 1
9 0 1 0 0 0 1 0 0 0 1 131 105.5 -268 0.5 2 0.5
9 0 1 0 0 0 1 0 0 0 1 131 101.5 -270.5 0.5 1 1
9 0 1 0 0 0 1 0 0 0 1 131 89.5 -278.5 0.5 1 1
9 0 1 0 0 0 1 0 0 0 1 131 87.5 -279.5 0.5 1 1
9 0 1 0 0 0 1 0 0 0 1 131 85.5 -281.5 0.5 1 1
9 0 1 0 0 0 1 0 0 0 1 131 77.5 -287 0.5 2 0.5
9 0 1 0 0 0 1 0 0 0 1 131 75.5 -288 0.5 2 0.5
9 0 1 0 0 0 1 0 0 0 1 131 54.5 -302.5 0.5 1 1
9 0 1 0 0 0 1 0 0 0 1 131 50.5 -305.5 0.5 1 1
9 0 1 0 0 0 1 0 0 0 1 131 45.5 -308.5 0.5 1 1
9 0 1 0 0 0 1 0 0 0 1 131 31.5 -318.5 0.5 1 1
9 0 1 0 0 0 1 0 0 0 1 131 29.5 -320 0.5 2 0.5
9 0 1 0 0 0 1 0 0 0 1 131 27.5 -321.5 0.5 1 1
9 0 1 0 0 0 1 0 0 0 1 131 25.5 -322.5 0.5 1 1
9 0 1 0 0 0 1 0 0 0 1 131 21.5 -325.5 0.5 1 1
9 0 1 0 0 0 1 0 0 0 1 131 18.5 -327.5 0.5 1 1
9 0 1 0 0 0 1 0 0 0 1 131 16.5 -329 0.5 2 0.5
9 0 1 0 0 0 1 0 0 0 1 131 14.5 -330.5 0.5 1 1
9 0 1 0 0 0 1 0 0 0 1 131 11.5 -332.5 0.5 1 1
9 0 1 0 0 0 1 0 0 0 1 131 9.5 -333.5 0.5 1 1
9 0 1 0 0 0 1 0 0 0 1 131 2.5 -378.5 0.5 1 1
9 0 1 0 0 0 1 0 0 0 1 130 114.5 -264.5 0.5 1 1
9 0 1 0 0 0 1 0 0 0 1 130 112.5 -266 0.5 2 0.5
9 0 1 0 0 0 1 0 0 0 1 130 110.5 -267.5 0.5 1 1
9 0 1 0 0 0 1 0 0 0 1 130 108.5 -268.5 0.5 1 1
9 0 1 0 0 0 1 0 0 0 1 130 105.5 -270.5 0.5 1 1
9 0 1 0 0 0 1 0 0 0 1 130 103.5 -272 0.5 2 0.5
9 0 1 0 0 0 1 0 0 0 1 130 101.5 -273.5 0.5 1 1
9 0 1 0 0 0 1 0 0 0 1 130 99.5 -274.5 0.5 1 1
9 0 1 0 0 0 1 0 0 0 1 130 89.5 -281.5 0.5 1 1
9 0 1 0 0 0 1 0 0 0 1 130 76.5 -290.5 0.5 1 1
9 0 1 0 0 0 1 0 0 0 1 130 71.5 -294 0.5 2 0.5
9 0 1 0 0 0 1 0 0 0 1 130 66.5 -297.5 0.5 1 1
9 0 1 0 0 0 1 0 0 0 1 130 63.5 -299.5 0.5 1 1
9 0 1 0 0 0 1 0 0 0 1 130 61.5 -300.5 0.5 1 1
9 0 1 0 0 0 1 0 0 0 1 130 57.5 -303.5 0.5 1 1
9 0 1 0 0 0 1 0 0 0 1 130 54.5 -305.5 0.5 1 1
9 0 1 0 0 0 1 0 0 0 1 130 51.5 -307.5 0.5 1 1
9 0 1 0 0 0 1 0 0 0 1 130 47.5 -310.5 0.5 1 1
9 0 1 0 0 0 1 0 0 0 1 130 44.5 -312.5 0.5 1 1
9 0 1 0 0 0 1 0 0 0 1 130 35.5 -318.5 0.5 1 1
9 0 1 0 0 0 1 0 0 0 1 129 117.5 -265.5 0.5 1 1
9 0 1 0 0 0 1 0 0 0 1 129 115.5 -266.5 0.5 1 1
9 0 1 0 0 0 1 0 0 0 1 129 113.5 -268 0.5 2 0.5
9 0 1 0 0 0 1 0 0 0 1 129 111.5 -269.5 0.5 1 1
9 0 1 0 0 0 1 0 0 0 1 129 106.5 -272.5 0.5 1 1
9 0 1 0 0 0 1 0 0 0 1 129 103.5 -274.5 0.5 1 1
9 0 1 0 0 0 1 0 0 0 1 129 99.5 -277.5 0.5 1 1
9 0 1 0 0 0 1 0 0 0 1 129 94.5 -280.5 0.5 1 1
9 0 1 0 0 0 1 0 0 0 1 129 89.5 -284.5 0.5 1 1
9 0 1 0 0 0 1 0 0 0 1 129 87.5 -285.5 0.5 1 1
9 0 1 0 0 0 1 0 0 0 1 129 77.5 -292.5 0.5 1 1
9 0 1 0 0 0 1 0 0 0 1 129 2.5 -383.5 0.5 1 1
9 0 1 0 0 0 1 0 0 0 1 128 15.5 -338.5 0.5 1 1
9 0 1 0 0 0 1 0 0 0 1 128 3.5 -346 0.5 2 0.5
9 0 1 0 0 0 1 0 0 0 1 127 122 -262.5 0.5 0.5 2
9 0 1 0 0 0 1 0 0 0 1 127 45.5 -319.5 0.5 1 1
9 0 1 0 0 0 1 0 0 0 1 127 39.5 -323.5 0.5 1 1
9 0 1 0 0 0 1 0 0 0 1 127 18.5 -339.5 0.5 1 1
9 0 1 0 0 0 1 0 0 0 1 127 2.5 -387.5 0.5 1 1
9 0 1 0 0 0 1 0 0 0 1 126 64.5 -308.5 0.5 1 1
9 0 1 0 0 0 1 0 0 0 1 126 56.5 -314.5 0.5 1 1
9 0 1 0 0 0 1 0 0 0 1 126 53.5 -316.5 0.5 1 1
9 0 1 0 0 0 1 0 0 0 1 126 49.5 -319.5 0.5 1 1
9 0 1 0 0 0 1 0 0 0 1 126 38.5 -327.5 0.5 1 1
9 0 1 0 0 0 1 0 0 0 1 126 12.5 -346.5 0.5 1 1
9 0 1 0 0 0 1 0 0 0 1 125.5 123 -261.5 1 0.5 1
9 0 1 0 0 0 1 0 0 0 1 125 75.5 -303.5 0.5 1 1
9 0 1 0 0 0 1 0 0 0 1 125 72.5 -305.5 0.5 1 1
9 0 1 0 0 0 1 0 0 0 1 125 2.5 -391.5 0.5 1 1
9 0 1 0 0 0 1 0 0 0 1 124.5 122 -268.5 1 0.5 1
9 0 1 0 0 0 1 0 0 0 1 124 91.5 -294.5 0.5 1 1
9 0 1 0 0 0 1 0 0 0 1 124 73.5 -307.5 0.5 1 1
9 0 1 0 0 0 1 0 0 0 1 124 69.5 -310.5 0.5 1 1
9 0 1 0 0 0 1 0 0 0 1 124 62.5 -315.5 0.5 1 1
9 0 1 0 0 0 1 0 0 0 1 121 5.5 -363 0.5 2 0.5
9 0 1 0 0 0 1 0 0 0 1 120 123 -273.5 0.5 0.5 2
9 0 1 0 0 0 1 0 0 0 1 119 122 -279.5 0.5 0.5 2
9 0 1 0 0 0 1 0 0 0 1 119 4.5 -368.5 0.5 1 1
9 0 1 0 0 0 1 0 0 0 1 118 5.5 -370 0.5 2 0.5
9 0 1 0 0 0 1 0 0 0 1 116.5 122 -284.5 1 0.5 1
9 0 1 0 0 0 1 0 0 0 1 115.5 122 -286.5 1 0.5 1
9 0 1 0 0 0 1 0 0 0 1 112.5 122 -292.5 1 0.5 1
9 0 1 0 0 0 1 0 0 0 1 111.5 106.5 500 1 1 0.5
9 0 1 0 0 0 1 0 0 0 1 111.5 66 472 2 0.5 0.5
9 0 1 0 0 0 1 0 0 0 1 110.5 2.5 -387 1 1 0.5
9 0 1 0 0 0 1 0 0 0 1 110.5 71 476 2 0.5 0.5
9 0 1 0 0 0 1 0 0 0 1 109.5 76 480 2 0.5 0.5
9 0 1 0 0 0 1 0 0 0 1 108.5 84 486 2 0.5 0.5
9 0 1 0 0 0 1 0 0 0 1 107 4.5 -392.5 0.5 1 1
9 0 1 0 0 0 1 0 0 0 1 104.5 122 -305.5 1 0.5 1
9 0 1 0 0 0 1 0 0 0 1 104.5 120.5 512 1 1 0.5
9 0 1 0 0 0 1 0 0 0 1 105.5 82 485 2 0.5 0.5
9 0 1 0 0 0 1 0 0 0 1 104.5 2.5 -425 1 1 0.5
9 0 1 0 0 0 1 0 0 0 1 104.5 94 494 2 0.5 0.5
9 0 1 0 0 0 1 0 0 0 1 103.5 102 500 2 0.5 0.5
9 0 1 0 0 0 1 0 0 0 1 103.5 99 498 2 0.5 0.5
9 0 1 0 0 0 1 0 0 0 1 102.5 103 501 2 0.5 0.5
9 0 1 0 0 0 1 0 0 0 1 101.5 2.5 -429 1 1 0.5
9 0 1 0 0 0 1 0 0 0 1 101 3.5 -403 0.5 2 0.5
9 0 1 0 0 0 1 0 0 0 1 100.5 119.5 513 1 1 0.5
9 0 1 0 0 0 1 0 0 0 1 99.5 112 508 2 0.5 0.5
9 0 1 0 0 0 1 0 0 0 1 98.5 2.5 -433 1 1 0.5
9 0 1 0 0 0 1 0 0 0 1 98.5 116 511 2 0.5 0.5
9 0 1 0 0 0 1 0 0 0 1 98.5 113 509 2 0.5 0.5
9 0 1 0 0 0 1 0 0 0 1 97.5 117 512 2 0.5 0.5
9 0 1 0 0 0 1 0 0 0 1 97.5 114 510 2 0.5 0.5
9 0 1 0 0 0 1 0 0 0 1 97.5 110 507 2 0.5 0.5
9 0 1 0 0 0 1 0 0 0 1 96.5 118 513 2 0.5 0.5
9 0 1 0 0 0 1 0 0 0 1 96.5 111 508 2 0.5 0.5
9 0 1 0 0 0 1 0 0 0 1 95.5 112 509 2 0.5 0.5
9 0 1 0 0 0 1 0 0 0 1 92.5 123 -317.5 1 0.5 1
9 0 1 0 0 0 1 0 0 0 1 89.5 2.5 -444 1 1 0.5
9 0 1 0 0 0 1 0 0 0 1 89.5 2.5 -421 1 1 0.5
9 0 1 0 0 0 1 0 0 0 1 88.5 62 469 2 0.5 0.5
9 0 1 0 0 0 1 0 0 0 1 85 2.5 -426.5 0.5 1 1
9 0 1 0 0 0 1 0 0 0 1 83 2.5 -429.5 0.5 1 1
9 0 1 0 0 0 1 0 0 0 1 82.5 72.5 477 1 1 0.5
9 0 1 0 0 0 1 0 0 0 1 82.5 70 474.5 1 0.5 1
9 0 1 0 0 0 1 0 0 0 1 82.5 59 465.5 1 0.5 1
9 0 1 0 0 0 1 0 0 0 1 82.5 53 460.5 1 0.5 1
9 0 1 0 0 0 1 0 0 0 1 82.5 47 455.5 1 0.5 1
9 0 1 0 0 0 1 0 0 0 1 82.5 41 450.5 1 0.5 1
9 0 1 0 0 0 1 0 0 0 1 82.5 35 445.5 1 0.5 1
9 0 1 0 0 0 1 0 0 0 1 82.5 29 440.5 1 0.5 1
9 0 1 0 0 0 1 0 0 0 1 82.5 25 437.5 1 0.5 1
9 0 1 0 0 0 1 0 0 0 1 82.5 14.5 429 1 1 0.5
9 0 1 0 0 0 1 0 0 0 1 82.5 6 421.5 1 0.5 1
9 0 1 0 0 0 1 0 0 0 1 81.5 75 479 2 0.5 0.5
9 0 1 0 0 0 1 0 0 0 1 80 3.5 -432.5 0.5 1 1
9 0 1 0 0 0 1 0 0 0 1 79.5 2.5 -434 1 1 0.5
9 0 1 0 0 0 1 0 0 0 1 77.5 122 -336.5 1 0.5 1
9 0 1 0 0 0 1 0 0 0 1 77 2.5 -436.5 0.5 1 1
9 0 1 0 0 0 1 0 0 0 1 76 3.5 -437 0.5 2 0.5
9 0 1 0 0 0 1 0 0 0 1 72.5 122 -341.5 1 0.5 1
9 0 1 0 0 0 1 0 0 0 1 72 2.5 -442.5 0.5 1 1
9 0 1 0 0 0 1 0 0 0 1 69 3.5 -445 0.5 2 0.5
9 0 1 0 0 0 1 0 0 0 1 68.5 2.5 -446 1 1 0.5
9 0 1 0 0 0 1 0 0 0 1 66 3.5 -448 0.5 2 0.5
9 0 1 0 0 0 1 0 0 0 1 65.5 2.5 -470 1 1 0.5
9 0 1 0 0 0 1 0 0 0 1 65.5 2.5 -449 1 1 0.5
9 0 1 0 0 0 1 0 0 0 1 62.5 3.5 -452 1 1 0.5
9 0 1 0 0 0 1 0 0 0 1 61.5 2.5 -473 1 1 0.5
9 0 1 0 0 0 1 0 0 0 1 61 2.5 -454.5 0.5 1 1
9 0 1 0 0 0 1 0 0 0 1 60.5 122 -352.5 1 0.5 1
9 0 1 0 0 0 1 0 0 0 1 59.5 3.5 -455 1 1 0.5
9 0 1 0 0 0 1 0 0 0 1 57 3.5 -457 0.5 2 0.5
9 0 1 0 0 0 1 0 0 0 1 56.5 2.5 -478 1 1 0.5
9 0 1 0 0 0 1 0 0 0 1 56.5 2.5 -458 1 1 0.5
9 0 1 0 0 0 1 0 0 0 1 56.5 123 -354 2 0.5 0.5
9 0 1 0 0 0 1 0 0 0 1 54 2.5 -460.5 0.5 1 1
9 0 1 0 0 0 1 0 0 0 1 49.5 122 -361.5 1 0.5 1
9 0 1 0 0 0 1 0 0 0 1 45.5 122 -364.5 1 0.5 1
9 0 1 0 0 0 1 0 0 0 1 45.5 2.5 -487 1 1 0.5
9 0 1 0 0 0 1 0 0 0 1 44 2.5 -469.5 0.5 1 1
9 0 1 0 0 0 1 0 0 0 1 42.5 122 -366.5 1 0.5 1
9 0 1 0 0 0 1 0 0 0 1 41.5 2.5 -490 1 1 0.5
9 0 1 0 0 0 1 0 0 0 1 40.5 122 -368 2 0.5 0.5
9 0 1 0 0 0 1 0 0 0 1 38 2.5 -474.5 0.5 1 1
9 0 1 0 0 0 1 0 0 0 1 37.5 2.5 -493 1 1 0.5
9 0 1 0 0 0 1 0 0 0 1 33.5 2.5 -496 1 1 0.5
9 0 1 0 0 0 1 0 0 0 1 30.5 122 -374.5 1 0.5 1
9 0 1 0 0 0 1 0 0 0 1 29.5 2.5 -499 1 1 0.5
9 0 1 0 0 0 1 0 0 0 1 25 2.5 -484.5 0.5 1 1
9 0 1 0 0 0 1 0 0 0 1 23.5 122 -379 2 0.5 0.5
9 0 1 0 0 0 1 0 0 0 1 19.5 122 -381 2 0.5 0.5
9 0 1 0 0 0 1 0 0 0 1 9 2.5 -495.5 0.5 1 1
9 0 1 0 0 0 1 0 0 0 1 7.5 2.5 -514 1 1 0.5
9 0 1 0 0 0 1 0 0 0 1 -2.5 123 -388.5 1 0.5 1
9 0 1 0 0 0 1 0 0 0 1 -7.5 2.5 -514 1 1 0.5
9 0 1 0 0 0 1 0 0 0 1 -8.5 2.5 -496 1 1 0.5
9 0 1 0 0 0 1 0 0 0 1 -18.5 122 -381.5 1 0.5 1
9 0 1 0 0 0 1 0 0 0 1 -22.5 122 -379.5 1 0.5 1
9 0 1 0 0 0 1 0 0 0 1 -24.5 2.5 -485 1 1 0.5
9 0 1 0 0 0 1 0 0 0 1 -29 2.5 -499.5 0.5 1 1
9 0 1 0 0 0 1 0 0 0 1 -28.5 2.5 -482 1 1 0.5
9 0 1 0 0 0 1 0 0 0 1 -33 2.5 -496.5 0.5 1 1
9 0 1 0 0 0 1 0 0 0 1 -37 2.5 -493.5 0.5 1 1
9 0 1 0 0 0 1 0 0 0 1 -39.5 122 -368.5 1 0.5 1
9 0 1 0 0 0 1 0 0 0 1 -39.5 2.5 -473 1 1 0.5
9 0 1 0 0 0 1 0 0 0 1 -41 2.5 -490.5 0.5 1 1
9 0 1 0 0 0 1 0 0 0 1 -42.5 122 -366.5 1 0.5 1
9 0 1 0 0 0 1 0 0 0 1 -45.5 122 -364.5 1 0.5 1
9 0 1 0 0 0 1 0 0 0 1 -45.5 2.5 -468 1 1 0.5
9 0 1 0 0 0 1 0 0 0 1 -47 2.5 -485.5 0.5 1 1
9 0 1 0 0 0 1 0 0 0 1 -49.5 2.5 -465 1 1 0.5
9 0 1 0 0 0 1 0 0 0 1 -54.5 123 -355.5 1 0.5 1
9 0 1 0 0 0 1 0 0 0 1 -56 3.5 -458 0.5 2 0.5
9 0 1 0 0 0 1 0 0 0 1 -57 3.5 -457 0.5 2 0.5
9 0 1 0 0 0 1 0 0 0 1 -59.5 3.5 -455 1 1 0.5
9 0 1 0 0 0 1 0 0 0 1 -61 2.5 -473.5 0.5 1 1
9 0 1 0 0 0 1 0 0 0 1 -62.5 123 -348.5 1 0.5 1
9 0 1 0 0 0 1 0 0 0 1 -62.5 122 -350.5 1 0.5 1
9 0 1 0 0 0 1 0 0 0 1 -62.5 3.5 -452 1 1 0.5
9 0 1 0 0 0 1 0 0 0 1 -62.5 2.5 -453 1 1 0.5
9 0 1 0 0 0 1 0 0 0 1 -65 3.5 -449 0.5 2 0.5
9 0 1 0 0 0 1 0 0 0 1 -66 3.5 -448 0.5 2 0.5
9 0 1 0 0 0 1 0 0 0 1 -67.5 123 -344.5 1 0.5 1
9 0 1 0 0 0 1 0 0 0 1 -71.5 122 -342.5 1 0.5 1
9 0 1 0 0 0 1 0 0 0 1 -76 3.5 -437 0.5 2 0.5
9 0 1 0 0 0 1 0 0 0 1 -76.5 122 -337.5 1 0.5 1
9 0 1 0 0 0 1 0 0 0 1 -77 2.5 -458.5 0.5 1 1
9 0 1 0 0 0 1 0 0 0 1 -77 2.5 -436.5 0.5 1 1
9 0 1 0 0 0 1 0 0 0 1 -80 3.5 -432.5 0.5 1 1
9 0 1 0 0 0 1 0 0 0 1 -79.5 2.5 -434 1 1 0.5
9 0 1 0 0 0 1 0 0 0 1 -81 123 -330.5 0.5 0.5 2
9 0 1 0 0 0 1 0 0 0 1 -81.5 75 479 2 0.5 0.5
9 0 1 0 0 0 1 0 0 0 1 -82.5 72.5 477 1 1 0.5
9 0 1 0 0 0 1 0 0 0 1 -82.5 70 474.5 1 0.5 1
9 0 1 0 0 0 1 0 0 0 1 -82.5 59 465.5 1 0.5 1
9 0 1 0 0 0 1 0 0 0 1 -82.5 53 460.5 1 0.5 1
9 0 1 0 0 0 1 0 0 0 1 -82.5 47 455.5 1 0.5 1
9 0 1 0 0 0 1 0 0 0 1 -82.5 41 450.5 1 0.5 1
9 0 1 0 0 0 1 0 0 0 1 -82.5 35 445.5 1 0.5 1
9 0 1 0 0 0 1 0 0 0 1 -82.5 29 440.5 1 0.5 1
9 0 1 0 0 0 1 0 0 0 1 -82.5 25 437.5 1 0.5 1
9 0 1 0 0 0 1 0 0 0 1 -82.5 14.5 429 1 1 0.5
9 0 1 0 0 0 1 0 0 0 1 -82.5 6 421.5 1 0.5 1
9 0 1 0 0 0 1 0 0 0 1 -84.5 122 -329.5 1 0.5 1
9 0 1 0 0 0 1 0 0 0 1 -85 2.5 -449.5 0.5 1 1
9 0 1 0 0 0 1 0 0 0 1 -86.5 122 -327.5 1 0.5 1
9 0 1 0 0 0 1 0 0 0 1 -88 3.5 -422 0.5 2 0.5
9 0 1 0 0 0 1 0 0 0 1 -89 2.5 -421.5 0.5 1 1
9 0 1 0 0 0 1 0 0 0 1 -88.5 62 469 2 0.5 0.5
9 0 1 0 0 0 1 0 0 0 1 -90.5 122 -323.5 1 0.5 1
9 0 1 0 0 0 1 0 0 0 1 -91 2.5 -442.5 0.5 1 1
9 0 1 0 0 0 1 0 0 0 1 -91.5 2.5 -418 1 1 0.5
9 0 1 0 0 0 1 0 0 0 1 -94 2.5 -438.5 0.5 1 1
9 0 1 0 0 0 1 0 0 0 1 -95.5 112 509 2 0.5 0.5
9 0 1 0 0 0 1 0 0 0 1 -96.5 118 513 2 0.5 0.5
9 0 1 0 0 0 1 0 0 0 1 -96.5 111 508 2 0.5 0.5
9 0 1 0 0 0 1 0 0 0 1 -98 2.5 -433.5 0.5 1 1
9 0 1 0 0 0 1 0 0 0 1 -99 122 -312.5 0.5 0.5 2
9 0 1 0 0 0 1 0 0 0 1 -97.5 117 512 2 0.5 0.5
9 0 1 0 0 0 1 0 0 0 1 -97.5 114 510 2 0.5 0.5
9 0 1 0 0 0 1 0 0 0 1 -97.5 110 507 2 0.5 0.5
9 0 1 0 0 0 1 0 0 0 1 -98.5 116 511 2 0.5 0.5
9 0 1 0 0 0 1 0 0 0 1 -98.5 113 509 2 0.5 0.5
9 0 1 0 0 0 1 0 0 0 1 -100.5 119.5 513 1 1 0.5
9 0 1 0 0 0 1 0 0 0 1 -99.5 112 508 2 0.5 0.5
9 0 1 0 0 0 1 0 0 0 1 -101 2.5 -429.5 0.5 1 1
9 0 1 0 0 0 1 0 0 0 1 -101 3.5 -403 0.5 2 0.5
9 0 1 0 0 0 1 0 0 0 1 -103 122 -307.5 0.5 0.5 2
9 0 1 0 0 0 1 0 0 0 1 -102.5 103 501 2 0.5 0.5
9 0 1 0 0 0 1 0 0 0 1 -104 2.5 -425.5 0.5 1 1
9 0 1 0 0 0 1 0 0 0 1 -103.5 2.5 -400 1 1 0.5
9 0 1 0 0 0 1 0 0 0 1 -104.5 122 -305.5 1 0.5 1
9 0 1 0 0 0 1 0 0 0 1 -104.5 120.5 512 1 1 0.5
9 0 1 0 0 0 1 0 0 0 1 -103.5 102 500 2 0.5 0.5
9 0 1 0 0 0 1 0 0 0 1 -103.5 99 498 2 0.5 0.5
9 0 1 0 0 0 1 0 0 0 1 -104.5 94 494 2 0.5 0.5
9 0 1 0 0 0 1 0 0 0 1 -105.5 82 485 2 0.5 0.5
9 0 1 0 0 0 1 0 0 0 1 -108 4.5 -390.5 0.5 1 1
9 0 1 0 0 0 1 0 0 0 1 -108.5 84 486 2 0.5 0.5
9 0 1 0 0 0 1 0 0 0 1 -110 3.5 -387 0.5 2 0.5
9 0 1 0 0 0 1 0 0 0 1 -111 122 -294.5 0.5 0.5 2
9 0 1 0 0 0 1 0 0 0 1 -109.5 76 480 2 0.5 0.5
9 0 1 0 0 0 1 0 0 0 1 -111.5 106.5 500 1 1 0.5
9 0 1 0 0 0 1 0 0 0 1 -110.5 71 476 2 0.5 0.5
9 0 1 0 0 0 1 0 0 0 1 -112.5 122 -292.5 1 0.5 1
9 0 1 0 0 0 1 0 0 0 1 -111.5 66 472 2 0.5 0.5
9 0 1 0 0 0 1 0 0 0 1 -115 122 -287.5 0.5 0.5 2
9 0 1 0 0 0 1 0 0 0 1 -118 123 -277.5 0.5 0.5 2
9 0 1 0 0 0 1 0 0 0 1 -118 5.5 -370 0.5 2 0.5
9 0 1 0 0 0 1 0 0 0 1 -120 2.5 -368.5 0.5 1 1
9 0 1 0 0 0 1 0 0 0 1 -121 5.5 -363 0.5 2 0.5
9 0 1 0 0 0 1 0 0 0 1 -121.5 122 -274.5 1 0.5 1
9 0 1 0 0 0 1 0 0 0 1 -124 122 -269.5 0.5 0.5 2
9 0 1 0 0 0 1 0 0 0 1 -124 91.5 -294.5 0.5 1 1
9 0 1 0 0 0 1 0 0 0 1 -124 73.5 -307.5 0.5 1 1
9 0 1 0 0 0 1 0 0 0 1 -124 69.5 -310.5 0.5 1 1
9 0 1 0 0 0 1 0 0 0 1 -124 62.5 -315.5 0.5 1 1
9 0 1 0 0 0 1 0 0 0 1 -124 4.5 -356.5 0.5 1 1
9 0 1 0 0 0 1 0 0 0 1 -124 2.5 -393.5 0.5 1 1
9 0 1 0 0 0 1 0 0 0 1 -125 123 -262.5 0.5 0.5 2
9 0 1 0 0 0 1 0 0 0 1 -125 75.5 -303.5 0.5 1 1
9 0 1 0 0 0 1 0 0 0 1 -125 72.5 -305.5 0.5 1 1
9 0 1 0 0 0 1 0 0 0 1 -126 64.5 -308.5 0.5 1 1
9 0 1 0 0 0 1 0 0 0 1 -126 56.5 -314.5 0.5 1 1
9 0 1 0 0 0 1 0 0 0 1 -126 53.5 -316.5 0.5 1 1
9 0 1 0 0 0 1 0 0 0 1 -126 49.5 -319.5 0.5 1 1
9 0 1 0 0 0 1 0 0 0 1 -126 38.5 -327.5 0.5 1 1
9 0 1 0 0 0 1 0 0 0 1 -126 12.5 -346.5 0.5 1 1
9 0 1 0 0 0 1 0 0 0 1 -127 122 -262.5 0.5 0.5 2
9 0 1 0 0 0 1 0 0 0 1 -127 45.5 -319.5 0.5 1 1
9 0 1 0 0 0 1 0 0 0 1 -127 39.5 -323.5 0.5 1 1
9 0 1 0 0 0 1 0 0 0 1 -127 18.5 -339.5 0.5 1 1
9 0 1 0 0 0 1 0 0 0 1 -127 2.5 -387.5 0.5 1 1
9 0 1 0 0 0 1 0 0 0 1 -128 15.5 -338.5 0.5 1 1
9 0 1 0 0 0 1 0 0 0 1 -128 3.5 -346 0.5 2 0.5
9 0 1 0 0 0 1 0 0 0 1 -129 117.5 -265.5 0.5 1 1
9 0 1 0 0 0 1 0 0 0 1 -129 115.5 -266.5 0.5 1 1
9 0 1 0 0 0 1 0 0 0 1 -129 113.5 -268 0.5 2 0.5
9 0 1 0 0 0 1 0 0 0 1 -129 111.5 -269.5 0.5 1 1
9 0 1 0 0 0 1 0 0 0 1 -129 106.5 -272.5 0.5 1 1
9 0 1 0 0 0 1 0 0 0 1 -129 103.5 -274.5 0.5 1 1
9 0 1 0 0 0 1 0 0 0 1 -129 99.5 -277.5 0.5 1 1
9 0 1 0 0 0 1 0 0 0 1 -129 94.5 -280.5 0.5 1 1
9 0 1 0 0 0 1 0 0 0 1 -129 89.5 -284.5 0.5 1 1
9 0 1 0 0 0 1 0 0 0 1 -129 87.5 -285.5 0.5 1 1
9 0 1 0 0 0 1 0 0 0 1 -129 77.5 -292.5 0.5 1 1
9 0 1 0 0 0 1 0 0 0 1 -129 2.5 -383.5 0.5 1 1
9 0 1 0 0 0 1 0 0 0 1 -130 114.5 -264.5 0.5 1 1
9 0 1 0 0 0 1 0 0 0 1 -130 112.5 -266 0.5 2 0.5
9 0 1 0 0 0 1 0 0 0 1 -130 110.5 -267.5 0.5 1 1
9 0 1 0 0 0 1 0 0 0 1 -130 108.5 -268.5 0.5 1 1
9 0 1 0 0 0 1 0 0 0 1 -130 105.5 -270.5 0.5 1 1
9 0 1 0 0 0 1 0 0 0 1 -130 103.5 -272 0.5 2 0.5
9 0 1 0 0 0 1 0 0 0 1 -130 101.5 -273.5 0.5 1 1
9 0 1 0 0 0 1 0 0 0 1 -130 99.5 -274.5 0.5 1 1
9 0 1 0 0 0 1 0 0 0 1 -130 89.5 -281.5 0.5 1 1
9 0 1 0 0 0 1 0 0 0 1 -130 76.5 -290.5 0.5 1 1
9 0 1 0 0 0 1 0 0 0 1 -130 71.5 -294 0.5 2 0.5
9 0 1 0 0 0 1 0 0 0 1 -130 66.5 -297.5 0.5 1 1
9 0 1 0 0 0 1 0 0 0 1 -130 63.5 -299.5 0.5 1 1
9 0 1 0 0 0 1 0 0 0 1 -130 61.5 -300.5 0.5 1 1
9 0 1 0 0 0 1 0 0 0 1 -130 57.5 -303.5 0.5 1 1
9 0 1 0 0 0 1 0 0 0 1 -130 54.5 -305.5 0.5 1 1
9 0 1 0 0 0 1 0 0 0 1 -130 51.5 -307.5 0.5 1 1
9 0 1 0 0 0 1 0 0 0 1 -130 47.5 -310.5 0.5 1 1
9 0 1 0 0 0 1 0 0 0 1 -130 44.5 -312.5 0.5 1 1
9 0 1 0 0 0 1 0 0 0 1 -130 35.5 -318.5 0.5 1 1
9 0 1 0 0 0 1 0 0 0 1 -131 115.5 -261.5 0.5 1 1
9 0 1 0 0 0 1 0 0 0 1 -131 116.5 489 0.5 2 0.5
9 0 1 0 0 0 1 0 0 0 1 -131 114.5 488 0.5 2 0.5
9 0 1 0 0 0 1 0 0 0 1 -131 113.5 -263 0.5 2 0.5
9 0 1 0 0 0 1 0 0 0 1 -131 112.5 487 0.5 2 0.5
9 0 1 0 0 0 1 0 0 0 1 -131 111.5 -264 0.5 2 0.5
9 0 1 0 0 0 1 0 0 0 1 -131 109.5 -265.5 0.5 1 1
9 0 1 0 0 0 1 0 0 0 1 -131 107.5 -266.5 0.5 1 1
9 0 1 0 0 0 1 0 0 0 1 -131 105.5 -268 0.5 2 0.5
9 0 1 0 0 0 1 0 0 0 1 -131 101.5 -270.5 0.5 1 1
9 0 1 0 0 0 1 0 0 0 1 -131 89.5 -278.5 0.5 1 1
9 0 1 0 0 0 1 0 0 0 1 -131 87.5 -279.5 0.5 1 1
9 0 1 0 0 0 1 0 0 0 1 -131 85.5 -281.5 0.5 1 1
9 0 1 0 0 0 1 0 0 0 1 -131 77.5 -287 0.5 2 0.5
9 0 1 0 0 0 1 0 0 0 1 -131 75.5 -288 0.5 2 0.5
9 0 1 0 0 0 1 0 0 0 1 -131 54.5 -302.5 0.5 1 1
9 0 1 0 0 0 1 0 0 0 1 -131 50.5 -305.5 0.5 1 1
9 0 1 0 0 0 1 0 0 0 1 -131 45.5 -308.5 0.5 1 1
9 0 1 0 0 0 1 0 0 0 1 -131 31.5 -318.5 0.5 1 1
9 0 1 0 0 0 1 0 0 0 1 -131 29.5 -320 0.5 2 0.5
9 0 1 0 0 0 1 0 0 0 1 -131 27.5 -321.5 0.5 1 1
9 0 1 0 0 0 1 0 0 0 1 -131 25.5 -322.5 0.5 1 1
9 0 1 0 0 0 1 0 0 0 1 -131 21.5 -325.5 0.5 1 1
9 0 1 0 0 0 1 0 0 0 1 -131 18.5 -327.5 0.5 1 1
9 0 1 0 0 0 1 0 0 0 1 -131 16.5 -329 0.5 2 0.5
9 0 1 0 0 0 1 0 0 0 1 -131 14.5 -330.5 0.5 1 1
9 0 1 0 0 0 1 0 0 0 1 -131 11.5 -332.5 0.5 1 1
9 0 1 0 0 0 1 0 0 0 1 -131 9.5 -333.5 0.5 1 1
9 0 1 0 0 0 1 0 0 0 1 -131 7.5 -334.5 0.5 1 1
9 0 1 0 0 0 1 0 0 0 1 -132 117.5 -257.5 0.5 1 1
9 0 1 0 0 0 1 0 0 0 1 -132 115.5 -259 0.5 2 0.5
9 0 1 0 0 0 1 0 0 0 1 -132 115.5 487 0.5 2 0.5
9 0 1 0 0 0 1 0 0 0 1 -132 113.5 486 0.5 2 0.5
9 0 1 0 0 0 1 0 0 0 1 -132 111.5 -261.5 0.5 1 1
9 0 1 0 0 0 1 0 0 0 1 -132 108.5 -263.5 0.5 1 1
9 0 1 0 0 0 1 0 0 0 1 -132 108.5 483.5 0.5 1 1
9 0 1 0 0 0 1 0 0 0 1 -132 106.5 -264.5 0.5 1 1
9 0 1 0 0 0 1 0 0 0 1 -132 103.5 -266.5 0.5 1 1
9 0 1 0 0 0 1 0 0 0 1 -132 102.5 481 0.5 2 0.5
9 0 1 0 0 0 1 0 0 0 1 -132 100.5 -268.5 0.5 1 1
9 0 1 0 0 0 1 0 0 0 1 -132 99.5 479.5 0.5 1 1
9 0 1 0 0 0 1 0 0 0 1 -132 94.5 -272.5 0.5 1 1
9 0 1 0 0 0 1 0 0 0 1 -132 91.5 -274.5 0.5 1 1
9 0 1 0 0 0 1 0 0 0 1 -132 88.5 -276.5 0.5 1 1
9 0 1 0 0 0 1 0 0 0 1 -132 83.5 -279.5 0.5 1 1
9 0 1 0 0 0 1 0 0 0 1 -132 74.5 -285.5 0.5 1 1
9 0 1 0 0 0 1 0 0 0 1 -132 70.5 -288.5 0.5 1 1
9 0 1 0 0 0 1 0 0 0 1 -132 65.5 -291.5 0.5 1 1
9 0 1 0 0 0 1 0 0 0 1 -132 61.5 -294 0.5 2 0.5
9 0 1 0 0 0 1 0 0 0 1 -132 58.5 -296.5 0.5 1 1
9 0 1 0 0 0 1 0 0 0 1 -132 56.5 -297.5 0.5 1 1
9 0 1 0 0 0 1 0 0 0 1 -132 48.5 -303 0.5 2 0.5
9 0 1 0 0 0 1 0 0 0 1 -132 41.5 -307.5 0.5 1 1
9 0 1 0 0 0 1 0 0 0 1 -132 36.5 -311.5 0.5 1 1
9 0 1 0 0 0 1 0 0 0 1 -132 34.5 -313 0.5 2 0.5
9 0 1 0 0 0 1 0 0 0 1 -132 32.5 -314.5 0.5 1 1
9 0 1 0 0 0 1 0 0 0 1 -132 30.5 -315.5 0.5 1 1
9 0 1 0 0 0 1 0 0 0 1 -132 28.5 -317.5 0.5 1 1
9 0 1 0 0 0 1 0 0 0 1 -132 26.5 -318.5 0.5 1 1
9 0 1 0 0 0 1 0 0 0 1 -132 19.5 -323.5 0.5 1 1
9 0 1 0 0 0 1 0 0 0 1 -132 14.5 -326.5 0.5 1 1
9 0 1 0 0 0 1 0 0 0 1 -132 12.5 -328.5 0.5 1 1
9 0 1 0 0 0 1 0 0 0 1 -132 10.5 -329.5 0.5 1 1
9 0 1 0 0 0 1 0 0 0 1 -132 2.5 -376.5 0.5 1 1
9 0 1 0 0 0 1 0 0 0 1 -133 116.5 -255.5 0.5 1 1
9 0 1 0 0 0 1 0 0 0 1 -133 116.5 486 0.5 2 0.5
9 0 1 0 0 0 1 0 0 0 1 -133 113.5 -257.5 0.5 1 1
9 0 1 0 0 0 1 0 0 0 1 -133 112.5 484 0.5 2 0.5
9 0 1 0 0 0 1 0 0 0 1 -133 110.5 -259.5 0.5 1 1
9 0 1 0 0 0 1 0 0 0 1 -133 102.5 -264.5 0.5 1 1
9 0 1 0 0 0 1 0 0 0 1 -133 103.5 480 0.5 2 0.5
9 0 1 0 0 0 1 0 0 0 1 -133 101.5 479 0.5 2 0.5
9 0 1 0 0 0 1 0 0 0 1 -133 98.5 478 0.5 2 0.5
9 0 1 0 0 0 1 0 0 0 1 -133 96.5 -268.5 0.5 1 1
9 0 1 0 0 0 1 0 0 0 1 -133 94.5 -270 0.5 2 0.5
9 0 1 0 0 0 1 0 0 0 1 -133 92.5 475 0.5 2 0.5
9 0 1 0 0 0 1 0 0 0 1 -133 90.5 -272.5 0.5 1 1
9 0 1 0 0 0 1 0 0 0 1 -133 73.5 -283.5 0.5 1 1
9 0 1 0 0 0 1 0 0 0 1 -133 70.5 -285.5 0.5 1 1
9 0 1 0 0 0 1 0 0 0 1 -133 67.5 -287.5 0.5 1 1
9 0 1 0 0 0 1 0 0 0 1 -133 57.5 -294 0.5 2 0.5
9 0 1 0 0 0 1 0 0 0 1 -133 53.5 -296.5 0.5 1 1
9 0 1 0 0 0 1 0 0 0 1 -133 47.5 -300.5 0.5 1 1
9 0 1 0 0 0 1 0 0 0 1 -133 45.5 -302 0.5 2 0.5
9 0 1 0 0 0 1 0 0 0 1 -133 43.5 -303.5 0.5 1 1
9 0 1 0 0 0 1 0 0 0 1 -133 38.5 -307 0.5 2 0.5
9 0 1 0 0 0 1 0 0 0 1 -133 34.5 -309.5 0.5 1 1
9 0 1 0 0 0 1 0 0 0 1 -133 32.5 -310.5 0.5 1 1
9 0 1 0 0 0 1 0 0 0 1 -133 26.5 -314.5 0.5 1 1
9 0 1 0 0 0 1 0 0 0 1 -134 115.5 484 0.5 2 0.5
9 0 1 0 0 0 1 0 0 0 1 -134 103.5 -260.5 0.5 1 1
9 0 1 0 0 0 1 0 0 0 1 -134 104.5 479 0.5 2 0.5
9 0 1 0 0 0 1 0 0 0 1 -134 101.5 477.5 0.5 1 1
9 0 1 0 0 0 1 0 0 0 1 -134 101.5 -262 0.5 2 0.5
9 0 1 0 0 0 1 0 0 0 1 -134 99.5 -263.5 0.5 1 1
9 0 1 0 0 0 1 0 0 0 1 -134 95.5 475 0.5 2 0.5
9 0 1 0 0 0 1 0 0 0 1 -134 94.5 -267 0.5 2 0.5
9 0 1 0 0 0 1 0 0 0 1 -134 92.5 -268.5 0.5 1 1
9 0 1 0 0 0 1 0 0 0 1 -134 91.5 473 0.5 2 0.5
9 0 1 0 0 0 1 0 0 0 1 -134 89.5 472 0.5 2 0.5
9 0 1 0 0 0 1 0 0 0 1 -134 86.5 -272 0.5 2 0.5
9 0 1 0 0 0 1 0 0 0 1 -134 84.5 -273.5 0.5 1 1
9 0 1 0 0 0 1 0 0 0 1 -134 81.5 -275.5 0.5 1 1
9 0 1 0 0 0 1 0 0 0 1 -134 78.5 -277.5 0.5 1 1
9 0 1 0 0 0 1 0 0 0 1 -134 73.5 -280.5 0.5 1 1
9 0 1 0 0 0 1 0 0 0 1 -134 69.5 -283.5 0.5 1 1
9 0 1 0 0 0 1 0 0 0 1 -134 61.5 -288.5 0.5 1 1
9 0 1 0 0 0 1 0 0 0 1 -134 35.5 -305.5 0.5 1 1
9 0 1 0 0 0 1 0 0 0 1 -134 28.5 -310.5 0.5 1 1
9 0 1 0 0 0 1 0 0 0 1 -134 26.5 -312 0.5 2 0.5
9 0 1 0 0 0 1 0 0 0 1 -134 24.5 -313.5 0.5 1 1
9 0 1 0 0 0 1 0 0 0 1 -134 22.5 -314.5 0.5 1 1
9 0 1 0 0 0 1 0 0 0 1 -134 19.5 -316.5 0.5 1 1
9 0 1 0 0 0 1 0 0 0 1 -134 16.5 -318.5 0.5 1 1
9 0 1 0 0 0 1 0 0 0 1 -134 14.5 -320 0.5 2 0.5
9 0 1 0 0 0 1 0 0 0 1 -134 12.5 -321.5 0.5 1 1
9 0 1 0 0 0 1 0 0 0 1 -134 10.5 -322.5 0.5 1 1
9 0 1 0 0 0 1 0 0 0 1 -134 2.5 -372.5 0.5 1 1
9 0 1 0 0 0 1 0 0 0 1 -135 122 -240.5 0.5 0.5 2
9 0 1 0 0 0 1 0 0 0 1 -135 116.5 482.5 0.5 1 1
9 0 1 0 0 0 1 0 0 0 1 -135 108.5 479 0.5 2 0.5
9 0 1 0 0 0 1 0 0 0 1 -135 103.5 477 0.5 2 0.5
9 0 1 0 0 0 1 0 0 0 1 -135 101.5 476 0.5 2 0.5
9 0 1 0 0 0 1 0 0 0 1 -135 98.5 474.5 0.5 1 1
9 0 1 0 0 0 1 0 0 0 1 -135 94.5 473 0.5 2 0.5
9 0 1 0 0 0 1 0 0 0 1 -135 92.5 472 0.5 2 0.5
9 0 1 0 0 0 1 0 0 0 1 -135 83.5 468 0.5 2 0.5
9 0 1 0 0 0 1 0 0 0 1 -135 71.5 462.5 0.5 1 1
9 0 1 0 0 0 1 0 0 0 1 -135 55.5 -289.5 0.5 1 1
9 0 1 0 0 0 1 0 0 0 1 -135 32.5 -303.5 0.5 1 1
9 0 1 0 0 0 1 0 0 0 1 -135 20.5 -312 0.5 2 0.5
9 0 1 0 0 0 1 0 0 0 1 -135 4.5 -323.5 0.5 1 1
9 0 1 0 0 0 1 0 0 0 1 -136 119.5 -243.5 0.5 1 1
9 0 1 0 0 0 1 0 0 0 1 -136 117.5 -245.5 0.5 1 1
9 0 1 0 0 0 1 0 0 0 1 -136 82.5 466 0.5 2 0.5
9 0 1 0 0 0 1 0 0 0 1 -136 74.5 -271.5 0.5 1 1
9 0 1 0 0 0 1 0 0 0 1 -136 66.5 -276.5 0.5 1 1
9 0 1 0 0 0 1 0 0 0 1 -136 48 -289.5 0.5 0.5 2
9 0 1 0 0 0 1 0 0 0 1 -136 25.5 -303.5 0.5 1 1
9 0 1 0 0 0 1 0 0 0 1 -136 19.5 -307.5 0.5 1 1
9 0 1 0 0 0 1 0 0 0 1 -136 2.5 -367.5 0.5 1 1
9 0 1 0 0 0 1 0 0 0 1 -137 119.5 -240.5 0.5 1 1
9 0 1 0 0 0 1 0 0 0 1 -137 77.5 -266.5 0.5 1 1
9 0 1 0 0 0 1 0 0 0 1 -137 73.5 460.5 0.5 1 1
9 0 1 0 0 0 1 0 0 0 1 -137 72.5 -270 0.5 2 0.5
9 0 1 0 0 0 1 0 0 0 1 -137 70.5 459 0.5 2 0.5
9 0 1 0 0 0 1 0 0 0 1 -137 68.5 458 0.5 2 0.5
9 0 1 0 0 0 1 0 0 0 1 -137 63.5 456 0.5 2 0.5
9 0 1 0 0 0 1 0 0 0 1 -137 58.5 453.5 0.5 1 1
9 0 1 0 0 0 1 0 0 0 1 -137 41.5 -288.5 0.5 1 1
9 0 1 0 0 0 1 0 0 0 1 -137 17.5 -304.5 0.5 1 1
9 0 1 0 0 0 1 0 0 0 1 -137 5.5 -315 0.5 2 0.5
9 0 1 0 0 0 1 0 0 0 1 -138 83.5 -259.5 0.5 1 1
9 0 1 0 0 0 1 0 0 0 1 -138 73.5 458.5 0.5 1 1
9 0 1 0 0 0 1 0 0 0 1 -138 65.5 455 0.5 2 0.5
9 0 1 0 0 0 1 0 0 0 1 -138 59.5 452.5 0.5 1 1
9 0 1 0 0 0 1 0 0 0 1 -138 57.5 -276 0.5 2 0.5
9 0 1 0 0 0 1 0 0 0 1 -138 51.5 449 0.5 2 0.5
9 0 1 0 0 0 1 0 0 0 1 -138 10.5 -304.5 0.5 1 1
9 0 1 0 0 0 1 0 0 0 1 -138.5 119.5 476 1 1 0.5
9 0 1 0 0 0 1 0 0 0 1 -138.5 108.5 472 1 1 0.5
9 0 1 0 0 0 1 0 0 0 1 -139 107.5 -242.5 0.5 1 1
9 0 1 0 0 0 1 0 0 0 1 -139 107.5 471 0.5 2 0.5
9 0 1 0 0 0 1 0 0 0 1 -139 87.5 -251.5 0.5 1 1
9 0 1 0 0 0 1 0 0 0 1 -139 84.5 -256.5 0.5 1 1
9 0 1 0 0 0 1 0 0 0 1 -139 74.5 456.5 0.5 1 1
9 0 1 0 0 0 1 0 0 0 1 -139 70.5 -261.5 0.5 1 1
9 0 1 0 0 0 1 0 0 0 1 -139 68.5 -266.5 0.5 1 1
9 0 1 0 0 0 1 0 0 0 1 -139 55.5 449 0.5 2 0.5
9 0 1 0 0 0 1 0 0 0 1 -139 49.5 446.5 0.5 1 1
9 0 1 0 0 0 1 0 0 0 1 -139 47.5 445.5 0.5 1 1
9 0 1 0 0 0 1 0 0 0 1 -139 39.5 -280.5 0.5 1 1
9 0 1 0 0 0 1 0 0 0 1 -139 34.5 -283.5 0.5 1 1
9 0 1 0 0 0 1 0 0 0 1 -139 35.5 440 0.5 2 0.5
9 0 1 0 0 0 1 0 0 0 1 -139 2.5 -360.5 0.5 1 1
9 0 1 0 0 0 1 0 0 0 1 -140 101.5 466 0.5 2 0.5
9 0 1 0 0 0 1 0 0 0 1 -140 94.5 -243.5 0.5 1 1
9 0 1 0 0 0 1 0 0 0 1 -139.5 92.5 463 1 1 0.5
9 0 1 0 0 0 1 0 0 0 1 -140 85.5 -248.5 0.5 1 1
9 0 1 0 0 0 1 0 0 0 1 -139.5 82 -254.5 1 0.5 1
9 0 1 0 0 0 1 0 0 0 1 -139.5 79.5 458 1 1 0.5
9 0 1 0 0 0 1 0 0 0 1 -139.5 77 -257.5 1 0.5 1
9 0 1 0 0 0 1 0 0 0 1 -140 75.5 -254.5 0.5 1 1
9 0 1 0 0 0 1 0 0 0 1 -140 73.5 455 0.5 2 0.5
9 0 1 0 0 0 1 0 0 0 1 -140 72.5 -260 0.5 2 0.5
9 0 1 0 0 0 1 0 0 0 1 -140 64.5 -260.5 0.5 1 1
9 0 1 0 0 0 1 0 0 0 1 -140 41.5 441 0.5 2 0.5
9 0 1 0 0 0 1 0 0 0 1 -140 18.5 -288 0.5 2 0.5
9 0 1 0 0 0 1 0 0 0 1 -140 15.5 -294.5 0.5 1 1
9 0 1 0 0 0 1 0 0 0 1 -139.5 12.5 -297 1 1 0.5
9 0 1 0 0 0 1 0 0 0 1 -141 116.5 463 0.5 2 0.5
9 0 1 0 0 0 1 0 0 0 1 -140.5 92.5 460 1 1 0.5
9 0 1 0 0 0 1 0 0 0 1 -140.5 76.5 454 1 1 0.5
9 0 1 0 0 0 1 0 0 0 1 -141 73.5 -254 0.5 2 0.5
9 0 1 0 0 0 1 0 0 0 1 -141 64.5 -256.5 0.5 1 1
9 0 1 0 0 0 1 0 0 0 1 -140.5 62.5 -261 1 1 0.5
9 0 1 0 0 0 1 0 0 0 1 -141 57.5 -260.5 0.5 1 1
9 0 1 0 0 0 1 0 0 0 1 -140.5 55.5 -265 1 1 0.5
9 0 1 0 0 0 1 0 0 0 1 -141 42.5 -268.5 0.5 1 1
9 0 1 0 0 0 1 0 0 0 1 -141 20.5 430 0.5 2 0.5
9 0 1 0 0 0 1 0 0 0 1 -141 8.5 -285.5 0.5 1 1
9 0 1 0 0 0 1 0 0 0 1 -141 4.5 -295.5 0.5 1 1
9 0 1 0 0 0 1 0 0 0 1 -142 118.5 -223.5 0.5 1 1
9 0 1 0 0 0 1 0 0 0 1 -142 112.5 -227.5 0.5 1 1
9 0 1 0 0 0 1 0 0 0 1 -142 107.5 -230 0.5 2 0.5
9 0 1 0 0 0 1 0 0 0 1 -142 101.5 -233 0.5 2 0.5
9 0 1 0 0 0 1 0 0 0 1 -142 51.5 -259 0.5 2 0.5
9 0 1 0 0 0 1 0 0 0 1 -142 43.5 -261.5 0.5 1 1
9 0 1 0 0 0 1 0 0 0 1 -141.5 32.5 -273 1 1 0.5
9 0 1 0 0 0 1 0 0 0 1 -142 4.5 -289.5 0.5 1 1
9 0 1 0 0 0 1 0 0 0 1 -143 117.5 -220.5 0.5 1 1
9 0 1 0 0 0 1 0 0 0 1 -143 93.5 -233 0.5 2 0.5
9 0 1 0 0 0 1 0 0 0 1 -143 79.5 -240.5 0.5 1 1
9 0 1 0 0 0 1 0 0 0 1 -143 68.5 -246 0.5 2 0.5
9 0 1 0 0 0 1 0 0 0 1 -143 32.5 -265 0.5 2 0.5
9 0 1 0 0 0 1 0 0 0 1 -143 3.5 -283 0.5 2 0.5
9 0 1 0 0 0 1 0 0 0 1 -154.5 2.5 416 1 1 0.5
9 0 1 0 0 0 1 0 0 0 1 -157 2.5 412.5 0.5 1 1
9 0 1 0 0 0 1 0 0 0 1 143 112 458 0.5 1.5 0.5
9 0 1 0 0 0 1 0 0 0 1 143 75 -243 0.5 1.5 0.5
9 0 1 0 0 0 1 0 0 0 1 143 15 -275 0.5 1.5 0.5
9 0 1 0 0 0 1 0 0 0 1 142 111 463 0.5 1.5 0.5
9 0 1 0 0 0 1 0 0 0 1 142 102 460 0.5 1.5 0.5
9 0 1 0 0 0 1 0 0 0 1 142 81 449 0.5 1.5 0.5
9 0 1 0 0 0 1 0 0 0 1 142 76 451 0.5 1.5 0.5
9 0 1 0 0 0 1 0 0 0 1 142 71 449 0.5 1.5 0.5
9 0 1 0 0 0 1 0 0 0 1 142 27 -276 0.5 1.5 0.5
9 0 1 0 0 0 1 0 0 0 1 141 114 468 0.5 1.5 0.5
9 0 1 0 0 0 1 0 0 0 1 141 113 -229 0.5 1.5 0.5
9 0 1 0 0 0 1 0 0 0 1 141 110 461 0.5 1.5 0.5
9 0 1 0 0 0 1 0 0 0 1 141 103 464 0.5 1.5 0.5
9 0 1 0 0 0 1 0 0 0 1 141 93 -241 0.5 0.5 1.5
9 0 1 0 0 0 1 0 0 0 1 141 93 455 0.5 1.5 0.5
9 0 1 0 0 0 1 0 0 0 1 141 84 457 0.5 1.5 0.5
9 0 1 0 0 0 1 0 0 0 1 141 72 449 0.5 0.5 1.5
9 0 1 0 0 0 1 0 0 0 1 141 71 -253 0.5 1.5 0.5
9 0 1 0 0 0 1 0 0 0 1 141 66 446 0.5 1.5 0.5
9 0 1 0 0 0 1 0 0 0 1 141 55 442 0.5 1.5 0.5
9 0 1 0 0 0 1 0 0 0 1 141 41 437 0.5 1.5 0.5
9 0 1 0 0 0 1 0 0 0 1 141 38 -275 0.5 0.5 1.5
9 0 1 0 0 0 1 0 0 0 1 141 35 435 0.5 1.5 0.5
9 0 1 0 0 0 1 0 0 0 1 141 22 -285 0.5 1.5 0.5
9 0 1 0 0 0 1 0 0 0 1 141 18 429 0.5 1.5 0.5
9 0 1 0 0 0 1 0 0 0 1 141 16 428 0.5 1.5 0.5
9 0 1 0 0 0 1 0 0 0 1 140 121 471 0.5 0.5 1.5
9 0 1 0 0 0 1 0 0 0 1 140 119 473 0.5 1.5 0.5
9 0 1 0 0 0 1 0 0 0 1 140 116 -234 0.5 1.5 0.5
9 0 1 0 0 0 1 0 0 0 1 140 113 -233 0.5 1.5 0.5
9 0 1 0 0 0 1 0 0 0 1 140 111 -237 0.5 1.5 0.5
9 0 1 0 0 0 1 0 0 0 1 140 105 -237 0.5 1.5 0.5
9 0 1 0 0 0 1 0 0 0 1 140 98 -245 0.5 1.5 0.5
9 0 1 0 0 0 1 0 0 0 1 140 93 -248 0.5 1.5 0.5
9 0 1 0 0 0 1 0 0 0 1 140 90 -246 0.5 1.5 0.5
9 0 1 0 0 0 1 0 0 0 1 140 79 -252 0.5 1.5 0.5
9 0 1 0 0 0 1 0 0 0 1 140 77 457 0.5 1.5 0.5
9 0 1 0 0 0 1 0 0 0 1 140 73 455 0.5 1.5 0.5
9 0 1 0 0 0 1 0 0 0 1 140 69 -258 0.5 1.5 0.5
9 0 1 0 0 0 1 0 0 0 1 140 63 451 0.5 1.5 0.5
9 0 1 0 0 0 1 0 0 0 1 140 56 448 0.5 1.5 0.5
9 0 1 0 0 0 1 0 0 0 1 140 50 -274 0.5 1.5 0.5
9 0 1 0 0 0 1 0 0 0 1 140 48 443 0.5 1.5 0.5
9 0 1 0 0 0 1 0 0 0 1 140 45 -277 0.5 1.5 0.5
9 0 1 0 0 0 1 0 0 0 1 140 30 436 0.5 1.5 0.5
9 0 1 0 0 0 1 0 0 0 1 140 29 -281 0.5 1.5 0.5
9 0 1 0 0 0 1 0 0 0 1 140 26 434 0.5 1.5 0.5
9 0 1 0 0 0 1 0 0 0 1 140 7 -300 0.5 1.5 0.5
9 0 1 0 0 0 1 0 0 0 1 139 106 -241 0.5 1.5 0.5
9 0 1 0 0 0 1 0 0 0 1 139 100 -244 0.5 1.5 0.5
9 0 1 0 0 0 1 0 0 0 1 139 98 465 0.5 1.5 0.5
9 0 1 0 0 0 1 0 0 0 1 139 97 -249 0.5 1.5 0.5
9 0 1 0 0 0 1 0 0 0 1 139 94 466 0.5 1.5 0.5
9 0 1 0 0 0 1 0 0 0 1 139 92 -252 0.5 1.5 0.5
9 0 1 0 0 0 1 0 0 0 1 139 90 464 0.5 1.5 0.5
9 0 1 0 0 0 1 0 0 0 1 139 81 -255 0.5 1.5 0.5
9 0 1 0 0 0 1 0 0 0 1 139 79 -260 0.5 1.5 0.5
9 0 1 0 0 0 1 0 0 0 1 139 74 -263 0.5 1.5 0.5
9 0 1 0 0 0 1 0 0 0 1 139 65 -265 0.5 1.5 0.5
9 0 1 0 0 0 1 0 0 0 1 139 64 -269 0.5 1.5 0.5
9 0 1 0 0 0 1 0 0 0 1 139 61 -271 0.5 1.5 0.5
9 0 1 0 0 0 1 0 0 0 1 139 60 -268 0.5 1.5 0.5
9 0 1 0 0 0 1 0 0 0 1 139 56 -274 0.5 1.5 0.5
9 0 1 0 0 0 1 0 0 0 1 139 53 -276 0.5 1.5 0.5
9 0 1 0 0 0 1 0 0 0 1 139 52 -273 0.5 1.5 0.5
9 0 1 0 0 0 1 0 0 0 1 139 48 -279 0.5 1.5 0.5
9 0 1 0 0 0 1 0 0 0 1 139 44 444 0.5 1.5 0.5
9 0 1 0 0 0 1 0 0 0 1 139 43 -282 0.5 1.5 0.5
9 0 1 0 0 0 1 0 0 0 1 139 42 443 0.5 1.5 0.5
9 0 1 0 0 0 1 0 0 0 1 139 40 442 0.5 1.5 0.5
9 0 1 0 0 0 1 0 0 0 1 139 38 -285 0.5 1.5 0.5
9 0 1 0 0 0 1 0 0 0 1 139 33 -288 0.5 1.5 0.5
9 0 1 0 0 0 1 0 0 0 1 139 29 -287 0.5 1.5 0.5
9 0 1 0 0 0 1 0 0 0 1 139 29 437 0.5 1.5 0.5
9 0 1 0 0 0 1 0 0 0 1 139 27 436 0.5 1.5 0.5
9 0 1 0 0 0 1 0 0 0 1 139 11 -302 0.5 1.5 0.5
9 0 1 0 0 0 1 0 0 0 1 138 123 -226 0.5 0.5 1.5
9 0 1 0 0 0 1 0 0 0 1 138 120 -237 0.5 0.5 1.5
9 0 1 0 0 0 1 0 0 0 1 138 111 475 0.5 1.5 0.5
9 0 1 0 0 0 1 0 0 0 1 138 108 472 0.5 1.5 0.5
9 0 1 0 0 0 1 0 0 0 1 138 56 451 0.5 1.5 0.5
9 0 1 0 0 0 1 0 0 0 1 138 54 450 0.5 1.5 0.5
9 0 1 0 0 0 1 0 0 0 1 138 48 447 0.5 1.5 0.5
9 0 1 0 0 0 1 0 0 0 1 138 45 446 0.5 1.5 0.5
9 0 1 0 0 0 1 0 0 0 1 138 43 445 0.5 1.5 0.5
9 0 1 0 0 0 1 0 0 0 1 138 39 443 0.5 1.5 0.5
9 0 1 0 0 0 1 0 0 0 1 138 37 -289 0.5 0.5 1.5
9 0 1 0 0 0 1 0 0 0 1 138 37 442 0.5 1.5 0.5
9 0 1 0 0 0 1 0 0 0 1 138 29 -293 0.5 1.5 0.5
9 0 1 0 0 0 1 0 0 0 1 138 27 -296 0.5 1.5 0.5
9 0 1 0 0 0 1 0 0 0 1 138 23 -299 0.5 1.5 0.5
9 0 1 0 0 0 1 0 0 0 1 138 21 -298 0.5 1.5 0.5
9 0 1 0 0 0 1 0 0 0 1 138 16 -301 0.5 1.5 0.5
9 0 1 0 0 0 1 0 0 0 1 138 12 -306 0.5 1.5 0.5
9 0 1 0 0 0 1 0 0 0 1 137 66 457 0.5 1.5 0.5
9 0 1 0 0 0 1 0 0 0 1 137 62 455 0.5 1.5 0.5
9 0 1 0 0 0 1 0 0 0 1 137 55 452 0.5 1.5 0.5
9 0 1 0 0 0 1 0 0 0 1 137 53 451 0.5 1.5 0.5
9 0 1 0 0 0 1 0 0 0 1 137 49 449 0.5 1.5 0.5
9 0 1 0 0 0 1 0 0 0 1 137 48 -287 0.5 1.5 0.5
9 0 1 0 0 0 1 0 0 0 1 137 16 -308 0.5 1.5 0.5
9 0 1 0 0 0 1 0 0 0 1 136 113 -249 0.5 1.5 0.5
9 0 1 0 0 0 1 0 0 0 1 136 90 -262 0.5 1.5 0.5
9 0 1 0 0 0 1 0 0 0 1 136 85 467 0.5 1.5 0.5
9 0 1 0 0 0 1 0 0 0 1 136 80 465 0.5 1.5 0.5
9 0 1 0 0 0 1 0 0 0 1 136 74 462 0.5 1.5 0.5
9 0 1 0 0 0 1 0 0 0 1 136 73 -275 0.5 1.5 0.5
9 0 1 0 0 0 1 0 0 0 1 136 71 461 0.5 1.5 0.5
9 0 1 0 0 0 1 0 0 0 1 136 68 459 0.5 1.5 0.5
9 0 1 0 0 0 1 0 0 0 1 136 65 458 0.5 1.5 0.5
9 0 1 0 0 0 1 0 0 0 1 136 61 -280 0.5 1.5 0.5
9 0 1 0 0 0 1 0 0 0 1 136 61 456 0.5 1.5 0.5
9 0 1 0 0 0 1 0 0 0 1 136 59 455 0.5 1.5 0.5
9 0 1 0 0 0 1 0 0 0 1 136 56 -283 0.5 1.5 0.5
9 0 1 0 0 0 1 0 0 0 1 136 28 -305 0.5 1.5 0.5
9 0 1 0 0 0 1 0 0 0 1 135 122 -241 0.5 0.5 1.5
9 0 1 0 0 0 1 0 0 0 1 135 116 -250 0.5 0.5 1.5
9 0 1 0 0 0 1 0 0 0 1 135 90 -265 0.5 1.5 0.5
9 0 1 0 0 0 1 0 0 0 1 135 90 471 0.5 1.5 0.5
9 0 1 0 0 0 1 0 0 0 1 135 89 -268 0.5 1.5 0.5
9 0 1 0 0 0 1 0 0 0 1 135 88 470 0.5 1.5 0.5
9 0 1 0 0 0 1 0 0 0 1 135 86 469 0.5 1.5 0.5
9 0 1 0 0 0 1 0 0 0 1 135 82 -270 0.5 1.5 0.5
9 0 1 0 0 0 1 0 0 0 1 135 81 467 0.5 1.5 0.5
9 0 1 0 0 0 1 0 0 0 1 135 79 466 0.5 1.5 0.5
9 0 1 0 0 0 1 0 0 0 1 135 77 465 0.5 1.5 0.5
9 0 1 0 0 0 1 0 0 0 1 135 75 464 0.5 1.5 0.5
9 0 1 0 0 0 1 0 0 0 1 135 69 -281 0.5 1.5 0.5
9 0 1 0 0 0 1 0 0 0 1 135 58 456 0.5 1.5 0.5
9 0 1 0 0 0 1 0 0 0 1 135 41 -299 0.5 1.5 0.5
9 0 1 0 0 0 1 0 0 0 1 135 37 -301 0.5 0.5 1.5
9 0 1 0 0 0 1 0 0 0 1 135 17 -315 0.5 1.5 0.5
9 0 1 0 0 0 1 0 0 0 1 134 120 486 0.5 1.5 0.5
9 0 1 0 0 0 1 0 0 0 1 134 118 485 0.5 1.5 0.5
9 0 1 0 0 0 1 0 0 0 1 134 114 483 0.5 1.5 0.5
9 0 1 0 0 0 1 0 0 0 1 134 111 482 0.5 1.5 0.5
9 0 1 0 0 0 1 0 0 0 1 134 108 -258 0.5 0.5 1.5
9 0 1 0 0 0 1 0 0 0 1 134 109 481 0.5 1.5 0.5
9 0 1 0 0 0 1 0 0 0 1 134 107 480 0.5 1.5 0.5
9 0 1 0 0 0 1 0 0 0 1 134 98 476 0.5 1.5 0.5
9 0 1 0 0 0 1 0 0 0 1 134 94 474 0.5 1.5 0.5
9 0 1 0 0 0 1 0 0 0 1 134 87 471 0.5 1.5 0.5
9 0 1 0 0 0 1 0 0 0 1 134 85 470 0.5 1.5 0.5
9 0 1 0 0 0 1 0 0 0 1 134 83 469 0.5 1.5 0.5
9 0 1 0 0 0 1 0 0 0 1 134 81 468 0.5 1.5 0.5
9 0 1 0 0 0 1 0 0 0 1 134 76 -279 0.5 1.5 0.5
9 0 1 0 0 0 1 0 0 0 1 134 72 -282 0.5 1.5 0.5
9 0 1 0 0 0 1 0 0 0 1 134 67 -285 0.5 1.5 0.5
9 0 1 0 0 0 1 0 0 0 1 134 66 461 0.5 1.5 0.5
9 0 1 0 0 0 1 0 0 0 1 134 64 -287 0.5 1.5 0.5
9 0 1 0 0 0 1 0 0 0 1 134 64 460 0.5 1.5 0.5
9 0 1 0 0 0 1 0 0 0 1 134 49 -297 0.5 1.5 0.5
9 0 1 0 0 0 1 0 0 0 1 134 47 -298 0.5 1.5 0.5
9 0 1 0 0 0 1 0 0 0 1 134 44 -300 0.5 1.5 0.5
9 0 1 0 0 0 1 0 0 0 1 134 32 -308 0.5 1.5 0.5
9 0 1 0 0 0 1 0 0 0 1 133 115 485 0.5 1.5 0.5
9 0 1 0 0 0 1 0 0 0 1 133 108 -261 0.5 1.5 0.5
9 0 1 0 0 0 1 0 0 0 1 133 108 482 0.5 1.5 0.5
9 0 1 0 0 0 1 0 0 0 1 133 106 481 0.5 1.5 0.5
9 0 1 0 0 0 1 0 0 0 1 133 105 -263 0.5 1.5 0.5
9 0 1 0 0 0 1 0 0 0 1 133 100 -266 0.5 1.5 0.5
9 0 1 0 0 0 1 0 0 0 1 133 97 477 0.5 1.5 0.5
9 0 1 0 0 0 1 0 0 0 1 133 95 476 0.5 1.5 0.5
9 0 1 0 0 0 1 0 0 0 1 133 93 -271 0.5 1.5 0.5
9 0 1 0 0 0 1 0 0 0 1 133 91 474 0.5 1.5 0.5
9 0 1 0 0 0 1 0 0 0 1 133 88 -274 0.5 1.5 0.5
9 0 1 0 0 0 1 0 0 0 1 133 86 472 0.5 1.5 0.5
9 0 1 0 0 0 1 0 0 0 1 133 85 -276 0.5 1.5 0.5
9 0 1 0 0 0 1 0 0 0 1 133 84 471 0.5 1.5 0.5
9 0 1 0 0 0 1 0 0 0 1 133 82 -278 0.5 1.5 0.5
9 0 1 0 0 0 1 0 0 0 1 133 82 470 0.5 1.5 0.5
9 0 1 0 0 0 1 0 0 0 1 133 80 -279 0.5 1.5 0.5
9 0 1 0 0 0 1 0 0 0 1 133 80 469 0.5 1.5 0.5
9 0 1 0 0 0 1 0 0 0 1 133 78 468 0.5 1.5 0.5
9 0 1 0 0 0 1 0 0 0 1 133 77 -281 0.5 1.5 0.5
9 0 1 0 0 0 1 0 0 0 1 133 70 464 0.5 1.5 0.5
9 0 1 0 0 0 1 0 0 0 1 133 68 463 0.5 1.5 0.5
9 0 1 0 0 0 1 0 0 0 1 133 65 -289 0.5 1.5 0.5
9 0 1 0 0 0 1 0 0 0 1 133 62 -291 0.5 1.5 0.5
9 0 1 0 0 0 1 0 0 0 1 133 50 -299 0.5 1.5 0.5
9 0 1 0 0 0 1 0 0 0 1 133 37 -308 0.5 1.5 0.5
9 0 1 0 0 0 1 0 0 0 1 133 31 -312 0.5 1.5 0.5
9 0 1 0 0 0 1 0 0 0 1 133 25 -316 0.5 1.5 0.5
9 0 1 0 0 0 1 0 0 0 1 133 18 -321 0.5 1.5 0.5
9 0 1 0 0 0 1 0 0 0 1 133 8 -328 0.5 1.5 0.5
9 0 1 0 0 0 1 0 0 0 1 132 120 489 0.5 1.5 0.5
9 0 1 0 0 0 1 0 0 0 1 132 118 488 0.5 1.5 0.5
9 0 1 0 0 0 1 0 0 0 1 132 114 -260 0.5 1.5 0.5
9 0 1 0 0 0 1 0 0 0 1 132 111 485 0.5 1.5 0.5
9 0 1 0 0 0 1 0 0 0 1 132 105 482 0.5 1.5 0.5
9 0 1 0 0 0 1 0 0 0 1 132 98 -270 0.5 1.5 0.5
9 0 1 0 0 0 1 0 0 0 1 132 96 478 0.5 1.5 0.5
9 0 1 0 0 0 1 0 0 0 1 132 94 477 0.5 1.5 0.5
9 0 1 0 0 0 1 0 0 0 1 132 88 474 0.5 1.5 0.5
9 0 1 0 0 0 1 0 0 0 1 132 86 -278 0.5 1.5 0.5
9 0 1 0 0 0 1 0 0 0 1 132 84 472 0.5 1.5 0.5
9 0 1 0 0 0 1 0 0 0 1 132 80 -282 0.5 1.5 0.5
9 0 1 0 0 0 1 0 0 0 1 132 78 -283 0.5 1.5 0.5
9 0 1 0 0 0 1 0 0 0 1 132 9 -331 0.5 1.5 0.5
9 0 1 0 0 0 1 0 0 0 1 132 5 -334 0.5 1.5 0.5
9 0 1 0 0 0 1 0 0 0 1 131 119 490 0.5 1.5 0.5
9 0 1 0 0 0 1 0 0 0 1 131 106 484 0.5 1.5 0.5
9 0 1 0 0 0 1 0 0 0 1 131 104 -269 0.5 1.5 0.5
9 0 1 0 0 0 1 0 0 0 1 131 104 483 0.5 1.5 0.5
9 0 1 0 0 0 1 0 0 0 1 131 102 482 0.5 1.5 0.5
9 0 1 0 0 0 1 0 0 0 1 131 99 -272 0.5 1.5 0.5
9 0 1 0 0 0 1 0 0 0 1 131 96 -274 0.5 1.5 0.5
9 0 1 0 0 0 1 0 0 0 1 131 96 479 0.5 1.5 0.5
9 0 1 0 0 0 1 0 0 0 1 131 93 -276 0.5 1.5 0.5
9 0 1 0 0 0 1 0 0 0 1 131 88 475 0.5 1.5 0.5
9 0 1 0 0 0 1 0 0 0 1 131 68 -293 0.5 1.5 0.5
9 0 1 0 0 0 1 0 0 0 1 131 59 -300 0.5 1.5 0.5
9 0 1 0 0 0 1 0 0 0 1 131 39 -313 0.5 0.5 1.5
9 0 1 0 0 0 1 0 0 0 1 131 36 -316 0.5 1.5 0.5
9 0 1 0 0 0 1 0 0 0 1 131 24 -324 0.5 1.5 0.5
9 0 1 0 0 0 1 0 0 0 1 131 5 -337 0.5 1.5 0.5
9 0 1 0 0 0 1 0 0 0 1 130 120 492 0.5 1.5 0.5
9 0 1 0 0 0 1 0 0 0 1 130 118 491 0.5 1.5 0.5
9 0 1 0 0 0 1 0 0 0 1 130 117 -263 0.5 1.5 0.5
9 0 1 0 0 0 1 0 0 0 1 130 116 490 0.5 1.5 0.5
9 0 1 0 0 0 1 0 0 0 1 130 112 488 0.5 1.5 0.5
9 0 1 0 0 0 1 0 0 0 1 130 89 477 0.5 1.5 0.5
9 0 1 0 0 0 1 0 0 0 1 130 60 -302 0.5 1.5 0.5
9 0 1 0 0 0 1 0 0 0 1 130 41 -315 0.5 1.5 0.5
9 0 1 0 0 0 1 0 0 0 1 129 112 489 0.5 1.5 0.5
9 0 1 0 0 0 1 0 0 0 1 129 109 -271 0.5 1.5 0.5
9 0 1 0 0 0 1 0 0 0 1 129 107 487 0.5 1.5 0.5
9 0 1 0 0 0 1 0 0 0 1 129 105 486 0.5 1.5 0.5
9 0 1 0 0 0 1 0 0 0 1 129 102 -276 0.5 1.5 0.5
9 0 1 0 0 0 1 0 0 0 1 129 97 -279 0.5 1.5 0.5
9 0 1 0 0 0 1 0 0 0 1 129 95 481 0.5 1.5 0.5
9 0 1 0 0 0 1 0 0 0 1 129 93 -282 0.5 1.5 0.5
9 0 1 0 0 0 1 0 0 0 1 129 93 480 0.5 1.5 0.5
9 0 1 0 0 0 1 0 0 0 1 129 91 479 0.5 1.5 0.5
9 0 1 0 0 0 1 0 0 0 1 129 84 -288 0.5 1.5 0.5
9 0 1 0 0 0 1 0 0 0 1 129 81 -290 0.5 1.5 0.5
9 0 1 0 0 0 1 0 0 0 1 129 74 -295 0.5 1.5 0.5
9 0 1 0 0 0 1 0 0 0 1 129 19 -333 0.5 1.5 0.5
9 0 1 0 0 0 1 0 0 0 1 129 8 -341 0.5 1.5 0.5
9 0 1 0 0 0 1 0 0 0 1 128 119 494 0.5 1.5 0.5
9 0 1 0 0 0 1 0 0 0 1 128 111 490 0.5 1.5 0.5
9 0 1 0 0 0 1 0 0 0 1 128 109 489 0.5 1.5 0.5
9 0 1 0 0 0 1 0 0 0 1 128 107 488 0.5 1.5 0.5
9 0 1 0 0 0 1 0 0 0 1 128 101 485 0.5 1.5 0.5
9 0 1 0 0 0 1 0 0 0 1 128 99 484 0.5 1.5 0.5
9 0 1 0 0 0 1 0 0 0 1 128 38 -322 0.5 1.5 0.5
9 0 1 0 0 0 1 0 0 0 1 128 34 -325 0.5 1.5 0.5
9 0 1 0 0 0 1 0 0 0 1 128 27 -330 0.5 1.5 0.5
9 0 1 0 0 0 1 0 0 0 1 128 23 -333 0.5 1.5 0.5
9 0 1 0 0 0 1 0 0 0 1 128 19 -336 0.5 1.5 0.5
9 0 1 0 0 0 1 0 0 0 1 128 11 -342 0.5 1.5 0.5
9 0 1 0 0 0 1 0 0 0 1 127 119 495 0.5 1.5 0.5
9 0 1 0 0 0 1 0 0 0 1 127 117 494 0.5 1.5 0.5
9 0 1 0 0 0 1 0 0 0 1 127 115 493 0.5 1.5 0.5
9 0 1 0 0 0 1 0 0 0 1 127 113 492 0.5 1.5 0.5
9 0 1 0 0 0 1 0 0 0 1 127 109 -276 0.5 1.5 0.5
9 0 1 0 0 0 1 0 0 0 1 127 107 489 0.5 1.5 0.5
9 0 1 0 0 0 1 0 0 0 1 127 105 488 0.5 1.5 0.5
9 0 1 0 0 0 1 0 0 0 1 127 49 -317 0.5 1.5 0.5
9 0 1 0 0 0 1 0 0 0 1 127 42 -322 0.5 1.5 0.5
9 0 1 0 0 0 1 0 0 0 1 127 34 -328 0.5 1.5 0.5
9 0 1 0 0 0 1 0 0 0 1 127 30 -331 0.5 1.5 0.5
9 0 1 0 0 0 1 0 0 0 1 127 28 -332 0.5 1.5 0.5
9 0 1 0 0 0 1 0 0 0 1 127 16 -341 0.5 1.5 0.5
9 0 1 0 0 0 1 0 0 0 1 126 119 496 0.5 1.5 0.5
9 0 1 0 0 0 1 0 0 0 1 126 117 495 0.5 1.5 0.5
9 0 1 0 0 0 1 0 0 0 1 126 109 491 0.5 1.5 0.5
9 0 1 0 0 0 1 0 0 0 1 126 68 -306 0.5 1.5 0.5
9 0 1 0 0 0 1 0 0 0 1 126 47 -321 0.5 1.5 0.5
9 0 1 0 0 0 1 0 0 0 1 126 43 -324 0.5 1.5 0.5
9 0 1 0 0 0 1 0 0 0 1 126 31 -333 0.5 1.5 0.5
9 0 1 0 0 0 1 0 0 0 1 126 24 -338 0.5 1.5 0.5
9 0 1 0 0 0 1 0 0 0 1 126 20 -341 0.5 1.5 0.5
9 0 1 0 0 0 1 0 0 0 1 126 16 -344 0.5 1.5 0.5
9 0 1 0 0 0 1 0 0 0 1 125 117 -275 0.5 1.5 0.5
9 0 1 0 0 0 1 0 0 0 1 125 109 492 0.5 1.5 0.5
9 0 1 0 0 0 1 0 0 0 1 125 107 491 0.5 1.5 0.5
9 0 1 0 0 0 1 0 0 0 1 125 102 -285 0.5 1.5 0.5
9 0 1 0 0 0 1 0 0 0 1 125 71 -307 0.5 1.5 0.5
9 0 1 0 0 0 1 0 0 0 1 125 69 -308 0.5 1.5 0.5
9 0 1 0 0 0 1 0 0 0 1 125 66 -310 0.5 1.5 0.5
9 0 1 0 0 0 1 0 0 0 1 125 62 -313 0.5 1.5 0.5
9 0 1 0 0 0 1 0 0 0 1 125 57 -317 0.5 1.5 0.5
9 0 1 0 0 0 1 0 0 0 1 125 50 -322 0.5 1.5 0.5
9 0 1 0 0 0 1 0 0 0 1 125 46 -325 0.5 1.5 0.5
9 0 1 0 0 0 1 0 0 0 1 125 43 -327 0.5 1.5 0.5
9 0 1 0 0 0 1 0 0 0 1 125 39 -330 0.5 1.5 0.5
9 0 1 0 0 0 1 0 0 0 1 125 7 -353 0.5 1.5 0.5
9 0 1 0 0 0 1 0 0 0 1 124 90 -296 0.5 1.5 0.5
9 0 1 0 0 0 1 0 0 0 1 124 84 -300 0.5 1.5 0.5
9 0 1 0 0 0 1 0 0 0 1 124 81 -302 0.5 1.5 0.5
9 0 1 0 0 0 1 0 0 0 1 124 77 -305 0.5 1.5 0.5
9 0 1 0 0 0 1 0 0 0 1 124 72 -309 0.5 1.5 0.5
9 0 1 0 0 0 1 0 0 0 1 123 115 497 0.5 1.5 0.5
9 0 1 0 0 0 1 0 0 0 1 123 113 496 0.5 1.5 0.5
9 0 1 0 0 0 1 0 0 0 1 123 106 -287 0.5 1.5 0.5
9 0 1 0 0 0 1 0 0 0 1 123 103 -289 0.5 1.5 0.5
9 0 1 0 0 0 1 0 0 0 1 123 96 -294 0.5 1.5 0.5
9 0 1 0 0 0 1 0 0 0 1 123 93 -296 0.5 1.5 0.5
9 0 1 0 0 0 1 0 0 0 1 114 5 -379 0.5 1.5 0.5
9 0 1 0 0 0 1 0 0 0 1 112 120 508 0.5 1.5 0.5
9 0 1 0 0 0 1 0 0 0 1 112 5 -383 0.5 1.5 0.5
9 0 1 0 0 0 1 0 0 0 1 112 115 505 1.5 0.5 0.5
9 0 1 0 0 0 1 0 0 0 1 109 123 -294 0.5 0.5 1.5
9 0 1 0 0 0 1 0 0 0 1 109 87 488 1.5 0.5 0.5
9 0 1 0 0 0 1 0 0 0 1 109 83 485 1.5 0.5 0.5
9 0 1 0 0 0 1 0 0 0 1 109 80 483 1.5 0.5 0.5
9 0 1 0 0 0 1 0 0 0 1 107 122 -301 0.5 0.5 1.5
9 0 1 0 0 0 1 0 0 0 1 108 91 491 1.5 0.5 0.5
9 0 1 0 0 0 1 0 0 0 1 108 88 489 1.5 0.5 0.5
9 0 1 0 0 0 1 0 0 0 1 108 81 484 1.5 0.5 0.5
9 0 1 0 0 0 1 0 0 0 1 107 108 503 1.5 0.5 0.5
9 0 1 0 0 0 1 0 0 0 1 107 105 501 1.5 0.5 0.5
9 0 1 0 0 0 1 0 0 0 1 107 99 497 1.5 0.5 0.5
9 0 1 0 0 0 1 0 0 0 1 107 96 495 1.5 0.5 0.5
9 0 1 0 0 0 1 0 0 0 1 107 92 492 1.5 0.5 0.5
9 0 1 0 0 0 1 0 0 0 1 107 89 490 1.5 0.5 0.5
9 0 1 0 0 0 1 0 0 0 1 107 85 487 1.5 0.5 0.5
9 0 1 0 0 0 1 0 0 0 1 106 112 506 1.5 0.5 0.5
9 0 1 0 0 0 1 0 0 0 1 106 109 504 1.5 0.5 0.5
9 0 1 0 0 0 1 0 0 0 1 106 106 502 1.5 0.5 0.5
9 0 1 0 0 0 1 0 0 0 1 106 103 500 1.5 0.5 0.5
9 0 1 0 0 0 1 0 0 0 1 106 93 493 1.5 0.5 0.5
9 0 1 0 0 0 1 0 0 0 1 104 123 -302 0.5 0.5 1.5
9 0 1 0 0 0 1 0 0 0 1 105 104 501 1.5 0.5 0.5
9 0 1 0 0 0 1 0 0 0 1 104 117 510 1.5 0.5 0.5
9 0 1 0 0 0 1 0 0 0 1 104 114 508 1.5 0.5 0.5
9 0 1 0 0 0 1 0 0 0 1 104 111 506 1.5 0.5 0.5
9 0 1 0 0 0 1 0 0 0 1 104 105 502 1.5 0.5 0.5
9 0 1 0 0 0 1 0 0 0 1 104 101 499 1.5 0.5 0.5
9 0 1 0 0 0 1 0 0 0 1 104 98 497 1.5 0.5 0.5
9 0 1 0 0 0 1 0 0 0 1 104 91 492 1.5 0.5 0.5
9 0 1 0 0 0 1 0 0 0 1 104 87 489 1.5 0.5 0.5
9 0 1 0 0 0 1 0 0 0 1 103 3 -400 0.5 1.5 0.5
9 0 1 0 0 0 1 0 0 0 1 103 118 511 1.5 0.5 0.5
9 0 1 0 0 0 1 0 0 0 1 103 115 509 1.5 0.5 0.5
9 0 1 0 0 0 1 0 0 0 1 103 112 507 1.5 0.5 0.5
9 0 1 0 0 0 1 0 0 0 1 103 109 505 1.5 0.5 0.5
9 0 1 0 0 0 1 0 0 0 1 103 106 503 1.5 0.5 0.5
9 0 1 0 0 0 1 0 0 0 1 103 95 495 1.5 0.5 0.5
9 0 1 0 0 0 1 0 0 0 1 102 119 512 1.5 0.5 0.5
9 0 1 0 0 0 1 0 0 0 1 102 116 510 1.5 0.5 0.5
9 0 1 0 0 0 1 0 0 0 1 102 113 508 1.5 0.5 0.5
9 0 1 0 0 0 1 0 0 0 1 102 100 499 1.5 0.5 0.5
9 0 1 0 0 0 1 0 0 0 1 102 96 496 1.5 0.5 0.5
9 0 1 0 0 0 1 0 0 0 1 101 117 511 1.5 0.5 0.5
9 0 1 0 0 0 1 0 0 0 1 101 114 509 1.5 0.5 0.5
9 0 1 0 0 0 1 0 0 0 1 101 111 507 1.5 0.5 0.5
9 0 1 0 0 0 1 0 0 0 1 101 104 502 1.5 0.5 0.5
9 0 1 0 0 0 1 0 0 0 1 99 122 -313 0.5 0.5 1.5
9 0 1 0 0 0 1 0 0 0 1 100 115 510 1.5 0.5 0.5
9 0 1 0 0 0 1 0 0 0 1 98 3 -408 0.5 1.5 0.5
9 0 1 0 0 0 1 0 0 0 1 98 120 514 1.5 0.5 0.5
9 0 1 0 0 0 1 0 0 0 1 97 107 505 1.5 0.5 0.5
9 0 1 0 0 0 1 0 0 0 1 96 3 -411 0.5 1.5 0.5
9 0 1 0 0 0 1 0 0 0 1 96 121 515 1.5 0.5 0.5
9 0 1 0 0 0 1 0 0 0 1 94 3 -414 0.5 1.5 0.5
9 0 1 0 0 0 1 0 0 0 1 92 3 -417 0.5 1.5 0.5
9 0 1 0 0 0 1 0 0 0 1 91 118 514 1.5 0.5 0.5
9 0 1 0 0 0 1 0 0 0 1 83 123 -329 1.5 0.5 0.5
9 0 1 0 0 0 1 0 0 0 1 82 3 -430 0.5 1.5 0.5
9 0 1 0 0 0 1 0 0 0 1 79 94 495 1.5 0.5 0.5
9 0 1 0 0 0 1 0 0 0 1 74 3 -440 0.5 1.5 0.5
9 0 1 0 0 0 1 0 0 0 1 73 78 482 1.5 0.5 0.5
9 0 1 0 0 0 1 0 0 0 1 71 3 -443 0.5 1.5 0.5
9 0 1 0 0 0 1 0 0 0 1 68 122 -346 1.5 0.5 0.5
9 0 1 0 0 0 1 0 0 0 1 53 3 -461 0.5 1.5 0.5
9 0 1 0 0 0 1 0 0 0 1 52 123 -358 1.5 0.5 0.5
9 0 1 0 0 0 1 0 0 0 1 52 115 512 1.5 0.5 0.5
9 0 1 0 0 0 1 0 0 0 1 51 3 -463 0.5 1.5 0.5
9 0 1 0 0 0 1 0 0 0 1 46 3 -467 0.5 1.5 0.5
9 0 1 0 0 0 1 0 0 0 1 46 115 512 1.5 0.5 0.5
9 0 1 0 0 0 1 0 0 0 1 43 3 -470 0.5 1.5 0.5
9 0 1 0 0 0 1 0 0 0 1 42 94 495 1.5 0.5 0.5
9 0 1 0 0 0 1 0 0 0 1 40 3 -472 0.5 1.5 0.5
9 0 1 0 0 0 1 0 0 0 1 38 122 -370 1.5 0.5 0.5
9 0 1 0 0 0 1 0 0 0 1 38 78 482 1.5 0.5 0.5
9 0 1 0 0 0 1 0 0 0 1 37 3 -475 0.5 1.5 0.5
9 0 1 0 0 0 1 0 0 0 1 34 3 -477 0.5 1.5 0.5
9 0 1 0 0 0 1 0 0 0 1 32 3 -479 0.5 1.5 0.5
9 0 1 0 0 0 1 0 0 0 1 31 94 495 1.5 0.5 0.5
9 0 1 0 0 0 1 0 0 0 1 26 123 -376 1.5 0.5 0.5
9 0 1 0 0 0 1 0 0 0 1 22 78 482 1.5 0.5 0.5
9 0 1 0 0 0 1 0 0 0 1 21 3 -487 0.5 1.5 0.5
9 0 1 0 0 0 1 0 0 0 1 18 3 -489 0.5 1.5 0.5
9 0 1 0 0 0 1 0 0 0 1 15 3 -491 0.5 1.5 0.5
9 0 1 0 0 0 1 0 0 0 1 13 122 -385 1.5 0.5 0.5
9 0 1 0 0 0 1 0 0 0 1 12 3 -493 0.5 1.5 0.5
9 0 1 0 0 0 1 0 0 0 1 10 123 -385 1.5 0.5 0.5
9 0 1 0 0 0 1 0 0 0 1 9 115 512 1.5 0.5 0.5
9 0 1 0 0 0 1 0 0 0 1 8 3 -496 0.5 1.5 0.5
9 0 1 0 0 0 1 0 0 0 1 3 3 -499 0.5 1.5 0.5
9 0 1 0 0 0 1 0 0 0 1 0 122 -391 1.5 0.5 0.5
9 0 1 0 0 0 1 0 0 0 1 -3 3 -499 0.5 1.5 0.5
9 0 1 0 0 0 1 0 0 0 1 -9 3 -495 0.5 1.5 0.5
9 0 1 0 0 0 1 0 0 0 1 -10 123 -385 1.5 0.5 0.5
9 0 1 0 0 0 1 0 0 0 1 -12 3 -493 0.5 1.5 0.5
9 0 1 0 0 0 1 0 0 0 1 -13 122 -385 1.5 0.5 0.5
9 0 1 0 0 0 1 0 0 0 1 -15 3 -491 0.5 1.5 0.5
9 0 1 0 0 0 1 0 0 0 1 -18 3 -489 0.5 1.5 0.5
9 0 1 0 0 0 1 0 0 0 1 -21 3 -487 0.5 1.5 0.5
9 0 1 0 0 0 1 0 0 0 1 -25 3 -484 0.5 1.5 0.5
9 0 1 0 0 0 1 0 0 0 1 -26 123 -376 1.5 0.5 0.5
9 0 1 0 0 0 1 0 0 0 1 -29 3 -481 0.5 1.5 0.5
9 0 1 0 0 0 1 0 0 0 1 -31 123 -373 1.5 0.5 0.5
9 0 1 0 0 0 1 0 0 0 1 -32 3 -479 0.5 1.5 0.5
9 0 1 0 0 0 1 0 0 0 1 -33 122 -373 1.5 0.5 0.5
9 0 1 0 0 0 1 0 0 0 1 -34 3 -477 0.5 1.5 0.5
9 0 1 0 0 0 1 0 0 0 1 -37 3 -475 0.5 1.5 0.5
9 0 1 0 0 0 1 0 0 0 1 -38 122 -370 1.5 0.5 0.5
9 0 1 0 0 0 1 0 0 0 1 -39 115 512 1.5 0.5 0.5
9 0 1 0 0 0 1 0 0 0 1 -40 3 -472 0.5 1.5 0.5
9 0 1 0 0 0 1 0 0 0 1 -43 3 -470 0.5 1.5 0.5
9 0 1 0 0 0 1 0 0 0 1 -46 3 -467 0.5 1.5 0.5
9 0 1 0 0 0 1 0 0 0 1 -47 78 482 1.5 0.5 0.5
9 0 1 0 0 0 1 0 0 0 1 -49 122 -362 1.5 0.5 0.5
9 0 1 0 0 0 1 0 0 0 1 -50 3 -464 0.5 1.5 0.5
9 0 1 0 0 0 1 0 0 0 1 -52 3 -462 0.5 1.5 0.5
9 0 1 0 0 0 1 0 0 0 1 -54 3 -460 0.5 1.5 0.5
9 0 1 0 0 0 1 0 0 0 1 -61 115 512 1.5 0.5 0.5
9 0 1 0 0 0 1 0 0 0 1 -68 3 -446 0.5 1.5 0.5
9 0 1 0 0 0 1 0 0 0 1 -70 3 -444 0.5 1.5 0.5
9 0 1 0 0 0 1 0 0 0 1 -72 3 -442 0.5 1.5 0.5
9 0 1 0 0 0 1 0 0 0 1 -74 3 -440 0.5 1.5 0.5
9 0 1 0 0 0 1 0 0 0 1 -82 3 -430 0.5 1.5 0.5
9 0 1 0 0 0 1 0 0 0 1 -83 123 -329 1.5 0.5 0.5
9 0 1 0 0 0 1 0 0 0 1 -84 3 -428 0.5 1.5 0.5
9 0 1 0 0 0 1 0 0 0 1 -86 3 -425 0.5 1.5 0.5
9 0 1 0 0 0 1 0 0 0 1 -92 3 -417 0.5 1.5 0.5
9 0 1 0 0 0 1 0 0 0 1 -94 3 -414 0.5 1.5 0.5
9 0 1 0 0 0 1 0 0 0 1 -96 3 -411 0.5 1.5 0.5
9 0 1 0 0 0 1 0 0 0 1 -96 121 515 1.5 0.5 0.5
9 0 1 0 0 0 1 0 0 0 1 -97 107 505 1.5 0.5 0.5
9 0 1 0 0 0 1 0 0 0 1 -98 3 -408 0.5 1.5 0.5
9 0 1 0 0 0 1 0 0 0 1 -98 120 514 1.5 0.5 0.5
9 0 1 0 0 0 1 0 0 0 1 -100 115 510 1.5 0.5 0.5
9 0 1 0 0 0 1 0 0 0 1 -101 117 511 1.5 0.5 0.5
9 0 1 0 0 0 1 0 0 0 1 -101 114 509 1.5 0.5 0.5
9 0 1 0 0 0 1 0 0 0 1 -101 111 507 1.5 0.5 0.5
9 0 1 0 0 0 1 0 0 0 1 -101 104 502 1.5 0.5 0.5
9 0 1 0 0 0 1 0 0 0 1 -102 119 512 1.5 0.5 0.5
9 0 1 0 0 0 1 0 0 0 1 -102 116 510 1.5 0.5 0.5
9 0 1 0 0 0 1 0 0 0 1 -102 113 508 1.5 0.5 0.5
9 0 1 0 0 0 1 0 0 0 1 -102 100 499 1.5 0.5 0.5
9 0 1 0 0 0 1 0 0 0 1 -102 96 496 1.5 0.5 0.5
9 0 1 0 0 0 1 0 0 0 1 -104 123 -302 0.5 0.5 1.5
9 0 1 0 0 0 1 0 0 0 1 -103 118 511 1.5 0.5 0.5
9 0 1 0 0 0 1 0 0 0 1 -103 115 509 1.5 0.5 0.5
9 0 1 0 0 0 1 0 0 0 1 -103 112 507 1.5 0.5 0.5
9 0 1 0 0 0 1 0 0 0 1 -103 109 505 1.5 0.5 0.5
9 0 1 0 0 0 1 0 0 0 1 -103 106 503 1.5 0.5 0.5
9 0 1 0 0 0 1 0 0 0 1 -103 95 495 1.5 0.5 0.5
9 0 1 0 0 0 1 0 0 0 1 -104 117 510 1.5 0.5 0.5
9 0 1 0 0 0 1 0 0 0 1 -104 114 508 1.5 0.5 0.5
9 0 1 0 0 0 1 0 0 0 1 -104 111 506 1.5 0.5 0.5
9 0 1 0 0 0 1 0 0 0 1 -104 105 502 1.5 0.5 0.5
9 0 1 0 0 0 1 0 0 0 1 -104 101 499 1.5 0.5 0.5
9 0 1 0 0 0 1 0 0 0 1 -104 98 497 1.5 0.5 0.5
9 0 1 0 0 0 1 0 0 0 1 -104 91 492 1.5 0.5 0.5
9 0 1 0 0 0 1 0 0 0 1 -104 87 489 1.5 0.5 0.5
9 0 1 0 0 0 1 0 0 0 1 -105 104 501 1.5 0.5 0.5
9 0 1 0 0 0 1 0 0 0 1 -106 112 506 1.5 0.5 0.5
9 0 1 0 0 0 1 0 0 0 1 -106 109 504 1.5 0.5 0.5
9 0 1 0 0 0 1 0 0 0 1 -106 106 502 1.5 0.5 0.5
9 0 1 0 0 0 1 0 0 0 1 -106 103 500 1.5 0.5 0.5
9 0 1 0 0 0 1 0 0 0 1 -106 93 493 1.5 0.5 0.5
9 0 1 0 0 0 1 0 0 0 1 -107 108 503 1.5 0.5 0.5
9 0 1 0 0 0 1 0 0 0 1 -107 105 501 1.5 0.5 0.5
9 0 1 0 0 0 1 0 0 0 1 -107 99 497 1.5 0.5 0.5
9 0 1 0 0 0 1 0 0 0 1 -107 96 495 1.5 0.5 0.5
9 0 1 0 0 0 1 0 0 0 1 -107 92 492 1.5 0.5 0.5
9 0 1 0 0 0 1 0 0 0 1 -107 89 490 1.5 0.5 0.5
9 0 1 0 0 0 1 0 0 0 1 -107 85 487 1.5 0.5 0.5
9 0 1 0 0 0 1 0 0 0 1 -109 123 -294 0.5 0.5 1.5
9 0 1 0 0 0 1 0 0 0 1 -108 91 491 1.5 0.5 0.5
9 0 1 0 0 0 1 0 0 0 1 -108 88 489 1.5 0.5 0.5
9 0 1 0 0 0 1 0 0 0 1 -108 81 484 1.5 0.5 0.5
9 0 1 0 0 0 1 0 0 0 1 -109 87 488 1.5 0.5 0.5
9 0 1 0 0 0 1 0 0 0 1 -109 83 485 1.5 0.5 0.5
9 0 1 0 0 0 1 0 0 0 1 -109 80 483 1.5 0.5 0.5
9 0 1 0 0 0 1 0 0 0 1 -112 120 508 0.5 1.5 0.5
9 0 1 0 0 0 1 0 0 0 1 -112 5 -383 0.5 1.5 0.5
9 0 1 0 0 0 1 0 0 0 1 -112 115 505 1.5 0.5 0.5
9 0 1 0 0 0 1 0 0 0 1 -114 5 -379 0.5 1.5 0.5
9 0 1 0 0 0 1 0 0 0 1 -123 115 497 0.5 1.5 0.5
9 0 1 0 0 0 1 0 0 0 1 -123 113 496 0.5 1.5 0.5
9 0 1 0 0 0 1 0 0 0 1 -123 106 -287 0.5 1.5 0.5
9 0 1 0 0 0 1 0 0 0 1 -123 103 -289 0.5 1.5 0.5
9 0 1 0 0 0 1 0 0 0 1 -123 96 -294 0.5 1.5 0.5
9 0 1 0 0 0 1 0 0 0 1 -123 93 -296 0.5 1.5 0.5
9 0 1 0 0 0 1 0 0 0 1 -124 90 -296 0.5 1.5 0.5
9 0 1 0 0 0 1 0 0 0 1 -124 84 -300 0.5 1.5 0.5
9 0 1 0 0 0 1 0 0 0 1 -124 81 -302 0.5 1.5 0.5
9 0 1 0 0 0 1 0 0 0 1 -124 77 -305 0.5 1.5 0.5
9 0 1 0 0 0 1 0 0 0 1 -124 72 -309 0.5 1.5 0.5
9 0 1 0 0 0 1 0 0 0 1 -125 117 -275 0.5 1.5 0.5
9 0 1 0 0 0 1 0 0 0 1 -125 109 492 0.5 1.5 0.5
9 0 1 0 0 0 1 0 0 0 1 -125 107 491 0.5 1.5 0.5
9 0 1 0 0 0 1 0 0 0 1 -125 102 -285 0.5 1.5 0.5
9 0 1 0 0 0 1 0 0 0 1 -125 71 -307 0.5 1.5 0.5
9 0 1 0 0 0 1 0 0 0 1 -125 69 -308 0.5 1.5 0.5
9 0 1 0 0 0 1 0 0 0 1 -125 66 -310 0.5 1.5 0.5
9 0 1 0 0 0 1 0 0 0 1 -125 62 -313 0.5 1.5 0.5
9 0 1 0 0 0 1 0 0 0 1 -125 57 -317 0.5 1.5 0.5
9 0 1 0 0 0 1 0 0 0 1 -125 50 -322 0.5 1.5 0.5
9 0 1 0 0 0 1 0 0 0 1 -125 46 -325 0.5 1.5 0.5
9 0 1 0 0 0 1 0 0 0 1 -125 43 -327 0.5 1.5 0.5
9 0 1 0 0 0 1 0 0 0 1 -125 39 -330 0.5 1.5 0.5
9 0 1 0 0 0 1 0 0 0 1 -125 7 -353 0.5 1.5 0.5
9 0 1 0 0 0 1 0 0 0 1 -126 119 496 0.5 1.5 0.5
9 0 1 0 0 0 1 0 0 0 1 -126 117 495 0.5 1.5 0.5
9 0 1 0 0 0 1 0 0 0 1 -126 109 491 0.5 1.5 0.5
9 0 1 0 0 0 1 0 0 0 1 -126 68 -306 0.5 1.5 0.5
9 0 1 0 0 0 1 0 0 0 1 -126 47 -321 0.5 1.5 0.5
9 0 1 0 0 0 1 0 0 0 1 -126 43 -324 0.5 1.5 0.5
9 0 1 0 0 0 1 0 0 0 1 -126 31 -333 0.5 1.5 0.5
9 0 1 0 0 0 1 0 0 0 1 -126 24 -338 0.5 1.5 0.5
9 0 1 0 0 0 1 0 0 0 1 -126 20 -341 0.5 1.5 0.5
9 0 1 0 0 0 1 0 0 0 1 -126 16 -344 0.5 1.5 0.5
9 0 1 0 0 0 1 0 0 0 1 -127 119 495 0.5 1.5 0.5
9 0 1 0 0 0 1 0 0 0 1 -127 117 494 0.5 1.5 0.5
9 0 1 0 0 0 1 0 0 0 1 -127 115 493 0.5 1.5 0.5
9 0 1 0 0 0 1 0 0 0 1 -127 113 492 0.5 1.5 0.5
9 0 1 0 0 0 1 0 0 0 1 -127 109 -276 0.5 1.5 0.5
9 0 1 0 0 0 1 0 0 0 1 -127 107 489 0.5 1.5 0.5
9 0 1 0 0 0 1 0 0 0 1 -127 105 488 0.5 1.5 0.5
9 0 1 0 0 0 1 0 0 0 1 -127 49 -317 0.5 1.5 0.5
9 0 1 0 0 0 1 0 0 0 1 -127 42 -322 0.5 1.5 0.5
9 0 1 0 0 0 1 0 0 0 1 -127 34 -328 0.5 1.5 0.5
9 0 1 0 0 0 1 0 0 0 1 -127 30 -331 0.5 1.5 0.5
9 0 1 0 0 0 1 0 0 0 1 -127 28 -332 0.5 1.5 0.5
9 0 1 0 0 0 1 0 0 0 1 -127 16 -341 0.5 1.5 0.5
9 0 1 0 0 0 1 0 0 0 1 -128 119 494 0.5 1.5 0.5
9 0 1 0 0 0 1 0 0 0 1 -128 111 490 0.5 1.5 0.5
9 0 1 0 0 0 1 0 0 0 1 -128 109 489 0.5 1.5 0.5
9 0 1 0 0 0 1 0 0 0 1 -128 107 488 0.5 1.5 0.5
9 0 1 0 0 0 1 0 0 0 1 -128 101 485 0.5 1.5 0.5
9 0 1 0 0 0 1 0 0 0 1 -128 99 484 0.5 1.5 0.5
9 0 1 0 0 0 1 0 0 0 1 -128 38 -322 0.5 1.5 0.5
9 0 1 0 0 0 1 0 0 0 1 -128 34 -325 0.5 1.5 0.5
9 0 1 0 0 0 1 0 0 0 1 -128 27 -330 0.5 1.5 0.5
9 0 1 0 0 0 1 0 0 0 1 -128 23 -333 0.5 1.5 0.5
9 0 1 0 0 0 1 0 0 0 1 -128 19 -336 0.5 1.5 0.5
9 0 1 0 0 0 1 0 0 0 1 -128 11 -342 0.5 1.5 0.5
9 0 1 0 0 0 1 0 0 0 1 -129 112 489 0.5 1.5 0.5
9 0 1 0 0 0 1 0 0 0 1 -129 109 -271 0.5 1.5 0.5
9 0 1 0 0 0 1 0 0 0 1 -129 107 487 0.5 1.5 0.5
9 0 1 0 0 0 1 0 0 0 1 -129 105 486 0.5 1.5 0.5
9 0 1 0 0 0 1 0 0 0 1 -129 102 -276 0.5 1.5 0.5
9 0 1 0 0 0 1 0 0 0 1 -129 97 -279 0.5 1.5 0.5
9 0 1 0 0 0 1 0 0 0 1 -129 95 481 0.5 1.5 0.5
9 0 1 0 0 0 1 0 0 0 1 -129 93 -282 0.5 1.5 0.5
9 0 1 0 0 0 1 0 0 0 1 -129 93 480 0.5 1.5 0.5
9 0 1 0 0 0 1 0 0 0 1 -129 91 479 0.5 1.5 0.5
9 0 1 0 0 0 1 0 0 0 1 -129 84 -288 0.5 1.5 0.5
9 0 1 0 0 0 1 0 0 0 1 -129 81 -290 0.5 1.5 0.5
9 0 1 0 0 0 1 0 0 0 1 -129 74 -295 0.5 1.5 0.5
9 0 1 0 0 0 1 0 0 0 1 -129 19 -333 0.5 1.5 0.5
9 0 1 0 0 0 1 0 0 0 1 -129 8 -341 0.5 1.5 0.5
9 0 1 0 0 0 1 0 0 0 1 -130 120 492 0.5 1.5 0.5
9 0 1 0 0 0 1 0 0 0 1 -130 118 491 0.5 1.5 0.5
9 0 1 0 0 0 1 0 0 0 1 -130 117 -263 0.5 1.5 0.5
9 0 1 0 0 0 1 0 0 0 1 -130 116 490 0.5 1.5 0.5
9 0 1 0 0 0 1 0 0 0 1 -130 112 488 0.5 1.5 0.5
9 0 1 0 0 0 1 0 0 0 1 -130 89 477 0.5 1.5 0.5
9 0 1 0 0 0 1 0 0 0 1 -130 60 -302 0.5 1.5 0.5
9 0 1 0 0 0 1 0 0 0 1 -130 41 -315 0.5 1.5 0.5
9 0 1 0 0 0 1 0 0 0 1 -131 123 -248 0.5 0.5 1.5
9 0 1 0 0 0 1 0 0 0 1 -131 119 490 0.5 1.5 0.5
9 0 1 0 0 0 1 0 0 0 1 -131 106 484 0.5 1.5 0.5
9 0 1 0 0 0 1 0 0 0 1 -131 104 -269 0.5 1.5 0.5
9 0 1 0 0 0 1 0 0 0 1 -131 104 483 0.5 1.5 0.5
9 0 1 0 0 0 1 0 0 0 1 -131 102 482 0.5 1.5 0.5
9 0 1 0 0 0 1 0 0 0 1 -131 99 -272 0.5 1.5 0.5
9 0 1 0 0 0 1 0 0 0 1 -131 96 -274 0.5 1.5 0.5
9 0 1 0 0 0 1 0 0 0 1 -131 96 479 0.5 1.5 0.5
9 0 1 0 0 0 1 0 0 0 1 -131 93 -276 0.5 1.5 0.5
9 0 1 0 0 0 1 0 0 0 1 -131 88 475 0.5 1.5 0.5
9 0 1 0 0 0 1 0 0 0 1 -131 68 -293 0.5 1.5 0.5
9 0 1 0 0 0 1 0 0 0 1 -131 59 -300 0.5 1.5 0.5
9 0 1 0 0 0 1 0 0 0 1 -131 39 -313 0.5 0.5 1.5
9 0 1 0 0 0 1 0 0 0 1 -131 36 -316 0.5 1.5 0.5
9 0 1 0 0 0 1 0 0 0 1 -131 24 -324 0.5 1.5 0.5
9 0 1 0 0 0 1 0 0 0 1 -132 120 489 0.5 1.5 0.5
9 0 1 0 0 0 1 0 0 0 1 -132 118 488 0.5 1.5 0.5
9 0 1 0 0 0 1 0 0 0 1 -132 114 -260 0.5 1.5 0.5
9 0 1 0 0 0 1 0 0 0 1 -132 111 485 0.5 1.5 0.5
9 0 1 0 0 0 1 0 0 0 1 -132 105 482 0.5 1.5 0.5
9 0 1 0 0 0 1 0 0 0 1 -132 98 -270 0.5 1.5 0.5
9 0 1 0 0 0 1 0 0 0 1 -132 96 478 0.5 1.5 0.5
9 0 1 0 0 0 1 0 0 0 1 -132 94 477 0.5 1.5 0.5
9 0 1 0 0 0 1 0 0 0 1 -132 88 474 0.5 1.5 0.5
9 0 1 0 0 0 1 0 0 0 1 -132 86 -278 0.5 1.5 0.5
9 0 1 0 0 0 1 0 0 0 1 -132 84 472 0.5 1.5 0.5
9 0 1 0 0 0 1 0 0 0 1 -132 80 -282 0.5 1.5 0.5
9 0 1 0 0 0 1 0 0 0 1 -132 78 -283 0.5 1.5 0.5
9 0 1 0 0 0 1 0 0 0 1 -132 9 -331 0.5 1.5 0.5
9 0 1 0 0 0 1 0 0 0 1 -132 5 -334 0.5 1.5 0.5
9 0 1 0 0 0 1 0 0 0 1 -133 115 485 0.5 1.5 0.5
9 0 1 0 0 0 1 0 0 0 1 -133 108 -261 0.5 1.5 0.5
9 0 1 0 0 0 1 0 0 0 1 -133 108 482 0.5 1.5 0.5
9 0 1 0 0 0 1 0 0 0 1 -133 106 481 0.5 1.5 0.5
9 0 1 0 0 0 1 0 0 0 1 -133 105 -263 0.5 1.5 0.5
9 0 1 0 0 0 1 0 0 0 1 -133 100 -266 0.5 1.5 0.5
9 0 1 0 0 0 1 0 0 0 1 -133 97 477 0.5 1.5 0.5
9 0 1 0 0 0 1 0 0 0 1 -133 95 476 0.5 1.5 0.5
9 0 1 0 0 0 1 0 0 0 1 -133 93 -271 0.5 1.5 0.5
9 0 1 0 0 0 1 0 0 0 1 -133 91 474 0.5 1.5 0.5
9 0 1 0 0 0 1 0 0 0 1 -133 88 -274 0.5 1.5 0.5
9 0 1 0 0 0 1 0 0 0 1 -133 86 472 0.5 1.5 0.5
9 0 1 0 0 0 1 0 0 0 1 -133 85 -276 0.5 1.5 0.5
9 0 1 0 0 0 1 0 0 0 1 -133 84 471 0.5 1.5 0.5
9 0 1 0 0 0 1 0 0 0 1 -133 82 -278 0.5 1.5 0.5
9 0 1 0 0 0 1 0 0 0 1 -133 82 470 0.5 1.5 0.5
9 0 1 0 0 0 1 0 0 0 1 -133 80 -279 0.5 1.5 0.5
9 0 1 0 0 0 1 0 0 0 1 -133 80 469 0.5 1.5 0.5
9 0 1 0 0 0 1 0 0 0 1 -133 78 468 0.5 1.5 0.5
9 0 1 0 0 0 1 0 0 0 1 -133 77 -281 0.5 1.5 0.5
9 0 1 0 0 0 1 0 0 0 1 -133 70 464 0.5 1.5 0.5
9 0 1 0 0 0 1 0 0 0 1 -133 68 463 0.5 1.5 0.5
9 0 1 0 0 0 1 0 0 0 1 -133 65 -289 0.5 1.5 0.5
9 0 1 0 0 0 1 0 0 0 1 -133 62 -291 0.5 1.5 0.5
9 0 1 0 0 0 1 0 0 0 1 -133 50 -299 0.5 1.5 0.5
9 0 1 0 0 0 1 0 0 0 1 -133 37 -308 0.5 1.5 0.5
9 0 1 0 0 0 1 0 0 0 1 -133 31 -312 0.5 1.5 0.5
9 0 1 0 0 0 1 0 0 0 1 -133 25 -316 0.5 1.5 0.5
9 0 1 0 0 0 1 0 0 0 1 -133 18 -321 0.5 1.5 0.5
9 0 1 0 0 0 1 0 0 0 1 -133 8 -328 0.5 1.5 0.5
9 0 1 0 0 0 1 0 0 0 1 -134 120 486 0.5 1.5 0.5
9 0 1 0 0 0 1 0 0 0 1 -134 118 485 0.5 1.5 0.5
9 0 1 0 0 0 1 0 0 0 1 -134 114 483 0.5 1.5 0.5
9 0 1 0 0 0 1 0 0 0 1 -134 111 482 0.5 1.5 0.5
9 0 1 0 0 0 1 0 0 0 1 -134 108 -258 0.5 0.5 1.5
9 0 1 0 0 0 1 0 0 0 1 -134 109 481 0.5 1.5 0.5
9 0 1 0 0 0 1 0 0 0 1 -134 107 480 0.5 1.5 0.5
9 0 1 0 0 0 1 0 0 0 1 -134 98 476 0.5 1.5 0.5
9 0 1 0 0 0 1 0 0 0 1 -134 94 474 0.5 1.5 0.5
9 0 1 0 0 0 1 0 0 0 1 -134 87 471 0.5 1.5 0.5
9 0 1 0 0 0 1 0 0 0 1 -134 85 470 0.5 1.5 0.5
9 0 1 0 0 0 1 0 0 0 1 -134 83 469 0.5 1.5 0.5
9 0 1 0 0 0 1 0 0 0 1 -134 81 468 0.5 1.5 0.5
9 0 1 0 0 0 1 0 0 0 1 -134 76 -279 0.5 1.5 0.5
9 0 1 0 0 0 1 0 0 0 1 -134 72 -282 0.5 1.5 0.5
9 0 1 0 0 0 1 0 0 0 1 -134 67 -285 0.5 1.5 0.5
9 0 1 0 0 0 1 0 0 0 1 -134 66 461 0.5 1.5 0.5
9 0 1 0 0 0 1 0 0 0 1 -134 64 -287 0.5 1.5 0.5
9 0 1 0 0 0 1 0 0 0 1 -134 64 460 0.5 1.5 0.5
9 0 1 0 0 0 1 0 0 0 1 -134 49 -297 0.5 1.5 0.5
9 0 1 0 0 0 1 0 0 0 1 -134 47 -298 0.5 1.5 0.5
9 0 1 0 0 0 1 0 0 0 1 -134 44 -300 0.5 1.5 0.5
9 0 1 0 0 0 1 0 0 0 1 -134 32 -308 0.5 1.5 0.5
9 0 1 0 0 0 1 0 0 0 1 -135 116 -250 0.5 0.5 1.5
9 0 1 0 0 0 1 0 0 0 1 -135 90 -265 0.5 1.5 0.5
9 0 1 0 0 0 1 0 0 0 1 -135 90 471 0.5 1.5 0.5
9 0 1 0 0 0 1 0 0 0 1 -135 89 -268 0.5 1.5 0.5
9 0 1 0 0 0 1 0 0 0 1 -135 88 470 0.5 1.5 0.5
9 0 1 0 0 0 1 0 0 0 1 -135 86 469 0.5 1.5 0.5
9 0 1 0 0 0 1 0 0 0 1 -135 82 -270 0.5 1.5 0.5
9 0 1 0 0 0 1 0 0 0 1 -135 81 467 0.5 1.5 0.5
9 0 1 0 0 0 1 0 0 0 1 -135 79 466 0.5 1.5 0.5
9 0 1 0 0 0 1 0 0 0 1 -135 77 465 0.5 1.5 0.5
9 0 1 0 0 0 1 0 0 0 1 -135 75 464 0.5 1.5 0.5
9 0 1 0 0 0 1 0 0 0 1 -135 69 -281 0.5 1.5 0.5
9 0 1 0 0 0 1 0 0 0 1 -135 58 456 0.5 1.5 0.5
9 0 1 0 0 0 1 0 0 0 1 -135 41 -299 0.5 1.5 0.5
9 0 1 0 0 0 1 0 0 0 1 -135 37 -301 0.5 0.5 1.5
9 0 1 0 0 0 1 0 0 0 1 -135 17 -315 0.5 1.5 0.5
9 0 1 0 0 0 1 0 0 0 1 -136 123 -233 0.5 0.5 1.5
9 0 1 0 0 0 1 0 0 0 1 -136 122 -238 0.5 0.5 1.5
9 0 1 0 0 0 1 0 0 0 1 -136 113 -249 0.5 1.5 0.5
9 0 1 0 0 0 1 0 0 0 1 -136 90 -262 0.5 1.5 0.5
9 0 1 0 0 0 1 0 0 0 1 -136 85 467 0.5 1.5 0.5
9 0 1 0 0 0 1 0 0 0 1 -136 80 465 0.5 1.5 0.5
9 0 1 0 0 0 1 0 0 0 1 -136 74 462 0.5 1.5 0.5
9 0 1 0 0 0 1 0 0 0 1 -136 73 -275 0.5 1.5 0.5
9 0 1 0 0 0 1 0 0 0 1 -136 71 461 0.5 1.5 0.5
9 0 1 0 0 0 1 0 0 0 1 -136 68 459 0.5 1.5 0.5
9 0 1 0 0 0 1 0 0 0 1 -136 65 458 0.5 1.5 0.5
9 0 1 0 0 0 1 0 0 0 1 -136 61 -280 0.5 1.5 0.5
9 0 1 0 0 0 1 0 0 0 1 -136 61 456 0.5 1.5 0.5
9 0 1 0 0 0 1 0 0 0 1 -136 59 455 0.5 1.5 0.5
9 0 1 0 0 0 1 0 0 0 1 -136 56 -283 0.5 1.5 0.5
9 0 1 0 0 0 1 0 0 0 1 -136 28 -305 0.5 1.5 0.5
9 0 1 0 0 0 1 0 0 0 1 -137 66 457 0.5 1.5 0.5
9 0 1 0 0 0 1 0 0 0 1 -137 62 455 0.5 1.5 0.5
9 0 1 0 0 0 1 0 0 0 1 -137 55 452 0.5 1.5 0.5
9 0 1 0 0 0 1 0 0 0 1 -137 53 451 0.5 1.5 0.5
9 0 1 0 0 0 1 0 0 0 1 -137 49 449 0.5 1.5 0.5
9 0 1 0 0 0 1 0 0 0 1 -137 48 -287 0.5 1.5 0.5
9 0 1 0 0 0 1 0 0 0 1 -137 16 -308 0.5 1.5 0.5
9 0 1 0 0 0 1 0 0 0 1 -138 120 -237 0.5 0.5 1.5
9 0 1 0 0 0 1 0 0 0 1 -138 111 475 0.5 1.5 0.5
9 0 1 0 0 0 1 0 0 0 1 -138 56 451 0.5 1.5 0.5
9 0 1 0 0 0 1 0 0 0 1 -138 54 450 0.5 1.5 0.5
9 0 1 0 0 0 1 0 0 0 1 -138 48 447 0.5 1.5 0.5
9 0 1 0 0 0 1 0 0 0 1 -138 45 446 0.5 1.5 0.5
9 0 1 0 0 0 1 0 0 0 1 -138 43 445 0.5 1.5 0.5
9 0 1 0 0 0 1 0 0 0 1 -138 39 443 0.5 1.5 0.5
9 0 1 0 0 0 1 0 0 0 1 -138 37 -289 0.5 0.5 1.5
9 0 1 0 0 0 1 0 0 0 1 -138 37 442 0.5 1.5 0.5
9 0 1 0 0 0 1 0 0 0 1 -138 29 -293 0.5 1.5 0.5
9 0 1 0 0 0 1 0 0 0 1 -138 27 -296 0.5 1.5 0.5
9 0 1 0 0 0 1 0 0 0 1 -138 23 -299 0.5 1.5 0.5
9 0 1 0 0 0 1 0 0 0 1 -138 21 -298 0.5 1.5 0.5
9 0 1 0 0 0 1 0 0 0 1 -138 16 -301 0.5 1.5 0.5
9 0 1 0 0 0 1 0 0 0 1 -138 12 -306 0.5 1.5 0.5
9 0 1 0 0 0 1 0 0 0 1 -139 123 -223 0.5 0.5 1.5
9 0 1 0 0 0 1 0 0 0 1 -139 106 -241 0.5 1.5 0.5
9 0 1 0 0 0 1 0 0 0 1 -139 100 -244 0.5 1.5 0.5
9 0 1 0 0 0 1 0 0 0 1 -139 98 465 0.5 1.5 0.5
9 0 1 0 0 0 1 0 0 0 1 -139 97 -249 0.5 1.5 0.5
9 0 1 0 0 0 1 0 0 0 1 -139 94 466 0.5 1.5 0.5
9 0 1 0 0 0 1 0 0 0 1 -139 92 -252 0.5 1.5 0.5
9 0 1 0 0 0 1 0 0 0 1 -139 90 464 0.5 1.5 0.5
9 0 1 0 0 0 1 0 0 0 1 -139 79 -260 0.5 1.5 0.5
9 0 1 0 0 0 1 0 0 0 1 -139 74 -263 0.5 1.5 0.5
9 0 1 0 0 0 1 0 0 0 1 -139 65 -265 0.5 1.5 0.5
9 0 1 0 0 0 1 0 0 0 1 -139 64 -269 0.5 1.5 0.5
9 0 1 0 0 0 1 0 0 0 1 -139 61 -271 0.5 1.5 0.5
9 0 1 0 0 0 1 0 0 0 1 -139 56 -274 0.5 1.5 0.5
9 0 1 0 0 0 1 0 0 0 1 -139 53 -276 0.5 1.5 0.5
9 0 1 0 0 0 1 0 0 0 1 -139 52 -273 0.5 1.5 0.5
9 0 1 0 0 0 1 0 0 0 1 -139 48 -279 0.5 1.5 0.5
9 0 1 0 0 0 1 0 0 0 1 -139 44 -278 0.5 1.5 0.5
9 0 1 0 0 0 1 0 0 0 1 -139 44 444 0.5 1.5 0.5
9 0 1 0 0 0 1 0 0 0 1 -139 43 -282 0.5 1.5 0.5
9 0 1 0 0 0 1 0 0 0 1 -139 42 443 0.5 1.5 0.5
9 0 1 0 0 0 1 0 0 0 1 -139 40 442 0.5 1.5 0.5
9 0 1 0 0 0 1 0 0 0 1 -139 38 -285 0.5 1.5 0.5
9 0 1 0 0 0 1 0 0 0 1 -139 33 -288 0.5 1.5 0.5
9 0 1 0 0 0 1 0 0 0 1 -139 29 -287 0.5 1.5 0.5
9 0 1 0 0 0 1 0 0 0 1 -139 29 437 0.5 1.5 0.5
9 0 1 0 0 0 1 0 0 0 1 -139 27 436 0.5 1.5 0.5
9 0 1 0 0 0 1 0 0 0 1 -139 24 -290 0.5 1.5 0.5
9 0 1 0 0 0 1 0 0 0 1 -139 11 -302 0.5 1.5 0.5
9 0 1 0 0 0 1 0 0 0 1 -140 121 471 0.5 0.5 1.5
9 0 1 0 0 0 1 0 0 0 1 -140 119 473 0.5 1.5 0.5
9 0 1 0 0 0 1 0 0 0 1 -140 116 -234 0.5 1.5 0.5
9 0 1 0 0 0 1 0 0 0 1 -140 113 -233 0.5 1.5 0.5
9 0 1 0 0 0 1 0 0 0 1 -140 111 -237 0.5 1.5 0.5
9 0 1 0 0 0 1 0 0 0 1 -140 105 -237 0.5 1.5 0.5
9 0 1 0 0 0 1 0 0 0 1 -140 98 -245 0.5 1.5 0.5
9 0 1 0 0 0 1 0 0 0 1 -140 90 -246 0.5 1.5 0.5
9 0 1 0 0 0 1 0 0 0 1 -140 88 -251 0.5 1.5 0.5
9 0 1 0 0 0 1 0 0 0 1 -140 79 -252 0.5 1.5 0.5
9 0 1 0 0 0 1 0 0 0 1 -140 69 -258 0.5 1.5 0.5
9 0 1 0 0 0 1 0 0 0 1 -140 63 451 0.5 1.5 0.5
9 0 1 0 0 0 1 0 0 0 1 -140 60 -267 0.5 1.5 0.5
9 0 1 0 0 0 1 0 0 0 1 -140 56 448 0.5 1.5 0.5
9 0 1 0 0 0 1 0 0 0 1 -140 51 -268 0.5 1.5 0.5
9 0 1 0 0 0 1 0 0 0 1 -140 50 -274 0.5 1.5 0.5
9 0 1 0 0 0 1 0 0 0 1 -140 48 443 0.5 1.5 0.5
9 0 1 0 0 0 1 0 0 0 1 -140 30 436 0.5 1.5 0.5
9 0 1 0 0 0 1 0 0 0 1 -140 29 -281 0.5 1.5 0.5
9 0 1 0 0 0 1 0 0 0 1 -140 26 434 0.5 1.5 0.5
9 0 1 0 0 0 1 0 0 0 1 -140 13 -291 0.5 1.5 0.5
9 0 1 0 0 0 1 0 0 0 1 -140 7 -300 0.5 1.5 0.5
9 0 1 0 0 0 1 0 0 0 1 -141 114 468 0.5 1.5 0.5
9 0 1 0 0 0 1 0 0 0 1 -141 113 -229 0.5 1.5 0.5
9 0 1 0 0 0 1 0 0 0 1 -141 110 461 0.5 1.5 0.5
9 0 1 0 0 0 1 0 0 0 1 -141 103 464 0.5 1.5 0.5
9 0 1 0 0 0 1 0 0 0 1 -141 93 -241 0.5 0.5 1.5
9 0 1 0 0 0 1 0 0 0 1 -141 93 455 0.5 1.5 0.5
9 0 1 0 0 0 1 0 0 0 1 -141 84 457 0.5 1.5 0.5
9 0 1 0 0 0 1 0 0 0 1 -141 72 449 0.5 0.5 1.5
9 0 1 0 0 0 1 0 0 0 1 -141 71 -253 0.5 1.5 0.5
9 0 1 0 0 0 1 0 0 0 1 -141 66 446 0.5 1.5 0.5
9 0 1 0 0 0 1 0 0 0 1 -141 58 443 0.5 1.5 0.5
9 0 1 0 0 0 1 0 0 0 1 -141 48 -266 0.5 1.5 0.5
9 0 1 0 0 0 1 0 0 0 1 -141 46 442 0.5 1.5 0.5
9 0 1 0 0 0 1 0 0 0 1 -141 42 440 0.5 1.5 0.5
9 0 1 0 0 0 1 0 0 0 1 -141 41 437 0.5 1.5 0.5
9 0 1 0 0 0 1 0 0 0 1 -141 35 435 0.5 1.5 0.5
9 0 1 0 0 0 1 0 0 0 1 -141 27 -282 0.5 1.5 0.5
9 0 1 0 0 0 1 0 0 0 1 -141 18 429 0.5 1.5 0.5
9 0 1 0 0 0 1 0 0 0 1 -141 16 428 0.5 1.5 0.5
9 0 1 0 0 0 1 0 0 0 1 -142 108 462 0.5 1.5 0.5
9 0 1 0 0 0 1 0 0 0 1 -142 102 460 0.5 1.5 0.5
9 0 1 0 0 0 1 0 0 0 1 -142 76 451 0.5 1.5 0.5
9 0 1 0 0 0 1 0 0 0 1 -142 71 449 0.5 1.5 0.5
9 0 1 0 0 0 1 0 0 0 1 -142 58 444 0.5 1.5 0.5
9 0 1 0 0 0 1 0 0 0 1 -143 112 458 0.5 1.5 0.5
9 0 1 0 0 0 1 0 0 0 1 -143 75 -243 0.5 1.5 0.5
9 0 1 0 0 0 1 0 0 0 1 -143 15 -275 0.5 1.5 0.5
