9 0 1 0 0 0 1 0 0 0 1 0.05699921 -6.074 -1.017998 4 1 4
9 0 1 0 0 0 1 0 0 0 1 0.05699921 11.926 16.482 3 3 1.5
9 0 1 0 0 0 1 0 0 0 1 0.05699921 11.426 14.482 9 1.5 0.5
9 0 1 0 0 0 1 0 0 0 1 -15.443 18.426 -6.517998 1.5 1.5 2.5
9 0 1 0 0 0 1 0 0 0 1 15.557 18.426 -6.017998 1.5 1.5 2
9 0 1 0 0 0 1 0 0 0 1 0.05699921 -6.074 -6.517998 2 1 1.5
9 0 1 0 0 0 1 0 0 0 1 -5.443001 -5.574 -1.017998 1.5 0.5 4
9 0 1 0 0 0 1 0 0 0 1 5.556999 -5.574 -0.5179977 1.5 0.5 3.5
9 0 1 0 0 0 1 0 0 0 1 0.05699921 -7.574 -0.5179977 2 0.5 2.5
9 0 1 0 0 0 1 0 0 0 1 14.057 14.426 7.482002 1 1.5 1.5
9 0 1 0 0 0 1 0 0 0 1 13.557 18.926 -9.517998 1.5 1 1.5
9 0 1 0 0 0 1 0 0 0 1 12.557 13.426 9.982002 1.5 1.5 1
9 0 1 0 0 0 1 0 0 0 1 10.057 12.426 12.482 1 1.5 1.5
9 0 1 0 0 0 1 0 0 0 1 4.556999 11.426 15.982 1.5 1.5 1
9 0 1 0 0 0 1 0 0 0 1 0.05699921 -5.574 4.482002 3 0.5 1.5
9 0 1 0 0 0 1 0 0 0 1 -4.443001 11.426 15.982 1.5 1.5 1
9 0 1 0 0 0 1 0 0 0 1 -9.443001 12.426 12.982 1.5 1.5 1
9 0 1 0 0 0 1 0 0 0 1 0.05699921 7.926 15.982 2 1 1
9 0 1 0 0 0 1 0 0 0 1 -12.943 13.926 8.982002 1 2 1
9 0 1 0 0 0 1 0 0 0 1 -0.4430008 11.926 18.482 3.5 1 0.5
9 0 1 0 0 0 1 0 0 0 1 7.556999 11.926 13.482 1.5 2 0.5
9 0 1 0 0 0 1 0 0 0 1 -11.943 13.426 10.982 1 1.5 1
9 0 1 0 0 0 1 0 0 0 1 -12.943 18.926 -9.517998 1 1 1.5
9 0 1 0 0 0 1 0 0 0 1 -13.443 9.926 7.482002 0.5 6 0.5
9 0 1 0 0 0 1 0 0 0 1 -14.943 14.426 6.982002 1 1.5 1
9 0 1 0 0 0 1 0 0 0 1 13.557 8.426 7.482002 0.5 4.5 0.5
9 0 1 0 0 0 1 0 0 0 1 15.057 16.926 -0.01799774 1 1 1
9 0 1 0 0 0 1 0 0 0 1 15.057 15.926 1.982002 1 1 1
9 0 1 0 0 0 1 0 0 0 1 5.056999 13.426 14.982 2 0.5 1
9 0 1 0 0 0 1 0 0 0 1 0.05699921 -6.574 3.982002 2 0.5 1
9 0 1 0 0 0 1 0 0 0 1 -3.443001 13.926 15.982 0.5 1 2
9 0 1 0 0 0 1 0 0 0 1 15.557 16.426 -5.017998 1.5 0.5 1
9 0 1 0 0 0 1 0 0 0 1 13.557 18.426 -7.017998 0.5 1.5 1
9 0 1 0 0 0 1 0 0 0 1 12.557 13.926 8.482002 0.5 3 0.5
9 0 1 0 0 0 1 0 0 0 1 7.556999 11.926 15.482 1.5 1 0.5
9 0 1 0 0 0 1 0 0 0 1 3.556999 -5.574 -6.017998 1.5 0.5 1
9 0 1 0 0 0 1 0 0 0 1 -3.943001 9.426 15.482 1 0.5 1.5
9 0 1 0 0 0 1 0 0 0 1 -3.443001 -5.574 -6.017998 1.5 0.5 1
9 0 1 0 0 0 1 0 0 0 1 -5.443001 13.426 14.982 1.5 0.5 1
9 0 1 0 0 0 1 0 0 0 1 -6.943001 11.426 15.482 1 1.5 0.5
9 0 1 0 0 0 1 0 0 0 1 -11.943 -5.574 -1.517998 1 0.5 1.5
9 0 1 0 0 0 1 0 0 0 1 -15.443 16.426 -5.017998 1.5 0.5 1
9 0 1 0 0 0 1 0 0 0 1 8.556999 12.426 12.482 0.5 2.5 0.5
9 0 1 0 0 0 1 0 0 0 1 4.556999 -6.574 -0.5179977 0.5 0.5 2.5
9 0 1 0 0 0 1 0 0 0 1 4.556999 9.426 14.482 2.5 0.5 0.5
9 0 1 0 0 0 1 0 0 0 1 -4.443001 -6.574 -0.5179977 0.5 0.5 2.5
9 0 1 0 0 0 1 0 0 0 1 -7.443001 12.426 13.482 0.5 2.5 0.5
9 0 1 0 0 0 1 0 0 0 1 17.557 17.926 -4.517998 0.5 2 0.5
9 0 1 0 0 0 1 0 0 0 1 15.557 18.926 -9.017998 0.5 1 1
9 0 1 0 0 0 1 0 0 0 1 15.557 14.926 6.982002 0.5 1 1
9 0 1 0 0 0 1 0 0 0 1 13.557 10.926 6.482002 0.5 2 0.5
9 0 1 0 0 0 1 0 0 0 1 14.057 17.426 -8.517998 2 0.5 0.5
9 0 1 0 0 0 1 0 0 0 1 12.057 13.426 11.982 1 0.5 1
9 0 1 0 0 0 1 0 0 0 1 11.557 -5.574 -0.01799774 0.5 0.5 2
9 0 1 0 0 0 1 0 0 0 1 10.057 14.426 11.982 1 0.5 1
9 0 1 0 0 0 1 0 0 0 1 2.056999 13.926 14.482 1 1 0.5
9 0 1 0 0 0 1 0 0 0 1 0.05699921 5.926 15.482 1 1 0.5
9 0 1 0 0 0 1 0 0 0 1 0.05699921 -5.574 6.482002 2 0.5 0.5
9 0 1 0 0 0 1 0 0 0 1 -10.443 12.926 11.482 0.5 2 0.5
9 0 1 0 0 0 1 0 0 0 1 -11.943 12.926 12.482 1 1 0.5
9 0 1 0 0 0 1 0 0 0 1 -14.443 18.926 -10.018 0.5 1 1
9 0 1 0 0 0 1 0 0 0 1 -14.443 14.926 2.482002 0.5 2 0.5
9 0 1 0 0 0 1 0 0 0 1 -14.443 13.926 8.982002 0.5 1 1
9 0 1 0 0 0 1 0 0 0 1 -15.443 16.426 0.9820023 0.5 0.5 2
9 0 1 0 0 0 1 0 0 0 1 -17.443 17.926 -4.517998 0.5 2 0.5
9 0 1 0 0 0 1 0 0 0 1 12.557 15.426 9.482002 1.5 0.5 0.5
9 0 1 0 0 0 1 0 0 0 1 11.557 12.426 12.482 0.5 0.5 1.5
9 0 1 0 0 0 1 0 0 0 1 11.557 11.426 10.482 0.5 0.5 1.5
9 0 1 0 0 0 1 0 0 0 1 11.557 -4.574 2.482002 0.5 0.5 1.5
9 0 1 0 0 0 1 0 0 0 1 4.556999 -5.574 3.482002 1.5 0.5 0.5
9 0 1 0 0 0 1 0 0 0 1 -0.4430008 -7.574 2.482002 1.5 0.5 0.5
9 0 1 0 0 0 1 0 0 0 1 -2.443001 8.426 14.482 0.5 1.5 0.5
9 0 1 0 0 0 1 0 0 0 1 -3.443001 11.426 17.482 0.5 1.5 0.5
9 0 1 0 0 0 1 0 0 0 1 -4.443001 -5.574 3.482002 1.5 0.5 0.5
9 0 1 0 0 0 1 0 0 0 1 -8.443001 13.426 14.482 1.5 0.5 0.5
9 0 1 0 0 0 1 0 0 0 1 -9.443001 14.426 12.482 1.5 0.5 0.5
9 0 1 0 0 0 1 0 0 0 1 -12.443 11.426 9.482002 0.5 0.5 1.5
9 0 1 0 0 0 1 0 0 0 1 -13.443 18.426 -7.517998 0.5 1.5 0.5
