9 0 -1.192093E-07 0 -1 0 -1 0 -1 0 -1.192093E-07 10 -2 -10 -3.35 -0.5 -3.35
9 0 -1.192093E-07 0 -1 0 -1 0 -1 0 -1.192093E-07 10 -2 10 -3.35 -0.5 -3.35
9 0 -1.192093E-07 0 -1 0 -1 0 -1 0 -1.192093E-07 10 -2 30 -3.35 -0.5 -3.35
9 0 -1.192093E-07 0 -1 0 -1 0 -1 0 -1.192093E-07 10 -2 50 -3.35 -0.5 -3.35
9 0 -1.192093E-07 0 -1 0 -1 0 -1 0 -1.192093E-07 10 -2 70 -3.35 -0.5 -3.35
9 0 -1.192093E-07 0 -1 0 -1 0 -1 0 -1.192093E-07 10 -2 90 -3.35 -0.5 -3.35
9 0 -1.192093E-07 0 -1 0 -1 0 -1 0 -1.192093E-07 10 -2 110 -3.35 -0.5 -3.35
9 0 -1.192093E-07 0 -1 0 -1 0 -1 0 -1.192093E-07 -10 -2 -10 -3.35 -0.5 -3.35
9 0 -1.192093E-07 0 -1 0 -1 0 -1 0 -1.192093E-07 -10 -2 10 -3.35 -0.5 -3.35
9 0 -1.192093E-07 0 -1 0 -1 0 -1 0 -1.192093E-07 -10 -2 30 -3.35 -0.5 -3.35
9 0 -1.192093E-07 0 -1 0 -1 0 -1 0 -1.192093E-07 -10 -2 50 -3.35 -0.5 -3.35
9 0 -1.192093E-07 0 -1 0 -1 0 -1 0 -1.192093E-07 -10 -2 70 -3.35 -0.5 -3.35
9 0 -1.192093E-07 0 -1 0 -1 0 -1 0 -1.192093E-07 -10 -2 90 -3.35 -0.5 -3.35
9 0 -1.192093E-07 0 -1 0 -1 0 -1 0 -1.192093E-07 -10 -2 110 -3.35 -0.5 -3.35
9 0 1 0 0 0 1 0 0 0 1 0 24 48 19.5 18.5 66.5
9 0 1 0 0 0 1 0 0 0 1 -0.5 20.5 -70 13 13 28.5
9 0 1 0 0 0 1 0 0 0 1 0 26 -30 18.5 24.5 8.5
9 0 1 0 0 0 1 0 0 0 1 0 48 48.5 18.5 2.5 70
9 0 1 0 0 0 1 0 0 0 1 24 24 43.5 4.5 9.5 62
9 0 1 0 0 0 1 0 0 0 1 -24 24 43.5 4.5 9.5 62
9 0 1 0 0 0 1 0 0 0 1 -10 39.5 -69.5 6.5 6 28
9 0 1 0 0 0 1 0 0 0 1 31 24 41 2.5 4.5 59.5
9 0 1 0 0 0 1 0 0 0 1 -31 24 41 2.5 4.5 59.5
9 0 1 0 0 0 1 0 0 0 1 0 2 50 19.5 0.5 68.5
9 0 1 0 0 0 1 0 0 0 1 -15.5 23.5 -70 2 10 28.5
9 0 1 0 0 0 1 0 0 0 1 0 5.5 -70 8.5 2 28.5
9 0 1 0 0 0 1 0 0 0 1 15 20 -70 2.5 6.5 28.5
9 0 1 0 0 0 1 0 0 0 1 21.5 36 46 2 2.5 64.5
9 0 1 0 0 0 1 0 0 0 1 21.5 12 46 2 2.5 64.5
9 0 1 0 0 0 1 0 0 0 1 -21.5 36 46 2 2.5 64.5
9 0 1 0 0 0 1 0 0 0 1 -21.5 12 46 2 2.5 64.5
9 0 1 0 0 0 1 0 0 0 1 -22 24 -27 3.5 16.5 5.5
9 0 1 0 0 0 1 0 0 0 1 1.5 35.5 -70 5 2 28.5
9 0 1 0 0 0 1 0 0 0 1 0 9.5 -111.5 6.5 5 8
9 0 1 0 0 0 1 0 0 0 1 22.5 17.5 -26.5 4 9 5
9 0 1 0 0 0 1 0 0 0 1 -18 29.5 -70 0.5 12 28.5
9 0 1 0 0 0 1 0 0 0 1 -4 19 -106.5 5.5 4.5 5
9 0 1 0 0 0 1 0 0 0 1 0 14.5 118 19.5 12 0.5
9 0 1 0 0 0 1 0 0 0 1 34 24 40.5 0.5 3.5 59
9 0 1 0 0 0 1 0 0 0 1 -34 24 40.5 0.5 3.5 59
9 0 1 0 0 0 1 0 0 0 1 -10 46.5 -70 3.5 1 28.5
9 0 1 0 0 0 1 0 0 0 1 24.5 35 45 1 1.5 63.5
9 0 1 0 0 0 1 0 0 0 1 24.5 13 45 1 1.5 63.5
9 0 1 0 0 0 1 0 0 0 1 -24.5 35 45 1 1.5 63.5
9 0 1 0 0 0 1 0 0 0 1 -24.5 13 45 1 1.5 63.5
9 0 1 0 0 0 1 0 0 0 1 0 3 -70 6.5 0.5 28.5
9 0 1 0 0 0 1 0 0 0 1 29.5 30 42.5 1 1.5 61
9 0 1 0 0 0 1 0 0 0 1 29.5 18 42.5 1 1.5 61
9 0 1 0 0 0 1 0 0 0 1 -29.5 30 42.5 1 1.5 61
9 0 1 0 0 0 1 0 0 0 1 -29.5 18 42.5 1 1.5 61
9 0 1 0 0 0 1 0 0 0 1 22.5 33 -25 4 6.5 3.5
9 0 1 0 0 0 1 0 0 0 1 -27.5 24 -25 2 12.5 3.5
9 0 1 0 0 0 1 0 0 0 1 38 24.5 36 0.5 3 55.5
9 0 1 0 0 0 1 0 0 0 1 -38 24.5 36 0.5 3 55.5
9 0 1 0 0 0 1 0 0 0 1 18 52.5 40 0.5 2 78.5
9 0 1 0 0 0 1 0 0 0 1 -18 52.5 40 0.5 2 78.5
9 0 1 0 0 0 1 0 0 0 1 0 37.5 118 19.5 8 0.5
9 0 1 0 0 0 1 0 0 0 1 13.5 29 -70 1 2.5 28.5
9 0 1 0 0 0 1 0 0 0 1 13.5 11 -70 1 2.5 28.5
9 0 1 0 0 0 1 0 0 0 1 -17 38.5 -70 0.5 5 28.5
9 0 1 0 0 0 1 0 0 0 1 20.5 39.5 47 1 1 65.5
9 0 1 0 0 0 1 0 0 0 1 20.5 8.5 47 1 1 65.5
9 0 1 0 0 0 1 0 0 0 1 -20.5 39.5 47 1 1 65.5
9 0 1 0 0 0 1 0 0 0 1 -20.5 8.5 47 1 1 65.5
9 0 1 0 0 0 1 0 0 0 1 -20 24 -34.5 1.5 20.5 2
9 0 1 0 0 0 1 0 0 0 1 -2.5 39.5 -69.5 1 2 28
9 0 1 0 0 0 1 0 0 0 1 20.5 23 -33 2 18.5 1.5
9 0 1 0 0 0 1 0 0 0 1 29 22 -73.5 1.5 1.5 23
9 0 1 0 0 0 1 0 0 0 1 0 10.5 -121 5.5 6 1.5
9 0 1 0 0 0 1 0 0 0 1 22 24 107.5 2.5 9.5 2
9 0 1 0 0 0 1 0 0 0 1 -21.5 24 108 2 9.5 2.5
9 0 1 0 0 0 1 0 0 0 1 10 6.5 -70 1.5 1 28.5
9 0 1 0 0 0 1 0 0 0 1 7.5 35 -70 1 1.5 28.5
9 0 1 0 0 0 1 0 0 0 1 -10 6.5 -70 1.5 1 28.5
9 0 1 0 0 0 1 0 0 0 1 -14.5 12 -70 1 1.5 28.5
9 0 1 0 0 0 1 0 0 0 1 29 20 -24 2.5 6.5 2.5
9 0 1 0 0 0 1 0 0 0 1 -3.5 26 -104 6 2.5 2.5
9 0 1 0 0 0 1 0 0 0 1 -0.5 10 -102.5 9 4.5 1
9 0 1 0 0 0 1 0 0 0 1 5 17.5 -107 3.5 2 5.5
9 0 1 0 0 0 1 0 0 0 1 22.5 32.5 -30 4 6 1.5
9 0 1 0 0 0 1 0 0 0 1 0 2 -70 2.5 0.5 28.5
9 0 1 0 0 0 1 0 0 0 1 -24 24 -38 2.5 2.5 5.5
9 0 1 0 0 0 1 0 0 0 1 0 16.5 -116 6.5 2 2.5
9 0 1 0 0 0 1 0 0 0 1 26 34.5 44.5 0.5 1 63
9 0 1 0 0 0 1 0 0 0 1 26 13.5 44.5 0.5 1 63
9 0 1 0 0 0 1 0 0 0 1 -26 34.5 44.5 0.5 1 63
9 0 1 0 0 0 1 0 0 0 1 -26 13.5 44.5 0.5 1 63
9 0 1 0 0 0 1 0 0 0 1 31 29.5 42 0.5 1 60.5
9 0 1 0 0 0 1 0 0 0 1 31 18.5 42 0.5 1 60.5
9 0 1 0 0 0 1 0 0 0 1 -31 29.5 42 0.5 1 60.5
9 0 1 0 0 0 1 0 0 0 1 -31 18.5 42 0.5 1 60.5
9 0 1 0 0 0 1 0 0 0 1 25.5 24 -35.5 3 2.5 4
9 0 1 0 0 0 1 0 0 0 1 19.5 23.5 -36 1 21 1.5
9 0 1 0 0 0 1 0 0 0 1 8.5 13 -109.5 2 2.5 6
9 0 1 0 0 0 1 0 0 0 1 5.5 23 -105.5 3 2.5 4
9 0 1 0 0 0 1 0 0 0 1 -8 11 -109 1.5 3.5 5.5
9 0 1 0 0 0 1 0 0 0 1 18 19.5 -70 0.5 2 28.5
9 0 1 0 0 0 1 0 0 0 1 15.5 27.5 -70 1 1 28.5
9 0 1 0 0 0 1 0 0 0 1 15.5 12.5 -70 1 1 28.5
9 0 1 0 0 0 1 0 0 0 1 0.5 38 -70 2 0.5 28.5
9 0 1 0 0 0 1 0 0 0 1 0 3.5 -112 2.5 1 10.5
9 0 1 0 0 0 1 0 0 0 1 -11 16.5 -105 1.5 5 3.5
9 0 1 0 0 0 1 0 0 0 1 -30.5 24 -24 1 10.5 2.5
9 0 1 0 0 0 1 0 0 0 1 10 34 -70 1.5 0.5 28.5
9 0 1 0 0 0 1 0 0 0 1 -10 48 -70 1.5 0.5 28.5
9 0 1 0 0 0 1 0 0 0 1 28.5 30 -24.5 2 3.5 3
9 0 1 0 0 0 1 0 0 0 1 20.5 41.5 -26.5 2 2 5
9 0 1 0 0 0 1 0 0 0 1 20.5 6.5 -26.5 2 2 5
9 0 1 0 0 0 1 0 0 0 1 19 46 40 0.5 0.5 78.5
9 0 1 0 0 0 1 0 0 0 1 -19 46 40 0.5 0.5 78.5
9 0 1 0 0 0 1 0 0 0 1 -10 39.5 -98 6.5 6 0.5
9 0 1 0 0 0 1 0 0 0 1 -4 18 -112.5 5.5 3.5 1
9 0 1 0 0 0 1 0 0 0 1 0 52.5 -38 17.5 2 0.5
9 0 1 0 0 0 1 0 0 0 1 0 52.5 118 17.5 2 0.5
9 0 1 0 0 0 1 0 0 0 1 -28.5 24 -32 2 2.5 3.5
9 0 1 0 0 0 1 0 0 0 1 20 41 47.5 0.5 0.5 66
9 0 1 0 0 0 1 0 0 0 1 20 7 47.5 0.5 0.5 66
9 0 1 0 0 0 1 0 0 0 1 -20 41 47.5 0.5 0.5 66
9 0 1 0 0 0 1 0 0 0 1 -20 7 47.5 0.5 0.5 66
9 0 1 0 0 0 1 0 0 0 1 -20 42.5 -27 1.5 2 5.5
9 0 1 0 0 0 1 0 0 0 1 -20 5.5 -27 1.5 2 5.5
9 0 1 0 0 0 1 0 0 0 1 22 39 46.5 0.5 0.5 65
9 0 1 0 0 0 1 0 0 0 1 22 9 46.5 0.5 0.5 65
9 0 1 0 0 0 1 0 0 0 1 -22 39 46.5 0.5 0.5 65
9 0 1 0 0 0 1 0 0 0 1 -22 9 46.5 0.5 0.5 65
9 0 1 0 0 0 1 0 0 0 1 24 37 45.5 0.5 0.5 64
9 0 1 0 0 0 1 0 0 0 1 24 11 45.5 0.5 0.5 64
9 0 1 0 0 0 1 0 0 0 1 -24 37 45.5 0.5 0.5 64
9 0 1 0 0 0 1 0 0 0 1 -24 11 45.5 0.5 0.5 64
9 0 1 0 0 0 1 0 0 0 1 10 21 -104.5 1.5 3.5 3
9 0 1 0 0 0 1 0 0 0 1 27 34 44 0.5 0.5 62.5
9 0 1 0 0 0 1 0 0 0 1 27 14 44 0.5 0.5 62.5
9 0 1 0 0 0 1 0 0 0 1 -27 34 44 0.5 0.5 62.5
9 0 1 0 0 0 1 0 0 0 1 -27 14 44 0.5 0.5 62.5
9 0 1 0 0 0 1 0 0 0 1 29 32 43 0.5 0.5 61.5
9 0 1 0 0 0 1 0 0 0 1 29 16 43 0.5 0.5 61.5
9 0 1 0 0 0 1 0 0 0 1 -29 32 43 0.5 0.5 61.5
9 0 1 0 0 0 1 0 0 0 1 -29 16 43 0.5 0.5 61.5
9 0 1 0 0 0 1 0 0 0 1 32 29 41.5 0.5 0.5 60
9 0 1 0 0 0 1 0 0 0 1 32 19 41.5 0.5 0.5 60
9 0 1 0 0 0 1 0 0 0 1 23.5 24 -42.5 2 2.5 3
9 0 1 0 0 0 1 0 0 0 1 8 8 -107.5 1.5 2.5 4
9 0 1 0 0 0 1 0 0 0 1 -32 29 41.5 0.5 0.5 60
9 0 1 0 0 0 1 0 0 0 1 -32 19 41.5 0.5 0.5 60
9 0 1 0 0 0 1 0 0 0 1 -20.5 24 111.5 1 14.5 1
9 0 1 0 0 0 1 0 0 0 1 21 24 110.5 1.5 9.5 1
9 0 1 0 0 0 1 0 0 0 1 -5.5 46 -70 1 0.5 28.5
9 0 1 0 0 0 1 0 0 0 1 -14 9.5 -70 0.5 1 28.5
9 0 1 0 0 0 1 0 0 0 1 -14.5 46 -70 1 0.5 28.5
9 0 1 0 0 0 1 0 0 0 1 -16 12.5 -70 0.5 1 28.5
9 0 1 0 0 0 1 0 0 0 1 -24.5 24 107 1 9.5 1.5
9 0 1 0 0 0 1 0 0 0 1 -3 42.5 -69.5 0.5 1 28
9 0 1 0 0 0 1 0 0 0 1 30 24 -30 1.5 2.5 3.5
9 0 1 0 0 0 1 0 0 0 1 27.5 24 -28.5 1 13.5 1
9 0 1 0 0 0 1 0 0 0 1 -1 25 -109 3.5 1.5 2.5
9 0 1 0 0 0 1 0 0 0 1 -26 24 -30 0.5 15.5 1.5
9 0 1 0 0 0 1 0 0 0 1 -33 24 -24.5 1.5 2.5 3
9 0 1 0 0 0 1 0 0 0 1 -19 23.5 -37.5 0.5 22 1
9 0 1 0 0 0 1 0 0 0 1 -1 30 -103.5 3.5 1.5 2
9 0 1 0 0 0 1 0 0 0 1 21 24 -35.5 0.5 20.5 1
9 0 1 0 0 0 1 0 0 0 1 32.5 24 -25.5 1 2.5 4
9 0 1 0 0 0 1 0 0 0 1 11.5 14 -105.5 1 2.5 4
9 0 1 0 0 0 1 0 0 0 1 -7.5 11.5 -117 1 4 2.5
9 0 1 0 0 0 1 0 0 0 1 25.5 24 106.5 1 9.5 1
9 0 1 0 0 0 1 0 0 0 1 -2.5 19.5 -115.5 4 1 2
9 0 1 0 0 0 1 0 0 0 1 -22.5 34.5 -33.5 1 8 1
9 0 1 0 0 0 1 0 0 0 1 -22.5 13.5 -33.5 1 8 1
9 0 1 0 0 0 1 0 0 0 1 5 20 -106 3.5 0.5 4.5
9 0 1 0 0 0 1 0 0 0 1 23.5 34 -32.5 1 7.5 1
9 0 1 0 0 0 1 0 0 0 1 23.5 14 -32.5 1 7.5 1
9 0 1 0 0 0 1 0 0 0 1 6.5 28 -103 2 2.5 1.5
9 0 1 0 0 0 1 0 0 0 1 4 15 -107.5 2.5 0.5 6
9 0 1 0 0 0 1 0 0 0 1 -22.5 24 -46.5 1 2.5 3
9 0 1 0 0 0 1 0 0 0 1 20.5 24 112 1 14.5 0.5
9 0 1 0 0 0 1 0 0 0 1 15 29 -70 0.5 0.5 28.5
9 0 1 0 0 0 1 0 0 0 1 15 11 -70 0.5 0.5 28.5
9 0 1 0 0 0 1 0 0 0 1 13 32 -70 0.5 0.5 28.5
9 0 1 0 0 0 1 0 0 0 1 13 8 -70 0.5 0.5 28.5
9 0 1 0 0 0 1 0 0 0 1 12 7 -70 0.5 0.5 28.5
9 0 1 0 0 0 1 0 0 0 1 9 35 -70 0.5 0.5 28.5
9 0 1 0 0 0 1 0 0 0 1 9 5 -70 0.5 0.5 28.5
9 0 1 0 0 0 1 0 0 0 1 -9 5 -70 0.5 0.5 28.5
9 0 1 0 0 0 1 0 0 0 1 -12 7 -70 0.5 0.5 28.5
9 0 1 0 0 0 1 0 0 0 1 30 24 101.5 1.5 4.5 1
9 0 1 0 0 0 1 0 0 0 1 28 35 -24.5 1.5 1.5 3
9 0 1 0 0 0 1 0 0 0 1 -29.5 24 102 1 4.5 1.5
9 0 1 0 0 0 1 0 0 0 1 31 22 -70.5 0.5 0.5 26
9 0 1 0 0 0 1 0 0 0 1 19.5 44.5 -28 1 1 6.5
9 0 1 0 0 0 1 0 0 0 1 19.5 3.5 -28 1 1 6.5
9 0 1 0 0 0 1 0 0 0 1 1 22.5 -112.5 6.5 1 1
9 0 1 0 0 0 1 0 0 0 1 4 20.5 -113.5 2.5 1 3
9 0 1 0 0 0 1 0 0 0 1 29 24 -71.5 0.5 0.5 25
9 0 1 0 0 0 1 0 0 0 1 13.5 17 -104 1 2.5 2.5
9 0 1 0 0 0 1 0 0 0 1 -10.5 24 -104 1 2.5 2.5
9 0 1 0 0 0 1 0 0 0 1 -10.5 14 -111 1 2.5 2.5
9 0 1 0 0 0 1 0 0 0 1 -13.5 17 -104 1 2.5 2.5
9 0 1 0 0 0 1 0 0 0 1 29 20 -72.5 0.5 0.5 24
9 0 1 0 0 0 1 0 0 0 1 -7.5 6.5 -109.5 1 1 6
9 0 1 0 0 0 1 0 0 0 1 32 29 -23 1.5 2.5 1.5
9 0 1 0 0 0 1 0 0 0 1 5 27 -106 2.5 1.5 1.5
9 0 1 0 0 0 1 0 0 0 1 27 22 -74.5 0.5 0.5 22
9 0 1 0 0 0 1 0 0 0 1 19 23.5 -38 0.5 22 0.5
9 0 1 0 0 0 1 0 0 0 1 9.5 12 -102.5 1 5.5 1
9 0 1 0 0 0 1 0 0 0 1 -22.5 41.5 -27 1 1 5.5
9 0 1 0 0 0 1 0 0 0 1 -22.5 6.5 -27 1 1 5.5
9 0 1 0 0 0 1 0 0 0 1 -20 24 -37 0.5 21.5 0.5
9 0 1 0 0 0 1 0 0 0 1 3.5 4 -112 1 0.5 10.5
9 0 1 0 0 0 1 0 0 0 1 -3.5 4 -112 1 0.5 10.5
9 0 1 0 0 0 1 0 0 0 1 -10.5 10 -105 1 1.5 3.5
9 0 1 0 0 0 1 0 0 0 1 34.5 24 -23.5 1 2.5 2
9 0 1 0 0 0 1 0 0 0 1 23.5 40.5 -26.5 1 1 5
9 0 1 0 0 0 1 0 0 0 1 23.5 7.5 -26.5 1 1 5
9 0 1 0 0 0 1 0 0 0 1 22.5 24 -47.5 1 2.5 2
9 0 1 0 0 0 1 0 0 0 1 7.5 13.5 -116.5 1 5 1
9 0 1 0 0 0 1 0 0 0 1 -27.5 24 -37.5 1 2.5 2
9 0 1 0 0 0 1 0 0 0 1 -31.5 24 -29.5 1 2.5 2
9 0 1 0 0 0 1 0 0 0 1 0 16 -119 6.5 1.5 0.5
9 0 1 0 0 0 1 0 0 0 1 -26 24 106.5 0.5 9.5 1
9 0 1 0 0 0 1 0 0 0 1 32.5 18.5 -23 1 3 1.5
9 0 1 0 0 0 1 0 0 0 1 28.5 17 -27 2 4.5 0.5
9 0 1 0 0 0 1 0 0 0 1 3.5 28.5 -103 1 3 1.5
9 0 1 0 0 0 1 0 0 0 1 -0.5 28 -107.5 3 1.5 1
9 0 1 0 0 0 1 0 0 0 1 -6.5 25 -108 2 1.5 1.5
9 0 1 0 0 0 1 0 0 0 1 -32.5 29.5 -23 1 3 1.5
9 0 1 0 0 0 1 0 0 0 1 -32.5 18.5 -23 1 3 1.5
9 0 1 0 0 0 1 0 0 0 1 12 19 -105 0.5 2.5 3.5
9 0 1 0 0 0 1 0 0 0 1 10 -2 -10 3.5 0.5 2.5
9 0 1 0 0 0 1 0 0 0 1 10 -2 10 3.5 0.5 2.5
9 0 1 0 0 0 1 0 0 0 1 10 -2 30 3.5 0.5 2.5
9 0 1 0 0 0 1 0 0 0 1 10 -2 50 3.5 0.5 2.5
9 0 1 0 0 0 1 0 0 0 1 10 -2 70 3.5 0.5 2.5
9 0 1 0 0 0 1 0 0 0 1 10 -2 90 3.5 0.5 2.5
9 0 1 0 0 0 1 0 0 0 1 10 -2 110 3.5 0.5 2.5
9 0 1 0 0 0 1 0 0 0 1 -10 -2 -10 3.5 0.5 2.5
9 0 1 0 0 0 1 0 0 0 1 -10 -2 10 3.5 0.5 2.5
9 0 1 0 0 0 1 0 0 0 1 -10 -2 30 3.5 0.5 2.5
9 0 1 0 0 0 1 0 0 0 1 -10 -2 50 3.5 0.5 2.5
9 0 1 0 0 0 1 0 0 0 1 -10 -2 70 3.5 0.5 2.5
9 0 1 0 0 0 1 0 0 0 1 -10 -2 90 3.5 0.5 2.5
9 0 1 0 0 0 1 0 0 0 1 -10 -2 110 3.5 0.5 2.5
9 0 1 0 0 0 1 0 0 0 1 20 24 113 0.5 16.5 0.5
9 0 1 0 0 0 1 0 0 0 1 -20 24 113 0.5 16.5 0.5
9 0 1 0 0 0 1 0 0 0 1 9.5 17.5 -109.5 1 2 2
9 0 1 0 0 0 1 0 0 0 1 28 12.5 -24 1.5 1 2.5
9 0 1 0 0 0 1 0 0 0 1 7.5 18 -114 1 2.5 1.5
9 0 1 0 0 0 1 0 0 0 1 6.5 10 -121 1 2.5 1.5
9 0 1 0 0 0 1 0 0 0 1 6 23 -110.5 2.5 1.5 1
9 0 1 0 0 0 1 0 0 0 1 -1 22 -114.5 2.5 1.5 1
9 0 1 0 0 0 1 0 0 0 1 -6 10.5 -121 0.5 5 1.5
9 0 1 0 0 0 1 0 0 0 1 -19 2.5 -29 0.5 1 7.5
9 0 1 0 0 0 1 0 0 0 1 -19.5 45 -29 1 0.5 7.5
9 0 1 0 0 0 1 0 0 0 1 27 24 -30 0.5 14.5 0.5
9 0 1 0 0 0 1 0 0 0 1 -22 24 111 0.5 14.5 0.5
9 0 1 0 0 0 1 0 0 0 1 29 23 -35.5 0.5 3.5 2
9 0 1 0 0 0 1 0 0 0 1 7.5 12 -118.5 1 3.5 1
9 0 1 0 0 0 1 0 0 0 1 0.5 5 -102.5 7 0.5 1
9 0 1 0 0 0 1 0 0 0 1 -26.5 37.5 -25 1 1 3.5
9 0 1 0 0 0 1 0 0 0 1 -26.5 10.5 -25 1 1 3.5
9 0 1 0 0 0 1 0 0 0 1 10 26 -103 1.5 1.5 1.5
9 0 1 0 0 0 1 0 0 0 1 8 9 -113 1.5 1.5 1.5
9 0 1 0 0 0 1 0 0 0 1 2 22 -106 0.5 1.5 4.5
9 0 1 0 0 0 1 0 0 0 1 0 10 -124 1.5 1.5 1.5
9 0 1 0 0 0 1 0 0 0 1 22 24 -37 0.5 2.5 2.5
9 0 1 0 0 0 1 0 0 0 1 4 19 -115 2.5 0.5 2.5
9 0 1 0 0 0 1 0 0 0 1 -24 24 109 0.5 12.5 0.5
9 0 1 0 0 0 1 0 0 0 1 20.5 42.5 -33 2 1 1.5
9 0 1 0 0 0 1 0 0 0 1 0.5 32 -103 4 0.5 1.5
9 0 1 0 0 0 1 0 0 0 1 -6.5 29.5 -103 2 1 1.5
9 0 1 0 0 0 1 0 0 0 1 -7.5 17.5 -115 1 2 1.5
9 0 1 0 0 0 1 0 0 0 1 -27 32.5 -29.5 0.5 6 1
9 0 1 0 0 0 1 0 0 0 1 -27 15.5 -29.5 0.5 6 1
9 0 1 0 0 0 1 0 0 0 1 -30 24 -27 0.5 11.5 0.5
9 0 1 0 0 0 1 0 0 0 1 22 39 -30 3.5 0.5 1.5
9 0 1 0 0 0 1 0 0 0 1 11 10 -105 0.5 1.5 3.5
9 0 1 0 0 0 1 0 0 0 1 10 9 -107 0.5 1.5 3.5
9 0 1 0 0 0 1 0 0 0 1 26.5 24 -40.5 1 2.5 1
9 0 1 0 0 0 1 0 0 0 1 12.5 24 -102.5 1 2.5 1
9 0 1 0 0 0 1 0 0 0 1 11 14 -111.5 0.5 2.5 2
9 0 1 0 0 0 1 0 0 0 1 1 17.5 -120.5 2.5 1 1
9 0 1 0 0 0 1 0 0 0 1 0 19.5 -118.5 2.5 1 1
9 0 1 0 0 0 1 0 0 0 1 -9 12 -116.5 0.5 2.5 2
9 0 1 0 0 0 1 0 0 0 1 -12.5 24 -102.5 1 2.5 1
9 0 1 0 0 0 1 0 0 0 1 -24 24 -45.5 0.5 2.5 2
9 0 1 0 0 0 1 0 0 0 1 -35 24 -23.5 0.5 2.5 2
9 0 1 0 0 0 1 0 0 0 1 27 24 106 0.5 9.5 0.5
9 0 1 0 0 0 1 0 0 0 1 25 24 108 0.5 9.5 0.5
9 0 1 0 0 0 1 0 0 0 1 23 24 110 0.5 9.5 0.5
9 0 1 0 0 0 1 0 0 0 1 -27 24 106 0.5 9.5 0.5
9 0 1 0 0 0 1 0 0 0 1 29.5 24 103 1 4.5 0.5
9 0 1 0 0 0 1 0 0 0 1 18 22 -50.5 0.5 0.5 9
9 0 1 0 0 0 1 0 0 0 1 9.5 22 -109 1 1.5 1.5
9 0 1 0 0 0 1 0 0 0 1 -10.5 18 -110 1 1.5 1.5
9 0 1 0 0 0 1 0 0 0 1 -31 24 101.5 0.5 4.5 1
9 0 1 0 0 0 1 0 0 0 1 22 35 -35 0.5 8.5 0.5
9 0 1 0 0 0 1 0 0 0 1 22 13 -35 0.5 8.5 0.5
9 0 1 0 0 0 1 0 0 0 1 -22 35 -35 0.5 8.5 0.5
9 0 1 0 0 0 1 0 0 0 1 -22 13 -35 0.5 8.5 0.5
9 0 1 0 0 0 1 0 0 0 1 31.5 32.5 -23.5 1 1 2
9 0 1 0 0 0 1 0 0 0 1 23 34.5 -34 0.5 8 0.5
9 0 1 0 0 0 1 0 0 0 1 23 13.5 -34 0.5 8 0.5
9 0 1 0 0 0 1 0 0 0 1 19 2 -29.5 0.5 0.5 8
9 0 1 0 0 0 1 0 0 0 1 13.5 20.5 -103.5 1 1 2
9 0 1 0 0 0 1 0 0 0 1 9.5 16.5 -105.5 1 1 2
9 0 1 0 0 0 1 0 0 0 1 7.5 6.5 -113.5 1 1 2
9 0 1 0 0 0 1 0 0 0 1 0.5 24.5 -112.5 2 1 1
9 0 1 0 0 0 1 0 0 0 1 -7.5 10.5 -120.5 1 2 1
9 0 1 0 0 0 1 0 0 0 1 -9 6.5 -107.5 0.5 1 4
9 0 1 0 0 0 1 0 0 0 1 29 24 104 0.5 7.5 0.5
9 0 1 0 0 0 1 0 0 0 1 21 36 111 1.5 2.5 0.5
9 0 1 0 0 0 1 0 0 0 1 21 12 111 1.5 2.5 0.5
9 0 1 0 0 0 1 0 0 0 1 9 12 -117 0.5 2.5 1.5
9 0 1 0 0 0 1 0 0 0 1 4 17 -113 2.5 1.5 0.5
9 0 1 0 0 0 1 0 0 0 1 -20 3 -29 0.5 0.5 7.5
9 0 1 0 0 0 1 0 0 0 1 -24 34 -33 0.5 7.5 0.5
9 0 1 0 0 0 1 0 0 0 1 -24 14 -33 0.5 7.5 0.5
9 0 1 0 0 0 1 0 0 0 1 -29 24 104 0.5 7.5 0.5
9 0 1 0 0 0 1 0 0 0 1 25 33.5 -32 0.5 7 0.5
9 0 1 0 0 0 1 0 0 0 1 25 14.5 -32 0.5 7 0.5
9 0 1 0 0 0 1 0 0 0 1 0 27.5 -109 3.5 1 0.5
9 0 1 0 0 0 1 0 0 0 1 -1 29.5 -106 3.5 1 0.5
9 0 1 0 0 0 1 0 0 0 1 -10 7.5 -105 0.5 1 3.5
9 0 1 0 0 0 1 0 0 0 1 21 44 -28 0.5 0.5 6.5
9 0 1 0 0 0 1 0 0 0 1 21 4 -28 0.5 0.5 6.5
9 0 1 0 0 0 1 0 0 0 1 18 22 -92 0.5 0.5 6.5
9 0 1 0 0 0 1 0 0 0 1 -22 43 -28 0.5 0.5 6.5
9 0 1 0 0 0 1 0 0 0 1 -22 5 -28 0.5 0.5 6.5
9 0 1 0 0 0 1 0 0 0 1 30 34.5 -24.5 0.5 1 3
9 0 1 0 0 0 1 0 0 0 1 30 22 -48.5 0.5 1.5 2
9 0 1 0 0 0 1 0 0 0 1 30 23.5 -34.5 0.5 3 1
9 0 1 0 0 0 1 0 0 0 1 27.5 37 -24.5 1 0.5 3
9 0 1 0 0 0 1 0 0 0 1 27.5 11 -24.5 1 0.5 3
9 0 1 0 0 0 1 0 0 0 1 23 42 -27.5 0.5 0.5 6
9 0 1 0 0 0 1 0 0 0 1 23 6 -27.5 0.5 0.5 6
9 0 1 0 0 0 1 0 0 0 1 15 17.5 -103 0.5 2 1.5
9 0 1 0 0 0 1 0 0 0 1 13 13.5 -104.5 0.5 1 3
9 0 1 0 0 0 1 0 0 0 1 11 19.5 -108.5 0.5 3 1
9 0 1 0 0 0 1 0 0 0 1 10 28.5 -102.5 1.5 1 1
9 0 1 0 0 0 1 0 0 0 1 10 25.5 -105.5 1.5 1 1
9 0 1 0 0 0 1 0 0 0 1 9 18.5 -112.5 0.5 3 1
9 0 1 0 0 0 1 0 0 0 1 5.5 26 -108.5 3 0.5 1
9 0 1 0 0 0 1 0 0 0 1 0.5 33.5 -102 3 1 0.5
9 0 1 0 0 0 1 0 0 0 1 -0.5 21 -117 2 0.5 1.5
9 0 1 0 0 0 1 0 0 0 1 -10 10.5 -111.5 0.5 1 3
9 0 1 0 0 0 1 0 0 0 1 -10.5 28 -102.5 1 1.5 1
9 0 1 0 0 0 1 0 0 0 1 -12 15.5 -109.5 0.5 3 1
9 0 1 0 0 0 1 0 0 0 1 -13 13.5 -104.5 0.5 1 3
9 0 1 0 0 0 1 0 0 0 1 -13.5 20.5 -103 1 1 1.5
9 0 1 0 0 0 1 0 0 0 1 18 22 -71 0.5 0.5 5.5
9 0 1 0 0 0 1 0 0 0 1 -1 18 -119 5.5 0.5 0.5
9 0 1 0 0 0 1 0 0 0 1 -24 41 -27 0.5 0.5 5.5
9 0 1 0 0 0 1 0 0 0 1 -24 7 -27 0.5 0.5 5.5
9 0 1 0 0 0 1 0 0 0 1 -28 32 -29 0.5 5.5 0.5
9 0 1 0 0 0 1 0 0 0 1 -28 16 -29 0.5 5.5 0.5
9 0 1 0 0 0 1 0 0 0 1 36 24 -22.5 0.5 2.5 1
9 0 1 0 0 0 1 0 0 0 1 34 29 -22.5 0.5 2.5 1
9 0 1 0 0 0 1 0 0 0 1 34 24 -26.5 0.5 2.5 1
9 0 1 0 0 0 1 0 0 0 1 34 19 -22.5 0.5 2.5 1
9 0 1 0 0 0 1 0 0 0 1 32 24 -30.5 0.5 2.5 1
9 0 1 0 0 0 1 0 0 0 1 31.5 29 -25 1 2.5 0.5
9 0 1 0 0 0 1 0 0 0 1 29 31.5 -28 0.5 5 0.5
9 0 1 0 0 0 1 0 0 0 1 29 16.5 -28 0.5 5 0.5
9 0 1 0 0 0 1 0 0 0 1 28 24 -30.5 0.5 2.5 1
9 0 1 0 0 0 1 0 0 0 1 27.5 24 -27 1 2.5 0.5
9 0 1 0 0 0 1 0 0 0 1 26 24 -42.5 0.5 2.5 1
9 0 1 0 0 0 1 0 0 0 1 25 40 -26.5 0.5 0.5 5
9 0 1 0 0 0 1 0 0 0 1 25 8 -26.5 0.5 0.5 5
9 0 1 0 0 0 1 0 0 0 1 24 24 -46.5 0.5 2.5 1
9 0 1 0 0 0 1 0 0 0 1 22 24 -50.5 0.5 2.5 1
9 0 1 0 0 0 1 0 0 0 1 21 26 -47.5 0.5 0.5 6
9 0 1 0 0 0 1 0 0 0 1 21 24 -37.5 0.5 2.5 1
9 0 1 0 0 0 1 0 0 0 1 12 10.5 -104 0.5 1 2.5
9 0 1 0 0 0 1 0 0 0 1 7.5 21 -112 1 0.5 2.5
9 0 1 0 0 0 1 0 0 0 1 -12 10.5 -104 0.5 1 2.5
9 0 1 0 0 0 1 0 0 0 1 -20.5 24 -38 1 2.5 0.5
9 0 1 0 0 0 1 0 0 0 1 -22 24 -50.5 0.5 2.5 1
9 0 1 0 0 0 1 0 0 0 1 -25 24 -44.5 0.5 2.5 1
9 0 1 0 0 0 1 0 0 0 1 -27 24 -40.5 0.5 2.5 1
9 0 1 0 0 0 1 0 0 0 1 -29 24 -36.5 0.5 2.5 1
9 0 1 0 0 0 1 0 0 0 1 -31 24 -32.5 0.5 2.5 1
9 0 1 0 0 0 1 0 0 0 1 -33 24 -28.5 0.5 2.5 1
9 0 1 0 0 0 1 0 0 0 1 -34 29 -22.5 0.5 2.5 1
9 0 1 0 0 0 1 0 0 0 1 -34 19 -22.5 0.5 2.5 1
9 0 1 0 0 0 1 0 0 0 1 -36 24 -22.5 0.5 2.5 1
9 0 1 0 0 0 1 0 0 0 1 38 26 93 0.5 1.5 1.5
9 0 1 0 0 0 1 0 0 0 1 32 24 101 0.5 4.5 0.5
9 0 1 0 0 0 1 0 0 0 1 13 16 -108 0.5 1.5 1.5
9 0 1 0 0 0 1 0 0 0 1 6 14 -121 0.5 1.5 1.5
9 0 1 0 0 0 1 0 0 0 1 4 29 -106 1.5 0.5 1.5
9 0 1 0 0 0 1 0 0 0 1 -10 23 -108 0.5 1.5 1.5
9 0 1 0 0 0 1 0 0 0 1 -10 13 -115 0.5 1.5 1.5
9 0 1 0 0 0 1 0 0 0 1 -15 18 -103 0.5 1.5 1.5
9 0 1 0 0 0 1 0 0 0 1 -32 24 101 0.5 4.5 0.5
9 0 1 0 0 0 1 0 0 0 1 -38 26 93 0.5 1.5 1.5
9 0 1 0 0 0 1 0 0 0 1 31 30.5 -26 0.5 4 0.5
9 0 1 0 0 0 1 0 0 0 1 27 38 -25.5 0.5 0.5 4
9 0 1 0 0 0 1 0 0 0 1 27 10 -25.5 0.5 0.5 4
9 0 1 0 0 0 1 0 0 0 1 12 23.5 -104.5 0.5 2 1
9 0 1 0 0 0 1 0 0 0 1 11 7.5 -103.5 0.5 1 2
9 0 1 0 0 0 1 0 0 0 1 8.5 27.5 -105.5 1 1 1
9 0 1 0 0 0 1 0 0 0 1 7.5 8 -116.5 1 0.5 2
9 0 1 0 0 0 1 0 0 0 1 7 6.5 -117.5 0.5 1 2
9 0 1 0 0 0 1 0 0 0 1 7 5 -107.5 0.5 0.5 4
9 0 1 0 0 0 1 0 0 0 1 6.5 31 -102.5 2 0.5 1
9 0 1 0 0 0 1 0 0 0 1 4.5 25.5 -110 2 1 0.5
9 0 1 0 0 0 1 0 0 0 1 3.5 22.5 -114 2 1 0.5
9 0 1 0 0 0 1 0 0 0 1 -0.5 27 -110.5 2 0.5 1
9 0 1 0 0 0 1 0 0 0 1 -2.5 39.5 -98 1 2 0.5
9 0 1 0 0 0 1 0 0 0 1 -4.5 27.5 -107.5 1 1 1
9 0 1 0 0 0 1 0 0 0 1 -4.5 21.5 -114.5 1 1 1
9 0 1 0 0 0 1 0 0 0 1 -3.5 17 -120.5 2 0.5 1
9 0 1 0 0 0 1 0 0 0 1 -5.5 24.5 -110.5 1 1 1
9 0 1 0 0 0 1 0 0 0 1 -6.5 22.5 -112.5 1 1 1
9 0 1 0 0 0 1 0 0 0 1 -7 6.5 -117.5 0.5 1 2
9 0 1 0 0 0 1 0 0 0 1 -9 16.5 -114.5 0.5 2 1
9 0 1 0 0 0 1 0 0 0 1 -12 23.5 -104.5 0.5 2 1
9 0 1 0 0 0 1 0 0 0 1 -13 16.5 -107.5 0.5 2 1
9 0 1 0 0 0 1 0 0 0 1 32 18 -25 0.5 3.5 0.5
9 0 1 0 0 0 1 0 0 0 1 -3 44 -72 0.5 0.5 3.5
9 0 1 0 0 0 1 0 0 0 1 -6 47 -68 0.5 0.5 3.5
9 0 1 0 0 0 1 0 0 0 1 -14 47 -72 0.5 0.5 3.5
9 0 1 0 0 0 1 0 0 0 1 -17 44 -68 0.5 0.5 3.5
9 0 1 0 0 0 1 0 0 0 1 -26 39 -25 0.5 0.5 3.5
9 0 1 0 0 0 1 0 0 0 1 -26 9 -25 0.5 0.5 3.5
9 0 1 0 0 0 1 0 0 0 1 -28 37 -25 0.5 0.5 3.5
9 0 1 0 0 0 1 0 0 0 1 -28 11 -25 0.5 0.5 3.5
9 0 1 0 0 0 1 0 0 0 1 -32 30 -25 0.5 3.5 0.5
9 0 1 0 0 0 1 0 0 0 1 -32 18 -25 0.5 3.5 0.5
9 0 1 0 0 0 1 0 0 0 1 38 22 98.5 0.5 1.5 1
9 0 1 0 0 0 1 0 0 0 1 29 22 -49.5 0.5 1.5 1
9 0 1 0 0 0 1 0 0 0 1 22.5 24 -81 1 0.5 1.5
9 0 1 0 0 0 1 0 0 0 1 19.5 45 -36 1 0.5 1.5
9 0 1 0 0 0 1 0 0 0 1 12 14.5 -111 0.5 1 1.5
9 0 1 0 0 0 1 0 0 0 1 11 18 -110.5 0.5 1.5 1
9 0 1 0 0 0 1 0 0 0 1 11 17 -104.5 0.5 0.5 3
9 0 1 0 0 0 1 0 0 0 1 10 16.5 -113 0.5 1 1.5
9 0 1 0 0 0 1 0 0 0 1 9.5 20 -109 1 0.5 1.5
9 0 1 0 0 0 1 0 0 0 1 9 17 -114.5 0.5 1.5 1
9 0 1 0 0 0 1 0 0 0 1 8 11 -120.5 0.5 1.5 1
9 0 1 0 0 0 1 0 0 0 1 8 9.5 -115 1.5 1 0.5
9 0 1 0 0 0 1 0 0 0 1 6 6.5 -121 0.5 1 1.5
9 0 1 0 0 0 1 0 0 0 1 4 27.5 -108 1.5 1 0.5
9 0 1 0 0 0 1 0 0 0 1 4 24 -112.5 1.5 0.5 1
9 0 1 0 0 0 1 0 0 0 1 3 23 -110.5 0.5 1.5 1
9 0 1 0 0 0 1 0 0 0 1 3 20.5 -117 1.5 1 0.5
9 0 1 0 0 0 1 0 0 0 1 0 33 -103.5 1.5 0.5 1
9 0 1 0 0 0 1 0 0 0 1 0 22.5 -116 1.5 1 0.5
9 0 1 0 0 0 1 0 0 0 1 0 17.5 -122 1.5 1 0.5
9 0 1 0 0 0 1 0 0 0 1 -3 24.5 -112 1.5 1 0.5
9 0 1 0 0 0 1 0 0 0 1 -7 17 -117.5 0.5 1.5 1
9 0 1 0 0 0 1 0 0 0 1 -9 25 -107.5 0.5 1.5 1
9 0 1 0 0 0 1 0 0 0 1 -11 7.5 -103 0.5 1 1.5
9 0 1 0 0 0 1 0 0 0 1 -38 22 98.5 0.5 1.5 1
9 0 1 0 0 0 1 0 0 0 1 30 13 -24 0.5 0.5 2.5
9 0 1 0 0 0 1 0 0 0 1 28 21 -37 0.5 0.5 2.5
9 0 1 0 0 0 1 0 0 0 1 27 24 -31 0.5 2.5 0.5
9 0 1 0 0 0 1 0 0 0 1 20 24 -38 0.5 2.5 0.5
9 0 1 0 0 0 1 0 0 0 1 10 13 -116 0.5 2.5 0.5
9 0 1 0 0 0 1 0 0 0 1 10 7 -106 0.5 0.5 2.5
9 0 1 0 0 0 1 0 0 0 1 10 -2 -13 2.5 0.5 0.5
9 0 1 0 0 0 1 0 0 0 1 10 -2 -7 2.5 0.5 0.5
9 0 1 0 0 0 1 0 0 0 1 10 -2 7 2.5 0.5 0.5
9 0 1 0 0 0 1 0 0 0 1 10 -2 13 2.5 0.5 0.5
9 0 1 0 0 0 1 0 0 0 1 10 -2 27 2.5 0.5 0.5
9 0 1 0 0 0 1 0 0 0 1 10 -2 33 2.5 0.5 0.5
9 0 1 0 0 0 1 0 0 0 1 10 -2 47 2.5 0.5 0.5
9 0 1 0 0 0 1 0 0 0 1 10 -2 53 2.5 0.5 0.5
9 0 1 0 0 0 1 0 0 0 1 10 -2 67 2.5 0.5 0.5
9 0 1 0 0 0 1 0 0 0 1 10 -2 73 2.5 0.5 0.5
9 0 1 0 0 0 1 0 0 0 1 10 -2 87 2.5 0.5 0.5
9 0 1 0 0 0 1 0 0 0 1 10 -2 93 2.5 0.5 0.5
9 0 1 0 0 0 1 0 0 0 1 10 -2 107 2.5 0.5 0.5
9 0 1 0 0 0 1 0 0 0 1 10 -2 113 2.5 0.5 0.5
9 0 1 0 0 0 1 0 0 0 1 0 30 -107 2.5 0.5 0.5
9 0 1 0 0 0 1 0 0 0 1 0 24 -114 2.5 0.5 0.5
9 0 1 0 0 0 1 0 0 0 1 0 19 -120 2.5 0.5 0.5
9 0 1 0 0 0 1 0 0 0 1 -3 44 -95 0.5 0.5 2.5
9 0 1 0 0 0 1 0 0 0 1 -3 44 -49 0.5 0.5 2.5
9 0 1 0 0 0 1 0 0 0 1 -6 47 -91 0.5 0.5 2.5
9 0 1 0 0 0 1 0 0 0 1 -6 47 -45 0.5 0.5 2.5
9 0 1 0 0 0 1 0 0 0 1 -7 10 -122 0.5 2.5 0.5
9 0 1 0 0 0 1 0 0 0 1 -7 29 -105 2.5 0.5 0.5
9 0 1 0 0 0 1 0 0 0 1 -10 -2 -13 2.5 0.5 0.5
9 0 1 0 0 0 1 0 0 0 1 -10 -2 -7 2.5 0.5 0.5
9 0 1 0 0 0 1 0 0 0 1 -10 -2 7 2.5 0.5 0.5
9 0 1 0 0 0 1 0 0 0 1 -10 -2 13 2.5 0.5 0.5
9 0 1 0 0 0 1 0 0 0 1 -10 -2 27 2.5 0.5 0.5
9 0 1 0 0 0 1 0 0 0 1 -10 -2 33 2.5 0.5 0.5
9 0 1 0 0 0 1 0 0 0 1 -10 -2 47 2.5 0.5 0.5
9 0 1 0 0 0 1 0 0 0 1 -10 -2 53 2.5 0.5 0.5
9 0 1 0 0 0 1 0 0 0 1 -10 -2 67 2.5 0.5 0.5
9 0 1 0 0 0 1 0 0 0 1 -10 -2 73 2.5 0.5 0.5
9 0 1 0 0 0 1 0 0 0 1 -10 -2 87 2.5 0.5 0.5
9 0 1 0 0 0 1 0 0 0 1 -10 -2 93 2.5 0.5 0.5
9 0 1 0 0 0 1 0 0 0 1 -10 -2 107 2.5 0.5 0.5
9 0 1 0 0 0 1 0 0 0 1 -10 -2 113 2.5 0.5 0.5
9 0 1 0 0 0 1 0 0 0 1 -14 47 -95 0.5 0.5 2.5
9 0 1 0 0 0 1 0 0 0 1 -14 47 -49 0.5 0.5 2.5
9 0 1 0 0 0 1 0 0 0 1 -17 44 -91 0.5 0.5 2.5
9 0 1 0 0 0 1 0 0 0 1 -17 44 -45 0.5 0.5 2.5
9 0 1 0 0 0 1 0 0 0 1 -21 24 -37 0.5 2.5 0.5
9 0 1 0 0 0 1 0 0 0 1 -26 24 -32 0.5 2.5 0.5
9 0 1 0 0 0 1 0 0 0 1 -30 35 -24 0.5 0.5 2.5
9 0 1 0 0 0 1 0 0 0 1 -30 24 -28 0.5 2.5 0.5
9 0 1 0 0 0 1 0 0 0 1 -30 13 -24 0.5 0.5 2.5
9 0 1 0 0 0 1 0 0 0 1 -31 24 -27 0.5 2.5 0.5
9 0 1 0 0 0 1 0 0 0 1 35 28.5 -22 0.5 2 0.5
9 0 1 0 0 0 1 0 0 0 1 35 19.5 -22 0.5 2 0.5
9 0 1 0 0 0 1 0 0 0 1 31 34 -23.5 0.5 0.5 2
9 0 1 0 0 0 1 0 0 0 1 22.5 24 -61.5 1 0.5 1
9 0 1 0 0 0 1 0 0 0 1 18 23 -87.5 0.5 0.5 2
9 0 1 0 0 0 1 0 0 0 1 18 23 -52.5 0.5 0.5 2
9 0 1 0 0 0 1 0 0 0 1 18 17 -87.5 0.5 0.5 2
9 0 1 0 0 0 1 0 0 0 1 18 17 -52.5 0.5 0.5 2
9 0 1 0 0 0 1 0 0 0 1 14 22.5 -102.5 0.5 1 1
9 0 1 0 0 0 1 0 0 0 1 13 12 -103.5 0.5 0.5 2
9 0 1 0 0 0 1 0 0 0 1 12 17.5 -109.5 0.5 1 1
9 0 1 0 0 0 1 0 0 0 1 11 10.5 -109.5 0.5 1 1
9 0 1 0 0 0 1 0 0 0 1 10 9.5 -111.5 0.5 1 1
9 0 1 0 0 0 1 0 0 0 1 9.5 30 -102.5 1 0.5 1
9 0 1 0 0 0 1 0 0 0 1 9.5 28.5 -104 1 1 0.5
9 0 1 0 0 0 1 0 0 0 1 9.5 25.5 -107 1 1 0.5
9 0 1 0 0 0 1 0 0 0 1 9.5 24.5 -108 1 1 0.5
9 0 1 0 0 0 1 0 0 0 1 9.5 20.5 -111 1 1 0.5
9 0 1 0 0 0 1 0 0 0 1 7.5 20 -111.5 1 0.5 1
9 0 1 0 0 0 1 0 0 0 1 7.5 15 -102.5 1 0.5 1
9 0 1 0 0 0 1 0 0 0 1 7 13.5 -120.5 0.5 1 1
9 0 1 0 0 0 1 0 0 0 1 4.5 17.5 -120 1 1 0.5
9 0 1 0 0 0 1 0 0 0 1 3 38 -87.5 0.5 0.5 2
9 0 1 0 0 0 1 0 0 0 1 3 38 -52.5 0.5 0.5 2
9 0 1 0 0 0 1 0 0 0 1 4.5 30 -105 2 0.5 0.5
9 0 1 0 0 0 1 0 0 0 1 4.5 25 -111 2 0.5 0.5
9 0 1 0 0 0 1 0 0 0 1 4.5 21 -110 2 0.5 0.5
9 0 1 0 0 0 1 0 0 0 1 4.5 19 -118 2 0.5 0.5
9 0 1 0 0 0 1 0 0 0 1 3 2 -87.5 0.5 0.5 2
9 0 1 0 0 0 1 0 0 0 1 3 2 -52.5 0.5 0.5 2
9 0 1 0 0 0 1 0 0 0 1 3.5 22 -115 2 0.5 0.5
9 0 1 0 0 0 1 0 0 0 1 0.5 31 -106 2 0.5 0.5
9 0 1 0 0 0 1 0 0 0 1 -0.5 26 -112 2 0.5 0.5
9 0 1 0 0 0 1 0 0 0 1 -3 2 -87.5 0.5 0.5 2
9 0 1 0 0 0 1 0 0 0 1 -3 2 -52.5 0.5 0.5 2
9 0 1 0 0 0 1 0 0 0 1 -3.5 19.5 -118 1 1 0.5
9 0 1 0 0 0 1 0 0 0 1 -3.5 18 -120 2 0.5 0.5
9 0 1 0 0 0 1 0 0 0 1 -6.5 27 -107.5 1 0.5 1
9 0 1 0 0 0 1 0 0 0 1 -6.5 21.5 -114 1 1 0.5
9 0 1 0 0 0 1 0 0 0 1 -7 13.5 -120.5 0.5 1 1
9 0 1 0 0 0 1 0 0 0 1 -7.5 24.5 -110 1 1 0.5
9 0 1 0 0 0 1 0 0 0 1 -7.5 20 -114.5 1 0.5 1
9 0 1 0 0 0 1 0 0 0 1 -9 29.5 -102.5 0.5 1 1
9 0 1 0 0 0 1 0 0 0 1 -10 27.5 -104.5 0.5 1 1
9 0 1 0 0 0 1 0 0 0 1 -10 21.5 -110 0.5 2 0.5
9 0 1 0 0 0 1 0 0 0 1 -10 18.5 -112 0.5 2 0.5
9 0 1 0 0 0 1 0 0 0 1 -10 9 -110.5 0.5 0.5 2
9 0 1 0 0 0 1 0 0 0 1 -11 23.5 -107 0.5 2 0.5
9 0 1 0 0 0 1 0 0 0 1 -10.5 20.5 -109 1 1 0.5
9 0 1 0 0 0 1 0 0 0 1 -11 10.5 -109.5 0.5 1 1
9 0 1 0 0 0 1 0 0 0 1 -12 27.5 -102.5 0.5 1 1
9 0 1 0 0 0 1 0 0 0 1 -12 14.5 -111.5 0.5 1 1
9 0 1 0 0 0 1 0 0 0 1 -13 22.5 -104.5 0.5 1 1
9 0 1 0 0 0 1 0 0 0 1 -13 20.5 -105.5 0.5 1 1
9 0 1 0 0 0 1 0 0 0 1 -13 15.5 -109.5 0.5 1 1
9 0 1 0 0 0 1 0 0 0 1 -13 12 -103.5 0.5 0.5 2
9 0 1 0 0 0 1 0 0 0 1 -14 22.5 -102.5 0.5 1 1
9 0 1 0 0 0 1 0 0 0 1 -14 14 -103.5 0.5 0.5 2
9 0 1 0 0 0 1 0 0 0 1 -18 17 -87.5 0.5 0.5 2
9 0 1 0 0 0 1 0 0 0 1 -18 17 -52.5 0.5 0.5 2
9 0 1 0 0 0 1 0 0 0 1 -35 28.5 -22 0.5 2 0.5
9 0 1 0 0 0 1 0 0 0 1 -35 19.5 -22 0.5 2 0.5
9 0 1 0 0 0 1 0 0 0 1 33 32 -23 0.5 0.5 1.5
9 0 1 0 0 0 1 0 0 0 1 32 15 -23 0.5 0.5 1.5
9 0 1 0 0 0 1 0 0 0 1 29 22 -97 1.5 0.5 0.5
9 0 1 0 0 0 1 0 0 0 1 28 12 -27 1.5 0.5 0.5
9 0 1 0 0 0 1 0 0 0 1 26 39 -30 0.5 0.5 1.5
9 0 1 0 0 0 1 0 0 0 1 24 35 109 0.5 1.5 0.5
9 0 1 0 0 0 1 0 0 0 1 24 13 109 0.5 1.5 0.5
9 0 1 0 0 0 1 0 0 0 1 18 22 -81 0.5 0.5 1.5
9 0 1 0 0 0 1 0 0 0 1 18 17 -76 0.5 0.5 1.5
9 0 1 0 0 0 1 0 0 0 1 18 17 -64 0.5 0.5 1.5
9 0 1 0 0 0 1 0 0 0 1 15 21 -102 0.5 1.5 0.5
9 0 1 0 0 0 1 0 0 0 1 14 14 -103 0.5 0.5 1.5
9 0 1 0 0 0 1 0 0 0 1 13 23 -104 0.5 1.5 0.5
9 0 1 0 0 0 1 0 0 0 1 13 19 -107 0.5 1.5 0.5
9 0 1 0 0 0 1 0 0 0 1 12 28 -102 0.5 1.5 0.5
9 0 1 0 0 0 1 0 0 0 1 12 9 -103 0.5 0.5 1.5
9 0 1 0 0 0 1 0 0 0 1 10 19 -112 0.5 1.5 0.5
9 0 1 0 0 0 1 0 0 0 1 9 16 -116 0.5 1.5 0.5
9 0 1 0 0 0 1 0 0 0 1 8 26 -106 0.5 0.5 1.5
9 0 1 0 0 0 1 0 0 0 1 7 17 -118 0.5 1.5 0.5
9 0 1 0 0 0 1 0 0 0 1 7 29 -105 1.5 0.5 0.5
9 0 1 0 0 0 1 0 0 0 1 6 32 -102 1.5 0.5 0.5
9 0 1 0 0 0 1 0 0 0 1 3 38 -76 0.5 0.5 1.5
9 0 1 0 0 0 1 0 0 0 1 3 38 -64 0.5 0.5 1.5
9 0 1 0 0 0 1 0 0 0 1 3 2 -76 0.5 0.5 1.5
9 0 1 0 0 0 1 0 0 0 1 3 2 -64 0.5 0.5 1.5
9 0 1 0 0 0 1 0 0 0 1 2 10 -124 0.5 0.5 1.5
9 0 1 0 0 0 1 0 0 0 1 0 12 -124 0.5 0.5 1.5
9 0 1 0 0 0 1 0 0 0 1 0 8 -124 0.5 0.5 1.5
9 0 1 0 0 0 1 0 0 0 1 0 32 -105 1.5 0.5 0.5
9 0 1 0 0 0 1 0 0 0 1 0 22 -117 1.5 0.5 0.5
9 0 1 0 0 0 1 0 0 0 1 0 10 -126 1.5 0.5 0.5
9 0 1 0 0 0 1 0 0 0 1 -2 10 -124 0.5 0.5 1.5
9 0 1 0 0 0 1 0 0 0 1 -3 2 -76 0.5 0.5 1.5
9 0 1 0 0 0 1 0 0 0 1 -3 2 -64 0.5 0.5 1.5
9 0 1 0 0 0 1 0 0 0 1 -3 24 -113 1.5 0.5 0.5
9 0 1 0 0 0 1 0 0 0 1 -5 31 -103 0.5 0.5 1.5
9 0 1 0 0 0 1 0 0 0 1 -4 21 -116 1.5 0.5 0.5
9 0 1 0 0 0 1 0 0 0 1 -8 17 -117 0.5 1.5 0.5
9 0 1 0 0 0 1 0 0 0 1 -10 16 -114 0.5 1.5 0.5
9 0 1 0 0 0 1 0 0 0 1 -12 9 -103 0.5 0.5 1.5
9 0 1 0 0 0 1 0 0 0 1 -15 21 -102 0.5 1.5 0.5
9 0 1 0 0 0 1 0 0 0 1 -16 19 -102 0.5 1.5 0.5
9 0 1 0 0 0 1 0 0 0 1 -18 17 -76 0.5 0.5 1.5
9 0 1 0 0 0 1 0 0 0 1 -18 17 -64 0.5 0.5 1.5
9 0 1 0 0 0 1 0 0 0 1 -32 33 -23 0.5 0.5 1.5
9 0 1 0 0 0 1 0 0 0 1 -32 15 -23 0.5 0.5 1.5
