9 0 1 0 0 0 1 0 0 0 1 0 2 0 18.5 0.5 28.5
9 0 1 0 0 0 1 0 0 0 1 18 4.5 0 0.5 2 28.5
9 0 1 0 0 0 1 0 0 0 1 -18 4.5 0 0.5 2 28.5
9 0 1 0 0 0 1 0 0 0 1 10 4 31.5 2.5 2.5 3
9 0 1 0 0 0 1 0 0 0 1 -10 4 31.5 2.5 2.5 3
9 0 1 0 0 0 1 0 0 0 1 0 4.5 -28 17.5 2 0.5
9 0 1 0 0 0 1 0 0 0 1 0 4.5 28 17.5 2 0.5
9 0 1 0 0 0 1 0 0 0 1 10 8 40.5 2.5 0.5 2
9 0 1 0 0 0 1 0 0 0 1 10 -4 40.5 2.5 0.5 2
9 0 1 0 0 0 1 0 0 0 1 -10 8 40.5 2.5 0.5 2
9 0 1 0 0 0 1 0 0 0 1 -10 -4 40.5 2.5 0.5 2
9 0 1 0 0 0 1 0 0 0 1 10 6 35 2.5 0.5 0.5
9 0 1 0 0 0 1 0 0 0 1 10 1 34 2.5 0.5 0.5
9 0 1 0 0 0 1 0 0 0 1 -10 6 35 2.5 0.5 0.5
9 0 1 0 0 0 1 0 0 0 1 -10 1 34 2.5 0.5 0.5
