9 0 -1.192093E-07 0 -1 0 1 0 1 0 -1.192093E-07 230 -2 310 3.35 0.5 3.35
9 0 -1.192093E-07 0 -1 0 1 0 1 0 -1.192093E-07 230 -2 290 3.35 0.5 3.35
9 0 -1.192093E-07 0 -1 0 1 0 1 0 -1.192093E-07 250 -2 310 3.35 0.5 3.35
9 0 -1.192093E-07 0 -1 0 1 0 1 0 -1.192093E-07 250 -2 290 3.35 0.5 3.35
9 0 -1.192093E-07 0 -1 0 1 0 1 0 -1.192093E-07 270 -2 310 3.35 0.5 3.35
9 0 -1.192093E-07 0 -1 0 1 0 1 0 -1.192093E-07 270 -2 290 3.35 0.5 3.35
9 0 -1.192093E-07 0 -1 0 1 0 1 0 -1.192093E-07 290 -2 310 3.35 0.5 3.35
9 0 -1.192093E-07 0 -1 0 1 0 1 0 -1.192093E-07 290 -2 290 3.35 0.5 3.35
9 0 -1.192093E-07 0 -1 0 1 0 1 0 -1.192093E-07 270 -2 270 3.35 0.5 3.35
9 0 -1.192093E-07 0 -1 0 1 0 1 0 -1.192093E-07 270 -2 250 3.35 0.5 3.35
9 0 -1.192093E-07 0 -1 0 1 0 1 0 -1.192093E-07 290 -2 270 3.35 0.5 3.35
9 0 -1.192093E-07 0 -1 0 1 0 1 0 -1.192093E-07 290 -2 250 3.35 0.5 3.35
9 0 -1.192093E-07 0 -1 0 1 0 1 0 -1.192093E-07 230 -2 270 3.35 0.5 3.35
9 0 -1.192093E-07 0 -1 0 1 0 1 0 -1.192093E-07 230 -2 250 3.35 0.5 3.35
9 0 -1.192093E-07 0 -1 0 1 0 1 0 -1.192093E-07 250 -2 270 3.35 0.5 3.35
9 0 -1.192093E-07 0 -1 0 1 0 1 0 -1.192093E-07 250 -2 250 3.35 0.5 3.35
9 0 -1.192093E-07 0 -1 0 1 0 1 0 -1.192093E-07 310 -2 310 3.35 0.5 3.35
9 0 -1.192093E-07 0 -1 0 1 0 1 0 -1.192093E-07 310 -2 290 3.35 0.5 3.35
9 0 -1.192093E-07 0 -1 0 1 0 1 0 -1.192093E-07 310 -2 270 3.35 0.5 3.35
9 0 -1.192093E-07 0 -1 0 1 0 1 0 -1.192093E-07 310 -2 250 3.35 0.5 3.35
9 0 -1.192093E-07 0 -1 0 1 0 1 0 -1.192093E-07 230 -2 230 3.35 0.5 3.35
9 0 -1.192093E-07 0 -1 0 1 0 1 0 -1.192093E-07 250 -2 230 3.35 0.5 3.35
9 0 -1.192093E-07 0 -1 0 1 0 1 0 -1.192093E-07 270 -2 230 3.35 0.5 3.35
9 0 -1.192093E-07 0 -1 0 1 0 1 0 -1.192093E-07 290 -2 230 3.35 0.5 3.35
9 0 -1.192093E-07 0 -1 0 1 0 1 0 -1.192093E-07 310 -2 230 3.35 0.5 3.35
9 0 -1.192093E-07 0 -1 0 1 0 1 0 -1.192093E-07 230 -2 210 3.35 0.5 3.35
9 0 -1.192093E-07 0 -1 0 1 0 1 0 -1.192093E-07 230 -2 190 3.35 0.5 3.35
9 0 -1.192093E-07 0 -1 0 1 0 1 0 -1.192093E-07 250 -2 210 3.35 0.5 3.35
9 0 -1.192093E-07 0 -1 0 1 0 1 0 -1.192093E-07 250 -2 190 3.35 0.5 3.35
9 0 -1.192093E-07 0 -1 0 1 0 1 0 -1.192093E-07 270 -2 210 3.35 0.5 3.35
9 0 -1.192093E-07 0 -1 0 1 0 1 0 -1.192093E-07 270 -2 190 3.35 0.5 3.35
9 0 -1.192093E-07 0 -1 0 1 0 1 0 -1.192093E-07 290 -2 210 3.35 0.5 3.35
9 0 -1.192093E-07 0 -1 0 1 0 1 0 -1.192093E-07 290 -2 190 3.35 0.5 3.35
9 0 -1.192093E-07 0 -1 0 1 0 1 0 -1.192093E-07 270 -2 170 3.35 0.5 3.35
9 0 -1.192093E-07 0 -1 0 1 0 1 0 -1.192093E-07 270 -2 150 3.35 0.5 3.35
9 0 -1.192093E-07 0 -1 0 1 0 1 0 -1.192093E-07 290 -2 170 3.35 0.5 3.35
9 0 -1.192093E-07 0 -1 0 1 0 1 0 -1.192093E-07 290 -2 150 3.35 0.5 3.35
9 0 -1.192093E-07 0 -1 0 1 0 1 0 -1.192093E-07 230 -2 170 3.35 0.5 3.35
9 0 -1.192093E-07 0 -1 0 1 0 1 0 -1.192093E-07 230 -2 150 3.35 0.5 3.35
9 0 -1.192093E-07 0 -1 0 1 0 1 0 -1.192093E-07 250 -2 170 3.35 0.5 3.35
9 0 -1.192093E-07 0 -1 0 1 0 1 0 -1.192093E-07 250 -2 150 3.35 0.5 3.35
9 0 -1.192093E-07 0 -1 0 1 0 1 0 -1.192093E-07 310 -2 210 3.35 0.5 3.35
9 0 -1.192093E-07 0 -1 0 1 0 1 0 -1.192093E-07 310 -2 190 3.35 0.5 3.35
9 0 -1.192093E-07 0 -1 0 1 0 1 0 -1.192093E-07 310 -2 170 3.35 0.5 3.35
9 0 -1.192093E-07 0 -1 0 1 0 1 0 -1.192093E-07 310 -2 150 3.35 0.5 3.35
9 0 -1.192093E-07 0 -1 0 1 0 1 0 -1.192093E-07 230 -2 130 3.35 0.5 3.35
9 0 -1.192093E-07 0 -1 0 1 0 1 0 -1.192093E-07 250 -2 130 3.35 0.5 3.35
9 0 -1.192093E-07 0 -1 0 1 0 1 0 -1.192093E-07 270 -2 130 3.35 0.5 3.35
9 0 -1.192093E-07 0 -1 0 1 0 1 0 -1.192093E-07 290 -2 130 3.35 0.5 3.35
9 0 -1.192093E-07 0 -1 0 1 0 1 0 -1.192093E-07 310 -2 130 3.35 0.5 3.35
9 0 -1.192093E-07 0 -1 0 1 0 1 0 -1.192093E-07 230 -2 110 3.35 0.5 3.35
9 0 -1.192093E-07 0 -1 0 1 0 1 0 -1.192093E-07 230 -2 90 3.35 0.5 3.35
9 0 -1.192093E-07 0 -1 0 1 0 1 0 -1.192093E-07 250 -2 110 3.35 0.5 3.35
9 0 -1.192093E-07 0 -1 0 1 0 1 0 -1.192093E-07 250 -2 90 3.35 0.5 3.35
9 0 -1.192093E-07 0 -1 0 1 0 1 0 -1.192093E-07 270 -2 110 3.35 0.5 3.35
9 0 -1.192093E-07 0 -1 0 1 0 1 0 -1.192093E-07 270 -2 90 3.35 0.5 3.35
9 0 -1.192093E-07 0 -1 0 1 0 1 0 -1.192093E-07 290 -2 110 3.35 0.5 3.35
9 0 -1.192093E-07 0 -1 0 1 0 1 0 -1.192093E-07 290 -2 90 3.35 0.5 3.35
9 0 -1.192093E-07 0 -1 0 1 0 1 0 -1.192093E-07 270 -2 70 3.35 0.5 3.35
9 0 -1.192093E-07 0 -1 0 1 0 1 0 -1.192093E-07 270 -2 50 3.35 0.5 3.35
9 0 -1.192093E-07 0 -1 0 1 0 1 0 -1.192093E-07 290 -2 70 3.35 0.5 3.35
9 0 -1.192093E-07 0 -1 0 1 0 1 0 -1.192093E-07 290 -2 50 3.35 0.5 3.35
9 0 -1.192093E-07 0 -1 0 1 0 1 0 -1.192093E-07 230 -2 70 3.35 0.5 3.35
9 0 -1.192093E-07 0 -1 0 1 0 1 0 -1.192093E-07 230 -2 50 3.35 0.5 3.35
9 0 -1.192093E-07 0 -1 0 1 0 1 0 -1.192093E-07 250 -2 70 3.35 0.5 3.35
9 0 -1.192093E-07 0 -1 0 1 0 1 0 -1.192093E-07 250 -2 50 3.35 0.5 3.35
9 0 -1.192093E-07 0 -1 0 1 0 1 0 -1.192093E-07 310 -2 110 3.35 0.5 3.35
9 0 -1.192093E-07 0 -1 0 1 0 1 0 -1.192093E-07 310 -2 90 3.35 0.5 3.35
9 0 -1.192093E-07 0 -1 0 1 0 1 0 -1.192093E-07 310 -2 70 3.35 0.5 3.35
9 0 -1.192093E-07 0 -1 0 1 0 1 0 -1.192093E-07 310 -2 50 3.35 0.5 3.35
9 0 -1.192093E-07 0 -1 0 1 0 1 0 -1.192093E-07 230 -2 30 3.35 0.5 3.35
9 0 -1.192093E-07 0 -1 0 1 0 1 0 -1.192093E-07 250 -2 30 3.35 0.5 3.35
9 0 -1.192093E-07 0 -1 0 1 0 1 0 -1.192093E-07 270 -2 30 3.35 0.5 3.35
9 0 -1.192093E-07 0 -1 0 1 0 1 0 -1.192093E-07 290 -2 30 3.35 0.5 3.35
9 0 -1.192093E-07 0 -1 0 1 0 1 0 -1.192093E-07 310 -2 30 3.35 0.5 3.35
9 0 -1.192093E-07 0 -1 0 1 0 1 0 -1.192093E-07 -310 -2 270 3.35 0.5 3.35
9 0 -1.192093E-07 0 -1 0 1 0 1 0 -1.192093E-07 -290 -2 270 3.35 0.5 3.35
9 0 -1.192093E-07 0 -1 0 1 0 1 0 -1.192093E-07 -270 -2 270 3.35 0.5 3.35
9 0 -1.192093E-07 0 -1 0 1 0 1 0 -1.192093E-07 -310 -2 250 3.35 0.5 3.35
9 0 -1.192093E-07 0 -1 0 1 0 1 0 -1.192093E-07 -290 -2 250 3.35 0.5 3.35
9 0 -1.192093E-07 0 -1 0 1 0 1 0 -1.192093E-07 -270 -2 250 3.35 0.5 3.35
9 0 -1.192093E-07 0 -1 0 1 0 1 0 -1.192093E-07 -310 -2 230 3.35 0.5 3.35
9 0 -1.192093E-07 0 -1 0 1 0 1 0 -1.192093E-07 -290 -2 230 3.35 0.5 3.35
9 0 -1.192093E-07 0 -1 0 1 0 1 0 -1.192093E-07 -270 -2 230 3.35 0.5 3.35
9 0 -1.192093E-07 0 -1 0 1 0 1 0 -1.192093E-07 -250 -2 270 3.35 0.5 3.35
9 0 -1.192093E-07 0 -1 0 1 0 1 0 -1.192093E-07 -230 -2 270 3.35 0.5 3.35
9 0 -1.192093E-07 0 -1 0 1 0 1 0 -1.192093E-07 -210 -2 270 3.35 0.5 3.35
9 0 -1.192093E-07 0 -1 0 1 0 1 0 -1.192093E-07 -250 -2 250 3.35 0.5 3.35
9 0 -1.192093E-07 0 -1 0 1 0 1 0 -1.192093E-07 -230 -2 250 3.35 0.5 3.35
9 0 -1.192093E-07 0 -1 0 1 0 1 0 -1.192093E-07 -210 -2 250 3.35 0.5 3.35
9 0 -1.192093E-07 0 -1 0 1 0 1 0 -1.192093E-07 -250 -2 230 3.35 0.5 3.35
9 0 -1.192093E-07 0 -1 0 1 0 1 0 -1.192093E-07 -230 -2 230 3.35 0.5 3.35
9 0 -1.192093E-07 0 -1 0 1 0 1 0 -1.192093E-07 -210 -2 230 3.35 0.5 3.35
9 0 -1.192093E-07 0 -1 0 1 0 1 0 -1.192093E-07 -250 -2 210 3.35 0.5 3.35
9 0 -1.192093E-07 0 -1 0 1 0 1 0 -1.192093E-07 -230 -2 210 3.35 0.5 3.35
9 0 -1.192093E-07 0 -1 0 1 0 1 0 -1.192093E-07 -210 -2 210 3.35 0.5 3.35
9 0 -1.192093E-07 0 -1 0 1 0 1 0 -1.192093E-07 -250 -2 190 3.35 0.5 3.35
9 0 -1.192093E-07 0 -1 0 1 0 1 0 -1.192093E-07 -230 -2 190 3.35 0.5 3.35
9 0 -1.192093E-07 0 -1 0 1 0 1 0 -1.192093E-07 -210 -2 190 3.35 0.5 3.35
9 0 -1.192093E-07 0 -1 0 1 0 1 0 -1.192093E-07 -250 -2 170 3.35 0.5 3.35
9 0 -1.192093E-07 0 -1 0 1 0 1 0 -1.192093E-07 -230 -2 170 3.35 0.5 3.35
9 0 -1.192093E-07 0 -1 0 1 0 1 0 -1.192093E-07 -210 -2 170 3.35 0.5 3.35
9 0 -1.192093E-07 0 -1 0 1 0 1 0 -1.192093E-07 -310 -2 210 3.35 0.5 3.35
9 0 -1.192093E-07 0 -1 0 1 0 1 0 -1.192093E-07 -290 -2 210 3.35 0.5 3.35
9 0 -1.192093E-07 0 -1 0 1 0 1 0 -1.192093E-07 -270 -2 210 3.35 0.5 3.35
9 0 -1.192093E-07 0 -1 0 1 0 1 0 -1.192093E-07 -310 -2 190 3.35 0.5 3.35
9 0 -1.192093E-07 0 -1 0 1 0 1 0 -1.192093E-07 -290 -2 190 3.35 0.5 3.35
9 0 -1.192093E-07 0 -1 0 1 0 1 0 -1.192093E-07 -270 -2 190 3.35 0.5 3.35
9 0 -1.192093E-07 0 -1 0 1 0 1 0 -1.192093E-07 -310 -2 170 3.35 0.5 3.35
9 0 -1.192093E-07 0 -1 0 1 0 1 0 -1.192093E-07 -290 -2 170 3.35 0.5 3.35
9 0 -1.192093E-07 0 -1 0 1 0 1 0 -1.192093E-07 -270 -2 170 3.35 0.5 3.35
9 0 -1.192093E-07 0 -1 0 1 0 1 0 -1.192093E-07 -190 -2 270 3.35 0.5 3.35
9 0 -1.192093E-07 0 -1 0 1 0 1 0 -1.192093E-07 -170 -2 270 3.35 0.5 3.35
9 0 -1.192093E-07 0 -1 0 1 0 1 0 -1.192093E-07 -150 -2 270 3.35 0.5 3.35
9 0 -1.192093E-07 0 -1 0 1 0 1 0 -1.192093E-07 -190 -2 250 3.35 0.5 3.35
9 0 -1.192093E-07 0 -1 0 1 0 1 0 -1.192093E-07 -170 -2 250 3.35 0.5 3.35
9 0 -1.192093E-07 0 -1 0 1 0 1 0 -1.192093E-07 -150 -2 250 3.35 0.5 3.35
9 0 -1.192093E-07 0 -1 0 1 0 1 0 -1.192093E-07 -190 -2 230 3.35 0.5 3.35
9 0 -1.192093E-07 0 -1 0 1 0 1 0 -1.192093E-07 -170 -2 230 3.35 0.5 3.35
9 0 -1.192093E-07 0 -1 0 1 0 1 0 -1.192093E-07 -150 -2 230 3.35 0.5 3.35
9 0 -1.192093E-07 0 -1 0 1 0 1 0 -1.192093E-07 -190 -2 210 3.35 0.5 3.35
9 0 -1.192093E-07 0 -1 0 1 0 1 0 -1.192093E-07 -170 -2 210 3.35 0.5 3.35
9 0 -1.192093E-07 0 -1 0 1 0 1 0 -1.192093E-07 -150 -2 210 3.35 0.5 3.35
9 0 -1.192093E-07 0 -1 0 1 0 1 0 -1.192093E-07 -190 -2 190 3.35 0.5 3.35
9 0 -1.192093E-07 0 -1 0 1 0 1 0 -1.192093E-07 -170 -2 190 3.35 0.5 3.35
9 0 -1.192093E-07 0 -1 0 1 0 1 0 -1.192093E-07 -150 -2 190 3.35 0.5 3.35
9 0 -1.192093E-07 0 -1 0 1 0 1 0 -1.192093E-07 -190 -2 170 3.35 0.5 3.35
9 0 -1.192093E-07 0 -1 0 1 0 1 0 -1.192093E-07 -170 -2 170 3.35 0.5 3.35
9 0 -1.192093E-07 0 -1 0 1 0 1 0 -1.192093E-07 -150 -2 170 3.35 0.5 3.35
9 0 -1.192093E-07 0 -1 0 1 0 1 0 -1.192093E-07 -190 -2 150 3.35 0.5 3.35
9 0 -1.192093E-07 0 -1 0 1 0 1 0 -1.192093E-07 -170 -2 150 3.35 0.5 3.35
9 0 -1.192093E-07 0 -1 0 1 0 1 0 -1.192093E-07 -150 -2 150 3.35 0.5 3.35
9 0 -1.192093E-07 0 -1 0 1 0 1 0 -1.192093E-07 -190 -2 130 3.35 0.5 3.35
9 0 -1.192093E-07 0 -1 0 1 0 1 0 -1.192093E-07 -170 -2 130 3.35 0.5 3.35
9 0 -1.192093E-07 0 -1 0 1 0 1 0 -1.192093E-07 -150 -2 130 3.35 0.5 3.35
9 0 -1.192093E-07 0 -1 0 1 0 1 0 -1.192093E-07 -190 -2 110 3.35 0.5 3.35
9 0 -1.192093E-07 0 -1 0 1 0 1 0 -1.192093E-07 -170 -2 110 3.35 0.5 3.35
9 0 -1.192093E-07 0 -1 0 1 0 1 0 -1.192093E-07 -150 -2 110 3.35 0.5 3.35
9 0 -1.192093E-07 0 -1 0 1 0 1 0 -1.192093E-07 -310 -2 150 3.35 0.5 3.35
9 0 -1.192093E-07 0 -1 0 1 0 1 0 -1.192093E-07 -290 -2 150 3.35 0.5 3.35
9 0 -1.192093E-07 0 -1 0 1 0 1 0 -1.192093E-07 -270 -2 150 3.35 0.5 3.35
9 0 -1.192093E-07 0 -1 0 1 0 1 0 -1.192093E-07 -310 -2 130 3.35 0.5 3.35
9 0 -1.192093E-07 0 -1 0 1 0 1 0 -1.192093E-07 -290 -2 130 3.35 0.5 3.35
9 0 -1.192093E-07 0 -1 0 1 0 1 0 -1.192093E-07 -270 -2 130 3.35 0.5 3.35
9 0 -1.192093E-07 0 -1 0 1 0 1 0 -1.192093E-07 -310 -2 110 3.35 0.5 3.35
9 0 -1.192093E-07 0 -1 0 1 0 1 0 -1.192093E-07 -290 -2 110 3.35 0.5 3.35
9 0 -1.192093E-07 0 -1 0 1 0 1 0 -1.192093E-07 -270 -2 110 3.35 0.5 3.35
9 0 -1.192093E-07 0 -1 0 1 0 1 0 -1.192093E-07 -250 -2 150 3.35 0.5 3.35
9 0 -1.192093E-07 0 -1 0 1 0 1 0 -1.192093E-07 -230 -2 150 3.35 0.5 3.35
9 0 -1.192093E-07 0 -1 0 1 0 1 0 -1.192093E-07 -210 -2 150 3.35 0.5 3.35
9 0 -1.192093E-07 0 -1 0 1 0 1 0 -1.192093E-07 -250 -2 130 3.35 0.5 3.35
9 0 -1.192093E-07 0 -1 0 1 0 1 0 -1.192093E-07 -230 -2 130 3.35 0.5 3.35
9 0 -1.192093E-07 0 -1 0 1 0 1 0 -1.192093E-07 -210 -2 130 3.35 0.5 3.35
9 0 -1.192093E-07 0 -1 0 1 0 1 0 -1.192093E-07 -250 -2 110 3.35 0.5 3.35
9 0 -1.192093E-07 0 -1 0 1 0 1 0 -1.192093E-07 -230 -2 110 3.35 0.5 3.35
9 0 -1.192093E-07 0 -1 0 1 0 1 0 -1.192093E-07 -210 -2 110 3.35 0.5 3.35
9 0 -1.192093E-07 0 -1 0 1 0 1 0 -1.192093E-07 -310 -2 -110 3.35 0.5 3.35
9 0 -1.192093E-07 0 -1 0 1 0 1 0 -1.192093E-07 -290 -2 -110 3.35 0.5 3.35
9 0 -1.192093E-07 0 -1 0 1 0 1 0 -1.192093E-07 -270 -2 -110 3.35 0.5 3.35
9 0 -1.192093E-07 0 -1 0 1 0 1 0 -1.192093E-07 -310 -2 -130 3.35 0.5 3.35
9 0 -1.192093E-07 0 -1 0 1 0 1 0 -1.192093E-07 -290 -2 -130 3.35 0.5 3.35
9 0 -1.192093E-07 0 -1 0 1 0 1 0 -1.192093E-07 -270 -2 -130 3.35 0.5 3.35
9 0 -1.192093E-07 0 -1 0 1 0 1 0 -1.192093E-07 -310 -2 -150 3.35 0.5 3.35
9 0 -1.192093E-07 0 -1 0 1 0 1 0 -1.192093E-07 -290 -2 -150 3.35 0.5 3.35
9 0 -1.192093E-07 0 -1 0 1 0 1 0 -1.192093E-07 -270 -2 -150 3.35 0.5 3.35
9 0 -1.192093E-07 0 -1 0 1 0 1 0 -1.192093E-07 -250 -2 -110 3.35 0.5 3.35
9 0 -1.192093E-07 0 -1 0 1 0 1 0 -1.192093E-07 -230 -2 -110 3.35 0.5 3.35
9 0 -1.192093E-07 0 -1 0 1 0 1 0 -1.192093E-07 -210 -2 -110 3.35 0.5 3.35
9 0 -1.192093E-07 0 -1 0 1 0 1 0 -1.192093E-07 -250 -2 -130 3.35 0.5 3.35
9 0 -1.192093E-07 0 -1 0 1 0 1 0 -1.192093E-07 -230 -2 -130 3.35 0.5 3.35
9 0 -1.192093E-07 0 -1 0 1 0 1 0 -1.192093E-07 -210 -2 -130 3.35 0.5 3.35
9 0 -1.192093E-07 0 -1 0 1 0 1 0 -1.192093E-07 -250 -2 -150 3.35 0.5 3.35
9 0 -1.192093E-07 0 -1 0 1 0 1 0 -1.192093E-07 -230 -2 -150 3.35 0.5 3.35
9 0 -1.192093E-07 0 -1 0 1 0 1 0 -1.192093E-07 -210 -2 -150 3.35 0.5 3.35
9 0 -1.192093E-07 0 -1 0 1 0 1 0 -1.192093E-07 -250 -2 -170 3.35 0.5 3.35
9 0 -1.192093E-07 0 -1 0 1 0 1 0 -1.192093E-07 -230 -2 -170 3.35 0.5 3.35
9 0 -1.192093E-07 0 -1 0 1 0 1 0 -1.192093E-07 -210 -2 -170 3.35 0.5 3.35
9 0 -1.192093E-07 0 -1 0 1 0 1 0 -1.192093E-07 -250 -2 -190 3.35 0.5 3.35
9 0 -1.192093E-07 0 -1 0 1 0 1 0 -1.192093E-07 -230 -2 -190 3.35 0.5 3.35
9 0 -1.192093E-07 0 -1 0 1 0 1 0 -1.192093E-07 -210 -2 -190 3.35 0.5 3.35
9 0 -1.192093E-07 0 -1 0 1 0 1 0 -1.192093E-07 -250 -2 -210 3.35 0.5 3.35
9 0 -1.192093E-07 0 -1 0 1 0 1 0 -1.192093E-07 -230 -2 -210 3.35 0.5 3.35
9 0 -1.192093E-07 0 -1 0 1 0 1 0 -1.192093E-07 -210 -2 -210 3.35 0.5 3.35
9 0 -1.192093E-07 0 -1 0 1 0 1 0 -1.192093E-07 -310 -2 -170 3.35 0.5 3.35
9 0 -1.192093E-07 0 -1 0 1 0 1 0 -1.192093E-07 -290 -2 -170 3.35 0.5 3.35
9 0 -1.192093E-07 0 -1 0 1 0 1 0 -1.192093E-07 -270 -2 -170 3.35 0.5 3.35
9 0 -1.192093E-07 0 -1 0 1 0 1 0 -1.192093E-07 -310 -2 -190 3.35 0.5 3.35
9 0 -1.192093E-07 0 -1 0 1 0 1 0 -1.192093E-07 -290 -2 -190 3.35 0.5 3.35
9 0 -1.192093E-07 0 -1 0 1 0 1 0 -1.192093E-07 -270 -2 -190 3.35 0.5 3.35
9 0 -1.192093E-07 0 -1 0 1 0 1 0 -1.192093E-07 -310 -2 -210 3.35 0.5 3.35
9 0 -1.192093E-07 0 -1 0 1 0 1 0 -1.192093E-07 -290 -2 -210 3.35 0.5 3.35
9 0 -1.192093E-07 0 -1 0 1 0 1 0 -1.192093E-07 -270 -2 -210 3.35 0.5 3.35
9 0 -1.192093E-07 0 -1 0 1 0 1 0 -1.192093E-07 -190 -2 -110 3.35 0.5 3.35
9 0 -1.192093E-07 0 -1 0 1 0 1 0 -1.192093E-07 -170 -2 -110 3.35 0.5 3.35
9 0 -1.192093E-07 0 -1 0 1 0 1 0 -1.192093E-07 -150 -2 -110 3.35 0.5 3.35
9 0 -1.192093E-07 0 -1 0 1 0 1 0 -1.192093E-07 -190 -2 -130 3.35 0.5 3.35
9 0 -1.192093E-07 0 -1 0 1 0 1 0 -1.192093E-07 -170 -2 -130 3.35 0.5 3.35
9 0 -1.192093E-07 0 -1 0 1 0 1 0 -1.192093E-07 -150 -2 -130 3.35 0.5 3.35
9 0 -1.192093E-07 0 -1 0 1 0 1 0 -1.192093E-07 -190 -2 -150 3.35 0.5 3.35
9 0 -1.192093E-07 0 -1 0 1 0 1 0 -1.192093E-07 -170 -2 -150 3.35 0.5 3.35
9 0 -1.192093E-07 0 -1 0 1 0 1 0 -1.192093E-07 -150 -2 -150 3.35 0.5 3.35
9 0 -1.192093E-07 0 -1 0 1 0 1 0 -1.192093E-07 -190 -2 -170 3.35 0.5 3.35
9 0 -1.192093E-07 0 -1 0 1 0 1 0 -1.192093E-07 -170 -2 -170 3.35 0.5 3.35
9 0 -1.192093E-07 0 -1 0 1 0 1 0 -1.192093E-07 -150 -2 -170 3.35 0.5 3.35
9 0 -1.192093E-07 0 -1 0 1 0 1 0 -1.192093E-07 -190 -2 -190 3.35 0.5 3.35
9 0 -1.192093E-07 0 -1 0 1 0 1 0 -1.192093E-07 -170 -2 -190 3.35 0.5 3.35
9 0 -1.192093E-07 0 -1 0 1 0 1 0 -1.192093E-07 -150 -2 -190 3.35 0.5 3.35
9 0 -1.192093E-07 0 -1 0 1 0 1 0 -1.192093E-07 -190 -2 -210 3.35 0.5 3.35
9 0 -1.192093E-07 0 -1 0 1 0 1 0 -1.192093E-07 -170 -2 -210 3.35 0.5 3.35
9 0 -1.192093E-07 0 -1 0 1 0 1 0 -1.192093E-07 -150 -2 -210 3.35 0.5 3.35
9 0 -1.192093E-07 0 -1 0 1 0 1 0 -1.192093E-07 -190 -2 -230 3.35 0.5 3.35
9 0 -1.192093E-07 0 -1 0 1 0 1 0 -1.192093E-07 -170 -2 -230 3.35 0.5 3.35
9 0 -1.192093E-07 0 -1 0 1 0 1 0 -1.192093E-07 -150 -2 -230 3.35 0.5 3.35
9 0 -1.192093E-07 0 -1 0 1 0 1 0 -1.192093E-07 -190 -2 -250 3.35 0.5 3.35
9 0 -1.192093E-07 0 -1 0 1 0 1 0 -1.192093E-07 -170 -2 -250 3.35 0.5 3.35
9 0 -1.192093E-07 0 -1 0 1 0 1 0 -1.192093E-07 -150 -2 -250 3.35 0.5 3.35
9 0 -1.192093E-07 0 -1 0 1 0 1 0 -1.192093E-07 -190 -2 -270 3.35 0.5 3.35
9 0 -1.192093E-07 0 -1 0 1 0 1 0 -1.192093E-07 -170 -2 -270 3.35 0.5 3.35
9 0 -1.192093E-07 0 -1 0 1 0 1 0 -1.192093E-07 -150 -2 -270 3.35 0.5 3.35
9 0 -1.192093E-07 0 -1 0 1 0 1 0 -1.192093E-07 -310 -2 -230 3.35 0.5 3.35
9 0 -1.192093E-07 0 -1 0 1 0 1 0 -1.192093E-07 -290 -2 -230 3.35 0.5 3.35
9 0 -1.192093E-07 0 -1 0 1 0 1 0 -1.192093E-07 -270 -2 -230 3.35 0.5 3.35
9 0 -1.192093E-07 0 -1 0 1 0 1 0 -1.192093E-07 -310 -2 -250 3.35 0.5 3.35
9 0 -1.192093E-07 0 -1 0 1 0 1 0 -1.192093E-07 -290 -2 -250 3.35 0.5 3.35
9 0 -1.192093E-07 0 -1 0 1 0 1 0 -1.192093E-07 -270 -2 -250 3.35 0.5 3.35
9 0 -1.192093E-07 0 -1 0 1 0 1 0 -1.192093E-07 -310 -2 -270 3.35 0.5 3.35
9 0 -1.192093E-07 0 -1 0 1 0 1 0 -1.192093E-07 -290 -2 -270 3.35 0.5 3.35
9 0 -1.192093E-07 0 -1 0 1 0 1 0 -1.192093E-07 -270 -2 -270 3.35 0.5 3.35
9 0 -1.192093E-07 0 -1 0 1 0 1 0 -1.192093E-07 -250 -2 -230 3.35 0.5 3.35
9 0 -1.192093E-07 0 -1 0 1 0 1 0 -1.192093E-07 -230 -2 -230 3.35 0.5 3.35
9 0 -1.192093E-07 0 -1 0 1 0 1 0 -1.192093E-07 -210 -2 -230 3.35 0.5 3.35
9 0 -1.192093E-07 0 -1 0 1 0 1 0 -1.192093E-07 -250 -2 -250 3.35 0.5 3.35
9 0 -1.192093E-07 0 -1 0 1 0 1 0 -1.192093E-07 -230 -2 -250 3.35 0.5 3.35
9 0 -1.192093E-07 0 -1 0 1 0 1 0 -1.192093E-07 -210 -2 -250 3.35 0.5 3.35
9 0 -1.192093E-07 0 -1 0 1 0 1 0 -1.192093E-07 -250 -2 -270 3.35 0.5 3.35
9 0 -1.192093E-07 0 -1 0 1 0 1 0 -1.192093E-07 -230 -2 -270 3.35 0.5 3.35
9 0 -1.192093E-07 0 -1 0 1 0 1 0 -1.192093E-07 -210 -2 -270 3.35 0.5 3.35
9 0 -1.192093E-07 0 -1 0 1 0 1 0 -1.192093E-07 -310 -2 90 3.35 0.5 3.35
9 0 -1.192093E-07 0 -1 0 1 0 1 0 -1.192093E-07 -290 -2 90 3.35 0.5 3.35
9 0 -1.192093E-07 0 -1 0 1 0 1 0 -1.192093E-07 -270 -2 90 3.35 0.5 3.35
9 0 -1.192093E-07 0 -1 0 1 0 1 0 -1.192093E-07 -310 -2 70 3.35 0.5 3.35
9 0 -1.192093E-07 0 -1 0 1 0 1 0 -1.192093E-07 -290 -2 70 3.35 0.5 3.35
9 0 -1.192093E-07 0 -1 0 1 0 1 0 -1.192093E-07 -270 -2 70 3.35 0.5 3.35
9 0 -1.192093E-07 0 -1 0 1 0 1 0 -1.192093E-07 -310 -2 50 3.35 0.5 3.35
9 0 -1.192093E-07 0 -1 0 1 0 1 0 -1.192093E-07 -290 -2 50 3.35 0.5 3.35
9 0 -1.192093E-07 0 -1 0 1 0 1 0 -1.192093E-07 -270 -2 50 3.35 0.5 3.35
9 0 -1.192093E-07 0 -1 0 1 0 1 0 -1.192093E-07 -250 -2 90 3.35 0.5 3.35
9 0 -1.192093E-07 0 -1 0 1 0 1 0 -1.192093E-07 -230 -2 90 3.35 0.5 3.35
9 0 -1.192093E-07 0 -1 0 1 0 1 0 -1.192093E-07 -210 -2 90 3.35 0.5 3.35
9 0 -1.192093E-07 0 -1 0 1 0 1 0 -1.192093E-07 -250 -2 70 3.35 0.5 3.35
9 0 -1.192093E-07 0 -1 0 1 0 1 0 -1.192093E-07 -230 -2 70 3.35 0.5 3.35
9 0 -1.192093E-07 0 -1 0 1 0 1 0 -1.192093E-07 -210 -2 70 3.35 0.5 3.35
9 0 -1.192093E-07 0 -1 0 1 0 1 0 -1.192093E-07 -250 -2 50 3.35 0.5 3.35
9 0 -1.192093E-07 0 -1 0 1 0 1 0 -1.192093E-07 -230 -2 50 3.35 0.5 3.35
9 0 -1.192093E-07 0 -1 0 1 0 1 0 -1.192093E-07 -210 -2 50 3.35 0.5 3.35
9 0 -1.192093E-07 0 -1 0 1 0 1 0 -1.192093E-07 -250 -2 30 3.35 0.5 3.35
9 0 -1.192093E-07 0 -1 0 1 0 1 0 -1.192093E-07 -230 -2 30 3.35 0.5 3.35
9 0 -1.192093E-07 0 -1 0 1 0 1 0 -1.192093E-07 -210 -2 30 3.35 0.5 3.35
9 0 -1.192093E-07 0 -1 0 1 0 1 0 -1.192093E-07 -250 -2 10 3.35 0.5 3.35
9 0 -1.192093E-07 0 -1 0 1 0 1 0 -1.192093E-07 -230 -2 10 3.35 0.5 3.35
9 0 -1.192093E-07 0 -1 0 1 0 1 0 -1.192093E-07 -210 -2 10 3.35 0.5 3.35
9 0 -1.192093E-07 0 -1 0 1 0 1 0 -1.192093E-07 -250 -2 -10 3.35 0.5 3.35
9 0 -1.192093E-07 0 -1 0 1 0 1 0 -1.192093E-07 -230 -2 -10 3.35 0.5 3.35
9 0 -1.192093E-07 0 -1 0 1 0 1 0 -1.192093E-07 -210 -2 -10 3.35 0.5 3.35
9 0 -1.192093E-07 0 -1 0 1 0 1 0 -1.192093E-07 -310 -2 30 3.35 0.5 3.35
9 0 -1.192093E-07 0 -1 0 1 0 1 0 -1.192093E-07 -290 -2 30 3.35 0.5 3.35
9 0 -1.192093E-07 0 -1 0 1 0 1 0 -1.192093E-07 -270 -2 30 3.35 0.5 3.35
9 0 -1.192093E-07 0 -1 0 1 0 1 0 -1.192093E-07 -310 -2 10 3.35 0.5 3.35
9 0 -1.192093E-07 0 -1 0 1 0 1 0 -1.192093E-07 -290 -2 10 3.35 0.5 3.35
9 0 -1.192093E-07 0 -1 0 1 0 1 0 -1.192093E-07 -270 -2 10 3.35 0.5 3.35
9 0 -1.192093E-07 0 -1 0 1 0 1 0 -1.192093E-07 -310 -2 -10 3.35 0.5 3.35
9 0 -1.192093E-07 0 -1 0 1 0 1 0 -1.192093E-07 -290 -2 -10 3.35 0.5 3.35
9 0 -1.192093E-07 0 -1 0 1 0 1 0 -1.192093E-07 -270 -2 -10 3.35 0.5 3.35
9 0 -1.192093E-07 0 -1 0 1 0 1 0 -1.192093E-07 -190 -2 90 3.35 0.5 3.35
9 0 -1.192093E-07 0 -1 0 1 0 1 0 -1.192093E-07 -170 -2 90 3.35 0.5 3.35
9 0 -1.192093E-07 0 -1 0 1 0 1 0 -1.192093E-07 -150 -2 90 3.35 0.5 3.35
9 0 -1.192093E-07 0 -1 0 1 0 1 0 -1.192093E-07 -190 -2 70 3.35 0.5 3.35
9 0 -1.192093E-07 0 -1 0 1 0 1 0 -1.192093E-07 -170 -2 70 3.35 0.5 3.35
9 0 -1.192093E-07 0 -1 0 1 0 1 0 -1.192093E-07 -150 -2 70 3.35 0.5 3.35
9 0 -1.192093E-07 0 -1 0 1 0 1 0 -1.192093E-07 -190 -2 50 3.35 0.5 3.35
9 0 -1.192093E-07 0 -1 0 1 0 1 0 -1.192093E-07 -170 -2 50 3.35 0.5 3.35
9 0 -1.192093E-07 0 -1 0 1 0 1 0 -1.192093E-07 -150 -2 50 3.35 0.5 3.35
9 0 -1.192093E-07 0 -1 0 1 0 1 0 -1.192093E-07 -190 -2 30 3.35 0.5 3.35
9 0 -1.192093E-07 0 -1 0 1 0 1 0 -1.192093E-07 -170 -2 30 3.35 0.5 3.35
9 0 -1.192093E-07 0 -1 0 1 0 1 0 -1.192093E-07 -150 -2 30 3.35 0.5 3.35
9 0 -1.192093E-07 0 -1 0 1 0 1 0 -1.192093E-07 -190 -2 10 3.35 0.5 3.35
9 0 -1.192093E-07 0 -1 0 1 0 1 0 -1.192093E-07 -170 -2 10 3.35 0.5 3.35
9 0 -1.192093E-07 0 -1 0 1 0 1 0 -1.192093E-07 -150 -2 10 3.35 0.5 3.35
9 0 -1.192093E-07 0 -1 0 1 0 1 0 -1.192093E-07 -190 -2 -10 3.35 0.5 3.35
9 0 -1.192093E-07 0 -1 0 1 0 1 0 -1.192093E-07 -170 -2 -10 3.35 0.5 3.35
9 0 -1.192093E-07 0 -1 0 1 0 1 0 -1.192093E-07 -150 -2 -10 3.35 0.5 3.35
9 0 -1.192093E-07 0 -1 0 1 0 1 0 -1.192093E-07 -190 -2 -30 3.35 0.5 3.35
9 0 -1.192093E-07 0 -1 0 1 0 1 0 -1.192093E-07 -170 -2 -30 3.35 0.5 3.35
9 0 -1.192093E-07 0 -1 0 1 0 1 0 -1.192093E-07 -150 -2 -30 3.35 0.5 3.35
9 0 -1.192093E-07 0 -1 0 1 0 1 0 -1.192093E-07 -190 -2 -50 3.35 0.5 3.35
9 0 -1.192093E-07 0 -1 0 1 0 1 0 -1.192093E-07 -170 -2 -50 3.35 0.5 3.35
9 0 -1.192093E-07 0 -1 0 1 0 1 0 -1.192093E-07 -150 -2 -50 3.35 0.5 3.35
9 0 -1.192093E-07 0 -1 0 1 0 1 0 -1.192093E-07 -190 -2 -70 3.35 0.5 3.35
9 0 -1.192093E-07 0 -1 0 1 0 1 0 -1.192093E-07 -170 -2 -70 3.35 0.5 3.35
9 0 -1.192093E-07 0 -1 0 1 0 1 0 -1.192093E-07 -150 -2 -70 3.35 0.5 3.35
9 0 -1.192093E-07 0 -1 0 1 0 1 0 -1.192093E-07 -310 -2 -30 3.35 0.5 3.35
9 0 -1.192093E-07 0 -1 0 1 0 1 0 -1.192093E-07 -290 -2 -30 3.35 0.5 3.35
9 0 -1.192093E-07 0 -1 0 1 0 1 0 -1.192093E-07 -270 -2 -30 3.35 0.5 3.35
9 0 -1.192093E-07 0 -1 0 1 0 1 0 -1.192093E-07 -310 -2 -50 3.35 0.5 3.35
9 0 -1.192093E-07 0 -1 0 1 0 1 0 -1.192093E-07 -290 -2 -50 3.35 0.5 3.35
9 0 -1.192093E-07 0 -1 0 1 0 1 0 -1.192093E-07 -270 -2 -50 3.35 0.5 3.35
9 0 -1.192093E-07 0 -1 0 1 0 1 0 -1.192093E-07 -310 -2 -70 3.35 0.5 3.35
9 0 -1.192093E-07 0 -1 0 1 0 1 0 -1.192093E-07 -290 -2 -70 3.35 0.5 3.35
9 0 -1.192093E-07 0 -1 0 1 0 1 0 -1.192093E-07 -270 -2 -70 3.35 0.5 3.35
9 0 -1.192093E-07 0 -1 0 1 0 1 0 -1.192093E-07 -250 -2 -30 3.35 0.5 3.35
9 0 -1.192093E-07 0 -1 0 1 0 1 0 -1.192093E-07 -230 -2 -30 3.35 0.5 3.35
9 0 -1.192093E-07 0 -1 0 1 0 1 0 -1.192093E-07 -210 -2 -30 3.35 0.5 3.35
9 0 -1.192093E-07 0 -1 0 1 0 1 0 -1.192093E-07 -250 -2 -50 3.35 0.5 3.35
9 0 -1.192093E-07 0 -1 0 1 0 1 0 -1.192093E-07 -230 -2 -50 3.35 0.5 3.35
9 0 -1.192093E-07 0 -1 0 1 0 1 0 -1.192093E-07 -210 -2 -50 3.35 0.5 3.35
9 0 -1.192093E-07 0 -1 0 1 0 1 0 -1.192093E-07 -250 -2 -70 3.35 0.5 3.35
9 0 -1.192093E-07 0 -1 0 1 0 1 0 -1.192093E-07 -230 -2 -70 3.35 0.5 3.35
9 0 -1.192093E-07 0 -1 0 1 0 1 0 -1.192093E-07 -210 -2 -70 3.35 0.5 3.35
9 0 -1.192093E-07 0 -1 0 1 0 1 0 -1.192093E-07 230 -2 10 3.35 0.5 3.35
9 0 -1.192093E-07 0 -1 0 1 0 1 0 -1.192093E-07 230 -2 -10 3.35 0.5 3.35
9 0 -1.192093E-07 0 -1 0 1 0 1 0 -1.192093E-07 250 -2 10 3.35 0.5 3.35
9 0 -1.192093E-07 0 -1 0 1 0 1 0 -1.192093E-07 250 -2 -10 3.35 0.5 3.35
9 0 -1.192093E-07 0 -1 0 1 0 1 0 -1.192093E-07 270 -2 10 3.35 0.5 3.35
9 0 -1.192093E-07 0 -1 0 1 0 1 0 -1.192093E-07 270 -2 -10 3.35 0.5 3.35
9 0 -1.192093E-07 0 -1 0 1 0 1 0 -1.192093E-07 290 -2 10 3.35 0.5 3.35
9 0 -1.192093E-07 0 -1 0 1 0 1 0 -1.192093E-07 290 -2 -10 3.35 0.5 3.35
9 0 -1.192093E-07 0 -1 0 1 0 1 0 -1.192093E-07 270 -2 -30 3.35 0.5 3.35
9 0 -1.192093E-07 0 -1 0 1 0 1 0 -1.192093E-07 270 -2 -50 3.35 0.5 3.35
9 0 -1.192093E-07 0 -1 0 1 0 1 0 -1.192093E-07 290 -2 -30 3.35 0.5 3.35
9 0 -1.192093E-07 0 -1 0 1 0 1 0 -1.192093E-07 290 -2 -50 3.35 0.5 3.35
9 0 -1.192093E-07 0 -1 0 1 0 1 0 -1.192093E-07 230 -2 -30 3.35 0.5 3.35
9 0 -1.192093E-07 0 -1 0 1 0 1 0 -1.192093E-07 230 -2 -50 3.35 0.5 3.35
9 0 -1.192093E-07 0 -1 0 1 0 1 0 -1.192093E-07 250 -2 -30 3.35 0.5 3.35
9 0 -1.192093E-07 0 -1 0 1 0 1 0 -1.192093E-07 250 -2 -50 3.35 0.5 3.35
9 0 -1.192093E-07 0 -1 0 1 0 1 0 -1.192093E-07 310 -2 10 3.35 0.5 3.35
9 0 -1.192093E-07 0 -1 0 1 0 1 0 -1.192093E-07 310 -2 -10 3.35 0.5 3.35
9 0 -1.192093E-07 0 -1 0 1 0 1 0 -1.192093E-07 310 -2 -30 3.35 0.5 3.35
9 0 -1.192093E-07 0 -1 0 1 0 1 0 -1.192093E-07 310 -2 -50 3.35 0.5 3.35
9 0 -1.192093E-07 0 -1 0 1 0 1 0 -1.192093E-07 230 -2 -70 3.35 0.5 3.35
9 0 -1.192093E-07 0 -1 0 1 0 1 0 -1.192093E-07 250 -2 -70 3.35 0.5 3.35
9 0 -1.192093E-07 0 -1 0 1 0 1 0 -1.192093E-07 270 -2 -70 3.35 0.5 3.35
9 0 -1.192093E-07 0 -1 0 1 0 1 0 -1.192093E-07 290 -2 -70 3.35 0.5 3.35
9 0 -1.192093E-07 0 -1 0 1 0 1 0 -1.192093E-07 310 -2 -70 3.35 0.5 3.35
9 0 -1.192093E-07 0 -1 0 1 0 1 0 -1.192093E-07 230 -2 -90 3.35 0.5 3.35
9 0 -1.192093E-07 0 -1 0 1 0 1 0 -1.192093E-07 230 -2 -110 3.35 0.5 3.35
9 0 -1.192093E-07 0 -1 0 1 0 1 0 -1.192093E-07 250 -2 -90 3.35 0.5 3.35
9 0 -1.192093E-07 0 -1 0 1 0 1 0 -1.192093E-07 250 -2 -110 3.35 0.5 3.35
9 0 -1.192093E-07 0 -1 0 1 0 1 0 -1.192093E-07 270 -2 -90 3.35 0.5 3.35
9 0 -1.192093E-07 0 -1 0 1 0 1 0 -1.192093E-07 270 -2 -110 3.35 0.5 3.35
9 0 -1.192093E-07 0 -1 0 1 0 1 0 -1.192093E-07 290 -2 -90 3.35 0.5 3.35
9 0 -1.192093E-07 0 -1 0 1 0 1 0 -1.192093E-07 290 -2 -110 3.35 0.5 3.35
9 0 -1.192093E-07 0 -1 0 1 0 1 0 -1.192093E-07 270 -2 -130 3.35 0.5 3.35
9 0 -1.192093E-07 0 -1 0 1 0 1 0 -1.192093E-07 270 -2 -150 3.35 0.5 3.35
9 0 -1.192093E-07 0 -1 0 1 0 1 0 -1.192093E-07 290 -2 -130 3.35 0.5 3.35
9 0 -1.192093E-07 0 -1 0 1 0 1 0 -1.192093E-07 290 -2 -150 3.35 0.5 3.35
9 0 -1.192093E-07 0 -1 0 1 0 1 0 -1.192093E-07 230 -2 -130 3.35 0.5 3.35
9 0 -1.192093E-07 0 -1 0 1 0 1 0 -1.192093E-07 230 -2 -150 3.35 0.5 3.35
9 0 -1.192093E-07 0 -1 0 1 0 1 0 -1.192093E-07 250 -2 -130 3.35 0.5 3.35
9 0 -1.192093E-07 0 -1 0 1 0 1 0 -1.192093E-07 250 -2 -150 3.35 0.5 3.35
9 0 -1.192093E-07 0 -1 0 1 0 1 0 -1.192093E-07 310 -2 -90 3.35 0.5 3.35
9 0 -1.192093E-07 0 -1 0 1 0 1 0 -1.192093E-07 310 -2 -110 3.35 0.5 3.35
9 0 -1.192093E-07 0 -1 0 1 0 1 0 -1.192093E-07 310 -2 -130 3.35 0.5 3.35
9 0 -1.192093E-07 0 -1 0 1 0 1 0 -1.192093E-07 310 -2 -150 3.35 0.5 3.35
9 0 -1.192093E-07 0 -1 0 1 0 1 0 -1.192093E-07 230 -2 -170 3.35 0.5 3.35
9 0 -1.192093E-07 0 -1 0 1 0 1 0 -1.192093E-07 250 -2 -170 3.35 0.5 3.35
9 0 -1.192093E-07 0 -1 0 1 0 1 0 -1.192093E-07 270 -2 -170 3.35 0.5 3.35
9 0 -1.192093E-07 0 -1 0 1 0 1 0 -1.192093E-07 290 -2 -170 3.35 0.5 3.35
9 0 -1.192093E-07 0 -1 0 1 0 1 0 -1.192093E-07 310 -2 -170 3.35 0.5 3.35
9 0 -1.192093E-07 0 -1 0 1 0 1 0 -1.192093E-07 230 -2 -190 3.35 0.5 3.35
9 0 -1.192093E-07 0 -1 0 1 0 1 0 -1.192093E-07 230 -2 -210 3.35 0.5 3.35
9 0 -1.192093E-07 0 -1 0 1 0 1 0 -1.192093E-07 250 -2 -190 3.35 0.5 3.35
9 0 -1.192093E-07 0 -1 0 1 0 1 0 -1.192093E-07 250 -2 -210 3.35 0.5 3.35
9 0 -1.192093E-07 0 -1 0 1 0 1 0 -1.192093E-07 270 -2 -190 3.35 0.5 3.35
9 0 -1.192093E-07 0 -1 0 1 0 1 0 -1.192093E-07 270 -2 -210 3.35 0.5 3.35
9 0 -1.192093E-07 0 -1 0 1 0 1 0 -1.192093E-07 290 -2 -190 3.35 0.5 3.35
9 0 -1.192093E-07 0 -1 0 1 0 1 0 -1.192093E-07 290 -2 -210 3.35 0.5 3.35
9 0 -1.192093E-07 0 -1 0 1 0 1 0 -1.192093E-07 270 -2 -230 3.35 0.5 3.35
9 0 -1.192093E-07 0 -1 0 1 0 1 0 -1.192093E-07 270 -2 -250 3.35 0.5 3.35
9 0 -1.192093E-07 0 -1 0 1 0 1 0 -1.192093E-07 290 -2 -230 3.35 0.5 3.35
9 0 -1.192093E-07 0 -1 0 1 0 1 0 -1.192093E-07 290 -2 -250 3.35 0.5 3.35
9 0 -1.192093E-07 0 -1 0 1 0 1 0 -1.192093E-07 230 -2 -230 3.35 0.5 3.35
9 0 -1.192093E-07 0 -1 0 1 0 1 0 -1.192093E-07 230 -2 -250 3.35 0.5 3.35
9 0 -1.192093E-07 0 -1 0 1 0 1 0 -1.192093E-07 250 -2 -230 3.35 0.5 3.35
9 0 -1.192093E-07 0 -1 0 1 0 1 0 -1.192093E-07 250 -2 -250 3.35 0.5 3.35
9 0 -1.192093E-07 0 -1 0 1 0 1 0 -1.192093E-07 310 -2 -190 3.35 0.5 3.35
9 0 -1.192093E-07 0 -1 0 1 0 1 0 -1.192093E-07 310 -2 -210 3.35 0.5 3.35
9 0 -1.192093E-07 0 -1 0 1 0 1 0 -1.192093E-07 310 -2 -230 3.35 0.5 3.35
9 0 -1.192093E-07 0 -1 0 1 0 1 0 -1.192093E-07 310 -2 -250 3.35 0.5 3.35
9 0 -1.192093E-07 0 -1 0 1 0 1 0 -1.192093E-07 230 -2 -270 3.35 0.5 3.35
9 0 -1.192093E-07 0 -1 0 1 0 1 0 -1.192093E-07 250 -2 -270 3.35 0.5 3.35
9 0 -1.192093E-07 0 -1 0 1 0 1 0 -1.192093E-07 270 -2 -270 3.35 0.5 3.35
9 0 -1.192093E-07 0 -1 0 1 0 1 0 -1.192093E-07 290 -2 -270 3.35 0.5 3.35
9 0 -1.192093E-07 0 -1 0 1 0 1 0 -1.192093E-07 310 -2 -270 3.35 0.5 3.35
9 0 -1.192093E-07 0 -1 0 1 0 1 0 -1.192093E-07 290 -2 -290 3.35 0.5 3.35
9 0 -1.192093E-07 0 -1 0 1 0 1 0 -1.192093E-07 290 -2 -310 3.35 0.5 3.35
9 0 -1.192093E-07 0 -1 0 1 0 1 0 -1.192093E-07 310 -2 -290 3.35 0.5 3.35
9 0 -1.192093E-07 0 -1 0 1 0 1 0 -1.192093E-07 310 -2 -310 3.35 0.5 3.35
9 0 -1.192093E-07 0 -1 0 1 0 1 0 -1.192093E-07 250 -2 -290 3.35 0.5 3.35
9 0 -1.192093E-07 0 -1 0 1 0 1 0 -1.192093E-07 250 -2 -310 3.35 0.5 3.35
9 0 -1.192093E-07 0 -1 0 1 0 1 0 -1.192093E-07 270 -2 -290 3.35 0.5 3.35
9 0 -1.192093E-07 0 -1 0 1 0 1 0 -1.192093E-07 270 -2 -310 3.35 0.5 3.35
9 0 -1.192093E-07 0 -1 0 1 0 1 0 -1.192093E-07 190 -2 -310 3.35 0.5 3.35
9 0 -1.192093E-07 0 -1 0 1 0 1 0 -1.192093E-07 -310 -2 -90 3.35 0.5 3.35
9 0 -1.192093E-07 0 -1 0 1 0 1 0 -1.192093E-07 -290 -2 -90 3.35 0.5 3.35
9 0 -1.192093E-07 0 -1 0 1 0 1 0 -1.192093E-07 -270 -2 -90 3.35 0.5 3.35
9 0 -1.192093E-07 0 -1 0 1 0 1 0 -1.192093E-07 -250 -2 -90 3.35 0.5 3.35
9 0 -1.192093E-07 0 -1 0 1 0 1 0 -1.192093E-07 -230 -2 -90 3.35 0.5 3.35
9 0 -1.192093E-07 0 -1 0 1 0 1 0 -1.192093E-07 -210 -2 -90 3.35 0.5 3.35
9 0 -1.192093E-07 0 -1 0 1 0 1 0 -1.192093E-07 -190 -2 -90 3.35 0.5 3.35
9 0 -1.192093E-07 0 -1 0 1 0 1 0 -1.192093E-07 -170 -2 -90 3.35 0.5 3.35
9 0 -1.192093E-07 0 -1 0 1 0 1 0 -1.192093E-07 -150 -2 -90 3.35 0.5 3.35
9 0 -1.192093E-07 0 -1 0 1 0 1 0 -1.192093E-07 -190 -2 -310 3.35 0.5 3.35
9 0 -1.192093E-07 0 -1 0 1 0 1 0 -1.192093E-07 -190 -2 -290 3.35 0.5 3.35
9 0 -1.192093E-07 0 -1 0 1 0 1 0 -1.192093E-07 -170 -2 -290 3.35 0.5 3.35
9 0 -1.192093E-07 0 -1 0 1 0 1 0 -1.192093E-07 -170 -2 290 3.35 0.5 3.35
9 0 -1.192093E-07 0 -1 0 1 0 1 0 -1.192093E-07 -190 -2 290 3.35 0.5 3.35
9 0 -1.192093E-07 0 -1 0 1 0 1 0 -1.192093E-07 -190 -2 310 3.35 0.5 3.35
9 0 -1.192093E-07 0 -1 0 1 0 1 0 -1.192093E-07 -310 -2 -290 3.35 0.5 3.35
9 0 -1.192093E-07 0 -1 0 1 0 1 0 -1.192093E-07 -310 -2 -310 3.35 0.5 3.35
9 0 -1.192093E-07 0 -1 0 1 0 1 0 -1.192093E-07 -290 -2 -290 3.35 0.5 3.35
9 0 -1.192093E-07 0 -1 0 1 0 1 0 -1.192093E-07 -290 -2 -310 3.35 0.5 3.35
9 0 -1.192093E-07 0 -1 0 1 0 1 0 -1.192093E-07 -270 -2 -290 3.35 0.5 3.35
9 0 -1.192093E-07 0 -1 0 1 0 1 0 -1.192093E-07 -270 -2 -310 3.35 0.5 3.35
9 0 -1.192093E-07 0 -1 0 1 0 1 0 -1.192093E-07 -250 -2 -290 3.35 0.5 3.35
9 0 -1.192093E-07 0 -1 0 1 0 1 0 -1.192093E-07 -250 -2 -310 3.35 0.5 3.35
9 0 -1.192093E-07 0 -1 0 1 0 1 0 -1.192093E-07 -230 -2 -290 3.35 0.5 3.35
9 0 -1.192093E-07 0 -1 0 1 0 1 0 -1.192093E-07 -230 -2 -310 3.35 0.5 3.35
9 0 -1.192093E-07 0 -1 0 1 0 1 0 -1.192093E-07 -210 -2 -290 3.35 0.5 3.35
9 0 -1.192093E-07 0 -1 0 1 0 1 0 -1.192093E-07 -210 -2 -310 3.35 0.5 3.35
9 0 -1.192093E-07 0 -1 0 1 0 1 0 -1.192093E-07 30 -2 -110 3.35 0.5 3.35
9 0 -1.192093E-07 0 -1 0 1 0 1 0 -1.192093E-07 30 -2 -130 3.35 0.5 3.35
9 0 -1.192093E-07 0 -1 0 1 0 1 0 -1.192093E-07 50 -2 -110 3.35 0.5 3.35
9 0 -1.192093E-07 0 -1 0 1 0 1 0 -1.192093E-07 50 -2 -130 3.35 0.5 3.35
9 0 -1.192093E-07 0 -1 0 1 0 1 0 -1.192093E-07 30 -2 -70 3.35 0.5 3.35
9 0 -1.192093E-07 0 -1 0 1 0 1 0 -1.192093E-07 30 -2 -90 3.35 0.5 3.35
9 0 -1.192093E-07 0 -1 0 1 0 1 0 -1.192093E-07 50 -2 -70 3.35 0.5 3.35
9 0 -1.192093E-07 0 -1 0 1 0 1 0 -1.192093E-07 50 -2 -90 3.35 0.5 3.35
9 0 -1.192093E-07 0 -1 0 1 0 1 0 -1.192093E-07 30 -2 -30 3.35 0.5 3.35
9 0 -1.192093E-07 0 -1 0 1 0 1 0 -1.192093E-07 30 -2 -50 3.35 0.5 3.35
9 0 -1.192093E-07 0 -1 0 1 0 1 0 -1.192093E-07 50 -2 -30 3.35 0.5 3.35
9 0 -1.192093E-07 0 -1 0 1 0 1 0 -1.192093E-07 50 -2 -50 3.35 0.5 3.35
9 0 -1.192093E-07 0 -1 0 1 0 1 0 -1.192093E-07 30 -2 10 3.35 0.5 3.35
9 0 -1.192093E-07 0 -1 0 1 0 1 0 -1.192093E-07 30 -2 -10 3.35 0.5 3.35
9 0 -1.192093E-07 0 -1 0 1 0 1 0 -1.192093E-07 50 -2 10 3.35 0.5 3.35
9 0 -1.192093E-07 0 -1 0 1 0 1 0 -1.192093E-07 50 -2 -10 3.35 0.5 3.35
9 0 -1.192093E-07 0 -1 0 1 0 1 0 -1.192093E-07 30 -2 50 3.35 0.5 3.35
9 0 -1.192093E-07 0 -1 0 1 0 1 0 -1.192093E-07 30 -2 30 3.35 0.5 3.35
9 0 -1.192093E-07 0 -1 0 1 0 1 0 -1.192093E-07 50 -2 50 3.35 0.5 3.35
9 0 -1.192093E-07 0 -1 0 1 0 1 0 -1.192093E-07 50 -2 30 3.35 0.5 3.35
9 0 -1.192093E-07 0 -1 0 1 0 1 0 -1.192093E-07 30 -2 90 3.35 0.5 3.35
9 0 -1.192093E-07 0 -1 0 1 0 1 0 -1.192093E-07 30 -2 70 3.35 0.5 3.35
9 0 -1.192093E-07 0 -1 0 1 0 1 0 -1.192093E-07 50 -2 90 3.35 0.5 3.35
9 0 -1.192093E-07 0 -1 0 1 0 1 0 -1.192093E-07 50 -2 70 3.35 0.5 3.35
9 0 -1.192093E-07 0 -1 0 1 0 1 0 -1.192093E-07 30 -2 130 3.35 0.5 3.35
9 0 -1.192093E-07 0 -1 0 1 0 1 0 -1.192093E-07 30 -2 110 3.35 0.5 3.35
9 0 -1.192093E-07 0 -1 0 1 0 1 0 -1.192093E-07 50 -2 130 3.35 0.5 3.35
9 0 -1.192093E-07 0 -1 0 1 0 1 0 -1.192093E-07 50 -2 110 3.35 0.5 3.35
9 0 -1.192093E-07 0 -1 0 1 0 1 0 -1.192093E-07 -310 -2 310 3.35 0.5 3.35
9 0 -1.192093E-07 0 -1 0 1 0 1 0 -1.192093E-07 -310 -2 290 3.35 0.5 3.35
9 0 -1.192093E-07 0 -1 0 1 0 1 0 -1.192093E-07 -290 -2 310 3.35 0.5 3.35
9 0 -1.192093E-07 0 -1 0 1 0 1 0 -1.192093E-07 -290 -2 290 3.35 0.5 3.35
9 0 -1.192093E-07 0 -1 0 1 0 1 0 -1.192093E-07 -270 -2 310 3.35 0.5 3.35
9 0 -1.192093E-07 0 -1 0 1 0 1 0 -1.192093E-07 -270 -2 290 3.35 0.5 3.35
9 0 -1.192093E-07 0 -1 0 1 0 1 0 -1.192093E-07 -250 -2 310 3.35 0.5 3.35
9 0 -1.192093E-07 0 -1 0 1 0 1 0 -1.192093E-07 -250 -2 290 3.35 0.5 3.35
9 0 -1.192093E-07 0 -1 0 1 0 1 0 -1.192093E-07 -230 -2 310 3.35 0.5 3.35
9 0 -1.192093E-07 0 -1 0 1 0 1 0 -1.192093E-07 -230 -2 290 3.35 0.5 3.35
9 0 -1.192093E-07 0 -1 0 1 0 1 0 -1.192093E-07 -210 -2 310 3.35 0.5 3.35
9 0 -1.192093E-07 0 -1 0 1 0 1 0 -1.192093E-07 -210 -2 290 3.35 0.5 3.35
9 0 -1.192093E-07 0 -1 0 1 0 1 0 -1.192093E-07 190 -2 310 3.35 0.5 3.35
9 0 -1.192093E-07 0 -1 0 1 0 1 0 -1.192093E-07 210 -2 310 3.35 0.5 3.35
9 0 -1.192093E-07 0 -1 0 1 0 1 0 -1.192093E-07 210 -2 290 3.35 0.5 3.35
9 0 -1.192093E-07 0 -1 0 1 0 1 0 -1.192093E-07 210 -2 -290 3.35 0.5 3.35
9 0 -1.192093E-07 0 -1 0 1 0 1 0 -1.192093E-07 210 -2 -310 3.35 0.5 3.35
9 0 -1.192093E-07 0 -1 0 1 0 1 0 -1.192093E-07 230 -2 -290 3.35 0.5 3.35
9 0 -1.192093E-07 0 -1 0 1 0 1 0 -1.192093E-07 230 -2 -310 3.35 0.5 3.35
