9 0 1 0 0 0 1 0 0 0 1 0 2 0 18.5 0.5 8.5
9 0 1 0 0 0 1 0 0 0 1 30 3.5 0 2.5 3 4.5
9 0 1 0 0 0 1 0 0 0 1 -30 3.5 0 2.5 3 4.5
9 0 1 0 0 0 1 0 0 0 1 0 4.5 -8 18.5 2 0.5
9 0 1 0 0 0 1 0 0 0 1 0 4.5 8 18.5 2 0.5
9 0 1 0 0 0 1 0 0 0 1 26.5 4 0 1 3.5 2.5
9 0 1 0 0 0 1 0 0 0 1 -33.5 4 0 1 3.5 2.5
9 0 1 0 0 0 1 0 0 0 1 18 4.5 0 0.5 2 7.5
9 0 1 0 0 0 1 0 0 0 1 -18 4.5 0 0.5 2 7.5
9 0 1 0 0 0 1 0 0 0 1 33.5 4 0.5 1 3.5 2
9 0 1 0 0 0 1 0 0 0 1 29.5 7.5 0 2 1 3.5
9 0 1 0 0 0 1 0 0 0 1 -26.5 4 0.5 1 3.5 2
9 0 1 0 0 0 1 0 0 0 1 -30.5 7.5 0 2 1 3.5
9 0 1 0 0 0 1 0 0 0 1 30 0 0 3.5 0.5 2.5
9 0 1 0 0 0 1 0 0 0 1 -30 0 0 3.5 0.5 2.5
9 0 1 0 0 0 1 0 0 0 1 33.5 4 -2.5 1 2.5 1
9 0 1 0 0 0 1 0 0 0 1 -26.5 4 -2.5 1 2.5 1
9 0 1 0 0 0 1 0 0 0 1 35 4 0 0.5 2.5 1.5
9 0 1 0 0 0 1 0 0 0 1 30 9 0 2.5 0.5 1.5
9 0 1 0 0 0 1 0 0 0 1 30 4 -5 2.5 1.5 0.5
9 0 1 0 0 0 1 0 0 0 1 30 4 5 2.5 1.5 0.5
9 0 1 0 0 0 1 0 0 0 1 30 -1 0 2.5 0.5 1.5
9 0 1 0 0 0 1 0 0 0 1 25 4 0 0.5 2.5 1.5
9 0 1 0 0 0 1 0 0 0 1 -25 4 0 0.5 2.5 1.5
9 0 1 0 0 0 1 0 0 0 1 -30 9 0 2.5 0.5 1.5
9 0 1 0 0 0 1 0 0 0 1 -30 4 -5 2.5 1.5 0.5
9 0 1 0 0 0 1 0 0 0 1 -30 4 5 2.5 1.5 0.5
9 0 1 0 0 0 1 0 0 0 1 -30 -1 0 2.5 0.5 1.5
9 0 1 0 0 0 1 0 0 0 1 -35 4 0 0.5 2.5 1.5
9 0 1 0 0 0 1 0 0 0 1 32 7.5 0.5 0.5 1 3
9 0 1 0 0 0 1 0 0 0 1 -28 7.5 0.5 0.5 1 3
9 0 1 0 0 0 1 0 0 0 1 33.5 4 3 1 2.5 0.5
9 0 1 0 0 0 1 0 0 0 1 27 4 -3.5 0.5 2.5 1
9 0 1 0 0 0 1 0 0 0 1 27 4 3.5 0.5 2.5 1
9 0 1 0 0 0 1 0 0 0 1 -26.5 4 3 1 2.5 0.5
9 0 1 0 0 0 1 0 0 0 1 -33 4 -3.5 0.5 2.5 1
9 0 1 0 0 0 1 0 0 0 1 -33 4 3.5 0.5 2.5 1
9 0 1 0 0 0 1 0 0 0 1 0 6 0 1.5 0.5 1.5
9 0 1 0 0 0 1 0 0 0 1 33 8 0 0.5 0.5 2.5
9 0 1 0 0 0 1 0 0 0 1 33 4 -4 0.5 2.5 0.5
9 0 1 0 0 0 1 0 0 0 1 33 4 4 0.5 2.5 0.5
9 0 1 0 0 0 1 0 0 0 1 30 7 -4 2.5 0.5 0.5
9 0 1 0 0 0 1 0 0 0 1 30 7 4 2.5 0.5 0.5
9 0 1 0 0 0 1 0 0 0 1 30 0 -3 2.5 0.5 0.5
9 0 1 0 0 0 1 0 0 0 1 30 0 3 2.5 0.5 0.5
9 0 1 0 0 0 1 0 0 0 1 27 8 0 0.5 0.5 2.5
9 0 1 0 0 0 1 0 0 0 1 26 4 -3 0.5 2.5 0.5
9 0 1 0 0 0 1 0 0 0 1 26 4 3 0.5 2.5 0.5
9 0 1 0 0 0 1 0 0 0 1 -27 8 0 0.5 0.5 2.5
9 0 1 0 0 0 1 0 0 0 1 -27 4 -4 0.5 2.5 0.5
9 0 1 0 0 0 1 0 0 0 1 -27 4 4 0.5 2.5 0.5
9 0 1 0 0 0 1 0 0 0 1 -30 7 -4 2.5 0.5 0.5
9 0 1 0 0 0 1 0 0 0 1 -30 7 4 2.5 0.5 0.5
9 0 1 0 0 0 1 0 0 0 1 -30 0 -3 2.5 0.5 0.5
9 0 1 0 0 0 1 0 0 0 1 -30 0 3 2.5 0.5 0.5
9 0 1 0 0 0 1 0 0 0 1 -33 8 0 0.5 0.5 2.5
9 0 1 0 0 0 1 0 0 0 1 -34 4 -3 0.5 2.5 0.5
9 0 1 0 0 0 1 0 0 0 1 -34 4 3 0.5 2.5 0.5
9 0 1 0 0 0 1 0 0 0 1 36 4 0 0.5 1.5 0.5
9 0 1 0 0 0 1 0 0 0 1 35 4 -2 0.5 1.5 0.5
9 0 1 0 0 0 1 0 0 0 1 35 4 2 0.5 1.5 0.5
9 0 1 0 0 0 1 0 0 0 1 30 10 0 1.5 0.5 0.5
9 0 1 0 0 0 1 0 0 0 1 30 9 -2 1.5 0.5 0.5
9 0 1 0 0 0 1 0 0 0 1 30 9 2 1.5 0.5 0.5
9 0 1 0 0 0 1 0 0 0 1 30 6 -5 1.5 0.5 0.5
9 0 1 0 0 0 1 0 0 0 1 30 6 5 1.5 0.5 0.5
9 0 1 0 0 0 1 0 0 0 1 30 4 -6 1.5 0.5 0.5
9 0 1 0 0 0 1 0 0 0 1 30 4 6 1.5 0.5 0.5
9 0 1 0 0 0 1 0 0 0 1 30 2 -5 1.5 0.5 0.5
9 0 1 0 0 0 1 0 0 0 1 30 2 5 1.5 0.5 0.5
9 0 1 0 0 0 1 0 0 0 1 30 -1 -2 1.5 0.5 0.5
9 0 1 0 0 0 1 0 0 0 1 30 -1 2 1.5 0.5 0.5
9 0 1 0 0 0 1 0 0 0 1 30 -2 0 1.5 0.5 0.5
9 0 1 0 0 0 1 0 0 0 1 25 4 -2 0.5 1.5 0.5
9 0 1 0 0 0 1 0 0 0 1 25 4 2 0.5 1.5 0.5
9 0 1 0 0 0 1 0 0 0 1 24 4 0 0.5 1.5 0.5
9 0 1 0 0 0 1 0 0 0 1 -24 4 0 0.5 1.5 0.5
9 0 1 0 0 0 1 0 0 0 1 -25 4 -2 0.5 1.5 0.5
9 0 1 0 0 0 1 0 0 0 1 -25 4 2 0.5 1.5 0.5
9 0 1 0 0 0 1 0 0 0 1 -30 10 0 1.5 0.5 0.5
9 0 1 0 0 0 1 0 0 0 1 -30 9 -2 1.5 0.5 0.5
9 0 1 0 0 0 1 0 0 0 1 -30 9 2 1.5 0.5 0.5
9 0 1 0 0 0 1 0 0 0 1 -30 6 -5 1.5 0.5 0.5
9 0 1 0 0 0 1 0 0 0 1 -30 6 5 1.5 0.5 0.5
9 0 1 0 0 0 1 0 0 0 1 -30 4 -6 1.5 0.5 0.5
9 0 1 0 0 0 1 0 0 0 1 -30 4 6 1.5 0.5 0.5
9 0 1 0 0 0 1 0 0 0 1 -30 2 -5 1.5 0.5 0.5
9 0 1 0 0 0 1 0 0 0 1 -30 2 5 1.5 0.5 0.5
9 0 1 0 0 0 1 0 0 0 1 -30 -1 -2 1.5 0.5 0.5
9 0 1 0 0 0 1 0 0 0 1 -30 -1 2 1.5 0.5 0.5
9 0 1 0 0 0 1 0 0 0 1 -30 -2 0 1.5 0.5 0.5
9 0 1 0 0 0 1 0 0 0 1 -35 4 -2 0.5 1.5 0.5
9 0 1 0 0 0 1 0 0 0 1 -35 4 2 0.5 1.5 0.5
9 0 1 0 0 0 1 0 0 0 1 -36 4 0 0.5 1.5 0.5
