9 0 1 0 0 0 1 0 0 0 1 0 0 10 6.5 7.5 2.5
9 0 1 0 0 0 1 0 0 0 1 5 0 14.5 1.5 7.5 2
9 0 1 0 0 0 1 0 0 0 1 -5 0 14.5 1.5 7.5 2
9 0 1 0 0 0 1 0 0 0 1 13.5 0 -10 1 7.5 2.5
9 0 1 0 0 0 1 0 0 0 1 -13.5 0 -10 1 7.5 2.5
9 0 1 0 0 0 1 0 0 0 1 16.5 0 -8 2 7.5 0.5
9 0 1 0 0 0 1 0 0 0 1 -16.5 0 -8 2 7.5 0.5
9 0 1 0 0 0 1 0 0 0 1 4 0 24 0.5 8.5 0.5
9 0 1 0 0 0 1 0 0 0 1 -4 0 24 0.5 8.5 0.5
9 0 1 0 0 0 1 0 0 0 1 13.5 7 -14.5 1 0.5 2
9 0 1 0 0 0 1 0 0 0 1 13.5 -5.5 -13 1 2 0.5
9 0 1 0 0 0 1 0 0 0 1 -13.5 7 -14.5 1 0.5 2
9 0 1 0 0 0 1 0 0 0 1 -13.5 -5.5 -13 1 2 0.5
9 0 1 0 0 0 1 0 0 0 1 13.5 5 -13 1 1.5 0.5
9 0 1 0 0 0 1 0 0 0 1 13.5 -7 -15 1 0.5 1.5
9 0 1 0 0 0 1 0 0 0 1 11.5 0 -9 1 0.5 1.5
9 0 1 0 0 0 1 0 0 0 1 5 8 15.5 1.5 0.5 1
9 0 1 0 0 0 1 0 0 0 1 5 -8 15.5 1.5 0.5 1
9 0 1 0 0 0 1 0 0 0 1 -4.5 8 15 1 0.5 1.5
9 0 1 0 0 0 1 0 0 0 1 -4.5 -8 15 1 0.5 1.5
9 0 1 0 0 0 1 0 0 0 1 -11.5 0 -9 1 0.5 1.5
9 0 1 0 0 0 1 0 0 0 1 -13.5 5 -13 1 1.5 0.5
9 0 1 0 0 0 1 0 0 0 1 -13.5 -7 -15 1 0.5 1.5
9 0 1 0 0 0 1 0 0 0 1 0 8 12 1.5 0.5 0.5
9 0 1 0 0 0 1 0 0 0 1 0 -8 12 1.5 0.5 0.5
