9 0 1 0 0 0 1 0 0 0 1 0 12 -8 158.5 2.5 0.5
9 0 1 0 0 0 1 0 0 0 1 -8.5 12 8 150 2.5 0.5
9 0 1 0 0 0 1 0 0 0 1 79.5 5.5 0 62 3 0.5
9 0 1 0 0 0 1 0 0 0 1 -79.5 5.5 0 62 3 0.5
9 0 1 0 0 0 1 0 0 0 1 140 12 0 1.5 2.5 7.5
9 0 1 0 0 0 1 0 0 0 1 -140 12 0 1.5 2.5 7.5
9 0 1 0 0 0 1 0 0 0 1 150 12 8 8.5 2.5 0.5
9 0 1 0 0 0 1 0 0 0 1 158 12 0 0.5 2.5 7.5
9 0 1 0 0 0 1 0 0 0 1 -158 12 0 0.5 2.5 7.5
9 0 1 0 0 0 1 0 0 0 1 0 3.5 0 17.5 1 0.5
9 0 1 0 0 0 1 0 0 0 1 150 3.5 0 8.5 1 0.5
9 0 1 0 0 0 1 0 0 0 1 -150 3.5 0 8.5 1 0.5
9 0 1 0 0 0 1 0 0 0 1 120 13 0 1.5 1.5 1.5
9 0 1 0 0 0 1 0 0 0 1 100 13 0 1.5 1.5 1.5
9 0 1 0 0 0 1 0 0 0 1 80 13 0 1.5 1.5 1.5
9 0 1 0 0 0 1 0 0 0 1 60 13 0 1.5 1.5 1.5
9 0 1 0 0 0 1 0 0 0 1 40 13 0 1.5 1.5 1.5
9 0 1 0 0 0 1 0 0 0 1 20 13 0 1.5 1.5 1.5
9 0 1 0 0 0 1 0 0 0 1 0 13 0 1.5 1.5 1.5
9 0 1 0 0 0 1 0 0 0 1 -20 13 0 1.5 1.5 1.5
9 0 1 0 0 0 1 0 0 0 1 -40 13 0 1.5 1.5 1.5
9 0 1 0 0 0 1 0 0 0 1 -60 13 0 1.5 1.5 1.5
9 0 1 0 0 0 1 0 0 0 1 -80 13 0 1.5 1.5 1.5
9 0 1 0 0 0 1 0 0 0 1 -100 13 0 1.5 1.5 1.5
9 0 1 0 0 0 1 0 0 0 1 -120 13 0 1.5 1.5 1.5
9 0 1 0 0 0 1 0 0 0 1 0 6.5 0 2.5 2 0.5
9 0 1 0 0 0 1 0 0 0 1 158 7 0 0.5 2.5 0.5
9 0 1 0 0 0 1 0 0 0 1 -158 7 0 0.5 2.5 0.5
9 0 1 0 0 0 1 0 0 0 1 140 9 0 1.5 0.5 0.5
9 0 1 0 0 0 1 0 0 0 1 122 13 0 0.5 1.5 0.5
9 0 1 0 0 0 1 0 0 0 1 120 13 -2 0.5 1.5 0.5
9 0 1 0 0 0 1 0 0 0 1 120 13 2 0.5 1.5 0.5
9 0 1 0 0 0 1 0 0 0 1 118 13 0 0.5 1.5 0.5
9 0 1 0 0 0 1 0 0 0 1 102 13 0 0.5 1.5 0.5
9 0 1 0 0 0 1 0 0 0 1 100 13 -2 0.5 1.5 0.5
9 0 1 0 0 0 1 0 0 0 1 100 13 2 0.5 1.5 0.5
9 0 1 0 0 0 1 0 0 0 1 98 13 0 0.5 1.5 0.5
9 0 1 0 0 0 1 0 0 0 1 82 13 0 0.5 1.5 0.5
9 0 1 0 0 0 1 0 0 0 1 80 13 -2 0.5 1.5 0.5
9 0 1 0 0 0 1 0 0 0 1 80 13 2 0.5 1.5 0.5
9 0 1 0 0 0 1 0 0 0 1 78 13 0 0.5 1.5 0.5
9 0 1 0 0 0 1 0 0 0 1 62 13 0 0.5 1.5 0.5
9 0 1 0 0 0 1 0 0 0 1 60 13 -2 0.5 1.5 0.5
9 0 1 0 0 0 1 0 0 0 1 60 13 2 0.5 1.5 0.5
9 0 1 0 0 0 1 0 0 0 1 58 13 0 0.5 1.5 0.5
9 0 1 0 0 0 1 0 0 0 1 42 13 0 0.5 1.5 0.5
9 0 1 0 0 0 1 0 0 0 1 40 13 -2 0.5 1.5 0.5
9 0 1 0 0 0 1 0 0 0 1 40 13 2 0.5 1.5 0.5
9 0 1 0 0 0 1 0 0 0 1 38 13 0 0.5 1.5 0.5
9 0 1 0 0 0 1 0 0 0 1 22 13 0 0.5 1.5 0.5
9 0 1 0 0 0 1 0 0 0 1 20 13 -2 0.5 1.5 0.5
9 0 1 0 0 0 1 0 0 0 1 20 13 2 0.5 1.5 0.5
9 0 1 0 0 0 1 0 0 0 1 18 13 0 0.5 1.5 0.5
9 0 1 0 0 0 1 0 0 0 1 2 13 0 0.5 1.5 0.5
9 0 1 0 0 0 1 0 0 0 1 0 13 -2 0.5 1.5 0.5
9 0 1 0 0 0 1 0 0 0 1 0 13 2 0.5 1.5 0.5
9 0 1 0 0 0 1 0 0 0 1 -2 13 0 0.5 1.5 0.5
9 0 1 0 0 0 1 0 0 0 1 -18 13 0 0.5 1.5 0.5
9 0 1 0 0 0 1 0 0 0 1 -20 13 -2 0.5 1.5 0.5
9 0 1 0 0 0 1 0 0 0 1 -20 13 2 0.5 1.5 0.5
9 0 1 0 0 0 1 0 0 0 1 -22 13 0 0.5 1.5 0.5
9 0 1 0 0 0 1 0 0 0 1 -38 13 0 0.5 1.5 0.5
9 0 1 0 0 0 1 0 0 0 1 -40 13 -2 0.5 1.5 0.5
9 0 1 0 0 0 1 0 0 0 1 -40 13 2 0.5 1.5 0.5
9 0 1 0 0 0 1 0 0 0 1 -42 13 0 0.5 1.5 0.5
9 0 1 0 0 0 1 0 0 0 1 -58 13 0 0.5 1.5 0.5
9 0 1 0 0 0 1 0 0 0 1 -60 13 -2 0.5 1.5 0.5
9 0 1 0 0 0 1 0 0 0 1 -60 13 2 0.5 1.5 0.5
9 0 1 0 0 0 1 0 0 0 1 -62 13 0 0.5 1.5 0.5
9 0 1 0 0 0 1 0 0 0 1 -78 13 0 0.5 1.5 0.5
9 0 1 0 0 0 1 0 0 0 1 -80 13 -2 0.5 1.5 0.5
9 0 1 0 0 0 1 0 0 0 1 -80 13 2 0.5 1.5 0.5
9 0 1 0 0 0 1 0 0 0 1 -82 13 0 0.5 1.5 0.5
9 0 1 0 0 0 1 0 0 0 1 -98 13 0 0.5 1.5 0.5
9 0 1 0 0 0 1 0 0 0 1 -100 13 -2 0.5 1.5 0.5
9 0 1 0 0 0 1 0 0 0 1 -100 13 2 0.5 1.5 0.5
9 0 1 0 0 0 1 0 0 0 1 -102 13 0 0.5 1.5 0.5
9 0 1 0 0 0 1 0 0 0 1 -118 13 0 0.5 1.5 0.5
9 0 1 0 0 0 1 0 0 0 1 -120 13 -2 0.5 1.5 0.5
9 0 1 0 0 0 1 0 0 0 1 -120 13 2 0.5 1.5 0.5
9 0 1 0 0 0 1 0 0 0 1 -122 13 0 0.5 1.5 0.5
9 0 1 0 0 0 1 0 0 0 1 -140 9 0 1.5 0.5 0.5
