9 0 1 0 0 0 1 0 0 0 1 0.2949982 -25.272 -19.993 7 2.5 0.5
9 0 1 0 0 0 1 0 0 0 1 -0.2050018 -11.772 -20.993 3.5 3 0.5
9 0 1 0 0 0 1 0 0 0 1 0.2949982 -74.272 3.507 4 0.5 2
9 0 1 0 0 0 1 0 0 0 1 -10.205 -20.272 -19.993 1.5 3.5 0.5
9 0 1 0 0 0 1 0 0 0 1 0.2949982 -10.272 -14.993 2 0.5 2.5
9 0 1 0 0 0 1 0 0 0 1 0.2949982 -75.272 23.007 2 0.5 2.5
9 0 1 0 0 0 1 0 0 0 1 9.794998 -20.772 -19.993 1.5 3 0.5
9 0 1 0 0 0 1 0 0 0 1 3.794998 -13.772 -14.493 0.5 2 2
9 0 1 0 0 0 1 0 0 0 1 0.2949982 -17.272 -14.493 2 0.5 2
9 0 1 0 0 0 1 0 0 0 1 -3.205002 -13.772 -14.493 0.5 2 2
9 0 1 0 0 0 1 0 0 0 1 -11.205 -22.772 -22.493 0.5 2 2
9 0 1 0 0 0 1 0 0 0 1 -0.2050018 -17.772 -19.993 3.5 1 0.5
9 0 1 0 0 0 1 0 0 0 1 11.795 -16.272 -24.493 0.5 2.5 1
9 0 1 0 0 0 1 0 0 0 1 10.795 -23.772 -22.993 0.5 1 2.5
9 0 1 0 0 0 1 0 0 0 1 -7.705002 -23.272 -19.993 1 2.5 0.5
9 0 1 0 0 0 1 0 0 0 1 -33.205 -17.772 14.007 0.5 5 0.5
9 0 1 0 0 0 1 0 0 0 1 4.294998 -12.772 -20.993 1 2 0.5
9 0 1 0 0 0 1 0 0 0 1 -4.205002 -13.772 -14.493 0.5 1 2
9 0 1 0 0 0 1 0 0 0 1 7.794998 -23.272 -19.993 0.5 3.5 0.5
9 0 1 0 0 0 1 0 0 0 1 11.295 -11.272 -23.993 1 1.5 0.5
9 0 1 0 0 0 1 0 0 0 1 0.2949982 -5.272003 -22.993 3 0.5 0.5
9 0 1 0 0 0 1 0 0 0 1 -4.705002 -13.272 -20.993 1 1.5 0.5
9 0 1 0 0 0 1 0 0 0 1 -10.205 -25.272 -24.493 0.5 0.5 3
9 0 1 0 0 0 1 0 0 0 1 -12.205 -15.772 -23.993 0.5 3 0.5
9 0 1 0 0 0 1 0 0 0 1 -2.205002 -75.272 24.007 0.5 0.5 2.5
9 0 1 0 0 0 1 0 0 0 1 -11.205 -12.272 -23.993 0.5 2.5 0.5
9 0 1 0 0 0 1 0 0 0 1 -11.205 -18.272 -20.993 0.5 2.5 0.5
9 0 1 0 0 0 1 0 0 0 1 11.795 -22.772 -22.493 0.5 1 1
9 0 1 0 0 0 1 0 0 0 1 12.295 -23.272 -20.493 1 0.5 1
9 0 1 0 0 0 1 0 0 0 1 9.794998 -26.272 -25.493 0.5 0.5 2
9 0 1 0 0 0 1 0 0 0 1 9.294998 -27.272 -25.493 1 0.5 1
9 0 1 0 0 0 1 0 0 0 1 5.294998 -5.272003 -21.493 1 0.5 1
9 0 1 0 0 0 1 0 0 0 1 2.794998 -75.272 24.507 0.5 0.5 2
9 0 1 0 0 0 1 0 0 0 1 -3.705002 -28.772 -19.993 1 1 0.5
9 0 1 0 0 0 1 0 0 0 1 -5.705002 -6.272003 -22.993 2 0.5 0.5
9 0 1 0 0 0 1 0 0 0 1 -8.705002 -7.772003 -23.993 1 1 0.5
9 0 1 0 0 0 1 0 0 0 1 -9.205002 -27.272 -26.493 0.5 0.5 2
9 0 1 0 0 0 1 0 0 0 1 12.795 -17.272 -23.993 0.5 1.5 0.5
9 0 1 0 0 0 1 0 0 0 1 10.795 -25.272 -23.993 0.5 0.5 1.5
9 0 1 0 0 0 1 0 0 0 1 7.794998 -7.272003 -23.993 1.5 0.5 0.5
9 0 1 0 0 0 1 0 0 0 1 5.794998 -6.272003 -22.993 1.5 0.5 0.5
9 0 1 0 0 0 1 0 0 0 1 5.794998 -22.272 -19.993 1.5 0.5 0.5
9 0 1 0 0 0 1 0 0 0 1 4.794998 -28.272 -19.993 1.5 0.5 0.5
9 0 1 0 0 0 1 0 0 0 1 -0.2050018 -8.272003 -20.993 1.5 0.5 0.5
9 0 1 0 0 0 1 0 0 0 1 -0.2050018 -19.272 -19.993 1.5 0.5 0.5
9 0 1 0 0 0 1 0 0 0 1 -0.2050018 -75.272 20.007 1.5 0.5 0.5
9 0 1 0 0 0 1 0 0 0 1 -3.205002 -12.272 -16.993 0.5 1.5 0.5
9 0 1 0 0 0 1 0 0 0 1 -4.205002 -74.272 5.007 0.5 0.5 1.5
9 0 1 0 0 0 1 0 0 0 1 -5.205002 -5.272003 -21.993 1.5 0.5 0.5
9 0 1 0 0 0 1 0 0 0 1 -12.205 -23.272 -20.993 0.5 0.5 1.5
