9 0 1 0 0 0 1 0 0 0 1 50 2 -20 6.5 0.5 6.5
9 0 1 0 0 0 1 0 0 0 1 50 2 0 6.5 0.5 6.5
9 0 1 0 0 0 1 0 0 0 1 50 2 20 6.5 0.5 6.5
9 0 1 0 0 0 1 0 0 0 1 20 2 -30 6.5 0.5 6.5
9 0 1 0 0 0 1 0 0 0 1 20 2 30 6.5 0.5 6.5
9 0 1 0 0 0 1 0 0 0 1 0 2 -30 6.5 0.5 6.5
9 0 1 0 0 0 1 0 0 0 1 0 2 30 6.5 0.5 6.5
9 0 1 0 0 0 1 0 0 0 1 -20 2 -30 6.5 0.5 6.5
9 0 1 0 0 0 1 0 0 0 1 -20 2 30 6.5 0.5 6.5
9 0 1 0 0 0 1 0 0 0 1 -50 2 -20 6.5 0.5 6.5
9 0 1 0 0 0 1 0 0 0 1 -50 2 0 6.5 0.5 6.5
9 0 1 0 0 0 1 0 0 0 1 -50 2 20 6.5 0.5 6.5
9 0 1 0 0 0 1 0 0 0 1 50 3 -25 6.5 0.5 1.5
9 0 1 0 0 0 1 0 0 0 1 50 3 -15 6.5 0.5 1.5
9 0 1 0 0 0 1 0 0 0 1 50 3 -5 6.5 0.5 1.5
9 0 1 0 0 0 1 0 0 0 1 50 3 5 6.5 0.5 1.5
9 0 1 0 0 0 1 0 0 0 1 50 3 15 6.5 0.5 1.5
9 0 1 0 0 0 1 0 0 0 1 50 3 25 6.5 0.5 1.5
9 0 1 0 0 0 1 0 0 0 1 25 3 -30 1.5 0.5 6.5
9 0 1 0 0 0 1 0 0 0 1 25 3 30 1.5 0.5 6.5
9 0 1 0 0 0 1 0 0 0 1 15 3 -30 1.5 0.5 6.5
9 0 1 0 0 0 1 0 0 0 1 15 3 30 1.5 0.5 6.5
9 0 1 0 0 0 1 0 0 0 1 5 3 -30 1.5 0.5 6.5
9 0 1 0 0 0 1 0 0 0 1 5 3 30 1.5 0.5 6.5
9 0 1 0 0 0 1 0 0 0 1 -5 3 -30 1.5 0.5 6.5
9 0 1 0 0 0 1 0 0 0 1 -5 3 30 1.5 0.5 6.5
9 0 1 0 0 0 1 0 0 0 1 -15 3 -30 1.5 0.5 6.5
9 0 1 0 0 0 1 0 0 0 1 -15 3 30 1.5 0.5 6.5
9 0 1 0 0 0 1 0 0 0 1 -25 3 -30 1.5 0.5 6.5
9 0 1 0 0 0 1 0 0 0 1 -25 3 30 1.5 0.5 6.5
9 0 1 0 0 0 1 0 0 0 1 -50 3 -25 6.5 0.5 1.5
9 0 1 0 0 0 1 0 0 0 1 -50 3 -15 6.5 0.5 1.5
9 0 1 0 0 0 1 0 0 0 1 -50 3 -5 6.5 0.5 1.5
9 0 1 0 0 0 1 0 0 0 1 -50 3 5 6.5 0.5 1.5
9 0 1 0 0 0 1 0 0 0 1 -50 3 15 6.5 0.5 1.5
9 0 1 0 0 0 1 0 0 0 1 -50 3 25 6.5 0.5 1.5
9 0 1 0 0 0 1 0 0 0 1 50 4 -26 6.5 0.5 0.5
9 0 1 0 0 0 1 0 0 0 1 50 4 -14 6.5 0.5 0.5
9 0 1 0 0 0 1 0 0 0 1 50 4 -6 6.5 0.5 0.5
9 0 1 0 0 0 1 0 0 0 1 50 4 6 6.5 0.5 0.5
9 0 1 0 0 0 1 0 0 0 1 50 4 14 6.5 0.5 0.5
9 0 1 0 0 0 1 0 0 0 1 50 4 26 6.5 0.5 0.5
9 0 1 0 0 0 1 0 0 0 1 26 4 -30 0.5 0.5 6.5
9 0 1 0 0 0 1 0 0 0 1 26 4 30 0.5 0.5 6.5
9 0 1 0 0 0 1 0 0 0 1 14 4 -30 0.5 0.5 6.5
9 0 1 0 0 0 1 0 0 0 1 14 4 30 0.5 0.5 6.5
9 0 1 0 0 0 1 0 0 0 1 6 4 -30 0.5 0.5 6.5
9 0 1 0 0 0 1 0 0 0 1 6 4 30 0.5 0.5 6.5
9 0 1 0 0 0 1 0 0 0 1 -6 4 -30 0.5 0.5 6.5
9 0 1 0 0 0 1 0 0 0 1 -6 4 30 0.5 0.5 6.5
9 0 1 0 0 0 1 0 0 0 1 -14 4 -30 0.5 0.5 6.5
9 0 1 0 0 0 1 0 0 0 1 -14 4 30 0.5 0.5 6.5
9 0 1 0 0 0 1 0 0 0 1 -26 4 -30 0.5 0.5 6.5
9 0 1 0 0 0 1 0 0 0 1 -26 4 30 0.5 0.5 6.5
9 0 1 0 0 0 1 0 0 0 1 -50 4 -26 6.5 0.5 0.5
9 0 1 0 0 0 1 0 0 0 1 -50 4 -14 6.5 0.5 0.5
9 0 1 0 0 0 1 0 0 0 1 -50 4 -6 6.5 0.5 0.5
9 0 1 0 0 0 1 0 0 0 1 -50 4 6 6.5 0.5 0.5
9 0 1 0 0 0 1 0 0 0 1 -50 4 14 6.5 0.5 0.5
9 0 1 0 0 0 1 0 0 0 1 -50 4 26 6.5 0.5 0.5
