9 0 1 0 0 0 -1.192093E-07 -1 0 1 -1.192093E-07 0 -30.0259 -10.1948 3.35 0.5 3.35
9 0 1 0 0 0 -1.192093E-07 -1 0 1 -1.192093E-07 0 -30.0259 -14.1936 3.908445 0.5 3.908444
9 0 1 0 0 0 1 0 0 0 1 -0.05199814 -26.552 -16.418 6.5 6.5 0.5
9 0 1 0 0 0 1 0 0 0 1 -0.05199814 -28.052 -12.418 3.5 4 0.5
9 0 1 0 0 0 1 0 0 0 1 0.4480019 -27.552 -8.417999 3 2.5 0.5
9 0 1 0 0 0 1 0 0 0 1 0.4480019 -19.052 -16.418 4 1 0.5
9 0 1 0 0 0 1 0 0 0 1 0.4480019 -34.052 -16.418 4 1 0.5
9 0 1 0 0 0 1 0 0 0 1 7.948002 -26.552 -16.418 1.5 2.5 0.5
9 0 1 0 0 0 1 0 0 0 1 -7.551998 -26.552 -16.418 1 3.5 0.5
9 0 1 0 0 0 1 0 0 0 1 -0.05199814 -31.052 -8.417999 1.5 1 0.5
9 0 1 0 0 0 1 0 0 0 1 -4.051998 -28.052 -12.418 0.5 3 0.5
9 0 1 0 0 0 1 0 0 0 1 -0.05199814 -23.552 -12.418 2.5 0.5 0.5
9 0 1 0 0 0 1 0 0 0 1 -0.05199814 -32.552 -12.418 2.5 0.5 0.5
9 0 1 0 0 0 1 0 0 0 1 7.448002 -23.052 -16.418 1 1 0.5
9 0 1 0 0 0 1 0 0 0 1 7.448002 -30.052 -16.418 1 1 0.5
9 0 1 0 0 0 1 0 0 0 1 4.448002 -28.052 -12.418 1 1 0.5
9 0 1 0 0 0 1 0 0 0 1 0.4480019 -17.552 -16.418 2 0.5 0.5
9 0 1 0 0 0 1 0 0 0 1 -3.051998 -28.052 -8.417999 0.5 2 0.5
9 0 1 0 0 0 1 0 0 0 1 -0.05199814 -24.552 -8.417999 1.5 0.5 0.5
