9 0 1 0 0 0 1 0 0 0 1 -3.814697E-06 6.5 10.80108 3.5 1 5.5
9 0 1 0 0 0 1 0 0 0 1 -3.814697E-06 6.5 -10.69892 3.5 1 5
9 0 1 0 0 0 1 0 0 0 1 -3.814697E-06 74.5 -43.19892 0.5 5 6.5
9 0 1 0 0 0 1 0 0 0 1 -3.814697E-06 31 1.301077 13.5 0.5 2
9 0 1 0 0 0 1 0 0 0 1 -3.814697E-06 70 -65.19892 0.5 5.5 4.5
9 0 1 0 0 0 1 0 0 0 1 11 56 -60.69892 7.5 1.5 1
9 0 1 0 0 0 1 0 0 0 1 -11 56 -60.69892 7.5 1.5 1
9 0 1 0 0 0 1 0 0 0 1 -3.814697E-06 20 4.301077 16.5 0.5 1
9 0 1 0 0 0 1 0 0 0 1 11 62 -74.19892 7.5 0.5 1.5
9 0 1 0 0 0 1 0 0 0 1 -11 62 -74.19892 7.5 0.5 1.5
9 0 1 0 0 0 1 0 0 0 1 3.499996 43 -0.6989231 11 0.5 1
9 0 1 0 0 0 1 0 0 0 1 -3.814697E-06 -6 6.801077 6.5 1.5 0.5
9 0 1 0 0 0 1 0 0 0 1 -3.814697E-06 63 -76.19892 18.5 0.5 0.5
9 0 1 0 0 0 1 0 0 0 1 6.499996 66 -29.19892 3 0.5 2.5
9 0 1 0 0 0 1 0 0 0 1 11 54 -61.69892 7.5 0.5 1
9 0 1 0 0 0 1 0 0 0 1 -3.814697E-06 82.5 -50.19892 0.5 3 2.5
9 0 1 0 0 0 1 0 0 0 1 -6.000004 66 -28.69892 2.5 0.5 3
9 0 1 0 0 0 1 0 0 0 1 -11 54 -61.69892 7.5 0.5 1
9 0 1 0 0 0 1 0 0 0 1 -3.814697E-06 86.5 -64.19892 0.5 2 3.5
9 0 1 0 0 0 1 0 0 0 1 -3.814697E-06 72.5 -33.19892 0.5 2 3.5
9 0 1 0 0 0 1 0 0 0 1 -3.814697E-06 7 -4.698923 6.5 0.5 1
9 0 1 0 0 0 1 0 0 0 1 -3.814697E-06 4.5 -7.198923 6.5 1 0.5
9 0 1 0 0 0 1 0 0 0 1 -3.814697E-06 -7 5.301077 6.5 0.5 1
9 0 1 0 0 0 1 0 0 0 1 -3.814697E-06 54 -6.198923 12.5 0.5 0.5
9 0 1 0 0 0 1 0 0 0 1 -3.814697E-06 42 -3.198923 12.5 0.5 0.5
9 0 1 0 0 0 1 0 0 0 1 -3.814697E-06 68 -47.19892 0.5 1.5 3.5
9 0 1 0 0 0 1 0 0 0 1 -3.814697E-06 65 -12.19892 10.5 0.5 0.5
9 0 1 0 0 0 1 0 0 0 1 -3.814697E-06 53 -8.198923 10.5 0.5 0.5
9 0 1 0 0 0 1 0 0 0 1 -3.814697E-06 40 -10.19892 8.5 0.5 0.5
9 0 1 0 0 0 1 0 0 0 1 -3.814697E-06 32 3.801077 8.5 0.5 0.5
9 0 1 0 0 0 1 0 0 0 1 -3.814697E-06 19 -4.198923 8.5 0.5 0.5
9 0 1 0 0 0 1 0 0 0 1 11 88 -55.19892 7.5 0.5 0.5
9 0 1 0 0 0 1 0 0 0 1 5.999996 76 -22.19892 2.5 1.5 0.5
9 0 1 0 0 0 1 0 0 0 1 5.999996 67 -27.19892 2.5 0.5 1.5
9 0 1 0 0 0 1 0 0 0 1 11 63 -75.19892 7.5 0.5 0.5
9 0 1 0 0 0 1 0 0 0 1 11 61 -74.19892 7.5 0.5 0.5
9 0 1 0 0 0 1 0 0 0 1 -6.000004 76 -22.19892 2.5 1.5 0.5
9 0 1 0 0 0 1 0 0 0 1 -6.000004 67 -27.19892 2.5 0.5 1.5
9 0 1 0 0 0 1 0 0 0 1 -11 88 -55.19892 7.5 0.5 0.5
9 0 1 0 0 0 1 0 0 0 1 -11 63 -75.19892 7.5 0.5 0.5
9 0 1 0 0 0 1 0 0 0 1 -11 61 -74.19892 7.5 0.5 0.5
9 0 1 0 0 0 1 0 0 0 1 -3.814697E-06 5 6.801077 6.5 0.5 0.5
9 0 1 0 0 0 1 0 0 0 1 -3.814697E-06 -6 5.801077 6.5 0.5 0.5
9 0 1 0 0 0 1 0 0 0 1 4.999996 6.5 -6.698923 1.5 1 1
9 0 1 0 0 0 1 0 0 0 1 4.999996 6.5 6.301077 1.5 1 1
9 0 1 0 0 0 1 0 0 0 1 -3.814697E-06 72.5 -59.19892 0.5 2 1.5
9 0 1 0 0 0 1 0 0 0 1 2.499996 7 4.301077 3 0.5 1
9 0 1 0 0 0 1 0 0 0 1 3.499996 30 -4.198923 6 0.5 0.5
9 0 1 0 0 0 1 0 0 0 1 2.499996 66 -26.19892 6 0.5 0.5
9 0 1 0 0 0 1 0 0 0 1 -5.000004 6.5 -6.698923 1.5 1 1
9 0 1 0 0 0 1 0 0 0 1 -5.000004 6.5 6.301077 1.5 1 1
9 0 1 0 0 0 1 0 0 0 1 8.999996 61 -46.19892 5.5 0.5 0.5
9 0 1 0 0 0 1 0 0 0 1 -9.000004 61 -46.19892 5.5 0.5 0.5
9 0 1 0 0 0 1 0 0 0 1 5.999996 68 -25.69892 2.5 0.5 1
9 0 1 0 0 0 1 0 0 0 1 -3.814697E-06 85 -59.69892 0.5 2.5 1
9 0 1 0 0 0 1 0 0 0 1 -3.814697E-06 81.5 -55.19892 0.5 1 2.5
9 0 1 0 0 0 1 0 0 0 1 -3.814697E-06 68 -70.69892 0.5 2.5 1
9 0 1 0 0 0 1 0 0 0 1 -3.814697E-06 64 -51.69892 0.5 2.5 1
9 0 1 0 0 0 1 0 0 0 1 -6.000004 68 -25.69892 2.5 0.5 1
9 0 1 0 0 0 1 0 0 0 1 7.999996 64 -39.19892 4.5 0.5 0.5
9 0 1 0 0 0 1 0 0 0 1 -3.814697E-06 66 -11.19892 4.5 0.5 0.5
9 0 1 0 0 0 1 0 0 0 1 -8.000004 64 -39.19892 4.5 0.5 0.5
9 0 1 0 0 0 1 0 0 0 1 7.499996 80 -28.19892 4 0.5 0.5
9 0 1 0 0 0 1 0 0 0 1 -3.814697E-06 73.5 -28.69892 0.5 2 1
9 0 1 0 0 0 1 0 0 0 1 -3.814697E-06 63.5 -63.69892 0.5 1 2
9 0 1 0 0 0 1 0 0 0 1 -7.500004 80 -28.19892 4 0.5 0.5
9 0 1 0 0 0 1 0 0 0 1 6.999996 79 -26.19892 3.5 0.5 0.5
9 0 1 0 0 0 1 0 0 0 1 -3.814697E-06 6 -16.19892 3.5 0.5 0.5
9 0 1 0 0 0 1 0 0 0 1 -4.000004 55 -5.198923 3.5 0.5 0.5
9 0 1 0 0 0 1 0 0 0 1 -7.000004 79 -26.19892 3.5 0.5 0.5
9 0 1 0 0 0 1 0 0 0 1 -11 43 -0.1989231 3.5 0.5 0.5
9 0 1 0 0 0 1 0 0 0 1 6.499996 78 -24.19892 3 0.5 0.5
9 0 1 0 0 0 1 0 0 0 1 6.499996 77 -23.19892 3 0.5 0.5
9 0 1 0 0 0 1 0 0 0 1 -3.814697E-06 87 -70.69892 0.5 0.5 3
9 0 1 0 0 0 1 0 0 0 1 -3.814697E-06 76.5 -67.19892 0.5 1 1.5
9 0 1 0 0 0 1 0 0 0 1 -3.814697E-06 69.5 -35.19892 0.5 1 1.5
9 0 1 0 0 0 1 0 0 0 1 -3.814697E-06 56 -60.69892 0.5 1.5 1
9 0 1 0 0 0 1 0 0 0 1 -1.500004 -7 3.801077 3 0.5 0.5
9 0 1 0 0 0 1 0 0 0 1 -3.500004 7 4.801077 3 0.5 0.5
9 0 1 0 0 0 1 0 0 0 1 -6.500004 78 -24.19892 3 0.5 0.5
9 0 1 0 0 0 1 0 0 0 1 -3.814697E-06 84 -63.19892 0.5 0.5 2.5
9 0 1 0 0 0 1 0 0 0 1 -3.814697E-06 68 -60.19892 0.5 2.5 0.5
9 0 1 0 0 0 1 0 0 0 1 -3.814697E-06 66 -29.19892 0.5 0.5 2.5
9 0 1 0 0 0 1 0 0 0 1 -9.000004 66 -29.19892 0.5 0.5 2.5
9 0 1 0 0 0 1 0 0 0 1 14.5 31 2.301077 1 0.5 1
9 0 1 0 0 0 1 0 0 0 1 -3.814697E-06 80.5 -40.69892 0.5 1 1
9 0 1 0 0 0 1 0 0 0 1 -5.500004 77 -23.19892 2 0.5 0.5
9 0 1 0 0 0 1 0 0 0 1 -14.5 31 2.301077 1 0.5 1
9 0 1 0 0 0 1 0 0 0 1 -3.814697E-06 86 -69.19892 0.5 0.5 1.5
9 0 1 0 0 0 1 0 0 0 1 -3.814697E-06 79 -51.19892 0.5 0.5 1.5
9 0 1 0 0 0 1 0 0 0 1 -3.814697E-06 76 -22.19892 0.5 1.5 0.5
9 0 1 0 0 0 1 0 0 0 1 -3.814697E-06 72 -70.19892 0.5 1.5 0.5
9 0 1 0 0 0 1 0 0 0 1 -3.814697E-06 67 -27.19892 0.5 0.5 1.5
9 0 1 0 0 0 1 0 0 0 1 -3.814697E-06 62 -74.19892 0.5 0.5 1.5
9 0 1 0 0 0 1 0 0 0 1 -3.814697E-06 62 -53.19892 0.5 1.5 0.5
9 0 1 0 0 0 1 0 0 0 1 -3.814697E-06 20 5.801077 1.5 0.5 0.5
