9 0 1 0 0 0 1 0 0 0 1 -20 -2 -120 3.35 0.5 3.35
9 0 1 0 0 0 1 0 0 0 1 -60 -2 -120 3.35 0.5 3.35
9 0 1 0 0 0 1 0 0 0 1 -100 -2 -120 3.35 0.5 3.35
9 0 1 0 0 0 1 0 0 0 1 -140 -2 -120 3.35 0.5 3.35
9 0 1 0 0 0 1 0 0 0 1 -180 -2 -120 3.35 0.5 3.35
9 0 1 0 0 0 1 0 0 0 1 -220 -2 -120 3.35 0.5 3.35
9 0 1 0 0 0 1 0 0 0 1 -260 -2 -120 3.35 0.5 3.35
9 0 1 0 0 0 1 0 0 0 1 -300 -2 -120 3.35 0.5 3.35
9 0 1 0 0 0 1 0 0 0 1 -340 -2 -120 3.35 0.5 3.35
9 0 1 0 0 0 1 0 0 0 1 -380 -2 -120 3.35 0.5 3.35
9 0 1 0 0 0 1 0 0 0 1 -420 -2 -120 3.35 0.5 3.35
9 0 1 0 0 0 1 0 0 0 1 -20 -2 -160 3.35 0.5 3.35
9 0 1 0 0 0 1 0 0 0 1 -60 -2 -160 3.35 0.5 3.35
9 0 1 0 0 0 1 0 0 0 1 -100 -2 -160 3.35 0.5 3.35
9 0 1 0 0 0 1 0 0 0 1 -140 -2 -160 3.35 0.5 3.35
9 0 1 0 0 0 1 0 0 0 1 -180 -2 -160 3.35 0.5 3.35
9 0 1 0 0 0 1 0 0 0 1 -220 -2 -160 3.35 0.5 3.35
9 0 1 0 0 0 1 0 0 0 1 -260 -2 -160 3.35 0.5 3.35
9 0 1 0 0 0 1 0 0 0 1 -300 -2 -160 3.35 0.5 3.35
9 0 1 0 0 0 1 0 0 0 1 -340 -2 -160 3.35 0.5 3.35
9 0 1 0 0 0 1 0 0 0 1 -380 -2 -160 3.35 0.5 3.35
9 0 1 0 0 0 1 0 0 0 1 -420 -2 -160 3.35 0.5 3.35
9 0 1 0 0 0 1 0 0 0 1 -20 -2 -200 3.35 0.5 3.35
9 0 1 0 0 0 1 0 0 0 1 -60 -2 -200 3.35 0.5 3.35
9 0 1 0 0 0 1 0 0 0 1 -100 -2 -200 3.35 0.5 3.35
9 0 1 0 0 0 1 0 0 0 1 -140 -2 -200 3.35 0.5 3.35
9 0 1 0 0 0 1 0 0 0 1 -180 -2 -200 3.35 0.5 3.35
9 0 1 0 0 0 1 0 0 0 1 -220 -2 -200 3.35 0.5 3.35
9 0 1 0 0 0 1 0 0 0 1 -260 -2 -200 3.35 0.5 3.35
9 0 1 0 0 0 1 0 0 0 1 -300 -2 -200 3.35 0.5 3.35
9 0 1 0 0 0 1 0 0 0 1 -340 -2 -200 3.35 0.5 3.35
9 0 1 0 0 0 1 0 0 0 1 -380 -2 -200 3.35 0.5 3.35
9 0 1 0 0 0 1 0 0 0 1 -420 -2 -200 3.35 0.5 3.35
9 0 1 0 0 0 1 0 0 0 1 -20 -2 -80 3.35 0.5 3.35
9 0 1 0 0 0 1 0 0 0 1 -60 -2 -80 3.35 0.5 3.35
9 0 1 0 0 0 1 0 0 0 1 -100 -2 -80 3.35 0.5 3.35
9 0 1 0 0 0 1 0 0 0 1 -140 -2 -80 3.35 0.5 3.35
9 0 1 0 0 0 1 0 0 0 1 -180 -2 -80 3.35 0.5 3.35
9 0 1 0 0 0 1 0 0 0 1 -220 -2 -80 3.35 0.5 3.35
9 0 1 0 0 0 1 0 0 0 1 -260 -2 -80 3.35 0.5 3.35
9 0 1 0 0 0 1 0 0 0 1 -300 -2 -80 3.35 0.5 3.35
9 0 1 0 0 0 1 0 0 0 1 -340 -2 -80 3.35 0.5 3.35
9 0 1 0 0 0 1 0 0 0 1 -380 -2 -80 3.35 0.5 3.35
9 0 1 0 0 0 1 0 0 0 1 -420 -2 -80 3.35 0.5 3.35
9 0 1 0 0 0 1 0 0 0 1 -20 -2 -40 3.35 0.5 3.35
9 0 1 0 0 0 1 0 0 0 1 -60 -2 -40 3.35 0.5 3.35
9 0 1 0 0 0 1 0 0 0 1 -100 -2 -40 3.35 0.5 3.35
9 0 1 0 0 0 1 0 0 0 1 -140 -2 -40 3.35 0.5 3.35
9 0 1 0 0 0 1 0 0 0 1 -180 -2 -40 3.35 0.5 3.35
9 0 1 0 0 0 1 0 0 0 1 -220 -2 -40 3.35 0.5 3.35
9 0 1 0 0 0 1 0 0 0 1 -260 -2 -40 3.35 0.5 3.35
9 0 1 0 0 0 1 0 0 0 1 -300 -2 -40 3.35 0.5 3.35
9 0 1 0 0 0 1 0 0 0 1 -340 -2 -40 3.35 0.5 3.35
9 0 1 0 0 0 1 0 0 0 1 -380 -2 -40 3.35 0.5 3.35
9 0 1 0 0 0 1 0 0 0 1 -420 -2 -40 3.35 0.5 3.35
9 0 1 0 0 0 1 0 0 0 1 420 -2 -120 3.35 0.5 3.35
9 0 1 0 0 0 1 0 0 0 1 380 -2 -120 3.35 0.5 3.35
9 0 1 0 0 0 1 0 0 0 1 340 -2 -120 3.35 0.5 3.35
9 0 1 0 0 0 1 0 0 0 1 300 -2 -120 3.35 0.5 3.35
9 0 1 0 0 0 1 0 0 0 1 260 -2 -120 3.35 0.5 3.35
9 0 1 0 0 0 1 0 0 0 1 220 -2 -120 3.35 0.5 3.35
9 0 1 0 0 0 1 0 0 0 1 180 -2 -120 3.35 0.5 3.35
9 0 1 0 0 0 1 0 0 0 1 140 -2 -120 3.35 0.5 3.35
9 0 1 0 0 0 1 0 0 0 1 100 -2 -120 3.35 0.5 3.35
9 0 1 0 0 0 1 0 0 0 1 60 -2 -120 3.35 0.5 3.35
9 0 1 0 0 0 1 0 0 0 1 20 -2 -120 3.35 0.5 3.35
9 0 1 0 0 0 1 0 0 0 1 420 -2 -160 3.35 0.5 3.35
9 0 1 0 0 0 1 0 0 0 1 380 -2 -160 3.35 0.5 3.35
9 0 1 0 0 0 1 0 0 0 1 340 -2 -160 3.35 0.5 3.35
9 0 1 0 0 0 1 0 0 0 1 300 -2 -160 3.35 0.5 3.35
9 0 1 0 0 0 1 0 0 0 1 260 -2 -160 3.35 0.5 3.35
9 0 1 0 0 0 1 0 0 0 1 220 -2 -160 3.35 0.5 3.35
9 0 1 0 0 0 1 0 0 0 1 180 -2 -160 3.35 0.5 3.35
9 0 1 0 0 0 1 0 0 0 1 140 -2 -160 3.35 0.5 3.35
9 0 1 0 0 0 1 0 0 0 1 100 -2 -160 3.35 0.5 3.35
9 0 1 0 0 0 1 0 0 0 1 60 -2 -160 3.35 0.5 3.35
9 0 1 0 0 0 1 0 0 0 1 20 -2 -160 3.35 0.5 3.35
9 0 1 0 0 0 1 0 0 0 1 420 -2 -200 3.35 0.5 3.35
9 0 1 0 0 0 1 0 0 0 1 380 -2 -200 3.35 0.5 3.35
9 0 1 0 0 0 1 0 0 0 1 340 -2 -200 3.35 0.5 3.35
9 0 1 0 0 0 1 0 0 0 1 300 -2 -200 3.35 0.5 3.35
9 0 1 0 0 0 1 0 0 0 1 260 -2 -200 3.35 0.5 3.35
9 0 1 0 0 0 1 0 0 0 1 220 -2 -200 3.35 0.5 3.35
9 0 1 0 0 0 1 0 0 0 1 180 -2 -200 3.35 0.5 3.35
9 0 1 0 0 0 1 0 0 0 1 140 -2 -200 3.35 0.5 3.35
9 0 1 0 0 0 1 0 0 0 1 100 -2 -200 3.35 0.5 3.35
9 0 1 0 0 0 1 0 0 0 1 60 -2 -200 3.35 0.5 3.35
9 0 1 0 0 0 1 0 0 0 1 20 -2 -200 3.35 0.5 3.35
9 0 1 0 0 0 1 0 0 0 1 420 -2 -80 3.35 0.5 3.35
9 0 1 0 0 0 1 0 0 0 1 380 -2 -80 3.35 0.5 3.35
9 0 1 0 0 0 1 0 0 0 1 340 -2 -80 3.35 0.5 3.35
9 0 1 0 0 0 1 0 0 0 1 300 -2 -80 3.35 0.5 3.35
9 0 1 0 0 0 1 0 0 0 1 260 -2 -80 3.35 0.5 3.35
9 0 1 0 0 0 1 0 0 0 1 220 -2 -80 3.35 0.5 3.35
9 0 1 0 0 0 1 0 0 0 1 180 -2 -80 3.35 0.5 3.35
9 0 1 0 0 0 1 0 0 0 1 140 -2 -80 3.35 0.5 3.35
9 0 1 0 0 0 1 0 0 0 1 100 -2 -80 3.35 0.5 3.35
9 0 1 0 0 0 1 0 0 0 1 60 -2 -80 3.35 0.5 3.35
9 0 1 0 0 0 1 0 0 0 1 20 -2 -80 3.35 0.5 3.35
9 0 1 0 0 0 1 0 0 0 1 420 -2 -40 3.35 0.5 3.35
9 0 1 0 0 0 1 0 0 0 1 380 -2 -40 3.35 0.5 3.35
9 0 1 0 0 0 1 0 0 0 1 340 -2 -40 3.35 0.5 3.35
9 0 1 0 0 0 1 0 0 0 1 300 -2 -40 3.35 0.5 3.35
9 0 1 0 0 0 1 0 0 0 1 260 -2 -40 3.35 0.5 3.35
9 0 1 0 0 0 1 0 0 0 1 220 -2 -40 3.35 0.5 3.35
9 0 1 0 0 0 1 0 0 0 1 180 -2 -40 3.35 0.5 3.35
9 0 1 0 0 0 1 0 0 0 1 140 -2 -40 3.35 0.5 3.35
9 0 1 0 0 0 1 0 0 0 1 100 -2 -40 3.35 0.5 3.35
9 0 1 0 0 0 1 0 0 0 1 60 -2 -40 3.35 0.5 3.35
9 0 1 0 0 0 1 0 0 0 1 20 -2 -40 3.35 0.5 3.35
9 0 1 0 0 0 1 0 0 0 1 -20 -2 120 3.35 0.5 3.35
9 0 1 0 0 0 1 0 0 0 1 -60 -2 120 3.35 0.5 3.35
9 0 1 0 0 0 1 0 0 0 1 -100 -2 120 3.35 0.5 3.35
9 0 1 0 0 0 1 0 0 0 1 -140 -2 120 3.35 0.5 3.35
9 0 1 0 0 0 1 0 0 0 1 -180 -2 120 3.35 0.5 3.35
9 0 1 0 0 0 1 0 0 0 1 -220 -2 120 3.35 0.5 3.35
9 0 1 0 0 0 1 0 0 0 1 -260 -2 120 3.35 0.5 3.35
9 0 1 0 0 0 1 0 0 0 1 -300 -2 120 3.35 0.5 3.35
9 0 1 0 0 0 1 0 0 0 1 -340 -2 120 3.35 0.5 3.35
9 0 1 0 0 0 1 0 0 0 1 -380 -2 120 3.35 0.5 3.35
9 0 1 0 0 0 1 0 0 0 1 -420 -2 120 3.35 0.5 3.35
9 0 1 0 0 0 1 0 0 0 1 -20 -2 160 3.35 0.5 3.35
9 0 1 0 0 0 1 0 0 0 1 -60 -2 160 3.35 0.5 3.35
9 0 1 0 0 0 1 0 0 0 1 -100 -2 160 3.35 0.5 3.35
9 0 1 0 0 0 1 0 0 0 1 -140 -2 160 3.35 0.5 3.35
9 0 1 0 0 0 1 0 0 0 1 -180 -2 160 3.35 0.5 3.35
9 0 1 0 0 0 1 0 0 0 1 -220 -2 160 3.35 0.5 3.35
9 0 1 0 0 0 1 0 0 0 1 -260 -2 160 3.35 0.5 3.35
9 0 1 0 0 0 1 0 0 0 1 -300 -2 160 3.35 0.5 3.35
9 0 1 0 0 0 1 0 0 0 1 -340 -2 160 3.35 0.5 3.35
9 0 1 0 0 0 1 0 0 0 1 -380 -2 160 3.35 0.5 3.35
9 0 1 0 0 0 1 0 0 0 1 -420 -2 160 3.35 0.5 3.35
9 0 1 0 0 0 1 0 0 0 1 -20 -2 200 3.35 0.5 3.35
9 0 1 0 0 0 1 0 0 0 1 -60 -2 200 3.35 0.5 3.35
9 0 1 0 0 0 1 0 0 0 1 -100 -2 200 3.35 0.5 3.35
9 0 1 0 0 0 1 0 0 0 1 -140 -2 200 3.35 0.5 3.35
9 0 1 0 0 0 1 0 0 0 1 -180 -2 200 3.35 0.5 3.35
9 0 1 0 0 0 1 0 0 0 1 -220 -2 200 3.35 0.5 3.35
9 0 1 0 0 0 1 0 0 0 1 -260 -2 200 3.35 0.5 3.35
9 0 1 0 0 0 1 0 0 0 1 -300 -2 200 3.35 0.5 3.35
9 0 1 0 0 0 1 0 0 0 1 -340 -2 200 3.35 0.5 3.35
9 0 1 0 0 0 1 0 0 0 1 -380 -2 200 3.35 0.5 3.35
9 0 1 0 0 0 1 0 0 0 1 -420 -2 200 3.35 0.5 3.35
9 0 1 0 0 0 1 0 0 0 1 -20 -2 80 3.35 0.5 3.35
9 0 1 0 0 0 1 0 0 0 1 -60 -2 80 3.35 0.5 3.35
9 0 1 0 0 0 1 0 0 0 1 -100 -2 80 3.35 0.5 3.35
9 0 1 0 0 0 1 0 0 0 1 -140 -2 80 3.35 0.5 3.35
9 0 1 0 0 0 1 0 0 0 1 -180 -2 80 3.35 0.5 3.35
9 0 1 0 0 0 1 0 0 0 1 -220 -2 80 3.35 0.5 3.35
9 0 1 0 0 0 1 0 0 0 1 -260 -2 80 3.35 0.5 3.35
9 0 1 0 0 0 1 0 0 0 1 -300 -2 80 3.35 0.5 3.35
9 0 1 0 0 0 1 0 0 0 1 -340 -2 80 3.35 0.5 3.35
9 0 1 0 0 0 1 0 0 0 1 -380 -2 80 3.35 0.5 3.35
9 0 1 0 0 0 1 0 0 0 1 -420 -2 80 3.35 0.5 3.35
9 0 1 0 0 0 1 0 0 0 1 -20 -2 40 3.35 0.5 3.35
9 0 1 0 0 0 1 0 0 0 1 -60 -2 40 3.35 0.5 3.35
9 0 1 0 0 0 1 0 0 0 1 -100 -2 40 3.35 0.5 3.35
9 0 1 0 0 0 1 0 0 0 1 -140 -2 40 3.35 0.5 3.35
9 0 1 0 0 0 1 0 0 0 1 -180 -2 40 3.35 0.5 3.35
9 0 1 0 0 0 1 0 0 0 1 -220 -2 40 3.35 0.5 3.35
9 0 1 0 0 0 1 0 0 0 1 -260 -2 40 3.35 0.5 3.35
9 0 1 0 0 0 1 0 0 0 1 -300 -2 40 3.35 0.5 3.35
9 0 1 0 0 0 1 0 0 0 1 -340 -2 40 3.35 0.5 3.35
9 0 1 0 0 0 1 0 0 0 1 -380 -2 40 3.35 0.5 3.35
9 0 1 0 0 0 1 0 0 0 1 -420 -2 40 3.35 0.5 3.35
9 0 1 0 0 0 1 0 0 0 1 -20 -2 0 3.35 0.5 3.35
9 0 1 0 0 0 1 0 0 0 1 -60 -2 0 3.35 0.5 3.35
9 0 1 0 0 0 1 0 0 0 1 -100 -2 0 3.35 0.5 3.35
9 0 1 0 0 0 1 0 0 0 1 -140 -2 0 3.35 0.5 3.35
9 0 1 0 0 0 1 0 0 0 1 -180 -2 0 3.35 0.5 3.35
9 0 1 0 0 0 1 0 0 0 1 -220 -2 0 3.35 0.5 3.35
9 0 1 0 0 0 1 0 0 0 1 -260 -2 0 3.35 0.5 3.35
9 0 1 0 0 0 1 0 0 0 1 -300 -2 0 3.35 0.5 3.35
9 0 1 0 0 0 1 0 0 0 1 -340 -2 0 3.35 0.5 3.35
9 0 1 0 0 0 1 0 0 0 1 -380 -2 0 3.35 0.5 3.35
9 0 1 0 0 0 1 0 0 0 1 -420 -2 0 3.35 0.5 3.35
9 0 1 0 0 0 1 0 0 0 1 420 -2 120 3.35 0.5 3.35
9 0 1 0 0 0 1 0 0 0 1 380 -2 120 3.35 0.5 3.35
9 0 1 0 0 0 1 0 0 0 1 340 -2 120 3.35 0.5 3.35
9 0 1 0 0 0 1 0 0 0 1 300 -2 120 3.35 0.5 3.35
9 0 1 0 0 0 1 0 0 0 1 260 -2 120 3.35 0.5 3.35
9 0 1 0 0 0 1 0 0 0 1 220 -2 120 3.35 0.5 3.35
9 0 1 0 0 0 1 0 0 0 1 180 -2 120 3.35 0.5 3.35
9 0 1 0 0 0 1 0 0 0 1 140 -2 120 3.35 0.5 3.35
9 0 1 0 0 0 1 0 0 0 1 100 -2 120 3.35 0.5 3.35
9 0 1 0 0 0 1 0 0 0 1 60 -2 120 3.35 0.5 3.35
9 0 1 0 0 0 1 0 0 0 1 20 -2 120 3.35 0.5 3.35
9 0 1 0 0 0 1 0 0 0 1 420 -2 160 3.35 0.5 3.35
9 0 1 0 0 0 1 0 0 0 1 380 -2 160 3.35 0.5 3.35
9 0 1 0 0 0 1 0 0 0 1 340 -2 160 3.35 0.5 3.35
9 0 1 0 0 0 1 0 0 0 1 300 -2 160 3.35 0.5 3.35
9 0 1 0 0 0 1 0 0 0 1 260 -2 160 3.35 0.5 3.35
9 0 1 0 0 0 1 0 0 0 1 220 -2 160 3.35 0.5 3.35
9 0 1 0 0 0 1 0 0 0 1 180 -2 160 3.35 0.5 3.35
9 0 1 0 0 0 1 0 0 0 1 140 -2 160 3.35 0.5 3.35
9 0 1 0 0 0 1 0 0 0 1 100 -2 160 3.35 0.5 3.35
9 0 1 0 0 0 1 0 0 0 1 60 -2 160 3.35 0.5 3.35
9 0 1 0 0 0 1 0 0 0 1 20 -2 160 3.35 0.5 3.35
9 0 1 0 0 0 1 0 0 0 1 420 -2 200 3.35 0.5 3.35
9 0 1 0 0 0 1 0 0 0 1 380 -2 200 3.35 0.5 3.35
9 0 1 0 0 0 1 0 0 0 1 340 -2 200 3.35 0.5 3.35
9 0 1 0 0 0 1 0 0 0 1 300 -2 200 3.35 0.5 3.35
9 0 1 0 0 0 1 0 0 0 1 260 -2 200 3.35 0.5 3.35
9 0 1 0 0 0 1 0 0 0 1 220 -2 200 3.35 0.5 3.35
9 0 1 0 0 0 1 0 0 0 1 180 -2 200 3.35 0.5 3.35
9 0 1 0 0 0 1 0 0 0 1 140 -2 200 3.35 0.5 3.35
9 0 1 0 0 0 1 0 0 0 1 100 -2 200 3.35 0.5 3.35
9 0 1 0 0 0 1 0 0 0 1 60 -2 200 3.35 0.5 3.35
9 0 1 0 0 0 1 0 0 0 1 20 -2 200 3.35 0.5 3.35
9 0 1 0 0 0 1 0 0 0 1 420 -2 80 3.35 0.5 3.35
9 0 1 0 0 0 1 0 0 0 1 380 -2 80 3.35 0.5 3.35
9 0 1 0 0 0 1 0 0 0 1 340 -2 80 3.35 0.5 3.35
9 0 1 0 0 0 1 0 0 0 1 300 -2 80 3.35 0.5 3.35
9 0 1 0 0 0 1 0 0 0 1 260 -2 80 3.35 0.5 3.35
9 0 1 0 0 0 1 0 0 0 1 220 -2 80 3.35 0.5 3.35
9 0 1 0 0 0 1 0 0 0 1 180 -2 80 3.35 0.5 3.35
9 0 1 0 0 0 1 0 0 0 1 140 -2 80 3.35 0.5 3.35
9 0 1 0 0 0 1 0 0 0 1 100 -2 80 3.35 0.5 3.35
9 0 1 0 0 0 1 0 0 0 1 60 -2 80 3.35 0.5 3.35
9 0 1 0 0 0 1 0 0 0 1 20 -2 80 3.35 0.5 3.35
9 0 1 0 0 0 1 0 0 0 1 420 -2 40 3.35 0.5 3.35
9 0 1 0 0 0 1 0 0 0 1 380 -2 40 3.35 0.5 3.35
9 0 1 0 0 0 1 0 0 0 1 340 -2 40 3.35 0.5 3.35
9 0 1 0 0 0 1 0 0 0 1 300 -2 40 3.35 0.5 3.35
9 0 1 0 0 0 1 0 0 0 1 260 -2 40 3.35 0.5 3.35
9 0 1 0 0 0 1 0 0 0 1 220 -2 40 3.35 0.5 3.35
9 0 1 0 0 0 1 0 0 0 1 180 -2 40 3.35 0.5 3.35
9 0 1 0 0 0 1 0 0 0 1 140 -2 40 3.35 0.5 3.35
9 0 1 0 0 0 1 0 0 0 1 100 -2 40 3.35 0.5 3.35
9 0 1 0 0 0 1 0 0 0 1 60 -2 40 3.35 0.5 3.35
9 0 1 0 0 0 1 0 0 0 1 20 -2 40 3.35 0.5 3.35
9 0 1 0 0 0 1 0 0 0 1 420 -2 0 3.35 0.5 3.35
9 0 1 0 0 0 1 0 0 0 1 380 -2 0 3.35 0.5 3.35
9 0 1 0 0 0 1 0 0 0 1 340 -2 0 3.35 0.5 3.35
9 0 1 0 0 0 1 0 0 0 1 300 -2 0 3.35 0.5 3.35
9 0 1 0 0 0 1 0 0 0 1 260 -2 0 3.35 0.5 3.35
9 0 1 0 0 0 1 0 0 0 1 220 -2 0 3.35 0.5 3.35
9 0 1 0 0 0 1 0 0 0 1 180 -2 0 3.35 0.5 3.35
9 0 1 0 0 0 1 0 0 0 1 140 -2 0 3.35 0.5 3.35
9 0 1 0 0 0 1 0 0 0 1 100 -2 0 3.35 0.5 3.35
9 0 1 0 0 0 1 0 0 0 1 60 -2 0 3.35 0.5 3.35
9 0 1 0 0 0 1 0 0 0 1 20 -2 0 3.35 0.5 3.35
9 0 1 0 0 0 1 0 0 0 1 0 2 -191.5 433.5 0.5 26
9 0 1 0 0 0 1 0 0 0 1 -18.5 2 192 413 0.5 26.5
9 0 1 0 0 0 1 0 0 0 1 0 2 -140 438.5 0.5 14.5
9 0 1 0 0 0 1 0 0 0 1 0 2 -100 438.5 0.5 14.5
9 0 1 0 0 0 1 0 0 0 1 0 2 -60 438.5 0.5 14.5
9 0 1 0 0 0 1 0 0 0 1 0 2 -20 438.5 0.5 14.5
9 0 1 0 0 0 1 0 0 0 1 0 2 20 438.5 0.5 14.5
9 0 1 0 0 0 1 0 0 0 1 0 2 60 438.5 0.5 14.5
9 0 1 0 0 0 1 0 0 0 1 0 2 100 438.5 0.5 14.5
9 0 1 0 0 0 1 0 0 0 1 0 2 140 438.5 0.5 14.5
9 0 1 0 0 0 1 0 0 0 1 0 4 -218 431.5 2.5 0.5
9 0 1 0 0 0 1 0 0 0 1 0 4.5 218 431.5 2 0.5
9 0 1 0 0 0 1 0 0 0 1 415.5 2 190.5 21 0.5 25
9 0 1 0 0 0 1 0 0 0 1 438 4.5 0 0.5 2 211.5
9 0 1 0 0 0 1 0 0 0 1 -438 4.5 0 0.5 2 211.5
9 0 1 0 0 0 1 0 0 0 1 402 2 -120 36.5 0.5 5.5
9 0 1 0 0 0 1 0 0 0 1 402 2 -40 36.5 0.5 5.5
9 0 1 0 0 0 1 0 0 0 1 402 2 40 36.5 0.5 5.5
9 0 1 0 0 0 1 0 0 0 1 402 2 120 36.5 0.5 5.5
9 0 1 0 0 0 1 0 0 0 1 -402 2 -120 36.5 0.5 5.5
9 0 1 0 0 0 1 0 0 0 1 -402 2 -40 36.5 0.5 5.5
9 0 1 0 0 0 1 0 0 0 1 -402 2 40 36.5 0.5 5.5
9 0 1 0 0 0 1 0 0 0 1 -402 2 120 36.5 0.5 5.5
9 0 1 0 0 0 1 0 0 0 1 360 2 -160 34.5 0.5 5.5
9 0 1 0 0 0 1 0 0 0 1 360 2 -80 34.5 0.5 5.5
9 0 1 0 0 0 1 0 0 0 1 360 2 0 34.5 0.5 5.5
9 0 1 0 0 0 1 0 0 0 1 360 2 80 34.5 0.5 5.5
9 0 1 0 0 0 1 0 0 0 1 360 2 160 34.5 0.5 5.5
9 0 1 0 0 0 1 0 0 0 1 320 2 -120 34.5 0.5 5.5
9 0 1 0 0 0 1 0 0 0 1 320 2 -40 34.5 0.5 5.5
9 0 1 0 0 0 1 0 0 0 1 320 2 40 34.5 0.5 5.5
9 0 1 0 0 0 1 0 0 0 1 320 2 120 34.5 0.5 5.5
9 0 1 0 0 0 1 0 0 0 1 280 2 -160 34.5 0.5 5.5
9 0 1 0 0 0 1 0 0 0 1 280 2 -80 34.5 0.5 5.5
9 0 1 0 0 0 1 0 0 0 1 280 2 0 34.5 0.5 5.5
9 0 1 0 0 0 1 0 0 0 1 280 2 80 34.5 0.5 5.5
9 0 1 0 0 0 1 0 0 0 1 280 2 160 34.5 0.5 5.5
9 0 1 0 0 0 1 0 0 0 1 240 2 -120 34.5 0.5 5.5
9 0 1 0 0 0 1 0 0 0 1 240 2 -40 34.5 0.5 5.5
9 0 1 0 0 0 1 0 0 0 1 240 2 40 34.5 0.5 5.5
9 0 1 0 0 0 1 0 0 0 1 240 2 120 34.5 0.5 5.5
9 0 1 0 0 0 1 0 0 0 1 200 2 -160 34.5 0.5 5.5
9 0 1 0 0 0 1 0 0 0 1 200 2 -80 34.5 0.5 5.5
9 0 1 0 0 0 1 0 0 0 1 200 2 0 34.5 0.5 5.5
9 0 1 0 0 0 1 0 0 0 1 200 2 80 34.5 0.5 5.5
9 0 1 0 0 0 1 0 0 0 1 200 2 160 34.5 0.5 5.5
9 0 1 0 0 0 1 0 0 0 1 160 2 -120 34.5 0.5 5.5
9 0 1 0 0 0 1 0 0 0 1 160 2 -40 34.5 0.5 5.5
9 0 1 0 0 0 1 0 0 0 1 160 2 40 34.5 0.5 5.5
9 0 1 0 0 0 1 0 0 0 1 160 2 120 34.5 0.5 5.5
9 0 1 0 0 0 1 0 0 0 1 120 2 -160 34.5 0.5 5.5
9 0 1 0 0 0 1 0 0 0 1 120 2 -80 34.5 0.5 5.5
9 0 1 0 0 0 1 0 0 0 1 120 2 0 34.5 0.5 5.5
9 0 1 0 0 0 1 0 0 0 1 120 2 80 34.5 0.5 5.5
9 0 1 0 0 0 1 0 0 0 1 120 2 160 34.5 0.5 5.5
9 0 1 0 0 0 1 0 0 0 1 80 2 -120 34.5 0.5 5.5
9 0 1 0 0 0 1 0 0 0 1 80 2 -40 34.5 0.5 5.5
9 0 1 0 0 0 1 0 0 0 1 80 2 40 34.5 0.5 5.5
9 0 1 0 0 0 1 0 0 0 1 80 2 120 34.5 0.5 5.5
9 0 1 0 0 0 1 0 0 0 1 40 2 -160 34.5 0.5 5.5
9 0 1 0 0 0 1 0 0 0 1 40 2 -80 34.5 0.5 5.5
9 0 1 0 0 0 1 0 0 0 1 40 2 0 34.5 0.5 5.5
9 0 1 0 0 0 1 0 0 0 1 40 2 80 34.5 0.5 5.5
9 0 1 0 0 0 1 0 0 0 1 40 2 160 34.5 0.5 5.5
9 0 1 0 0 0 1 0 0 0 1 0 2 -120 34.5 0.5 5.5
9 0 1 0 0 0 1 0 0 0 1 0 2 -40 34.5 0.5 5.5
9 0 1 0 0 0 1 0 0 0 1 0 2 40 34.5 0.5 5.5
9 0 1 0 0 0 1 0 0 0 1 0 2 120 34.5 0.5 5.5
9 0 1 0 0 0 1 0 0 0 1 -40 2 -160 34.5 0.5 5.5
9 0 1 0 0 0 1 0 0 0 1 -40 2 -80 34.5 0.5 5.5
9 0 1 0 0 0 1 0 0 0 1 -40 2 0 34.5 0.5 5.5
9 0 1 0 0 0 1 0 0 0 1 -40 2 80 34.5 0.5 5.5
9 0 1 0 0 0 1 0 0 0 1 -40 2 160 34.5 0.5 5.5
9 0 1 0 0 0 1 0 0 0 1 -80 2 -120 34.5 0.5 5.5
9 0 1 0 0 0 1 0 0 0 1 -80 2 -40 34.5 0.5 5.5
9 0 1 0 0 0 1 0 0 0 1 -80 2 40 34.5 0.5 5.5
9 0 1 0 0 0 1 0 0 0 1 -80 2 120 34.5 0.5 5.5
9 0 1 0 0 0 1 0 0 0 1 -120 2 -160 34.5 0.5 5.5
9 0 1 0 0 0 1 0 0 0 1 -120 2 -80 34.5 0.5 5.5
9 0 1 0 0 0 1 0 0 0 1 -120 2 0 34.5 0.5 5.5
9 0 1 0 0 0 1 0 0 0 1 -120 2 80 34.5 0.5 5.5
9 0 1 0 0 0 1 0 0 0 1 -120 2 160 34.5 0.5 5.5
9 0 1 0 0 0 1 0 0 0 1 -160 2 -120 34.5 0.5 5.5
9 0 1 0 0 0 1 0 0 0 1 -160 2 -40 34.5 0.5 5.5
9 0 1 0 0 0 1 0 0 0 1 -160 2 40 34.5 0.5 5.5
9 0 1 0 0 0 1 0 0 0 1 -160 2 120 34.5 0.5 5.5
9 0 1 0 0 0 1 0 0 0 1 -200 2 -160 34.5 0.5 5.5
9 0 1 0 0 0 1 0 0 0 1 -200 2 -80 34.5 0.5 5.5
9 0 1 0 0 0 1 0 0 0 1 -200 2 0 34.5 0.5 5.5
9 0 1 0 0 0 1 0 0 0 1 -200 2 80 34.5 0.5 5.5
9 0 1 0 0 0 1 0 0 0 1 -200 2 160 34.5 0.5 5.5
9 0 1 0 0 0 1 0 0 0 1 -240 2 -120 34.5 0.5 5.5
9 0 1 0 0 0 1 0 0 0 1 -240 2 -40 34.5 0.5 5.5
9 0 1 0 0 0 1 0 0 0 1 -240 2 40 34.5 0.5 5.5
9 0 1 0 0 0 1 0 0 0 1 -240 2 120 34.5 0.5 5.5
9 0 1 0 0 0 1 0 0 0 1 -280 2 -160 34.5 0.5 5.5
9 0 1 0 0 0 1 0 0 0 1 -280 2 -80 34.5 0.5 5.5
9 0 1 0 0 0 1 0 0 0 1 -280 2 0 34.5 0.5 5.5
9 0 1 0 0 0 1 0 0 0 1 -280 2 80 34.5 0.5 5.5
9 0 1 0 0 0 1 0 0 0 1 -280 2 160 34.5 0.5 5.5
9 0 1 0 0 0 1 0 0 0 1 -320 2 -120 34.5 0.5 5.5
9 0 1 0 0 0 1 0 0 0 1 -320 2 -40 34.5 0.5 5.5
9 0 1 0 0 0 1 0 0 0 1 -320 2 40 34.5 0.5 5.5
9 0 1 0 0 0 1 0 0 0 1 -320 2 120 34.5 0.5 5.5
9 0 1 0 0 0 1 0 0 0 1 -360 2 -160 34.5 0.5 5.5
9 0 1 0 0 0 1 0 0 0 1 -360 2 -80 34.5 0.5 5.5
9 0 1 0 0 0 1 0 0 0 1 -360 2 0 34.5 0.5 5.5
9 0 1 0 0 0 1 0 0 0 1 -360 2 80 34.5 0.5 5.5
9 0 1 0 0 0 1 0 0 0 1 -360 2 160 34.5 0.5 5.5
9 0 1 0 0 0 1 0 0 0 1 -435 2 183 3.5 0.5 28.5
9 0 1 0 0 0 1 0 0 0 1 422 2 -160 16.5 0.5 5.5
9 0 1 0 0 0 1 0 0 0 1 422 2 -80 16.5 0.5 5.5
9 0 1 0 0 0 1 0 0 0 1 422 2 0 16.5 0.5 5.5
9 0 1 0 0 0 1 0 0 0 1 422 2 80 16.5 0.5 5.5
9 0 1 0 0 0 1 0 0 0 1 422 2 160 16.5 0.5 5.5
9 0 1 0 0 0 1 0 0 0 1 -422 2 -160 16.5 0.5 5.5
9 0 1 0 0 0 1 0 0 0 1 -422 2 -80 16.5 0.5 5.5
9 0 1 0 0 0 1 0 0 0 1 -422 2 0 16.5 0.5 5.5
9 0 1 0 0 0 1 0 0 0 1 -422 2 80 16.5 0.5 5.5
9 0 1 0 0 0 1 0 0 0 1 -418.5 2 160 13 0.5 5.5
9 0 1 0 0 0 1 0 0 0 1 436 2 -188.5 2.5 0.5 23
9 0 1 0 0 0 1 0 0 0 1 -436 2 -188.5 2.5 0.5 23
9 0 1 0 0 0 1 0 0 0 1 413 2 217 18.5 0.5 1.5
9 0 1 0 0 0 1 0 0 0 1 437.5 2 188.5 1 0.5 23
9 0 1 0 0 0 1 0 0 0 1 400 6.5 -160 3.5 1 2.5
9 0 1 0 0 0 1 0 0 0 1 400 6.5 -80 3.5 1 2.5
9 0 1 0 0 0 1 0 0 0 1 400 6.5 0 3.5 1 2.5
9 0 1 0 0 0 1 0 0 0 1 400 6.5 80 3.5 1 2.5
9 0 1 0 0 0 1 0 0 0 1 400 6.5 160 3.5 1 2.5
9 0 1 0 0 0 1 0 0 0 1 360 6.5 -120 3.5 1 2.5
9 0 1 0 0 0 1 0 0 0 1 360 6.5 -40 3.5 1 2.5
9 0 1 0 0 0 1 0 0 0 1 360 6.5 40 3.5 1 2.5
9 0 1 0 0 0 1 0 0 0 1 360 6.5 120 3.5 1 2.5
9 0 1 0 0 0 1 0 0 0 1 320 6.5 -160 3.5 1 2.5
9 0 1 0 0 0 1 0 0 0 1 320 6.5 -80 3.5 1 2.5
9 0 1 0 0 0 1 0 0 0 1 320 6.5 0 3.5 1 2.5
9 0 1 0 0 0 1 0 0 0 1 320 6.5 80 3.5 1 2.5
9 0 1 0 0 0 1 0 0 0 1 320 6.5 160 3.5 1 2.5
9 0 1 0 0 0 1 0 0 0 1 280 6.5 -120 3.5 1 2.5
9 0 1 0 0 0 1 0 0 0 1 280 6.5 -40 3.5 1 2.5
9 0 1 0 0 0 1 0 0 0 1 280 6.5 40 3.5 1 2.5
9 0 1 0 0 0 1 0 0 0 1 280 6.5 120 3.5 1 2.5
9 0 1 0 0 0 1 0 0 0 1 240 6.5 -160 3.5 1 2.5
9 0 1 0 0 0 1 0 0 0 1 240 6.5 -80 3.5 1 2.5
9 0 1 0 0 0 1 0 0 0 1 240 6.5 0 3.5 1 2.5
9 0 1 0 0 0 1 0 0 0 1 240 6.5 80 3.5 1 2.5
9 0 1 0 0 0 1 0 0 0 1 240 6.5 160 3.5 1 2.5
9 0 1 0 0 0 1 0 0 0 1 200 6.5 -120 3.5 1 2.5
9 0 1 0 0 0 1 0 0 0 1 200 6.5 -40 3.5 1 2.5
9 0 1 0 0 0 1 0 0 0 1 200 6.5 40 3.5 1 2.5
9 0 1 0 0 0 1 0 0 0 1 200 6.5 120 3.5 1 2.5
9 0 1 0 0 0 1 0 0 0 1 160 6.5 -160 3.5 1 2.5
9 0 1 0 0 0 1 0 0 0 1 160 6.5 -80 3.5 1 2.5
9 0 1 0 0 0 1 0 0 0 1 160 6.5 0 3.5 1 2.5
9 0 1 0 0 0 1 0 0 0 1 160 6.5 80 3.5 1 2.5
9 0 1 0 0 0 1 0 0 0 1 160 6.5 160 3.5 1 2.5
9 0 1 0 0 0 1 0 0 0 1 120 6.5 -120 3.5 1 2.5
9 0 1 0 0 0 1 0 0 0 1 120 6.5 -40 3.5 1 2.5
9 0 1 0 0 0 1 0 0 0 1 120 6.5 40 3.5 1 2.5
9 0 1 0 0 0 1 0 0 0 1 120 6.5 120 3.5 1 2.5
9 0 1 0 0 0 1 0 0 0 1 80 6.5 -160 3.5 1 2.5
9 0 1 0 0 0 1 0 0 0 1 80 6.5 -80 3.5 1 2.5
9 0 1 0 0 0 1 0 0 0 1 80 6.5 0 3.5 1 2.5
9 0 1 0 0 0 1 0 0 0 1 80 6.5 80 3.5 1 2.5
9 0 1 0 0 0 1 0 0 0 1 80 6.5 160 3.5 1 2.5
9 0 1 0 0 0 1 0 0 0 1 40 6.5 -120 3.5 1 2.5
9 0 1 0 0 0 1 0 0 0 1 40 6.5 -40 3.5 1 2.5
9 0 1 0 0 0 1 0 0 0 1 40 6.5 40 3.5 1 2.5
9 0 1 0 0 0 1 0 0 0 1 40 6.5 120 3.5 1 2.5
9 0 1 0 0 0 1 0 0 0 1 0 6.5 -160 3.5 1 2.5
9 0 1 0 0 0 1 0 0 0 1 0 6.5 -80 3.5 1 2.5
9 0 1 0 0 0 1 0 0 0 1 0 6.5 0 3.5 1 2.5
9 0 1 0 0 0 1 0 0 0 1 0 6.5 80 3.5 1 2.5
9 0 1 0 0 0 1 0 0 0 1 0 6.5 160 3.5 1 2.5
9 0 1 0 0 0 1 0 0 0 1 -40 6.5 -120 3.5 1 2.5
9 0 1 0 0 0 1 0 0 0 1 -40 6.5 -40 3.5 1 2.5
9 0 1 0 0 0 1 0 0 0 1 -40 6.5 40 3.5 1 2.5
9 0 1 0 0 0 1 0 0 0 1 -40 6.5 120 3.5 1 2.5
9 0 1 0 0 0 1 0 0 0 1 -80 6.5 -160 3.5 1 2.5
9 0 1 0 0 0 1 0 0 0 1 -80 6.5 -80 3.5 1 2.5
9 0 1 0 0 0 1 0 0 0 1 -80 6.5 0 3.5 1 2.5
9 0 1 0 0 0 1 0 0 0 1 -80 6.5 80 3.5 1 2.5
9 0 1 0 0 0 1 0 0 0 1 -80 6.5 160 3.5 1 2.5
9 0 1 0 0 0 1 0 0 0 1 -120 6.5 -120 3.5 1 2.5
9 0 1 0 0 0 1 0 0 0 1 -120 6.5 -40 3.5 1 2.5
9 0 1 0 0 0 1 0 0 0 1 -120 6.5 40 3.5 1 2.5
9 0 1 0 0 0 1 0 0 0 1 -120 6.5 120 3.5 1 2.5
9 0 1 0 0 0 1 0 0 0 1 -160 6.5 -160 3.5 1 2.5
9 0 1 0 0 0 1 0 0 0 1 -160 6.5 -80 3.5 1 2.5
9 0 1 0 0 0 1 0 0 0 1 -160 6.5 0 3.5 1 2.5
9 0 1 0 0 0 1 0 0 0 1 -160 6.5 80 3.5 1 2.5
9 0 1 0 0 0 1 0 0 0 1 -160 6.5 160 3.5 1 2.5
9 0 1 0 0 0 1 0 0 0 1 -200 6.5 -120 3.5 1 2.5
9 0 1 0 0 0 1 0 0 0 1 -200 6.5 -40 3.5 1 2.5
9 0 1 0 0 0 1 0 0 0 1 -200 6.5 40 3.5 1 2.5
9 0 1 0 0 0 1 0 0 0 1 -200 6.5 120 3.5 1 2.5
9 0 1 0 0 0 1 0 0 0 1 -240 6.5 -160 3.5 1 2.5
9 0 1 0 0 0 1 0 0 0 1 -240 6.5 -80 3.5 1 2.5
9 0 1 0 0 0 1 0 0 0 1 -240 6.5 0 3.5 1 2.5
9 0 1 0 0 0 1 0 0 0 1 -240 6.5 80 3.5 1 2.5
9 0 1 0 0 0 1 0 0 0 1 -240 6.5 160 3.5 1 2.5
9 0 1 0 0 0 1 0 0 0 1 -280 6.5 -120 3.5 1 2.5
9 0 1 0 0 0 1 0 0 0 1 -280 6.5 -40 3.5 1 2.5
9 0 1 0 0 0 1 0 0 0 1 -280 6.5 40 3.5 1 2.5
9 0 1 0 0 0 1 0 0 0 1 -280 6.5 120 3.5 1 2.5
9 0 1 0 0 0 1 0 0 0 1 -320 6.5 -160 3.5 1 2.5
9 0 1 0 0 0 1 0 0 0 1 -320 6.5 -80 3.5 1 2.5
9 0 1 0 0 0 1 0 0 0 1 -320 6.5 0 3.5 1 2.5
9 0 1 0 0 0 1 0 0 0 1 -320 6.5 80 3.5 1 2.5
9 0 1 0 0 0 1 0 0 0 1 -320 6.5 160 3.5 1 2.5
9 0 1 0 0 0 1 0 0 0 1 -360 6.5 -120 3.5 1 2.5
9 0 1 0 0 0 1 0 0 0 1 -360 6.5 -40 3.5 1 2.5
9 0 1 0 0 0 1 0 0 0 1 -360 6.5 40 3.5 1 2.5
9 0 1 0 0 0 1 0 0 0 1 -360 6.5 120 3.5 1 2.5
9 0 1 0 0 0 1 0 0 0 1 -400 6.5 -160 3.5 1 2.5
9 0 1 0 0 0 1 0 0 0 1 -400 6.5 -80 3.5 1 2.5
9 0 1 0 0 0 1 0 0 0 1 -400 6.5 0 3.5 1 2.5
9 0 1 0 0 0 1 0 0 0 1 -400 6.5 80 3.5 1 2.5
9 0 1 0 0 0 1 0 0 0 1 -400 6.5 160 3.5 1 2.5
9 0 1 0 0 0 1 0 0 0 1 -433.5 2 214 2 0.5 2.5
9 0 1 0 0 0 1 0 0 0 1 431.5 -2 -189.5 2 0.5 2
9 0 1 0 0 0 1 0 0 0 1 431.5 -2 -149.5 2 0.5 2
9 0 1 0 0 0 1 0 0 0 1 431.5 -2 -109.5 2 0.5 2
9 0 1 0 0 0 1 0 0 0 1 431.5 -2 -69.5 2 0.5 2
9 0 1 0 0 0 1 0 0 0 1 431.5 -2 -29.5 2 0.5 2
9 0 1 0 0 0 1 0 0 0 1 431.5 -2 10.5 2 0.5 2
9 0 1 0 0 0 1 0 0 0 1 431.5 -2 50.5 2 0.5 2
9 0 1 0 0 0 1 0 0 0 1 431.5 -2 90.5 2 0.5 2
9 0 1 0 0 0 1 0 0 0 1 431.5 -2 130.5 2 0.5 2
9 0 1 0 0 0 1 0 0 0 1 431.5 -2 170.5 2 0.5 2
9 0 1 0 0 0 1 0 0 0 1 431.5 -2 210.5 2 0.5 2
9 0 1 0 0 0 1 0 0 0 1 430.5 -2 -211.5 2 0.5 2
9 0 1 0 0 0 1 0 0 0 1 430.5 -2 -171.5 2 0.5 2
9 0 1 0 0 0 1 0 0 0 1 430.5 -2 -131.5 2 0.5 2
9 0 1 0 0 0 1 0 0 0 1 430.5 -2 -91.5 2 0.5 2
9 0 1 0 0 0 1 0 0 0 1 430.5 -2 -51.5 2 0.5 2
9 0 1 0 0 0 1 0 0 0 1 430.5 -2 -11.5 2 0.5 2
9 0 1 0 0 0 1 0 0 0 1 430.5 -2 28.5 2 0.5 2
9 0 1 0 0 0 1 0 0 0 1 430.5 -2 68.5 2 0.5 2
9 0 1 0 0 0 1 0 0 0 1 430.5 -2 108.5 2 0.5 2
9 0 1 0 0 0 1 0 0 0 1 430.5 -2 148.5 2 0.5 2
9 0 1 0 0 0 1 0 0 0 1 430.5 -2 188.5 2 0.5 2
9 0 1 0 0 0 1 0 0 0 1 409.5 -2 -188.5 2 0.5 2
9 0 1 0 0 0 1 0 0 0 1 409.5 -2 -148.5 2 0.5 2
9 0 1 0 0 0 1 0 0 0 1 409.5 -2 -108.5 2 0.5 2
9 0 1 0 0 0 1 0 0 0 1 409.5 -2 -68.5 2 0.5 2
9 0 1 0 0 0 1 0 0 0 1 409.5 -2 -28.5 2 0.5 2
9 0 1 0 0 0 1 0 0 0 1 409.5 -2 11.5 2 0.5 2
9 0 1 0 0 0 1 0 0 0 1 409.5 -2 51.5 2 0.5 2
9 0 1 0 0 0 1 0 0 0 1 409.5 -2 91.5 2 0.5 2
9 0 1 0 0 0 1 0 0 0 1 409.5 -2 131.5 2 0.5 2
9 0 1 0 0 0 1 0 0 0 1 409.5 -2 171.5 2 0.5 2
9 0 1 0 0 0 1 0 0 0 1 409.5 -2 211.5 2 0.5 2
9 0 1 0 0 0 1 0 0 0 1 408.5 -2 -210.5 2 0.5 2
9 0 1 0 0 0 1 0 0 0 1 408.5 -2 -170.5 2 0.5 2
9 0 1 0 0 0 1 0 0 0 1 408.5 -2 -130.5 2 0.5 2
9 0 1 0 0 0 1 0 0 0 1 408.5 -2 -90.5 2 0.5 2
9 0 1 0 0 0 1 0 0 0 1 408.5 -2 -50.5 2 0.5 2
9 0 1 0 0 0 1 0 0 0 1 408.5 -2 -10.5 2 0.5 2
9 0 1 0 0 0 1 0 0 0 1 408.5 -2 29.5 2 0.5 2
9 0 1 0 0 0 1 0 0 0 1 408.5 -2 69.5 2 0.5 2
9 0 1 0 0 0 1 0 0 0 1 408.5 -2 109.5 2 0.5 2
9 0 1 0 0 0 1 0 0 0 1 408.5 -2 149.5 2 0.5 2
9 0 1 0 0 0 1 0 0 0 1 408.5 -2 189.5 2 0.5 2
9 0 1 0 0 0 1 0 0 0 1 391.5 -2 -189.5 2 0.5 2
9 0 1 0 0 0 1 0 0 0 1 391.5 -2 -149.5 2 0.5 2
9 0 1 0 0 0 1 0 0 0 1 391.5 -2 -109.5 2 0.5 2
9 0 1 0 0 0 1 0 0 0 1 391.5 -2 -69.5 2 0.5 2
9 0 1 0 0 0 1 0 0 0 1 391.5 -2 -29.5 2 0.5 2
9 0 1 0 0 0 1 0 0 0 1 391.5 -2 10.5 2 0.5 2
9 0 1 0 0 0 1 0 0 0 1 391.5 -2 50.5 2 0.5 2
9 0 1 0 0 0 1 0 0 0 1 391.5 -2 90.5 2 0.5 2
9 0 1 0 0 0 1 0 0 0 1 391.5 -2 130.5 2 0.5 2
9 0 1 0 0 0 1 0 0 0 1 391.5 -2 170.5 2 0.5 2
9 0 1 0 0 0 1 0 0 0 1 391.5 -2 210.5 2 0.5 2
9 0 1 0 0 0 1 0 0 0 1 390.5 -2 -211.5 2 0.5 2
9 0 1 0 0 0 1 0 0 0 1 390.5 -2 -171.5 2 0.5 2
9 0 1 0 0 0 1 0 0 0 1 390.5 -2 -131.5 2 0.5 2
9 0 1 0 0 0 1 0 0 0 1 390.5 -2 -91.5 2 0.5 2
9 0 1 0 0 0 1 0 0 0 1 390.5 -2 -51.5 2 0.5 2
9 0 1 0 0 0 1 0 0 0 1 390.5 -2 -11.5 2 0.5 2
9 0 1 0 0 0 1 0 0 0 1 390.5 -2 28.5 2 0.5 2
9 0 1 0 0 0 1 0 0 0 1 390.5 -2 68.5 2 0.5 2
9 0 1 0 0 0 1 0 0 0 1 390.5 -2 108.5 2 0.5 2
9 0 1 0 0 0 1 0 0 0 1 390.5 -2 148.5 2 0.5 2
9 0 1 0 0 0 1 0 0 0 1 390.5 -2 188.5 2 0.5 2
9 0 1 0 0 0 1 0 0 0 1 369.5 -2 -188.5 2 0.5 2
9 0 1 0 0 0 1 0 0 0 1 369.5 -2 -148.5 2 0.5 2
9 0 1 0 0 0 1 0 0 0 1 369.5 -2 -108.5 2 0.5 2
9 0 1 0 0 0 1 0 0 0 1 369.5 -2 -68.5 2 0.5 2
9 0 1 0 0 0 1 0 0 0 1 369.5 -2 -28.5 2 0.5 2
9 0 1 0 0 0 1 0 0 0 1 369.5 -2 11.5 2 0.5 2
9 0 1 0 0 0 1 0 0 0 1 369.5 -2 51.5 2 0.5 2
9 0 1 0 0 0 1 0 0 0 1 369.5 -2 91.5 2 0.5 2
9 0 1 0 0 0 1 0 0 0 1 369.5 -2 131.5 2 0.5 2
9 0 1 0 0 0 1 0 0 0 1 369.5 -2 171.5 2 0.5 2
9 0 1 0 0 0 1 0 0 0 1 369.5 -2 211.5 2 0.5 2
9 0 1 0 0 0 1 0 0 0 1 368.5 -2 -210.5 2 0.5 2
9 0 1 0 0 0 1 0 0 0 1 368.5 -2 -170.5 2 0.5 2
9 0 1 0 0 0 1 0 0 0 1 368.5 -2 -130.5 2 0.5 2
9 0 1 0 0 0 1 0 0 0 1 368.5 -2 -90.5 2 0.5 2
9 0 1 0 0 0 1 0 0 0 1 368.5 -2 -50.5 2 0.5 2
9 0 1 0 0 0 1 0 0 0 1 368.5 -2 -10.5 2 0.5 2
9 0 1 0 0 0 1 0 0 0 1 368.5 -2 29.5 2 0.5 2
9 0 1 0 0 0 1 0 0 0 1 368.5 -2 69.5 2 0.5 2
9 0 1 0 0 0 1 0 0 0 1 368.5 -2 109.5 2 0.5 2
9 0 1 0 0 0 1 0 0 0 1 368.5 -2 149.5 2 0.5 2
9 0 1 0 0 0 1 0 0 0 1 368.5 -2 189.5 2 0.5 2
9 0 1 0 0 0 1 0 0 0 1 351.5 -2 -189.5 2 0.5 2
9 0 1 0 0 0 1 0 0 0 1 351.5 -2 -149.5 2 0.5 2
9 0 1 0 0 0 1 0 0 0 1 351.5 -2 -109.5 2 0.5 2
9 0 1 0 0 0 1 0 0 0 1 351.5 -2 -69.5 2 0.5 2
9 0 1 0 0 0 1 0 0 0 1 351.5 -2 -29.5 2 0.5 2
9 0 1 0 0 0 1 0 0 0 1 351.5 -2 10.5 2 0.5 2
9 0 1 0 0 0 1 0 0 0 1 351.5 -2 50.5 2 0.5 2
9 0 1 0 0 0 1 0 0 0 1 351.5 -2 90.5 2 0.5 2
9 0 1 0 0 0 1 0 0 0 1 351.5 -2 130.5 2 0.5 2
9 0 1 0 0 0 1 0 0 0 1 351.5 -2 170.5 2 0.5 2
9 0 1 0 0 0 1 0 0 0 1 351.5 -2 210.5 2 0.5 2
9 0 1 0 0 0 1 0 0 0 1 350.5 -2 -211.5 2 0.5 2
9 0 1 0 0 0 1 0 0 0 1 350.5 -2 -171.5 2 0.5 2
9 0 1 0 0 0 1 0 0 0 1 350.5 -2 -131.5 2 0.5 2
9 0 1 0 0 0 1 0 0 0 1 350.5 -2 -91.5 2 0.5 2
9 0 1 0 0 0 1 0 0 0 1 350.5 -2 -51.5 2 0.5 2
9 0 1 0 0 0 1 0 0 0 1 350.5 -2 -11.5 2 0.5 2
9 0 1 0 0 0 1 0 0 0 1 350.5 -2 28.5 2 0.5 2
9 0 1 0 0 0 1 0 0 0 1 350.5 -2 68.5 2 0.5 2
9 0 1 0 0 0 1 0 0 0 1 350.5 -2 108.5 2 0.5 2
9 0 1 0 0 0 1 0 0 0 1 350.5 -2 148.5 2 0.5 2
9 0 1 0 0 0 1 0 0 0 1 350.5 -2 188.5 2 0.5 2
9 0 1 0 0 0 1 0 0 0 1 329.5 -2 -188.5 2 0.5 2
9 0 1 0 0 0 1 0 0 0 1 329.5 -2 -148.5 2 0.5 2
9 0 1 0 0 0 1 0 0 0 1 329.5 -2 -108.5 2 0.5 2
9 0 1 0 0 0 1 0 0 0 1 329.5 -2 -68.5 2 0.5 2
9 0 1 0 0 0 1 0 0 0 1 329.5 -2 -28.5 2 0.5 2
9 0 1 0 0 0 1 0 0 0 1 329.5 -2 11.5 2 0.5 2
9 0 1 0 0 0 1 0 0 0 1 329.5 -2 51.5 2 0.5 2
9 0 1 0 0 0 1 0 0 0 1 329.5 -2 91.5 2 0.5 2
9 0 1 0 0 0 1 0 0 0 1 329.5 -2 131.5 2 0.5 2
9 0 1 0 0 0 1 0 0 0 1 329.5 -2 171.5 2 0.5 2
9 0 1 0 0 0 1 0 0 0 1 329.5 -2 211.5 2 0.5 2
9 0 1 0 0 0 1 0 0 0 1 328.5 -2 -210.5 2 0.5 2
9 0 1 0 0 0 1 0 0 0 1 328.5 -2 -170.5 2 0.5 2
9 0 1 0 0 0 1 0 0 0 1 328.5 -2 -130.5 2 0.5 2
9 0 1 0 0 0 1 0 0 0 1 328.5 -2 -90.5 2 0.5 2
9 0 1 0 0 0 1 0 0 0 1 328.5 -2 -50.5 2 0.5 2
9 0 1 0 0 0 1 0 0 0 1 328.5 -2 -10.5 2 0.5 2
9 0 1 0 0 0 1 0 0 0 1 328.5 -2 29.5 2 0.5 2
9 0 1 0 0 0 1 0 0 0 1 328.5 -2 69.5 2 0.5 2
9 0 1 0 0 0 1 0 0 0 1 328.5 -2 109.5 2 0.5 2
9 0 1 0 0 0 1 0 0 0 1 328.5 -2 149.5 2 0.5 2
9 0 1 0 0 0 1 0 0 0 1 328.5 -2 189.5 2 0.5 2
9 0 1 0 0 0 1 0 0 0 1 311.5 -2 -189.5 2 0.5 2
9 0 1 0 0 0 1 0 0 0 1 311.5 -2 -149.5 2 0.5 2
9 0 1 0 0 0 1 0 0 0 1 311.5 -2 -109.5 2 0.5 2
9 0 1 0 0 0 1 0 0 0 1 311.5 -2 -69.5 2 0.5 2
9 0 1 0 0 0 1 0 0 0 1 311.5 -2 -29.5 2 0.5 2
9 0 1 0 0 0 1 0 0 0 1 311.5 -2 10.5 2 0.5 2
9 0 1 0 0 0 1 0 0 0 1 311.5 -2 50.5 2 0.5 2
9 0 1 0 0 0 1 0 0 0 1 311.5 -2 90.5 2 0.5 2
9 0 1 0 0 0 1 0 0 0 1 311.5 -2 130.5 2 0.5 2
9 0 1 0 0 0 1 0 0 0 1 311.5 -2 170.5 2 0.5 2
9 0 1 0 0 0 1 0 0 0 1 311.5 -2 210.5 2 0.5 2
9 0 1 0 0 0 1 0 0 0 1 310.5 -2 -211.5 2 0.5 2
9 0 1 0 0 0 1 0 0 0 1 310.5 -2 -171.5 2 0.5 2
9 0 1 0 0 0 1 0 0 0 1 310.5 -2 -131.5 2 0.5 2
9 0 1 0 0 0 1 0 0 0 1 310.5 -2 -91.5 2 0.5 2
9 0 1 0 0 0 1 0 0 0 1 310.5 -2 -51.5 2 0.5 2
9 0 1 0 0 0 1 0 0 0 1 310.5 -2 -11.5 2 0.5 2
9 0 1 0 0 0 1 0 0 0 1 310.5 -2 28.5 2 0.5 2
9 0 1 0 0 0 1 0 0 0 1 310.5 -2 68.5 2 0.5 2
9 0 1 0 0 0 1 0 0 0 1 310.5 -2 108.5 2 0.5 2
9 0 1 0 0 0 1 0 0 0 1 310.5 -2 148.5 2 0.5 2
9 0 1 0 0 0 1 0 0 0 1 310.5 -2 188.5 2 0.5 2
9 0 1 0 0 0 1 0 0 0 1 289.5 -2 -188.5 2 0.5 2
9 0 1 0 0 0 1 0 0 0 1 289.5 -2 -148.5 2 0.5 2
9 0 1 0 0 0 1 0 0 0 1 289.5 -2 -108.5 2 0.5 2
9 0 1 0 0 0 1 0 0 0 1 289.5 -2 -68.5 2 0.5 2
9 0 1 0 0 0 1 0 0 0 1 289.5 -2 -28.5 2 0.5 2
9 0 1 0 0 0 1 0 0 0 1 289.5 -2 11.5 2 0.5 2
9 0 1 0 0 0 1 0 0 0 1 289.5 -2 51.5 2 0.5 2
9 0 1 0 0 0 1 0 0 0 1 289.5 -2 91.5 2 0.5 2
9 0 1 0 0 0 1 0 0 0 1 289.5 -2 131.5 2 0.5 2
9 0 1 0 0 0 1 0 0 0 1 289.5 -2 171.5 2 0.5 2
9 0 1 0 0 0 1 0 0 0 1 289.5 -2 211.5 2 0.5 2
9 0 1 0 0 0 1 0 0 0 1 288.5 -2 -210.5 2 0.5 2
9 0 1 0 0 0 1 0 0 0 1 288.5 -2 -170.5 2 0.5 2
9 0 1 0 0 0 1 0 0 0 1 288.5 -2 -130.5 2 0.5 2
9 0 1 0 0 0 1 0 0 0 1 288.5 -2 -90.5 2 0.5 2
9 0 1 0 0 0 1 0 0 0 1 288.5 -2 -50.5 2 0.5 2
9 0 1 0 0 0 1 0 0 0 1 288.5 -2 -10.5 2 0.5 2
9 0 1 0 0 0 1 0 0 0 1 288.5 -2 29.5 2 0.5 2
9 0 1 0 0 0 1 0 0 0 1 288.5 -2 69.5 2 0.5 2
9 0 1 0 0 0 1 0 0 0 1 288.5 -2 109.5 2 0.5 2
9 0 1 0 0 0 1 0 0 0 1 288.5 -2 149.5 2 0.5 2
9 0 1 0 0 0 1 0 0 0 1 288.5 -2 189.5 2 0.5 2
9 0 1 0 0 0 1 0 0 0 1 271.5 -2 -189.5 2 0.5 2
9 0 1 0 0 0 1 0 0 0 1 271.5 -2 -149.5 2 0.5 2
9 0 1 0 0 0 1 0 0 0 1 271.5 -2 -109.5 2 0.5 2
9 0 1 0 0 0 1 0 0 0 1 271.5 -2 -69.5 2 0.5 2
9 0 1 0 0 0 1 0 0 0 1 271.5 -2 -29.5 2 0.5 2
9 0 1 0 0 0 1 0 0 0 1 271.5 -2 10.5 2 0.5 2
9 0 1 0 0 0 1 0 0 0 1 271.5 -2 50.5 2 0.5 2
9 0 1 0 0 0 1 0 0 0 1 271.5 -2 90.5 2 0.5 2
9 0 1 0 0 0 1 0 0 0 1 271.5 -2 130.5 2 0.5 2
9 0 1 0 0 0 1 0 0 0 1 271.5 -2 170.5 2 0.5 2
9 0 1 0 0 0 1 0 0 0 1 271.5 -2 210.5 2 0.5 2
9 0 1 0 0 0 1 0 0 0 1 270.5 -2 -211.5 2 0.5 2
9 0 1 0 0 0 1 0 0 0 1 270.5 -2 -171.5 2 0.5 2
9 0 1 0 0 0 1 0 0 0 1 270.5 -2 -131.5 2 0.5 2
9 0 1 0 0 0 1 0 0 0 1 270.5 -2 -91.5 2 0.5 2
9 0 1 0 0 0 1 0 0 0 1 270.5 -2 -51.5 2 0.5 2
9 0 1 0 0 0 1 0 0 0 1 270.5 -2 -11.5 2 0.5 2
9 0 1 0 0 0 1 0 0 0 1 270.5 -2 28.5 2 0.5 2
9 0 1 0 0 0 1 0 0 0 1 270.5 -2 68.5 2 0.5 2
9 0 1 0 0 0 1 0 0 0 1 270.5 -2 108.5 2 0.5 2
9 0 1 0 0 0 1 0 0 0 1 270.5 -2 148.5 2 0.5 2
9 0 1 0 0 0 1 0 0 0 1 270.5 -2 188.5 2 0.5 2
9 0 1 0 0 0 1 0 0 0 1 249.5 -2 -188.5 2 0.5 2
9 0 1 0 0 0 1 0 0 0 1 249.5 -2 -148.5 2 0.5 2
9 0 1 0 0 0 1 0 0 0 1 249.5 -2 -108.5 2 0.5 2
9 0 1 0 0 0 1 0 0 0 1 249.5 -2 -68.5 2 0.5 2
9 0 1 0 0 0 1 0 0 0 1 249.5 -2 -28.5 2 0.5 2
9 0 1 0 0 0 1 0 0 0 1 249.5 -2 11.5 2 0.5 2
9 0 1 0 0 0 1 0 0 0 1 249.5 -2 51.5 2 0.5 2
9 0 1 0 0 0 1 0 0 0 1 249.5 -2 91.5 2 0.5 2
9 0 1 0 0 0 1 0 0 0 1 249.5 -2 131.5 2 0.5 2
9 0 1 0 0 0 1 0 0 0 1 249.5 -2 171.5 2 0.5 2
9 0 1 0 0 0 1 0 0 0 1 249.5 -2 211.5 2 0.5 2
9 0 1 0 0 0 1 0 0 0 1 248.5 -2 -210.5 2 0.5 2
9 0 1 0 0 0 1 0 0 0 1 248.5 -2 -170.5 2 0.5 2
9 0 1 0 0 0 1 0 0 0 1 248.5 -2 -130.5 2 0.5 2
9 0 1 0 0 0 1 0 0 0 1 248.5 -2 -90.5 2 0.5 2
9 0 1 0 0 0 1 0 0 0 1 248.5 -2 -50.5 2 0.5 2
9 0 1 0 0 0 1 0 0 0 1 248.5 -2 -10.5 2 0.5 2
9 0 1 0 0 0 1 0 0 0 1 248.5 -2 29.5 2 0.5 2
9 0 1 0 0 0 1 0 0 0 1 248.5 -2 69.5 2 0.5 2
9 0 1 0 0 0 1 0 0 0 1 248.5 -2 109.5 2 0.5 2
9 0 1 0 0 0 1 0 0 0 1 248.5 -2 149.5 2 0.5 2
9 0 1 0 0 0 1 0 0 0 1 248.5 -2 189.5 2 0.5 2
9 0 1 0 0 0 1 0 0 0 1 231.5 -2 -189.5 2 0.5 2
9 0 1 0 0 0 1 0 0 0 1 231.5 -2 -149.5 2 0.5 2
9 0 1 0 0 0 1 0 0 0 1 231.5 -2 -109.5 2 0.5 2
9 0 1 0 0 0 1 0 0 0 1 231.5 -2 -69.5 2 0.5 2
9 0 1 0 0 0 1 0 0 0 1 231.5 -2 -29.5 2 0.5 2
9 0 1 0 0 0 1 0 0 0 1 231.5 -2 10.5 2 0.5 2
9 0 1 0 0 0 1 0 0 0 1 231.5 -2 50.5 2 0.5 2
9 0 1 0 0 0 1 0 0 0 1 231.5 -2 90.5 2 0.5 2
9 0 1 0 0 0 1 0 0 0 1 231.5 -2 130.5 2 0.5 2
9 0 1 0 0 0 1 0 0 0 1 231.5 -2 170.5 2 0.5 2
9 0 1 0 0 0 1 0 0 0 1 231.5 -2 210.5 2 0.5 2
9 0 1 0 0 0 1 0 0 0 1 230.5 -2 -211.5 2 0.5 2
9 0 1 0 0 0 1 0 0 0 1 230.5 -2 -171.5 2 0.5 2
9 0 1 0 0 0 1 0 0 0 1 230.5 -2 -131.5 2 0.5 2
9 0 1 0 0 0 1 0 0 0 1 230.5 -2 -91.5 2 0.5 2
9 0 1 0 0 0 1 0 0 0 1 230.5 -2 -51.5 2 0.5 2
9 0 1 0 0 0 1 0 0 0 1 230.5 -2 -11.5 2 0.5 2
9 0 1 0 0 0 1 0 0 0 1 230.5 -2 28.5 2 0.5 2
9 0 1 0 0 0 1 0 0 0 1 230.5 -2 68.5 2 0.5 2
9 0 1 0 0 0 1 0 0 0 1 230.5 -2 108.5 2 0.5 2
9 0 1 0 0 0 1 0 0 0 1 230.5 -2 148.5 2 0.5 2
9 0 1 0 0 0 1 0 0 0 1 230.5 -2 188.5 2 0.5 2
9 0 1 0 0 0 1 0 0 0 1 209.5 -2 -188.5 2 0.5 2
9 0 1 0 0 0 1 0 0 0 1 209.5 -2 -148.5 2 0.5 2
9 0 1 0 0 0 1 0 0 0 1 209.5 -2 -108.5 2 0.5 2
9 0 1 0 0 0 1 0 0 0 1 209.5 -2 -68.5 2 0.5 2
9 0 1 0 0 0 1 0 0 0 1 209.5 -2 -28.5 2 0.5 2
9 0 1 0 0 0 1 0 0 0 1 209.5 -2 11.5 2 0.5 2
9 0 1 0 0 0 1 0 0 0 1 209.5 -2 51.5 2 0.5 2
9 0 1 0 0 0 1 0 0 0 1 209.5 -2 91.5 2 0.5 2
9 0 1 0 0 0 1 0 0 0 1 209.5 -2 131.5 2 0.5 2
9 0 1 0 0 0 1 0 0 0 1 209.5 -2 171.5 2 0.5 2
9 0 1 0 0 0 1 0 0 0 1 209.5 -2 211.5 2 0.5 2
9 0 1 0 0 0 1 0 0 0 1 208.5 -2 -210.5 2 0.5 2
9 0 1 0 0 0 1 0 0 0 1 208.5 -2 -170.5 2 0.5 2
9 0 1 0 0 0 1 0 0 0 1 208.5 -2 -130.5 2 0.5 2
9 0 1 0 0 0 1 0 0 0 1 208.5 -2 -90.5 2 0.5 2
9 0 1 0 0 0 1 0 0 0 1 208.5 -2 -50.5 2 0.5 2
9 0 1 0 0 0 1 0 0 0 1 208.5 -2 -10.5 2 0.5 2
9 0 1 0 0 0 1 0 0 0 1 208.5 -2 29.5 2 0.5 2
9 0 1 0 0 0 1 0 0 0 1 208.5 -2 69.5 2 0.5 2
9 0 1 0 0 0 1 0 0 0 1 208.5 -2 109.5 2 0.5 2
9 0 1 0 0 0 1 0 0 0 1 208.5 -2 149.5 2 0.5 2
9 0 1 0 0 0 1 0 0 0 1 208.5 -2 189.5 2 0.5 2
9 0 1 0 0 0 1 0 0 0 1 191.5 -2 -189.5 2 0.5 2
9 0 1 0 0 0 1 0 0 0 1 191.5 -2 -149.5 2 0.5 2
9 0 1 0 0 0 1 0 0 0 1 191.5 -2 -109.5 2 0.5 2
9 0 1 0 0 0 1 0 0 0 1 191.5 -2 -69.5 2 0.5 2
9 0 1 0 0 0 1 0 0 0 1 191.5 -2 -29.5 2 0.5 2
9 0 1 0 0 0 1 0 0 0 1 191.5 -2 10.5 2 0.5 2
9 0 1 0 0 0 1 0 0 0 1 191.5 -2 50.5 2 0.5 2
9 0 1 0 0 0 1 0 0 0 1 191.5 -2 90.5 2 0.5 2
9 0 1 0 0 0 1 0 0 0 1 191.5 -2 130.5 2 0.5 2
9 0 1 0 0 0 1 0 0 0 1 191.5 -2 170.5 2 0.5 2
9 0 1 0 0 0 1 0 0 0 1 191.5 -2 210.5 2 0.5 2
9 0 1 0 0 0 1 0 0 0 1 190.5 -2 -211.5 2 0.5 2
9 0 1 0 0 0 1 0 0 0 1 190.5 -2 -171.5 2 0.5 2
9 0 1 0 0 0 1 0 0 0 1 190.5 -2 -131.5 2 0.5 2
9 0 1 0 0 0 1 0 0 0 1 190.5 -2 -91.5 2 0.5 2
9 0 1 0 0 0 1 0 0 0 1 190.5 -2 -51.5 2 0.5 2
9 0 1 0 0 0 1 0 0 0 1 190.5 -2 -11.5 2 0.5 2
9 0 1 0 0 0 1 0 0 0 1 190.5 -2 28.5 2 0.5 2
9 0 1 0 0 0 1 0 0 0 1 190.5 -2 68.5 2 0.5 2
9 0 1 0 0 0 1 0 0 0 1 190.5 -2 108.5 2 0.5 2
9 0 1 0 0 0 1 0 0 0 1 190.5 -2 148.5 2 0.5 2
9 0 1 0 0 0 1 0 0 0 1 190.5 -2 188.5 2 0.5 2
9 0 1 0 0 0 1 0 0 0 1 169.5 -2 -188.5 2 0.5 2
9 0 1 0 0 0 1 0 0 0 1 169.5 -2 -148.5 2 0.5 2
9 0 1 0 0 0 1 0 0 0 1 169.5 -2 -108.5 2 0.5 2
9 0 1 0 0 0 1 0 0 0 1 169.5 -2 -68.5 2 0.5 2
9 0 1 0 0 0 1 0 0 0 1 169.5 -2 -28.5 2 0.5 2
9 0 1 0 0 0 1 0 0 0 1 169.5 -2 11.5 2 0.5 2
9 0 1 0 0 0 1 0 0 0 1 169.5 -2 51.5 2 0.5 2
9 0 1 0 0 0 1 0 0 0 1 169.5 -2 91.5 2 0.5 2
9 0 1 0 0 0 1 0 0 0 1 169.5 -2 131.5 2 0.5 2
9 0 1 0 0 0 1 0 0 0 1 169.5 -2 171.5 2 0.5 2
9 0 1 0 0 0 1 0 0 0 1 169.5 -2 211.5 2 0.5 2
9 0 1 0 0 0 1 0 0 0 1 168.5 -2 -210.5 2 0.5 2
9 0 1 0 0 0 1 0 0 0 1 168.5 -2 -170.5 2 0.5 2
9 0 1 0 0 0 1 0 0 0 1 168.5 -2 -130.5 2 0.5 2
9 0 1 0 0 0 1 0 0 0 1 168.5 -2 -90.5 2 0.5 2
9 0 1 0 0 0 1 0 0 0 1 168.5 -2 -50.5 2 0.5 2
9 0 1 0 0 0 1 0 0 0 1 168.5 -2 -10.5 2 0.5 2
9 0 1 0 0 0 1 0 0 0 1 168.5 -2 29.5 2 0.5 2
9 0 1 0 0 0 1 0 0 0 1 168.5 -2 69.5 2 0.5 2
9 0 1 0 0 0 1 0 0 0 1 168.5 -2 109.5 2 0.5 2
9 0 1 0 0 0 1 0 0 0 1 168.5 -2 149.5 2 0.5 2
9 0 1 0 0 0 1 0 0 0 1 168.5 -2 189.5 2 0.5 2
9 0 1 0 0 0 1 0 0 0 1 151.5 -2 -189.5 2 0.5 2
9 0 1 0 0 0 1 0 0 0 1 151.5 -2 -149.5 2 0.5 2
9 0 1 0 0 0 1 0 0 0 1 151.5 -2 -109.5 2 0.5 2
9 0 1 0 0 0 1 0 0 0 1 151.5 -2 -69.5 2 0.5 2
9 0 1 0 0 0 1 0 0 0 1 151.5 -2 -29.5 2 0.5 2
9 0 1 0 0 0 1 0 0 0 1 151.5 -2 10.5 2 0.5 2
9 0 1 0 0 0 1 0 0 0 1 151.5 -2 50.5 2 0.5 2
9 0 1 0 0 0 1 0 0 0 1 151.5 -2 90.5 2 0.5 2
9 0 1 0 0 0 1 0 0 0 1 151.5 -2 130.5 2 0.5 2
9 0 1 0 0 0 1 0 0 0 1 151.5 -2 170.5 2 0.5 2
9 0 1 0 0 0 1 0 0 0 1 151.5 -2 210.5 2 0.5 2
9 0 1 0 0 0 1 0 0 0 1 150.5 -2 -211.5 2 0.5 2
9 0 1 0 0 0 1 0 0 0 1 150.5 -2 -171.5 2 0.5 2
9 0 1 0 0 0 1 0 0 0 1 150.5 -2 -131.5 2 0.5 2
9 0 1 0 0 0 1 0 0 0 1 150.5 -2 -91.5 2 0.5 2
9 0 1 0 0 0 1 0 0 0 1 150.5 -2 -51.5 2 0.5 2
9 0 1 0 0 0 1 0 0 0 1 150.5 -2 -11.5 2 0.5 2
9 0 1 0 0 0 1 0 0 0 1 150.5 -2 28.5 2 0.5 2
9 0 1 0 0 0 1 0 0 0 1 150.5 -2 68.5 2 0.5 2
9 0 1 0 0 0 1 0 0 0 1 150.5 -2 108.5 2 0.5 2
9 0 1 0 0 0 1 0 0 0 1 150.5 -2 148.5 2 0.5 2
9 0 1 0 0 0 1 0 0 0 1 150.5 -2 188.5 2 0.5 2
9 0 1 0 0 0 1 0 0 0 1 129.5 -2 -188.5 2 0.5 2
9 0 1 0 0 0 1 0 0 0 1 129.5 -2 -148.5 2 0.5 2
9 0 1 0 0 0 1 0 0 0 1 129.5 -2 -108.5 2 0.5 2
9 0 1 0 0 0 1 0 0 0 1 129.5 -2 -68.5 2 0.5 2
9 0 1 0 0 0 1 0 0 0 1 129.5 -2 -28.5 2 0.5 2
9 0 1 0 0 0 1 0 0 0 1 129.5 -2 11.5 2 0.5 2
9 0 1 0 0 0 1 0 0 0 1 129.5 -2 51.5 2 0.5 2
9 0 1 0 0 0 1 0 0 0 1 129.5 -2 91.5 2 0.5 2
9 0 1 0 0 0 1 0 0 0 1 129.5 -2 131.5 2 0.5 2
9 0 1 0 0 0 1 0 0 0 1 129.5 -2 171.5 2 0.5 2
9 0 1 0 0 0 1 0 0 0 1 129.5 -2 211.5 2 0.5 2
9 0 1 0 0 0 1 0 0 0 1 128.5 -2 -210.5 2 0.5 2
9 0 1 0 0 0 1 0 0 0 1 128.5 -2 -170.5 2 0.5 2
9 0 1 0 0 0 1 0 0 0 1 128.5 -2 -130.5 2 0.5 2
9 0 1 0 0 0 1 0 0 0 1 128.5 -2 -90.5 2 0.5 2
9 0 1 0 0 0 1 0 0 0 1 128.5 -2 -50.5 2 0.5 2
9 0 1 0 0 0 1 0 0 0 1 128.5 -2 -10.5 2 0.5 2
9 0 1 0 0 0 1 0 0 0 1 128.5 -2 29.5 2 0.5 2
9 0 1 0 0 0 1 0 0 0 1 128.5 -2 69.5 2 0.5 2
9 0 1 0 0 0 1 0 0 0 1 128.5 -2 109.5 2 0.5 2
9 0 1 0 0 0 1 0 0 0 1 128.5 -2 149.5 2 0.5 2
9 0 1 0 0 0 1 0 0 0 1 128.5 -2 189.5 2 0.5 2
9 0 1 0 0 0 1 0 0 0 1 111.5 -2 -189.5 2 0.5 2
9 0 1 0 0 0 1 0 0 0 1 111.5 -2 -149.5 2 0.5 2
9 0 1 0 0 0 1 0 0 0 1 111.5 -2 -109.5 2 0.5 2
9 0 1 0 0 0 1 0 0 0 1 111.5 -2 -69.5 2 0.5 2
9 0 1 0 0 0 1 0 0 0 1 111.5 -2 -29.5 2 0.5 2
9 0 1 0 0 0 1 0 0 0 1 111.5 -2 10.5 2 0.5 2
9 0 1 0 0 0 1 0 0 0 1 111.5 -2 50.5 2 0.5 2
9 0 1 0 0 0 1 0 0 0 1 111.5 -2 90.5 2 0.5 2
9 0 1 0 0 0 1 0 0 0 1 111.5 -2 130.5 2 0.5 2
9 0 1 0 0 0 1 0 0 0 1 111.5 -2 170.5 2 0.5 2
9 0 1 0 0 0 1 0 0 0 1 111.5 -2 210.5 2 0.5 2
9 0 1 0 0 0 1 0 0 0 1 110.5 -2 -211.5 2 0.5 2
9 0 1 0 0 0 1 0 0 0 1 110.5 -2 -171.5 2 0.5 2
9 0 1 0 0 0 1 0 0 0 1 110.5 -2 -131.5 2 0.5 2
9 0 1 0 0 0 1 0 0 0 1 110.5 -2 -91.5 2 0.5 2
9 0 1 0 0 0 1 0 0 0 1 110.5 -2 -51.5 2 0.5 2
9 0 1 0 0 0 1 0 0 0 1 110.5 -2 -11.5 2 0.5 2
9 0 1 0 0 0 1 0 0 0 1 110.5 -2 28.5 2 0.5 2
9 0 1 0 0 0 1 0 0 0 1 110.5 -2 68.5 2 0.5 2
9 0 1 0 0 0 1 0 0 0 1 110.5 -2 108.5 2 0.5 2
9 0 1 0 0 0 1 0 0 0 1 110.5 -2 148.5 2 0.5 2
9 0 1 0 0 0 1 0 0 0 1 110.5 -2 188.5 2 0.5 2
9 0 1 0 0 0 1 0 0 0 1 89.5 -2 -188.5 2 0.5 2
9 0 1 0 0 0 1 0 0 0 1 89.5 -2 -148.5 2 0.5 2
9 0 1 0 0 0 1 0 0 0 1 89.5 -2 -108.5 2 0.5 2
9 0 1 0 0 0 1 0 0 0 1 89.5 -2 -68.5 2 0.5 2
9 0 1 0 0 0 1 0 0 0 1 89.5 -2 -28.5 2 0.5 2
9 0 1 0 0 0 1 0 0 0 1 89.5 -2 11.5 2 0.5 2
9 0 1 0 0 0 1 0 0 0 1 89.5 -2 51.5 2 0.5 2
9 0 1 0 0 0 1 0 0 0 1 89.5 -2 91.5 2 0.5 2
9 0 1 0 0 0 1 0 0 0 1 89.5 -2 131.5 2 0.5 2
9 0 1 0 0 0 1 0 0 0 1 89.5 -2 171.5 2 0.5 2
9 0 1 0 0 0 1 0 0 0 1 89.5 -2 211.5 2 0.5 2
9 0 1 0 0 0 1 0 0 0 1 88.5 -2 -210.5 2 0.5 2
9 0 1 0 0 0 1 0 0 0 1 88.5 -2 -170.5 2 0.5 2
9 0 1 0 0 0 1 0 0 0 1 88.5 -2 -130.5 2 0.5 2
9 0 1 0 0 0 1 0 0 0 1 88.5 -2 -90.5 2 0.5 2
9 0 1 0 0 0 1 0 0 0 1 88.5 -2 -50.5 2 0.5 2
9 0 1 0 0 0 1 0 0 0 1 88.5 -2 -10.5 2 0.5 2
9 0 1 0 0 0 1 0 0 0 1 88.5 -2 29.5 2 0.5 2
9 0 1 0 0 0 1 0 0 0 1 88.5 -2 69.5 2 0.5 2
9 0 1 0 0 0 1 0 0 0 1 88.5 -2 109.5 2 0.5 2
9 0 1 0 0 0 1 0 0 0 1 88.5 -2 149.5 2 0.5 2
9 0 1 0 0 0 1 0 0 0 1 88.5 -2 189.5 2 0.5 2
9 0 1 0 0 0 1 0 0 0 1 71.5 -2 -189.5 2 0.5 2
9 0 1 0 0 0 1 0 0 0 1 71.5 -2 -149.5 2 0.5 2
9 0 1 0 0 0 1 0 0 0 1 71.5 -2 -109.5 2 0.5 2
9 0 1 0 0 0 1 0 0 0 1 71.5 -2 -69.5 2 0.5 2
9 0 1 0 0 0 1 0 0 0 1 71.5 -2 -29.5 2 0.5 2
9 0 1 0 0 0 1 0 0 0 1 71.5 -2 10.5 2 0.5 2
9 0 1 0 0 0 1 0 0 0 1 71.5 -2 50.5 2 0.5 2
9 0 1 0 0 0 1 0 0 0 1 71.5 -2 90.5 2 0.5 2
9 0 1 0 0 0 1 0 0 0 1 71.5 -2 130.5 2 0.5 2
9 0 1 0 0 0 1 0 0 0 1 71.5 -2 170.5 2 0.5 2
9 0 1 0 0 0 1 0 0 0 1 71.5 -2 210.5 2 0.5 2
9 0 1 0 0 0 1 0 0 0 1 70.5 -2 -211.5 2 0.5 2
9 0 1 0 0 0 1 0 0 0 1 70.5 -2 -171.5 2 0.5 2
9 0 1 0 0 0 1 0 0 0 1 70.5 -2 -131.5 2 0.5 2
9 0 1 0 0 0 1 0 0 0 1 70.5 -2 -91.5 2 0.5 2
9 0 1 0 0 0 1 0 0 0 1 70.5 -2 -51.5 2 0.5 2
9 0 1 0 0 0 1 0 0 0 1 70.5 -2 -11.5 2 0.5 2
9 0 1 0 0 0 1 0 0 0 1 70.5 -2 28.5 2 0.5 2
9 0 1 0 0 0 1 0 0 0 1 70.5 -2 68.5 2 0.5 2
9 0 1 0 0 0 1 0 0 0 1 70.5 -2 108.5 2 0.5 2
9 0 1 0 0 0 1 0 0 0 1 70.5 -2 148.5 2 0.5 2
9 0 1 0 0 0 1 0 0 0 1 70.5 -2 188.5 2 0.5 2
9 0 1 0 0 0 1 0 0 0 1 49.5 -2 -188.5 2 0.5 2
9 0 1 0 0 0 1 0 0 0 1 49.5 -2 -148.5 2 0.5 2
9 0 1 0 0 0 1 0 0 0 1 49.5 -2 -108.5 2 0.5 2
9 0 1 0 0 0 1 0 0 0 1 49.5 -2 -68.5 2 0.5 2
9 0 1 0 0 0 1 0 0 0 1 49.5 -2 -28.5 2 0.5 2
9 0 1 0 0 0 1 0 0 0 1 49.5 -2 11.5 2 0.5 2
9 0 1 0 0 0 1 0 0 0 1 49.5 -2 51.5 2 0.5 2
9 0 1 0 0 0 1 0 0 0 1 49.5 -2 91.5 2 0.5 2
9 0 1 0 0 0 1 0 0 0 1 49.5 -2 131.5 2 0.5 2
9 0 1 0 0 0 1 0 0 0 1 49.5 -2 171.5 2 0.5 2
9 0 1 0 0 0 1 0 0 0 1 49.5 -2 211.5 2 0.5 2
9 0 1 0 0 0 1 0 0 0 1 48.5 -2 -210.5 2 0.5 2
9 0 1 0 0 0 1 0 0 0 1 48.5 -2 -170.5 2 0.5 2
9 0 1 0 0 0 1 0 0 0 1 48.5 -2 -130.5 2 0.5 2
9 0 1 0 0 0 1 0 0 0 1 48.5 -2 -90.5 2 0.5 2
9 0 1 0 0 0 1 0 0 0 1 48.5 -2 -50.5 2 0.5 2
9 0 1 0 0 0 1 0 0 0 1 48.5 -2 -10.5 2 0.5 2
9 0 1 0 0 0 1 0 0 0 1 48.5 -2 29.5 2 0.5 2
9 0 1 0 0 0 1 0 0 0 1 48.5 -2 69.5 2 0.5 2
9 0 1 0 0 0 1 0 0 0 1 48.5 -2 109.5 2 0.5 2
9 0 1 0 0 0 1 0 0 0 1 48.5 -2 149.5 2 0.5 2
9 0 1 0 0 0 1 0 0 0 1 48.5 -2 189.5 2 0.5 2
9 0 1 0 0 0 1 0 0 0 1 31.5 -2 -189.5 2 0.5 2
9 0 1 0 0 0 1 0 0 0 1 31.5 -2 -149.5 2 0.5 2
9 0 1 0 0 0 1 0 0 0 1 31.5 -2 -109.5 2 0.5 2
9 0 1 0 0 0 1 0 0 0 1 31.5 -2 -69.5 2 0.5 2
9 0 1 0 0 0 1 0 0 0 1 31.5 -2 -29.5 2 0.5 2
9 0 1 0 0 0 1 0 0 0 1 31.5 -2 10.5 2 0.5 2
9 0 1 0 0 0 1 0 0 0 1 31.5 -2 50.5 2 0.5 2
9 0 1 0 0 0 1 0 0 0 1 31.5 -2 90.5 2 0.5 2
9 0 1 0 0 0 1 0 0 0 1 31.5 -2 130.5 2 0.5 2
9 0 1 0 0 0 1 0 0 0 1 31.5 -2 170.5 2 0.5 2
9 0 1 0 0 0 1 0 0 0 1 31.5 -2 210.5 2 0.5 2
9 0 1 0 0 0 1 0 0 0 1 30.5 -2 -211.5 2 0.5 2
9 0 1 0 0 0 1 0 0 0 1 30.5 -2 -171.5 2 0.5 2
9 0 1 0 0 0 1 0 0 0 1 30.5 -2 -131.5 2 0.5 2
9 0 1 0 0 0 1 0 0 0 1 30.5 -2 -91.5 2 0.5 2
9 0 1 0 0 0 1 0 0 0 1 30.5 -2 -51.5 2 0.5 2
9 0 1 0 0 0 1 0 0 0 1 30.5 -2 -11.5 2 0.5 2
9 0 1 0 0 0 1 0 0 0 1 30.5 -2 28.5 2 0.5 2
9 0 1 0 0 0 1 0 0 0 1 30.5 -2 68.5 2 0.5 2
9 0 1 0 0 0 1 0 0 0 1 30.5 -2 108.5 2 0.5 2
9 0 1 0 0 0 1 0 0 0 1 30.5 -2 148.5 2 0.5 2
9 0 1 0 0 0 1 0 0 0 1 30.5 -2 188.5 2 0.5 2
9 0 1 0 0 0 1 0 0 0 1 9.5 -2 -188.5 2 0.5 2
9 0 1 0 0 0 1 0 0 0 1 9.5 -2 -148.5 2 0.5 2
9 0 1 0 0 0 1 0 0 0 1 9.5 -2 -108.5 2 0.5 2
9 0 1 0 0 0 1 0 0 0 1 9.5 -2 -68.5 2 0.5 2
9 0 1 0 0 0 1 0 0 0 1 9.5 -2 -28.5 2 0.5 2
9 0 1 0 0 0 1 0 0 0 1 9.5 -2 11.5 2 0.5 2
9 0 1 0 0 0 1 0 0 0 1 9.5 -2 51.5 2 0.5 2
9 0 1 0 0 0 1 0 0 0 1 9.5 -2 91.5 2 0.5 2
9 0 1 0 0 0 1 0 0 0 1 9.5 -2 131.5 2 0.5 2
9 0 1 0 0 0 1 0 0 0 1 9.5 -2 171.5 2 0.5 2
9 0 1 0 0 0 1 0 0 0 1 9.5 -2 211.5 2 0.5 2
9 0 1 0 0 0 1 0 0 0 1 8.5 -2 -210.5 2 0.5 2
9 0 1 0 0 0 1 0 0 0 1 8.5 -2 -170.5 2 0.5 2
9 0 1 0 0 0 1 0 0 0 1 8.5 -2 -130.5 2 0.5 2
9 0 1 0 0 0 1 0 0 0 1 8.5 -2 -90.5 2 0.5 2
9 0 1 0 0 0 1 0 0 0 1 8.5 -2 -50.5 2 0.5 2
9 0 1 0 0 0 1 0 0 0 1 8.5 -2 -10.5 2 0.5 2
9 0 1 0 0 0 1 0 0 0 1 8.5 -2 29.5 2 0.5 2
9 0 1 0 0 0 1 0 0 0 1 8.5 -2 69.5 2 0.5 2
9 0 1 0 0 0 1 0 0 0 1 8.5 -2 109.5 2 0.5 2
9 0 1 0 0 0 1 0 0 0 1 8.5 -2 149.5 2 0.5 2
9 0 1 0 0 0 1 0 0 0 1 8.5 -2 189.5 2 0.5 2
9 0 1 0 0 0 1 0 0 0 1 -8.5 -2 -189.5 2 0.5 2
9 0 1 0 0 0 1 0 0 0 1 -8.5 -2 -149.5 2 0.5 2
9 0 1 0 0 0 1 0 0 0 1 -8.5 -2 -109.5 2 0.5 2
9 0 1 0 0 0 1 0 0 0 1 -8.5 -2 -69.5 2 0.5 2
9 0 1 0 0 0 1 0 0 0 1 -8.5 -2 -29.5 2 0.5 2
9 0 1 0 0 0 1 0 0 0 1 -8.5 -2 10.5 2 0.5 2
9 0 1 0 0 0 1 0 0 0 1 -8.5 -2 50.5 2 0.5 2
9 0 1 0 0 0 1 0 0 0 1 -8.5 -2 90.5 2 0.5 2
9 0 1 0 0 0 1 0 0 0 1 -8.5 -2 130.5 2 0.5 2
9 0 1 0 0 0 1 0 0 0 1 -8.5 -2 170.5 2 0.5 2
9 0 1 0 0 0 1 0 0 0 1 -8.5 -2 210.5 2 0.5 2
9 0 1 0 0 0 1 0 0 0 1 -9.5 -2 -211.5 2 0.5 2
9 0 1 0 0 0 1 0 0 0 1 -9.5 -2 -171.5 2 0.5 2
9 0 1 0 0 0 1 0 0 0 1 -9.5 -2 -131.5 2 0.5 2
9 0 1 0 0 0 1 0 0 0 1 -9.5 -2 -91.5 2 0.5 2
9 0 1 0 0 0 1 0 0 0 1 -9.5 -2 -51.5 2 0.5 2
9 0 1 0 0 0 1 0 0 0 1 -9.5 -2 -11.5 2 0.5 2
9 0 1 0 0 0 1 0 0 0 1 -9.5 -2 28.5 2 0.5 2
9 0 1 0 0 0 1 0 0 0 1 -9.5 -2 68.5 2 0.5 2
9 0 1 0 0 0 1 0 0 0 1 -9.5 -2 108.5 2 0.5 2
9 0 1 0 0 0 1 0 0 0 1 -9.5 -2 148.5 2 0.5 2
9 0 1 0 0 0 1 0 0 0 1 -9.5 -2 188.5 2 0.5 2
9 0 1 0 0 0 1 0 0 0 1 -30.5 -2 -188.5 2 0.5 2
9 0 1 0 0 0 1 0 0 0 1 -30.5 -2 -148.5 2 0.5 2
9 0 1 0 0 0 1 0 0 0 1 -30.5 -2 -108.5 2 0.5 2
9 0 1 0 0 0 1 0 0 0 1 -30.5 -2 -68.5 2 0.5 2
9 0 1 0 0 0 1 0 0 0 1 -30.5 -2 -28.5 2 0.5 2
9 0 1 0 0 0 1 0 0 0 1 -30.5 -2 11.5 2 0.5 2
9 0 1 0 0 0 1 0 0 0 1 -30.5 -2 51.5 2 0.5 2
9 0 1 0 0 0 1 0 0 0 1 -30.5 -2 91.5 2 0.5 2
9 0 1 0 0 0 1 0 0 0 1 -30.5 -2 131.5 2 0.5 2
9 0 1 0 0 0 1 0 0 0 1 -30.5 -2 171.5 2 0.5 2
9 0 1 0 0 0 1 0 0 0 1 -30.5 -2 211.5 2 0.5 2
9 0 1 0 0 0 1 0 0 0 1 -31.5 -2 -210.5 2 0.5 2
9 0 1 0 0 0 1 0 0 0 1 -31.5 -2 -170.5 2 0.5 2
9 0 1 0 0 0 1 0 0 0 1 -31.5 -2 -130.5 2 0.5 2
9 0 1 0 0 0 1 0 0 0 1 -31.5 -2 -90.5 2 0.5 2
9 0 1 0 0 0 1 0 0 0 1 -31.5 -2 -50.5 2 0.5 2
9 0 1 0 0 0 1 0 0 0 1 -31.5 -2 -10.5 2 0.5 2
9 0 1 0 0 0 1 0 0 0 1 -31.5 -2 29.5 2 0.5 2
9 0 1 0 0 0 1 0 0 0 1 -31.5 -2 69.5 2 0.5 2
9 0 1 0 0 0 1 0 0 0 1 -31.5 -2 109.5 2 0.5 2
9 0 1 0 0 0 1 0 0 0 1 -31.5 -2 149.5 2 0.5 2
9 0 1 0 0 0 1 0 0 0 1 -31.5 -2 189.5 2 0.5 2
9 0 1 0 0 0 1 0 0 0 1 -48.5 -2 -189.5 2 0.5 2
9 0 1 0 0 0 1 0 0 0 1 -48.5 -2 -149.5 2 0.5 2
9 0 1 0 0 0 1 0 0 0 1 -48.5 -2 -109.5 2 0.5 2
9 0 1 0 0 0 1 0 0 0 1 -48.5 -2 -69.5 2 0.5 2
9 0 1 0 0 0 1 0 0 0 1 -48.5 -2 -29.5 2 0.5 2
9 0 1 0 0 0 1 0 0 0 1 -48.5 -2 10.5 2 0.5 2
9 0 1 0 0 0 1 0 0 0 1 -48.5 -2 50.5 2 0.5 2
9 0 1 0 0 0 1 0 0 0 1 -48.5 -2 90.5 2 0.5 2
9 0 1 0 0 0 1 0 0 0 1 -48.5 -2 130.5 2 0.5 2
9 0 1 0 0 0 1 0 0 0 1 -48.5 -2 170.5 2 0.5 2
9 0 1 0 0 0 1 0 0 0 1 -48.5 -2 210.5 2 0.5 2
9 0 1 0 0 0 1 0 0 0 1 -49.5 -2 -211.5 2 0.5 2
9 0 1 0 0 0 1 0 0 0 1 -49.5 -2 -171.5 2 0.5 2
9 0 1 0 0 0 1 0 0 0 1 -49.5 -2 -131.5 2 0.5 2
9 0 1 0 0 0 1 0 0 0 1 -49.5 -2 -91.5 2 0.5 2
9 0 1 0 0 0 1 0 0 0 1 -49.5 -2 -51.5 2 0.5 2
9 0 1 0 0 0 1 0 0 0 1 -49.5 -2 -11.5 2 0.5 2
9 0 1 0 0 0 1 0 0 0 1 -49.5 -2 28.5 2 0.5 2
9 0 1 0 0 0 1 0 0 0 1 -49.5 -2 68.5 2 0.5 2
9 0 1 0 0 0 1 0 0 0 1 -49.5 -2 108.5 2 0.5 2
9 0 1 0 0 0 1 0 0 0 1 -49.5 -2 148.5 2 0.5 2
9 0 1 0 0 0 1 0 0 0 1 -49.5 -2 188.5 2 0.5 2
9 0 1 0 0 0 1 0 0 0 1 -70.5 -2 -188.5 2 0.5 2
9 0 1 0 0 0 1 0 0 0 1 -70.5 -2 -148.5 2 0.5 2
9 0 1 0 0 0 1 0 0 0 1 -70.5 -2 -108.5 2 0.5 2
9 0 1 0 0 0 1 0 0 0 1 -70.5 -2 -68.5 2 0.5 2
9 0 1 0 0 0 1 0 0 0 1 -70.5 -2 -28.5 2 0.5 2
9 0 1 0 0 0 1 0 0 0 1 -70.5 -2 11.5 2 0.5 2
9 0 1 0 0 0 1 0 0 0 1 -70.5 -2 51.5 2 0.5 2
9 0 1 0 0 0 1 0 0 0 1 -70.5 -2 91.5 2 0.5 2
9 0 1 0 0 0 1 0 0 0 1 -70.5 -2 131.5 2 0.5 2
9 0 1 0 0 0 1 0 0 0 1 -70.5 -2 171.5 2 0.5 2
9 0 1 0 0 0 1 0 0 0 1 -70.5 -2 211.5 2 0.5 2
9 0 1 0 0 0 1 0 0 0 1 -71.5 -2 -210.5 2 0.5 2
9 0 1 0 0 0 1 0 0 0 1 -71.5 -2 -170.5 2 0.5 2
9 0 1 0 0 0 1 0 0 0 1 -71.5 -2 -130.5 2 0.5 2
9 0 1 0 0 0 1 0 0 0 1 -71.5 -2 -90.5 2 0.5 2
9 0 1 0 0 0 1 0 0 0 1 -71.5 -2 -50.5 2 0.5 2
9 0 1 0 0 0 1 0 0 0 1 -71.5 -2 -10.5 2 0.5 2
9 0 1 0 0 0 1 0 0 0 1 -71.5 -2 29.5 2 0.5 2
9 0 1 0 0 0 1 0 0 0 1 -71.5 -2 69.5 2 0.5 2
9 0 1 0 0 0 1 0 0 0 1 -71.5 -2 109.5 2 0.5 2
9 0 1 0 0 0 1 0 0 0 1 -71.5 -2 149.5 2 0.5 2
9 0 1 0 0 0 1 0 0 0 1 -71.5 -2 189.5 2 0.5 2
9 0 1 0 0 0 1 0 0 0 1 -88.5 -2 -189.5 2 0.5 2
9 0 1 0 0 0 1 0 0 0 1 -88.5 -2 -149.5 2 0.5 2
9 0 1 0 0 0 1 0 0 0 1 -88.5 -2 -109.5 2 0.5 2
9 0 1 0 0 0 1 0 0 0 1 -88.5 -2 -69.5 2 0.5 2
9 0 1 0 0 0 1 0 0 0 1 -88.5 -2 -29.5 2 0.5 2
9 0 1 0 0 0 1 0 0 0 1 -88.5 -2 10.5 2 0.5 2
9 0 1 0 0 0 1 0 0 0 1 -88.5 -2 50.5 2 0.5 2
9 0 1 0 0 0 1 0 0 0 1 -88.5 -2 90.5 2 0.5 2
9 0 1 0 0 0 1 0 0 0 1 -88.5 -2 130.5 2 0.5 2
9 0 1 0 0 0 1 0 0 0 1 -88.5 -2 170.5 2 0.5 2
9 0 1 0 0 0 1 0 0 0 1 -88.5 -2 210.5 2 0.5 2
9 0 1 0 0 0 1 0 0 0 1 -89.5 -2 -211.5 2 0.5 2
9 0 1 0 0 0 1 0 0 0 1 -89.5 -2 -171.5 2 0.5 2
9 0 1 0 0 0 1 0 0 0 1 -89.5 -2 -131.5 2 0.5 2
9 0 1 0 0 0 1 0 0 0 1 -89.5 -2 -91.5 2 0.5 2
9 0 1 0 0 0 1 0 0 0 1 -89.5 -2 -51.5 2 0.5 2
9 0 1 0 0 0 1 0 0 0 1 -89.5 -2 -11.5 2 0.5 2
9 0 1 0 0 0 1 0 0 0 1 -89.5 -2 28.5 2 0.5 2
9 0 1 0 0 0 1 0 0 0 1 -89.5 -2 68.5 2 0.5 2
9 0 1 0 0 0 1 0 0 0 1 -89.5 -2 108.5 2 0.5 2
9 0 1 0 0 0 1 0 0 0 1 -89.5 -2 148.5 2 0.5 2
9 0 1 0 0 0 1 0 0 0 1 -89.5 -2 188.5 2 0.5 2
9 0 1 0 0 0 1 0 0 0 1 -110.5 -2 -188.5 2 0.5 2
9 0 1 0 0 0 1 0 0 0 1 -110.5 -2 -148.5 2 0.5 2
9 0 1 0 0 0 1 0 0 0 1 -110.5 -2 -108.5 2 0.5 2
9 0 1 0 0 0 1 0 0 0 1 -110.5 -2 -68.5 2 0.5 2
9 0 1 0 0 0 1 0 0 0 1 -110.5 -2 -28.5 2 0.5 2
9 0 1 0 0 0 1 0 0 0 1 -110.5 -2 11.5 2 0.5 2
9 0 1 0 0 0 1 0 0 0 1 -110.5 -2 51.5 2 0.5 2
9 0 1 0 0 0 1 0 0 0 1 -110.5 -2 91.5 2 0.5 2
9 0 1 0 0 0 1 0 0 0 1 -110.5 -2 131.5 2 0.5 2
9 0 1 0 0 0 1 0 0 0 1 -110.5 -2 171.5 2 0.5 2
9 0 1 0 0 0 1 0 0 0 1 -110.5 -2 211.5 2 0.5 2
9 0 1 0 0 0 1 0 0 0 1 -111.5 -2 -210.5 2 0.5 2
9 0 1 0 0 0 1 0 0 0 1 -111.5 -2 -170.5 2 0.5 2
9 0 1 0 0 0 1 0 0 0 1 -111.5 -2 -130.5 2 0.5 2
9 0 1 0 0 0 1 0 0 0 1 -111.5 -2 -90.5 2 0.5 2
9 0 1 0 0 0 1 0 0 0 1 -111.5 -2 -50.5 2 0.5 2
9 0 1 0 0 0 1 0 0 0 1 -111.5 -2 -10.5 2 0.5 2
9 0 1 0 0 0 1 0 0 0 1 -111.5 -2 29.5 2 0.5 2
9 0 1 0 0 0 1 0 0 0 1 -111.5 -2 69.5 2 0.5 2
9 0 1 0 0 0 1 0 0 0 1 -111.5 -2 109.5 2 0.5 2
9 0 1 0 0 0 1 0 0 0 1 -111.5 -2 149.5 2 0.5 2
9 0 1 0 0 0 1 0 0 0 1 -111.5 -2 189.5 2 0.5 2
9 0 1 0 0 0 1 0 0 0 1 -128.5 -2 -189.5 2 0.5 2
9 0 1 0 0 0 1 0 0 0 1 -128.5 -2 -149.5 2 0.5 2
9 0 1 0 0 0 1 0 0 0 1 -128.5 -2 -109.5 2 0.5 2
9 0 1 0 0 0 1 0 0 0 1 -128.5 -2 -69.5 2 0.5 2
9 0 1 0 0 0 1 0 0 0 1 -128.5 -2 -29.5 2 0.5 2
9 0 1 0 0 0 1 0 0 0 1 -128.5 -2 10.5 2 0.5 2
9 0 1 0 0 0 1 0 0 0 1 -128.5 -2 50.5 2 0.5 2
9 0 1 0 0 0 1 0 0 0 1 -128.5 -2 90.5 2 0.5 2
9 0 1 0 0 0 1 0 0 0 1 -128.5 -2 130.5 2 0.5 2
9 0 1 0 0 0 1 0 0 0 1 -128.5 -2 170.5 2 0.5 2
9 0 1 0 0 0 1 0 0 0 1 -128.5 -2 210.5 2 0.5 2
9 0 1 0 0 0 1 0 0 0 1 -129.5 -2 -211.5 2 0.5 2
9 0 1 0 0 0 1 0 0 0 1 -129.5 -2 -171.5 2 0.5 2
9 0 1 0 0 0 1 0 0 0 1 -129.5 -2 -131.5 2 0.5 2
9 0 1 0 0 0 1 0 0 0 1 -129.5 -2 -91.5 2 0.5 2
9 0 1 0 0 0 1 0 0 0 1 -129.5 -2 -51.5 2 0.5 2
9 0 1 0 0 0 1 0 0 0 1 -129.5 -2 -11.5 2 0.5 2
9 0 1 0 0 0 1 0 0 0 1 -129.5 -2 28.5 2 0.5 2
9 0 1 0 0 0 1 0 0 0 1 -129.5 -2 68.5 2 0.5 2
9 0 1 0 0 0 1 0 0 0 1 -129.5 -2 108.5 2 0.5 2
9 0 1 0 0 0 1 0 0 0 1 -129.5 -2 148.5 2 0.5 2
9 0 1 0 0 0 1 0 0 0 1 -129.5 -2 188.5 2 0.5 2
9 0 1 0 0 0 1 0 0 0 1 -150.5 -2 -188.5 2 0.5 2
9 0 1 0 0 0 1 0 0 0 1 -150.5 -2 -148.5 2 0.5 2
9 0 1 0 0 0 1 0 0 0 1 -150.5 -2 -108.5 2 0.5 2
9 0 1 0 0 0 1 0 0 0 1 -150.5 -2 -68.5 2 0.5 2
9 0 1 0 0 0 1 0 0 0 1 -150.5 -2 -28.5 2 0.5 2
9 0 1 0 0 0 1 0 0 0 1 -150.5 -2 11.5 2 0.5 2
9 0 1 0 0 0 1 0 0 0 1 -150.5 -2 51.5 2 0.5 2
9 0 1 0 0 0 1 0 0 0 1 -150.5 -2 91.5 2 0.5 2
9 0 1 0 0 0 1 0 0 0 1 -150.5 -2 131.5 2 0.5 2
9 0 1 0 0 0 1 0 0 0 1 -150.5 -2 171.5 2 0.5 2
9 0 1 0 0 0 1 0 0 0 1 -150.5 -2 211.5 2 0.5 2
9 0 1 0 0 0 1 0 0 0 1 -151.5 -2 -210.5 2 0.5 2
9 0 1 0 0 0 1 0 0 0 1 -151.5 -2 -170.5 2 0.5 2
9 0 1 0 0 0 1 0 0 0 1 -151.5 -2 -130.5 2 0.5 2
9 0 1 0 0 0 1 0 0 0 1 -151.5 -2 -90.5 2 0.5 2
9 0 1 0 0 0 1 0 0 0 1 -151.5 -2 -50.5 2 0.5 2
9 0 1 0 0 0 1 0 0 0 1 -151.5 -2 -10.5 2 0.5 2
9 0 1 0 0 0 1 0 0 0 1 -151.5 -2 29.5 2 0.5 2
9 0 1 0 0 0 1 0 0 0 1 -151.5 -2 69.5 2 0.5 2
9 0 1 0 0 0 1 0 0 0 1 -151.5 -2 109.5 2 0.5 2
9 0 1 0 0 0 1 0 0 0 1 -151.5 -2 149.5 2 0.5 2
9 0 1 0 0 0 1 0 0 0 1 -151.5 -2 189.5 2 0.5 2
9 0 1 0 0 0 1 0 0 0 1 -168.5 -2 -189.5 2 0.5 2
9 0 1 0 0 0 1 0 0 0 1 -168.5 -2 -149.5 2 0.5 2
9 0 1 0 0 0 1 0 0 0 1 -168.5 -2 -109.5 2 0.5 2
9 0 1 0 0 0 1 0 0 0 1 -168.5 -2 -69.5 2 0.5 2
9 0 1 0 0 0 1 0 0 0 1 -168.5 -2 -29.5 2 0.5 2
9 0 1 0 0 0 1 0 0 0 1 -168.5 -2 10.5 2 0.5 2
9 0 1 0 0 0 1 0 0 0 1 -168.5 -2 50.5 2 0.5 2
9 0 1 0 0 0 1 0 0 0 1 -168.5 -2 90.5 2 0.5 2
9 0 1 0 0 0 1 0 0 0 1 -168.5 -2 130.5 2 0.5 2
9 0 1 0 0 0 1 0 0 0 1 -168.5 -2 170.5 2 0.5 2
9 0 1 0 0 0 1 0 0 0 1 -168.5 -2 210.5 2 0.5 2
9 0 1 0 0 0 1 0 0 0 1 -169.5 -2 -211.5 2 0.5 2
9 0 1 0 0 0 1 0 0 0 1 -169.5 -2 -171.5 2 0.5 2
9 0 1 0 0 0 1 0 0 0 1 -169.5 -2 -131.5 2 0.5 2
9 0 1 0 0 0 1 0 0 0 1 -169.5 -2 -91.5 2 0.5 2
9 0 1 0 0 0 1 0 0 0 1 -169.5 -2 -51.5 2 0.5 2
9 0 1 0 0 0 1 0 0 0 1 -169.5 -2 -11.5 2 0.5 2
9 0 1 0 0 0 1 0 0 0 1 -169.5 -2 28.5 2 0.5 2
9 0 1 0 0 0 1 0 0 0 1 -169.5 -2 68.5 2 0.5 2
9 0 1 0 0 0 1 0 0 0 1 -169.5 -2 108.5 2 0.5 2
9 0 1 0 0 0 1 0 0 0 1 -169.5 -2 148.5 2 0.5 2
9 0 1 0 0 0 1 0 0 0 1 -169.5 -2 188.5 2 0.5 2
9 0 1 0 0 0 1 0 0 0 1 -190.5 -2 -188.5 2 0.5 2
9 0 1 0 0 0 1 0 0 0 1 -190.5 -2 -148.5 2 0.5 2
9 0 1 0 0 0 1 0 0 0 1 -190.5 -2 -108.5 2 0.5 2
9 0 1 0 0 0 1 0 0 0 1 -190.5 -2 -68.5 2 0.5 2
9 0 1 0 0 0 1 0 0 0 1 -190.5 -2 -28.5 2 0.5 2
9 0 1 0 0 0 1 0 0 0 1 -190.5 -2 11.5 2 0.5 2
9 0 1 0 0 0 1 0 0 0 1 -190.5 -2 51.5 2 0.5 2
9 0 1 0 0 0 1 0 0 0 1 -190.5 -2 91.5 2 0.5 2
9 0 1 0 0 0 1 0 0 0 1 -190.5 -2 131.5 2 0.5 2
9 0 1 0 0 0 1 0 0 0 1 -190.5 -2 171.5 2 0.5 2
9 0 1 0 0 0 1 0 0 0 1 -190.5 -2 211.5 2 0.5 2
9 0 1 0 0 0 1 0 0 0 1 -191.5 -2 -210.5 2 0.5 2
9 0 1 0 0 0 1 0 0 0 1 -191.5 -2 -170.5 2 0.5 2
9 0 1 0 0 0 1 0 0 0 1 -191.5 -2 -130.5 2 0.5 2
9 0 1 0 0 0 1 0 0 0 1 -191.5 -2 -90.5 2 0.5 2
9 0 1 0 0 0 1 0 0 0 1 -191.5 -2 -50.5 2 0.5 2
9 0 1 0 0 0 1 0 0 0 1 -191.5 -2 -10.5 2 0.5 2
9 0 1 0 0 0 1 0 0 0 1 -191.5 -2 29.5 2 0.5 2
9 0 1 0 0 0 1 0 0 0 1 -191.5 -2 69.5 2 0.5 2
9 0 1 0 0 0 1 0 0 0 1 -191.5 -2 109.5 2 0.5 2
9 0 1 0 0 0 1 0 0 0 1 -191.5 -2 149.5 2 0.5 2
9 0 1 0 0 0 1 0 0 0 1 -191.5 -2 189.5 2 0.5 2
9 0 1 0 0 0 1 0 0 0 1 -208.5 -2 -189.5 2 0.5 2
9 0 1 0 0 0 1 0 0 0 1 -208.5 -2 -149.5 2 0.5 2
9 0 1 0 0 0 1 0 0 0 1 -208.5 -2 -109.5 2 0.5 2
9 0 1 0 0 0 1 0 0 0 1 -208.5 -2 -69.5 2 0.5 2
9 0 1 0 0 0 1 0 0 0 1 -208.5 -2 -29.5 2 0.5 2
9 0 1 0 0 0 1 0 0 0 1 -208.5 -2 10.5 2 0.5 2
9 0 1 0 0 0 1 0 0 0 1 -208.5 -2 50.5 2 0.5 2
9 0 1 0 0 0 1 0 0 0 1 -208.5 -2 90.5 2 0.5 2
9 0 1 0 0 0 1 0 0 0 1 -208.5 -2 130.5 2 0.5 2
9 0 1 0 0 0 1 0 0 0 1 -208.5 -2 170.5 2 0.5 2
9 0 1 0 0 0 1 0 0 0 1 -208.5 -2 210.5 2 0.5 2
9 0 1 0 0 0 1 0 0 0 1 -209.5 -2 -211.5 2 0.5 2
9 0 1 0 0 0 1 0 0 0 1 -209.5 -2 -171.5 2 0.5 2
9 0 1 0 0 0 1 0 0 0 1 -209.5 -2 -131.5 2 0.5 2
9 0 1 0 0 0 1 0 0 0 1 -209.5 -2 -91.5 2 0.5 2
9 0 1 0 0 0 1 0 0 0 1 -209.5 -2 -51.5 2 0.5 2
9 0 1 0 0 0 1 0 0 0 1 -209.5 -2 -11.5 2 0.5 2
9 0 1 0 0 0 1 0 0 0 1 -209.5 -2 28.5 2 0.5 2
9 0 1 0 0 0 1 0 0 0 1 -209.5 -2 68.5 2 0.5 2
9 0 1 0 0 0 1 0 0 0 1 -209.5 -2 108.5 2 0.5 2
9 0 1 0 0 0 1 0 0 0 1 -209.5 -2 148.5 2 0.5 2
9 0 1 0 0 0 1 0 0 0 1 -209.5 -2 188.5 2 0.5 2
9 0 1 0 0 0 1 0 0 0 1 -230.5 -2 -188.5 2 0.5 2
9 0 1 0 0 0 1 0 0 0 1 -230.5 -2 -148.5 2 0.5 2
9 0 1 0 0 0 1 0 0 0 1 -230.5 -2 -108.5 2 0.5 2
9 0 1 0 0 0 1 0 0 0 1 -230.5 -2 -68.5 2 0.5 2
9 0 1 0 0 0 1 0 0 0 1 -230.5 -2 -28.5 2 0.5 2
9 0 1 0 0 0 1 0 0 0 1 -230.5 -2 11.5 2 0.5 2
9 0 1 0 0 0 1 0 0 0 1 -230.5 -2 51.5 2 0.5 2
9 0 1 0 0 0 1 0 0 0 1 -230.5 -2 91.5 2 0.5 2
9 0 1 0 0 0 1 0 0 0 1 -230.5 -2 131.5 2 0.5 2
9 0 1 0 0 0 1 0 0 0 1 -230.5 -2 171.5 2 0.5 2
9 0 1 0 0 0 1 0 0 0 1 -230.5 -2 211.5 2 0.5 2
9 0 1 0 0 0 1 0 0 0 1 -231.5 -2 -210.5 2 0.5 2
9 0 1 0 0 0 1 0 0 0 1 -231.5 -2 -170.5 2 0.5 2
9 0 1 0 0 0 1 0 0 0 1 -231.5 -2 -130.5 2 0.5 2
9 0 1 0 0 0 1 0 0 0 1 -231.5 -2 -90.5 2 0.5 2
9 0 1 0 0 0 1 0 0 0 1 -231.5 -2 -50.5 2 0.5 2
9 0 1 0 0 0 1 0 0 0 1 -231.5 -2 -10.5 2 0.5 2
9 0 1 0 0 0 1 0 0 0 1 -231.5 -2 29.5 2 0.5 2
9 0 1 0 0 0 1 0 0 0 1 -231.5 -2 69.5 2 0.5 2
9 0 1 0 0 0 1 0 0 0 1 -231.5 -2 109.5 2 0.5 2
9 0 1 0 0 0 1 0 0 0 1 -231.5 -2 149.5 2 0.5 2
9 0 1 0 0 0 1 0 0 0 1 -231.5 -2 189.5 2 0.5 2
9 0 1 0 0 0 1 0 0 0 1 -248.5 -2 -189.5 2 0.5 2
9 0 1 0 0 0 1 0 0 0 1 -248.5 -2 -149.5 2 0.5 2
9 0 1 0 0 0 1 0 0 0 1 -248.5 -2 -109.5 2 0.5 2
9 0 1 0 0 0 1 0 0 0 1 -248.5 -2 -69.5 2 0.5 2
9 0 1 0 0 0 1 0 0 0 1 -248.5 -2 -29.5 2 0.5 2
9 0 1 0 0 0 1 0 0 0 1 -248.5 -2 10.5 2 0.5 2
9 0 1 0 0 0 1 0 0 0 1 -248.5 -2 50.5 2 0.5 2
9 0 1 0 0 0 1 0 0 0 1 -248.5 -2 90.5 2 0.5 2
9 0 1 0 0 0 1 0 0 0 1 -248.5 -2 130.5 2 0.5 2
9 0 1 0 0 0 1 0 0 0 1 -248.5 -2 170.5 2 0.5 2
9 0 1 0 0 0 1 0 0 0 1 -248.5 -2 210.5 2 0.5 2
9 0 1 0 0 0 1 0 0 0 1 -249.5 -2 -211.5 2 0.5 2
9 0 1 0 0 0 1 0 0 0 1 -249.5 -2 -171.5 2 0.5 2
9 0 1 0 0 0 1 0 0 0 1 -249.5 -2 -131.5 2 0.5 2
9 0 1 0 0 0 1 0 0 0 1 -249.5 -2 -91.5 2 0.5 2
9 0 1 0 0 0 1 0 0 0 1 -249.5 -2 -51.5 2 0.5 2
9 0 1 0 0 0 1 0 0 0 1 -249.5 -2 -11.5 2 0.5 2
9 0 1 0 0 0 1 0 0 0 1 -249.5 -2 28.5 2 0.5 2
9 0 1 0 0 0 1 0 0 0 1 -249.5 -2 68.5 2 0.5 2
9 0 1 0 0 0 1 0 0 0 1 -249.5 -2 108.5 2 0.5 2
9 0 1 0 0 0 1 0 0 0 1 -249.5 -2 148.5 2 0.5 2
9 0 1 0 0 0 1 0 0 0 1 -249.5 -2 188.5 2 0.5 2
9 0 1 0 0 0 1 0 0 0 1 -270.5 -2 -188.5 2 0.5 2
9 0 1 0 0 0 1 0 0 0 1 -270.5 -2 -148.5 2 0.5 2
9 0 1 0 0 0 1 0 0 0 1 -270.5 -2 -108.5 2 0.5 2
9 0 1 0 0 0 1 0 0 0 1 -270.5 -2 -68.5 2 0.5 2
9 0 1 0 0 0 1 0 0 0 1 -270.5 -2 -28.5 2 0.5 2
9 0 1 0 0 0 1 0 0 0 1 -270.5 -2 11.5 2 0.5 2
9 0 1 0 0 0 1 0 0 0 1 -270.5 -2 51.5 2 0.5 2
9 0 1 0 0 0 1 0 0 0 1 -270.5 -2 91.5 2 0.5 2
9 0 1 0 0 0 1 0 0 0 1 -270.5 -2 131.5 2 0.5 2
9 0 1 0 0 0 1 0 0 0 1 -270.5 -2 171.5 2 0.5 2
9 0 1 0 0 0 1 0 0 0 1 -270.5 -2 211.5 2 0.5 2
9 0 1 0 0 0 1 0 0 0 1 -271.5 -2 -210.5 2 0.5 2
9 0 1 0 0 0 1 0 0 0 1 -271.5 -2 -170.5 2 0.5 2
9 0 1 0 0 0 1 0 0 0 1 -271.5 -2 -130.5 2 0.5 2
9 0 1 0 0 0 1 0 0 0 1 -271.5 -2 -90.5 2 0.5 2
9 0 1 0 0 0 1 0 0 0 1 -271.5 -2 -50.5 2 0.5 2
9 0 1 0 0 0 1 0 0 0 1 -271.5 -2 -10.5 2 0.5 2
9 0 1 0 0 0 1 0 0 0 1 -271.5 -2 29.5 2 0.5 2
9 0 1 0 0 0 1 0 0 0 1 -271.5 -2 69.5 2 0.5 2
9 0 1 0 0 0 1 0 0 0 1 -271.5 -2 109.5 2 0.5 2
9 0 1 0 0 0 1 0 0 0 1 -271.5 -2 149.5 2 0.5 2
9 0 1 0 0 0 1 0 0 0 1 -271.5 -2 189.5 2 0.5 2
9 0 1 0 0 0 1 0 0 0 1 -288.5 -2 -189.5 2 0.5 2
9 0 1 0 0 0 1 0 0 0 1 -288.5 -2 -149.5 2 0.5 2
9 0 1 0 0 0 1 0 0 0 1 -288.5 -2 -109.5 2 0.5 2
9 0 1 0 0 0 1 0 0 0 1 -288.5 -2 -69.5 2 0.5 2
9 0 1 0 0 0 1 0 0 0 1 -288.5 -2 -29.5 2 0.5 2
9 0 1 0 0 0 1 0 0 0 1 -288.5 -2 10.5 2 0.5 2
9 0 1 0 0 0 1 0 0 0 1 -288.5 -2 50.5 2 0.5 2
9 0 1 0 0 0 1 0 0 0 1 -288.5 -2 90.5 2 0.5 2
9 0 1 0 0 0 1 0 0 0 1 -288.5 -2 130.5 2 0.5 2
9 0 1 0 0 0 1 0 0 0 1 -288.5 -2 170.5 2 0.5 2
9 0 1 0 0 0 1 0 0 0 1 -288.5 -2 210.5 2 0.5 2
9 0 1 0 0 0 1 0 0 0 1 -289.5 -2 -211.5 2 0.5 2
9 0 1 0 0 0 1 0 0 0 1 -289.5 -2 -171.5 2 0.5 2
9 0 1 0 0 0 1 0 0 0 1 -289.5 -2 -131.5 2 0.5 2
9 0 1 0 0 0 1 0 0 0 1 -289.5 -2 -91.5 2 0.5 2
9 0 1 0 0 0 1 0 0 0 1 -289.5 -2 -51.5 2 0.5 2
9 0 1 0 0 0 1 0 0 0 1 -289.5 -2 -11.5 2 0.5 2
9 0 1 0 0 0 1 0 0 0 1 -289.5 -2 28.5 2 0.5 2
9 0 1 0 0 0 1 0 0 0 1 -289.5 -2 68.5 2 0.5 2
9 0 1 0 0 0 1 0 0 0 1 -289.5 -2 108.5 2 0.5 2
9 0 1 0 0 0 1 0 0 0 1 -289.5 -2 148.5 2 0.5 2
9 0 1 0 0 0 1 0 0 0 1 -289.5 -2 188.5 2 0.5 2
9 0 1 0 0 0 1 0 0 0 1 -310.5 -2 -188.5 2 0.5 2
9 0 1 0 0 0 1 0 0 0 1 -310.5 -2 -148.5 2 0.5 2
9 0 1 0 0 0 1 0 0 0 1 -310.5 -2 -108.5 2 0.5 2
9 0 1 0 0 0 1 0 0 0 1 -310.5 -2 -68.5 2 0.5 2
9 0 1 0 0 0 1 0 0 0 1 -310.5 -2 -28.5 2 0.5 2
9 0 1 0 0 0 1 0 0 0 1 -310.5 -2 11.5 2 0.5 2
9 0 1 0 0 0 1 0 0 0 1 -310.5 -2 51.5 2 0.5 2
9 0 1 0 0 0 1 0 0 0 1 -310.5 -2 91.5 2 0.5 2
9 0 1 0 0 0 1 0 0 0 1 -310.5 -2 131.5 2 0.5 2
9 0 1 0 0 0 1 0 0 0 1 -310.5 -2 171.5 2 0.5 2
9 0 1 0 0 0 1 0 0 0 1 -310.5 -2 211.5 2 0.5 2
9 0 1 0 0 0 1 0 0 0 1 -311.5 -2 -210.5 2 0.5 2
9 0 1 0 0 0 1 0 0 0 1 -311.5 -2 -170.5 2 0.5 2
9 0 1 0 0 0 1 0 0 0 1 -311.5 -2 -130.5 2 0.5 2
9 0 1 0 0 0 1 0 0 0 1 -311.5 -2 -90.5 2 0.5 2
9 0 1 0 0 0 1 0 0 0 1 -311.5 -2 -50.5 2 0.5 2
9 0 1 0 0 0 1 0 0 0 1 -311.5 -2 -10.5 2 0.5 2
9 0 1 0 0 0 1 0 0 0 1 -311.5 -2 29.5 2 0.5 2
9 0 1 0 0 0 1 0 0 0 1 -311.5 -2 69.5 2 0.5 2
9 0 1 0 0 0 1 0 0 0 1 -311.5 -2 109.5 2 0.5 2
9 0 1 0 0 0 1 0 0 0 1 -311.5 -2 149.5 2 0.5 2
9 0 1 0 0 0 1 0 0 0 1 -311.5 -2 189.5 2 0.5 2
9 0 1 0 0 0 1 0 0 0 1 -328.5 -2 -189.5 2 0.5 2
9 0 1 0 0 0 1 0 0 0 1 -328.5 -2 -149.5 2 0.5 2
9 0 1 0 0 0 1 0 0 0 1 -328.5 -2 -109.5 2 0.5 2
9 0 1 0 0 0 1 0 0 0 1 -328.5 -2 -69.5 2 0.5 2
9 0 1 0 0 0 1 0 0 0 1 -328.5 -2 -29.5 2 0.5 2
9 0 1 0 0 0 1 0 0 0 1 -328.5 -2 10.5 2 0.5 2
9 0 1 0 0 0 1 0 0 0 1 -328.5 -2 50.5 2 0.5 2
9 0 1 0 0 0 1 0 0 0 1 -328.5 -2 90.5 2 0.5 2
9 0 1 0 0 0 1 0 0 0 1 -328.5 -2 130.5 2 0.5 2
9 0 1 0 0 0 1 0 0 0 1 -328.5 -2 170.5 2 0.5 2
9 0 1 0 0 0 1 0 0 0 1 -328.5 -2 210.5 2 0.5 2
9 0 1 0 0 0 1 0 0 0 1 -329.5 -2 -211.5 2 0.5 2
9 0 1 0 0 0 1 0 0 0 1 -329.5 -2 -171.5 2 0.5 2
9 0 1 0 0 0 1 0 0 0 1 -329.5 -2 -131.5 2 0.5 2
9 0 1 0 0 0 1 0 0 0 1 -329.5 -2 -91.5 2 0.5 2
9 0 1 0 0 0 1 0 0 0 1 -329.5 -2 -51.5 2 0.5 2
9 0 1 0 0 0 1 0 0 0 1 -329.5 -2 -11.5 2 0.5 2
9 0 1 0 0 0 1 0 0 0 1 -329.5 -2 28.5 2 0.5 2
9 0 1 0 0 0 1 0 0 0 1 -329.5 -2 68.5 2 0.5 2
9 0 1 0 0 0 1 0 0 0 1 -329.5 -2 108.5 2 0.5 2
9 0 1 0 0 0 1 0 0 0 1 -329.5 -2 148.5 2 0.5 2
9 0 1 0 0 0 1 0 0 0 1 -329.5 -2 188.5 2 0.5 2
9 0 1 0 0 0 1 0 0 0 1 -350.5 -2 -188.5 2 0.5 2
9 0 1 0 0 0 1 0 0 0 1 -350.5 -2 -148.5 2 0.5 2
9 0 1 0 0 0 1 0 0 0 1 -350.5 -2 -108.5 2 0.5 2
9 0 1 0 0 0 1 0 0 0 1 -350.5 -2 -68.5 2 0.5 2
9 0 1 0 0 0 1 0 0 0 1 -350.5 -2 -28.5 2 0.5 2
9 0 1 0 0 0 1 0 0 0 1 -350.5 -2 11.5 2 0.5 2
9 0 1 0 0 0 1 0 0 0 1 -350.5 -2 51.5 2 0.5 2
9 0 1 0 0 0 1 0 0 0 1 -350.5 -2 91.5 2 0.5 2
9 0 1 0 0 0 1 0 0 0 1 -350.5 -2 131.5 2 0.5 2
9 0 1 0 0 0 1 0 0 0 1 -350.5 -2 171.5 2 0.5 2
9 0 1 0 0 0 1 0 0 0 1 -350.5 -2 211.5 2 0.5 2
9 0 1 0 0 0 1 0 0 0 1 -351.5 -2 -210.5 2 0.5 2
9 0 1 0 0 0 1 0 0 0 1 -351.5 -2 -170.5 2 0.5 2
9 0 1 0 0 0 1 0 0 0 1 -351.5 -2 -130.5 2 0.5 2
9 0 1 0 0 0 1 0 0 0 1 -351.5 -2 -90.5 2 0.5 2
9 0 1 0 0 0 1 0 0 0 1 -351.5 -2 -50.5 2 0.5 2
9 0 1 0 0 0 1 0 0 0 1 -351.5 -2 -10.5 2 0.5 2
9 0 1 0 0 0 1 0 0 0 1 -351.5 -2 29.5 2 0.5 2
9 0 1 0 0 0 1 0 0 0 1 -351.5 -2 69.5 2 0.5 2
9 0 1 0 0 0 1 0 0 0 1 -351.5 -2 109.5 2 0.5 2
9 0 1 0 0 0 1 0 0 0 1 -351.5 -2 149.5 2 0.5 2
9 0 1 0 0 0 1 0 0 0 1 -351.5 -2 189.5 2 0.5 2
9 0 1 0 0 0 1 0 0 0 1 -368.5 -2 -189.5 2 0.5 2
9 0 1 0 0 0 1 0 0 0 1 -368.5 -2 -149.5 2 0.5 2
9 0 1 0 0 0 1 0 0 0 1 -368.5 -2 -109.5 2 0.5 2
9 0 1 0 0 0 1 0 0 0 1 -368.5 -2 -69.5 2 0.5 2
9 0 1 0 0 0 1 0 0 0 1 -368.5 -2 -29.5 2 0.5 2
9 0 1 0 0 0 1 0 0 0 1 -368.5 -2 10.5 2 0.5 2
9 0 1 0 0 0 1 0 0 0 1 -368.5 -2 50.5 2 0.5 2
9 0 1 0 0 0 1 0 0 0 1 -368.5 -2 90.5 2 0.5 2
9 0 1 0 0 0 1 0 0 0 1 -368.5 -2 130.5 2 0.5 2
9 0 1 0 0 0 1 0 0 0 1 -368.5 -2 170.5 2 0.5 2
9 0 1 0 0 0 1 0 0 0 1 -368.5 -2 210.5 2 0.5 2
9 0 1 0 0 0 1 0 0 0 1 -369.5 -2 -211.5 2 0.5 2
9 0 1 0 0 0 1 0 0 0 1 -369.5 -2 -171.5 2 0.5 2
9 0 1 0 0 0 1 0 0 0 1 -369.5 -2 -131.5 2 0.5 2
9 0 1 0 0 0 1 0 0 0 1 -369.5 -2 -91.5 2 0.5 2
9 0 1 0 0 0 1 0 0 0 1 -369.5 -2 -51.5 2 0.5 2
9 0 1 0 0 0 1 0 0 0 1 -369.5 -2 -11.5 2 0.5 2
9 0 1 0 0 0 1 0 0 0 1 -369.5 -2 28.5 2 0.5 2
9 0 1 0 0 0 1 0 0 0 1 -369.5 -2 68.5 2 0.5 2
9 0 1 0 0 0 1 0 0 0 1 -369.5 -2 108.5 2 0.5 2
9 0 1 0 0 0 1 0 0 0 1 -369.5 -2 148.5 2 0.5 2
9 0 1 0 0 0 1 0 0 0 1 -369.5 -2 188.5 2 0.5 2
9 0 1 0 0 0 1 0 0 0 1 -390.5 -2 -188.5 2 0.5 2
9 0 1 0 0 0 1 0 0 0 1 -390.5 -2 -148.5 2 0.5 2
9 0 1 0 0 0 1 0 0 0 1 -390.5 -2 -108.5 2 0.5 2
9 0 1 0 0 0 1 0 0 0 1 -390.5 -2 -68.5 2 0.5 2
9 0 1 0 0 0 1 0 0 0 1 -390.5 -2 -28.5 2 0.5 2
9 0 1 0 0 0 1 0 0 0 1 -390.5 -2 11.5 2 0.5 2
9 0 1 0 0 0 1 0 0 0 1 -390.5 -2 51.5 2 0.5 2
9 0 1 0 0 0 1 0 0 0 1 -390.5 -2 91.5 2 0.5 2
9 0 1 0 0 0 1 0 0 0 1 -390.5 -2 131.5 2 0.5 2
9 0 1 0 0 0 1 0 0 0 1 -390.5 -2 171.5 2 0.5 2
9 0 1 0 0 0 1 0 0 0 1 -390.5 -2 211.5 2 0.5 2
9 0 1 0 0 0 1 0 0 0 1 -391.5 -2 -210.5 2 0.5 2
9 0 1 0 0 0 1 0 0 0 1 -391.5 -2 -170.5 2 0.5 2
9 0 1 0 0 0 1 0 0 0 1 -391.5 -2 -130.5 2 0.5 2
9 0 1 0 0 0 1 0 0 0 1 -391.5 -2 -90.5 2 0.5 2
9 0 1 0 0 0 1 0 0 0 1 -391.5 -2 -50.5 2 0.5 2
9 0 1 0 0 0 1 0 0 0 1 -391.5 -2 -10.5 2 0.5 2
9 0 1 0 0 0 1 0 0 0 1 -391.5 -2 29.5 2 0.5 2
9 0 1 0 0 0 1 0 0 0 1 -391.5 -2 69.5 2 0.5 2
9 0 1 0 0 0 1 0 0 0 1 -391.5 -2 109.5 2 0.5 2
9 0 1 0 0 0 1 0 0 0 1 -391.5 -2 149.5 2 0.5 2
9 0 1 0 0 0 1 0 0 0 1 -391.5 -2 189.5 2 0.5 2
9 0 1 0 0 0 1 0 0 0 1 -408.5 -2 -189.5 2 0.5 2
9 0 1 0 0 0 1 0 0 0 1 -408.5 -2 -149.5 2 0.5 2
9 0 1 0 0 0 1 0 0 0 1 -408.5 -2 -109.5 2 0.5 2
9 0 1 0 0 0 1 0 0 0 1 -408.5 -2 -69.5 2 0.5 2
9 0 1 0 0 0 1 0 0 0 1 -408.5 -2 -29.5 2 0.5 2
9 0 1 0 0 0 1 0 0 0 1 -408.5 -2 10.5 2 0.5 2
9 0 1 0 0 0 1 0 0 0 1 -408.5 -2 50.5 2 0.5 2
9 0 1 0 0 0 1 0 0 0 1 -408.5 -2 90.5 2 0.5 2
9 0 1 0 0 0 1 0 0 0 1 -408.5 -2 130.5 2 0.5 2
9 0 1 0 0 0 1 0 0 0 1 -408.5 -2 170.5 2 0.5 2
9 0 1 0 0 0 1 0 0 0 1 -408.5 -2 210.5 2 0.5 2
9 0 1 0 0 0 1 0 0 0 1 -409.5 -2 -211.5 2 0.5 2
9 0 1 0 0 0 1 0 0 0 1 -409.5 -2 -171.5 2 0.5 2
9 0 1 0 0 0 1 0 0 0 1 -409.5 -2 -131.5 2 0.5 2
9 0 1 0 0 0 1 0 0 0 1 -409.5 -2 -91.5 2 0.5 2
9 0 1 0 0 0 1 0 0 0 1 -409.5 -2 -51.5 2 0.5 2
9 0 1 0 0 0 1 0 0 0 1 -409.5 -2 -11.5 2 0.5 2
9 0 1 0 0 0 1 0 0 0 1 -409.5 -2 28.5 2 0.5 2
9 0 1 0 0 0 1 0 0 0 1 -409.5 -2 68.5 2 0.5 2
9 0 1 0 0 0 1 0 0 0 1 -409.5 -2 108.5 2 0.5 2
9 0 1 0 0 0 1 0 0 0 1 -409.5 -2 148.5 2 0.5 2
9 0 1 0 0 0 1 0 0 0 1 -409.5 -2 188.5 2 0.5 2
9 0 1 0 0 0 1 0 0 0 1 -430.5 -2 -188.5 2 0.5 2
9 0 1 0 0 0 1 0 0 0 1 -430.5 -2 -148.5 2 0.5 2
9 0 1 0 0 0 1 0 0 0 1 -430.5 -2 -108.5 2 0.5 2
9 0 1 0 0 0 1 0 0 0 1 -430.5 -2 -68.5 2 0.5 2
9 0 1 0 0 0 1 0 0 0 1 -430.5 -2 -28.5 2 0.5 2
9 0 1 0 0 0 1 0 0 0 1 -430.5 -2 11.5 2 0.5 2
9 0 1 0 0 0 1 0 0 0 1 -430.5 -2 51.5 2 0.5 2
9 0 1 0 0 0 1 0 0 0 1 -430.5 -2 91.5 2 0.5 2
9 0 1 0 0 0 1 0 0 0 1 -430.5 -2 131.5 2 0.5 2
9 0 1 0 0 0 1 0 0 0 1 -430.5 -2 171.5 2 0.5 2
9 0 1 0 0 0 1 0 0 0 1 -430.5 -2 211.5 2 0.5 2
9 0 1 0 0 0 1 0 0 0 1 -431.5 -2 -210.5 2 0.5 2
9 0 1 0 0 0 1 0 0 0 1 -431.5 -2 -170.5 2 0.5 2
9 0 1 0 0 0 1 0 0 0 1 -431.5 -2 -130.5 2 0.5 2
9 0 1 0 0 0 1 0 0 0 1 -431.5 -2 -90.5 2 0.5 2
9 0 1 0 0 0 1 0 0 0 1 -431.5 -2 -50.5 2 0.5 2
9 0 1 0 0 0 1 0 0 0 1 -431.5 -2 -10.5 2 0.5 2
9 0 1 0 0 0 1 0 0 0 1 -431.5 -2 29.5 2 0.5 2
9 0 1 0 0 0 1 0 0 0 1 -431.5 -2 69.5 2 0.5 2
9 0 1 0 0 0 1 0 0 0 1 -431.5 -2 109.5 2 0.5 2
9 0 1 0 0 0 1 0 0 0 1 -431.5 -2 149.5 2 0.5 2
9 0 1 0 0 0 1 0 0 0 1 -431.5 -2 189.5 2 0.5 2
9 0 1 0 0 0 1 0 0 0 1 435 2 -213.5 1.5 0.5 2
9 0 1 0 0 0 1 0 0 0 1 -435 2 -213.5 1.5 0.5 2
9 0 1 0 0 0 1 0 0 0 1 400 6.5 -163 2.5 1 0.5
9 0 1 0 0 0 1 0 0 0 1 400 6.5 -157 2.5 1 0.5
9 0 1 0 0 0 1 0 0 0 1 400 6.5 -83 2.5 1 0.5
9 0 1 0 0 0 1 0 0 0 1 400 6.5 -77 2.5 1 0.5
9 0 1 0 0 0 1 0 0 0 1 400 6.5 -3 2.5 1 0.5
9 0 1 0 0 0 1 0 0 0 1 400 6.5 3 2.5 1 0.5
9 0 1 0 0 0 1 0 0 0 1 400 6.5 77 2.5 1 0.5
9 0 1 0 0 0 1 0 0 0 1 400 6.5 83 2.5 1 0.5
9 0 1 0 0 0 1 0 0 0 1 400 6.5 157 2.5 1 0.5
9 0 1 0 0 0 1 0 0 0 1 400 6.5 163 2.5 1 0.5
9 0 1 0 0 0 1 0 0 0 1 360 6.5 -123 2.5 1 0.5
9 0 1 0 0 0 1 0 0 0 1 360 6.5 -117 2.5 1 0.5
9 0 1 0 0 0 1 0 0 0 1 360 6.5 -43 2.5 1 0.5
9 0 1 0 0 0 1 0 0 0 1 360 6.5 -37 2.5 1 0.5
9 0 1 0 0 0 1 0 0 0 1 360 6.5 37 2.5 1 0.5
9 0 1 0 0 0 1 0 0 0 1 360 6.5 43 2.5 1 0.5
9 0 1 0 0 0 1 0 0 0 1 360 6.5 117 2.5 1 0.5
9 0 1 0 0 0 1 0 0 0 1 360 6.5 123 2.5 1 0.5
9 0 1 0 0 0 1 0 0 0 1 320 6.5 -163 2.5 1 0.5
9 0 1 0 0 0 1 0 0 0 1 320 6.5 -157 2.5 1 0.5
9 0 1 0 0 0 1 0 0 0 1 320 6.5 -83 2.5 1 0.5
9 0 1 0 0 0 1 0 0 0 1 320 6.5 -77 2.5 1 0.5
9 0 1 0 0 0 1 0 0 0 1 320 6.5 -3 2.5 1 0.5
9 0 1 0 0 0 1 0 0 0 1 320 6.5 3 2.5 1 0.5
9 0 1 0 0 0 1 0 0 0 1 320 6.5 77 2.5 1 0.5
9 0 1 0 0 0 1 0 0 0 1 320 6.5 83 2.5 1 0.5
9 0 1 0 0 0 1 0 0 0 1 320 6.5 157 2.5 1 0.5
9 0 1 0 0 0 1 0 0 0 1 320 6.5 163 2.5 1 0.5
9 0 1 0 0 0 1 0 0 0 1 280 6.5 -123 2.5 1 0.5
9 0 1 0 0 0 1 0 0 0 1 280 6.5 -117 2.5 1 0.5
9 0 1 0 0 0 1 0 0 0 1 280 6.5 -43 2.5 1 0.5
9 0 1 0 0 0 1 0 0 0 1 280 6.5 -37 2.5 1 0.5
9 0 1 0 0 0 1 0 0 0 1 280 6.5 37 2.5 1 0.5
9 0 1 0 0 0 1 0 0 0 1 280 6.5 43 2.5 1 0.5
9 0 1 0 0 0 1 0 0 0 1 280 6.5 117 2.5 1 0.5
9 0 1 0 0 0 1 0 0 0 1 280 6.5 123 2.5 1 0.5
9 0 1 0 0 0 1 0 0 0 1 240 6.5 -163 2.5 1 0.5
9 0 1 0 0 0 1 0 0 0 1 240 6.5 -157 2.5 1 0.5
9 0 1 0 0 0 1 0 0 0 1 240 6.5 -83 2.5 1 0.5
9 0 1 0 0 0 1 0 0 0 1 240 6.5 -77 2.5 1 0.5
9 0 1 0 0 0 1 0 0 0 1 240 6.5 -3 2.5 1 0.5
9 0 1 0 0 0 1 0 0 0 1 240 6.5 3 2.5 1 0.5
9 0 1 0 0 0 1 0 0 0 1 240 6.5 77 2.5 1 0.5
9 0 1 0 0 0 1 0 0 0 1 240 6.5 83 2.5 1 0.5
9 0 1 0 0 0 1 0 0 0 1 240 6.5 157 2.5 1 0.5
9 0 1 0 0 0 1 0 0 0 1 240 6.5 163 2.5 1 0.5
9 0 1 0 0 0 1 0 0 0 1 200 6.5 -123 2.5 1 0.5
9 0 1 0 0 0 1 0 0 0 1 200 6.5 -117 2.5 1 0.5
9 0 1 0 0 0 1 0 0 0 1 200 6.5 -43 2.5 1 0.5
9 0 1 0 0 0 1 0 0 0 1 200 6.5 -37 2.5 1 0.5
9 0 1 0 0 0 1 0 0 0 1 200 6.5 37 2.5 1 0.5
9 0 1 0 0 0 1 0 0 0 1 200 6.5 43 2.5 1 0.5
9 0 1 0 0 0 1 0 0 0 1 200 6.5 117 2.5 1 0.5
9 0 1 0 0 0 1 0 0 0 1 200 6.5 123 2.5 1 0.5
9 0 1 0 0 0 1 0 0 0 1 160 6.5 -163 2.5 1 0.5
9 0 1 0 0 0 1 0 0 0 1 160 6.5 -157 2.5 1 0.5
9 0 1 0 0 0 1 0 0 0 1 160 6.5 -83 2.5 1 0.5
9 0 1 0 0 0 1 0 0 0 1 160 6.5 -77 2.5 1 0.5
9 0 1 0 0 0 1 0 0 0 1 160 6.5 -3 2.5 1 0.5
9 0 1 0 0 0 1 0 0 0 1 160 6.5 3 2.5 1 0.5
9 0 1 0 0 0 1 0 0 0 1 160 6.5 77 2.5 1 0.5
9 0 1 0 0 0 1 0 0 0 1 160 6.5 83 2.5 1 0.5
9 0 1 0 0 0 1 0 0 0 1 160 6.5 157 2.5 1 0.5
9 0 1 0 0 0 1 0 0 0 1 160 6.5 163 2.5 1 0.5
9 0 1 0 0 0 1 0 0 0 1 120 6.5 -123 2.5 1 0.5
9 0 1 0 0 0 1 0 0 0 1 120 6.5 -117 2.5 1 0.5
9 0 1 0 0 0 1 0 0 0 1 120 6.5 -43 2.5 1 0.5
9 0 1 0 0 0 1 0 0 0 1 120 6.5 -37 2.5 1 0.5
9 0 1 0 0 0 1 0 0 0 1 120 6.5 37 2.5 1 0.5
9 0 1 0 0 0 1 0 0 0 1 120 6.5 43 2.5 1 0.5
9 0 1 0 0 0 1 0 0 0 1 120 6.5 117 2.5 1 0.5
9 0 1 0 0 0 1 0 0 0 1 120 6.5 123 2.5 1 0.5
9 0 1 0 0 0 1 0 0 0 1 80 6.5 -163 2.5 1 0.5
9 0 1 0 0 0 1 0 0 0 1 80 6.5 -157 2.5 1 0.5
9 0 1 0 0 0 1 0 0 0 1 80 6.5 -83 2.5 1 0.5
9 0 1 0 0 0 1 0 0 0 1 80 6.5 -77 2.5 1 0.5
9 0 1 0 0 0 1 0 0 0 1 80 6.5 -3 2.5 1 0.5
9 0 1 0 0 0 1 0 0 0 1 80 6.5 3 2.5 1 0.5
9 0 1 0 0 0 1 0 0 0 1 80 6.5 77 2.5 1 0.5
9 0 1 0 0 0 1 0 0 0 1 80 6.5 83 2.5 1 0.5
9 0 1 0 0 0 1 0 0 0 1 80 6.5 157 2.5 1 0.5
9 0 1 0 0 0 1 0 0 0 1 80 6.5 163 2.5 1 0.5
9 0 1 0 0 0 1 0 0 0 1 40 6.5 -123 2.5 1 0.5
9 0 1 0 0 0 1 0 0 0 1 40 6.5 -117 2.5 1 0.5
9 0 1 0 0 0 1 0 0 0 1 40 6.5 -43 2.5 1 0.5
9 0 1 0 0 0 1 0 0 0 1 40 6.5 -37 2.5 1 0.5
9 0 1 0 0 0 1 0 0 0 1 40 6.5 37 2.5 1 0.5
9 0 1 0 0 0 1 0 0 0 1 40 6.5 43 2.5 1 0.5
9 0 1 0 0 0 1 0 0 0 1 40 6.5 117 2.5 1 0.5
9 0 1 0 0 0 1 0 0 0 1 40 6.5 123 2.5 1 0.5
9 0 1 0 0 0 1 0 0 0 1 0 6.5 -163 2.5 1 0.5
9 0 1 0 0 0 1 0 0 0 1 0 6.5 -157 2.5 1 0.5
9 0 1 0 0 0 1 0 0 0 1 0 6.5 -83 2.5 1 0.5
9 0 1 0 0 0 1 0 0 0 1 0 6.5 -77 2.5 1 0.5
9 0 1 0 0 0 1 0 0 0 1 0 6.5 -3 2.5 1 0.5
9 0 1 0 0 0 1 0 0 0 1 0 6.5 3 2.5 1 0.5
9 0 1 0 0 0 1 0 0 0 1 0 6.5 77 2.5 1 0.5
9 0 1 0 0 0 1 0 0 0 1 0 6.5 83 2.5 1 0.5
9 0 1 0 0 0 1 0 0 0 1 0 6.5 157 2.5 1 0.5
9 0 1 0 0 0 1 0 0 0 1 0 6.5 163 2.5 1 0.5
9 0 1 0 0 0 1 0 0 0 1 -40 6.5 -123 2.5 1 0.5
9 0 1 0 0 0 1 0 0 0 1 -40 6.5 -117 2.5 1 0.5
9 0 1 0 0 0 1 0 0 0 1 -40 6.5 -43 2.5 1 0.5
9 0 1 0 0 0 1 0 0 0 1 -40 6.5 -37 2.5 1 0.5
9 0 1 0 0 0 1 0 0 0 1 -40 6.5 37 2.5 1 0.5
9 0 1 0 0 0 1 0 0 0 1 -40 6.5 43 2.5 1 0.5
9 0 1 0 0 0 1 0 0 0 1 -40 6.5 117 2.5 1 0.5
9 0 1 0 0 0 1 0 0 0 1 -40 6.5 123 2.5 1 0.5
9 0 1 0 0 0 1 0 0 0 1 -80 6.5 -163 2.5 1 0.5
9 0 1 0 0 0 1 0 0 0 1 -80 6.5 -157 2.5 1 0.5
9 0 1 0 0 0 1 0 0 0 1 -80 6.5 -83 2.5 1 0.5
9 0 1 0 0 0 1 0 0 0 1 -80 6.5 -77 2.5 1 0.5
9 0 1 0 0 0 1 0 0 0 1 -80 6.5 -3 2.5 1 0.5
9 0 1 0 0 0 1 0 0 0 1 -80 6.5 3 2.5 1 0.5
9 0 1 0 0 0 1 0 0 0 1 -80 6.5 77 2.5 1 0.5
9 0 1 0 0 0 1 0 0 0 1 -80 6.5 83 2.5 1 0.5
9 0 1 0 0 0 1 0 0 0 1 -80 6.5 157 2.5 1 0.5
9 0 1 0 0 0 1 0 0 0 1 -80 6.5 163 2.5 1 0.5
9 0 1 0 0 0 1 0 0 0 1 -120 6.5 -123 2.5 1 0.5
9 0 1 0 0 0 1 0 0 0 1 -120 6.5 -117 2.5 1 0.5
9 0 1 0 0 0 1 0 0 0 1 -120 6.5 -43 2.5 1 0.5
9 0 1 0 0 0 1 0 0 0 1 -120 6.5 -37 2.5 1 0.5
9 0 1 0 0 0 1 0 0 0 1 -120 6.5 37 2.5 1 0.5
9 0 1 0 0 0 1 0 0 0 1 -120 6.5 43 2.5 1 0.5
9 0 1 0 0 0 1 0 0 0 1 -120 6.5 117 2.5 1 0.5
9 0 1 0 0 0 1 0 0 0 1 -120 6.5 123 2.5 1 0.5
9 0 1 0 0 0 1 0 0 0 1 -160 6.5 -163 2.5 1 0.5
9 0 1 0 0 0 1 0 0 0 1 -160 6.5 -157 2.5 1 0.5
9 0 1 0 0 0 1 0 0 0 1 -160 6.5 -83 2.5 1 0.5
9 0 1 0 0 0 1 0 0 0 1 -160 6.5 -77 2.5 1 0.5
9 0 1 0 0 0 1 0 0 0 1 -160 6.5 -3 2.5 1 0.5
9 0 1 0 0 0 1 0 0 0 1 -160 6.5 3 2.5 1 0.5
9 0 1 0 0 0 1 0 0 0 1 -160 6.5 77 2.5 1 0.5
9 0 1 0 0 0 1 0 0 0 1 -160 6.5 83 2.5 1 0.5
9 0 1 0 0 0 1 0 0 0 1 -160 6.5 157 2.5 1 0.5
9 0 1 0 0 0 1 0 0 0 1 -160 6.5 163 2.5 1 0.5
9 0 1 0 0 0 1 0 0 0 1 -200 6.5 -123 2.5 1 0.5
9 0 1 0 0 0 1 0 0 0 1 -200 6.5 -117 2.5 1 0.5
9 0 1 0 0 0 1 0 0 0 1 -200 6.5 -43 2.5 1 0.5
9 0 1 0 0 0 1 0 0 0 1 -200 6.5 -37 2.5 1 0.5
9 0 1 0 0 0 1 0 0 0 1 -200 6.5 37 2.5 1 0.5
9 0 1 0 0 0 1 0 0 0 1 -200 6.5 43 2.5 1 0.5
9 0 1 0 0 0 1 0 0 0 1 -200 6.5 117 2.5 1 0.5
9 0 1 0 0 0 1 0 0 0 1 -200 6.5 123 2.5 1 0.5
9 0 1 0 0 0 1 0 0 0 1 -240 6.5 -163 2.5 1 0.5
9 0 1 0 0 0 1 0 0 0 1 -240 6.5 -157 2.5 1 0.5
9 0 1 0 0 0 1 0 0 0 1 -240 6.5 -83 2.5 1 0.5
9 0 1 0 0 0 1 0 0 0 1 -240 6.5 -77 2.5 1 0.5
9 0 1 0 0 0 1 0 0 0 1 -240 6.5 -3 2.5 1 0.5
9 0 1 0 0 0 1 0 0 0 1 -240 6.5 3 2.5 1 0.5
9 0 1 0 0 0 1 0 0 0 1 -240 6.5 77 2.5 1 0.5
9 0 1 0 0 0 1 0 0 0 1 -240 6.5 83 2.5 1 0.5
9 0 1 0 0 0 1 0 0 0 1 -240 6.5 157 2.5 1 0.5
9 0 1 0 0 0 1 0 0 0 1 -240 6.5 163 2.5 1 0.5
9 0 1 0 0 0 1 0 0 0 1 -280 6.5 -123 2.5 1 0.5
9 0 1 0 0 0 1 0 0 0 1 -280 6.5 -117 2.5 1 0.5
9 0 1 0 0 0 1 0 0 0 1 -280 6.5 -43 2.5 1 0.5
9 0 1 0 0 0 1 0 0 0 1 -280 6.5 -37 2.5 1 0.5
9 0 1 0 0 0 1 0 0 0 1 -280 6.5 37 2.5 1 0.5
9 0 1 0 0 0 1 0 0 0 1 -280 6.5 43 2.5 1 0.5
9 0 1 0 0 0 1 0 0 0 1 -280 6.5 117 2.5 1 0.5
9 0 1 0 0 0 1 0 0 0 1 -280 6.5 123 2.5 1 0.5
9 0 1 0 0 0 1 0 0 0 1 -320 6.5 -163 2.5 1 0.5
9 0 1 0 0 0 1 0 0 0 1 -320 6.5 -157 2.5 1 0.5
9 0 1 0 0 0 1 0 0 0 1 -320 6.5 -83 2.5 1 0.5
9 0 1 0 0 0 1 0 0 0 1 -320 6.5 -77 2.5 1 0.5
9 0 1 0 0 0 1 0 0 0 1 -320 6.5 -3 2.5 1 0.5
9 0 1 0 0 0 1 0 0 0 1 -320 6.5 3 2.5 1 0.5
9 0 1 0 0 0 1 0 0 0 1 -320 6.5 77 2.5 1 0.5
9 0 1 0 0 0 1 0 0 0 1 -320 6.5 83 2.5 1 0.5
9 0 1 0 0 0 1 0 0 0 1 -320 6.5 157 2.5 1 0.5
9 0 1 0 0 0 1 0 0 0 1 -320 6.5 163 2.5 1 0.5
9 0 1 0 0 0 1 0 0 0 1 -360 6.5 -123 2.5 1 0.5
9 0 1 0 0 0 1 0 0 0 1 -360 6.5 -117 2.5 1 0.5
9 0 1 0 0 0 1 0 0 0 1 -360 6.5 -43 2.5 1 0.5
9 0 1 0 0 0 1 0 0 0 1 -360 6.5 -37 2.5 1 0.5
9 0 1 0 0 0 1 0 0 0 1 -360 6.5 37 2.5 1 0.5
9 0 1 0 0 0 1 0 0 0 1 -360 6.5 43 2.5 1 0.5
9 0 1 0 0 0 1 0 0 0 1 -360 6.5 117 2.5 1 0.5
9 0 1 0 0 0 1 0 0 0 1 -360 6.5 123 2.5 1 0.5
9 0 1 0 0 0 1 0 0 0 1 -400 6.5 -163 2.5 1 0.5
9 0 1 0 0 0 1 0 0 0 1 -400 6.5 -157 2.5 1 0.5
9 0 1 0 0 0 1 0 0 0 1 -400 6.5 -83 2.5 1 0.5
9 0 1 0 0 0 1 0 0 0 1 -400 6.5 -77 2.5 1 0.5
9 0 1 0 0 0 1 0 0 0 1 -400 6.5 -3 2.5 1 0.5
9 0 1 0 0 0 1 0 0 0 1 -400 6.5 3 2.5 1 0.5
9 0 1 0 0 0 1 0 0 0 1 -400 6.5 77 2.5 1 0.5
9 0 1 0 0 0 1 0 0 0 1 -400 6.5 83 2.5 1 0.5
9 0 1 0 0 0 1 0 0 0 1 -400 6.5 157 2.5 1 0.5
9 0 1 0 0 0 1 0 0 0 1 -400 6.5 163 2.5 1 0.5
9 0 1 0 0 0 1 0 0 0 1 406 3.5 -160 0.5 1 1.5
9 0 1 0 0 0 1 0 0 0 1 406 3.5 -80 0.5 1 1.5
9 0 1 0 0 0 1 0 0 0 1 406 3.5 0 0.5 1 1.5
9 0 1 0 0 0 1 0 0 0 1 406 3.5 80 0.5 1 1.5
9 0 1 0 0 0 1 0 0 0 1 406 3.5 160 0.5 1 1.5
9 0 1 0 0 0 1 0 0 0 1 400 3.5 -166 1.5 1 0.5
9 0 1 0 0 0 1 0 0 0 1 400 3.5 -154 1.5 1 0.5
9 0 1 0 0 0 1 0 0 0 1 400 3.5 -86 1.5 1 0.5
9 0 1 0 0 0 1 0 0 0 1 400 3.5 -74 1.5 1 0.5
9 0 1 0 0 0 1 0 0 0 1 400 3.5 -6 1.5 1 0.5
9 0 1 0 0 0 1 0 0 0 1 400 3.5 6 1.5 1 0.5
9 0 1 0 0 0 1 0 0 0 1 400 3.5 74 1.5 1 0.5
9 0 1 0 0 0 1 0 0 0 1 400 3.5 86 1.5 1 0.5
9 0 1 0 0 0 1 0 0 0 1 400 3.5 154 1.5 1 0.5
9 0 1 0 0 0 1 0 0 0 1 400 3.5 166 1.5 1 0.5
9 0 1 0 0 0 1 0 0 0 1 394 3.5 -160 0.5 1 1.5
9 0 1 0 0 0 1 0 0 0 1 394 3.5 -80 0.5 1 1.5
9 0 1 0 0 0 1 0 0 0 1 394 3.5 0 0.5 1 1.5
9 0 1 0 0 0 1 0 0 0 1 394 3.5 80 0.5 1 1.5
9 0 1 0 0 0 1 0 0 0 1 394 3.5 160 0.5 1 1.5
9 0 1 0 0 0 1 0 0 0 1 366 3.5 -120 0.5 1 1.5
9 0 1 0 0 0 1 0 0 0 1 366 3.5 -40 0.5 1 1.5
9 0 1 0 0 0 1 0 0 0 1 366 3.5 40 0.5 1 1.5
9 0 1 0 0 0 1 0 0 0 1 366 3.5 120 0.5 1 1.5
9 0 1 0 0 0 1 0 0 0 1 360 3.5 -126 1.5 1 0.5
9 0 1 0 0 0 1 0 0 0 1 360 3.5 -114 1.5 1 0.5
9 0 1 0 0 0 1 0 0 0 1 360 3.5 -46 1.5 1 0.5
9 0 1 0 0 0 1 0 0 0 1 360 3.5 -34 1.5 1 0.5
9 0 1 0 0 0 1 0 0 0 1 360 3.5 34 1.5 1 0.5
9 0 1 0 0 0 1 0 0 0 1 360 3.5 46 1.5 1 0.5
9 0 1 0 0 0 1 0 0 0 1 360 3.5 114 1.5 1 0.5
9 0 1 0 0 0 1 0 0 0 1 360 3.5 126 1.5 1 0.5
9 0 1 0 0 0 1 0 0 0 1 354 3.5 -120 0.5 1 1.5
9 0 1 0 0 0 1 0 0 0 1 354 3.5 -40 0.5 1 1.5
9 0 1 0 0 0 1 0 0 0 1 354 3.5 40 0.5 1 1.5
9 0 1 0 0 0 1 0 0 0 1 354 3.5 120 0.5 1 1.5
9 0 1 0 0 0 1 0 0 0 1 326 3.5 -160 0.5 1 1.5
9 0 1 0 0 0 1 0 0 0 1 326 3.5 -80 0.5 1 1.5
9 0 1 0 0 0 1 0 0 0 1 326 3.5 0 0.5 1 1.5
9 0 1 0 0 0 1 0 0 0 1 326 3.5 80 0.5 1 1.5
9 0 1 0 0 0 1 0 0 0 1 326 3.5 160 0.5 1 1.5
9 0 1 0 0 0 1 0 0 0 1 320 3.5 -166 1.5 1 0.5
9 0 1 0 0 0 1 0 0 0 1 320 3.5 -154 1.5 1 0.5
9 0 1 0 0 0 1 0 0 0 1 320 3.5 -86 1.5 1 0.5
9 0 1 0 0 0 1 0 0 0 1 320 3.5 -74 1.5 1 0.5
9 0 1 0 0 0 1 0 0 0 1 320 3.5 -6 1.5 1 0.5
9 0 1 0 0 0 1 0 0 0 1 320 3.5 6 1.5 1 0.5
9 0 1 0 0 0 1 0 0 0 1 320 3.5 74 1.5 1 0.5
9 0 1 0 0 0 1 0 0 0 1 320 3.5 86 1.5 1 0.5
9 0 1 0 0 0 1 0 0 0 1 320 3.5 154 1.5 1 0.5
9 0 1 0 0 0 1 0 0 0 1 320 3.5 166 1.5 1 0.5
9 0 1 0 0 0 1 0 0 0 1 314 3.5 -160 0.5 1 1.5
9 0 1 0 0 0 1 0 0 0 1 314 3.5 -80 0.5 1 1.5
9 0 1 0 0 0 1 0 0 0 1 314 3.5 0 0.5 1 1.5
9 0 1 0 0 0 1 0 0 0 1 314 3.5 80 0.5 1 1.5
9 0 1 0 0 0 1 0 0 0 1 314 3.5 160 0.5 1 1.5
9 0 1 0 0 0 1 0 0 0 1 286 3.5 -120 0.5 1 1.5
9 0 1 0 0 0 1 0 0 0 1 286 3.5 -40 0.5 1 1.5
9 0 1 0 0 0 1 0 0 0 1 286 3.5 40 0.5 1 1.5
9 0 1 0 0 0 1 0 0 0 1 286 3.5 120 0.5 1 1.5
9 0 1 0 0 0 1 0 0 0 1 280 3.5 -126 1.5 1 0.5
9 0 1 0 0 0 1 0 0 0 1 280 3.5 -114 1.5 1 0.5
9 0 1 0 0 0 1 0 0 0 1 280 3.5 -46 1.5 1 0.5
9 0 1 0 0 0 1 0 0 0 1 280 3.5 -34 1.5 1 0.5
9 0 1 0 0 0 1 0 0 0 1 280 3.5 34 1.5 1 0.5
9 0 1 0 0 0 1 0 0 0 1 280 3.5 46 1.5 1 0.5
9 0 1 0 0 0 1 0 0 0 1 280 3.5 114 1.5 1 0.5
9 0 1 0 0 0 1 0 0 0 1 280 3.5 126 1.5 1 0.5
9 0 1 0 0 0 1 0 0 0 1 274 3.5 -120 0.5 1 1.5
9 0 1 0 0 0 1 0 0 0 1 274 3.5 -40 0.5 1 1.5
9 0 1 0 0 0 1 0 0 0 1 274 3.5 40 0.5 1 1.5
9 0 1 0 0 0 1 0 0 0 1 274 3.5 120 0.5 1 1.5
9 0 1 0 0 0 1 0 0 0 1 246 3.5 -160 0.5 1 1.5
9 0 1 0 0 0 1 0 0 0 1 246 3.5 -80 0.5 1 1.5
9 0 1 0 0 0 1 0 0 0 1 246 3.5 0 0.5 1 1.5
9 0 1 0 0 0 1 0 0 0 1 246 3.5 80 0.5 1 1.5
9 0 1 0 0 0 1 0 0 0 1 246 3.5 160 0.5 1 1.5
9 0 1 0 0 0 1 0 0 0 1 240 3.5 -166 1.5 1 0.5
9 0 1 0 0 0 1 0 0 0 1 240 3.5 -154 1.5 1 0.5
9 0 1 0 0 0 1 0 0 0 1 240 3.5 -86 1.5 1 0.5
9 0 1 0 0 0 1 0 0 0 1 240 3.5 -74 1.5 1 0.5
9 0 1 0 0 0 1 0 0 0 1 240 3.5 -6 1.5 1 0.5
9 0 1 0 0 0 1 0 0 0 1 240 3.5 6 1.5 1 0.5
9 0 1 0 0 0 1 0 0 0 1 240 3.5 74 1.5 1 0.5
9 0 1 0 0 0 1 0 0 0 1 240 3.5 86 1.5 1 0.5
9 0 1 0 0 0 1 0 0 0 1 240 3.5 154 1.5 1 0.5
9 0 1 0 0 0 1 0 0 0 1 240 3.5 166 1.5 1 0.5
9 0 1 0 0 0 1 0 0 0 1 234 3.5 -160 0.5 1 1.5
9 0 1 0 0 0 1 0 0 0 1 234 3.5 -80 0.5 1 1.5
9 0 1 0 0 0 1 0 0 0 1 234 3.5 0 0.5 1 1.5
9 0 1 0 0 0 1 0 0 0 1 234 3.5 80 0.5 1 1.5
9 0 1 0 0 0 1 0 0 0 1 234 3.5 160 0.5 1 1.5
9 0 1 0 0 0 1 0 0 0 1 206 3.5 -120 0.5 1 1.5
9 0 1 0 0 0 1 0 0 0 1 206 3.5 -40 0.5 1 1.5
9 0 1 0 0 0 1 0 0 0 1 206 3.5 40 0.5 1 1.5
9 0 1 0 0 0 1 0 0 0 1 206 3.5 120 0.5 1 1.5
9 0 1 0 0 0 1 0 0 0 1 200 3.5 -126 1.5 1 0.5
9 0 1 0 0 0 1 0 0 0 1 200 3.5 -114 1.5 1 0.5
9 0 1 0 0 0 1 0 0 0 1 200 3.5 -46 1.5 1 0.5
9 0 1 0 0 0 1 0 0 0 1 200 3.5 -34 1.5 1 0.5
9 0 1 0 0 0 1 0 0 0 1 200 3.5 34 1.5 1 0.5
9 0 1 0 0 0 1 0 0 0 1 200 3.5 46 1.5 1 0.5
9 0 1 0 0 0 1 0 0 0 1 200 3.5 114 1.5 1 0.5
9 0 1 0 0 0 1 0 0 0 1 200 3.5 126 1.5 1 0.5
9 0 1 0 0 0 1 0 0 0 1 194 3.5 -120 0.5 1 1.5
9 0 1 0 0 0 1 0 0 0 1 194 3.5 -40 0.5 1 1.5
9 0 1 0 0 0 1 0 0 0 1 194 3.5 40 0.5 1 1.5
9 0 1 0 0 0 1 0 0 0 1 194 3.5 120 0.5 1 1.5
9 0 1 0 0 0 1 0 0 0 1 166 3.5 -160 0.5 1 1.5
9 0 1 0 0 0 1 0 0 0 1 166 3.5 -80 0.5 1 1.5
9 0 1 0 0 0 1 0 0 0 1 166 3.5 0 0.5 1 1.5
9 0 1 0 0 0 1 0 0 0 1 166 3.5 80 0.5 1 1.5
9 0 1 0 0 0 1 0 0 0 1 166 3.5 160 0.5 1 1.5
9 0 1 0 0 0 1 0 0 0 1 160 3.5 -166 1.5 1 0.5
9 0 1 0 0 0 1 0 0 0 1 160 3.5 -154 1.5 1 0.5
9 0 1 0 0 0 1 0 0 0 1 160 3.5 -86 1.5 1 0.5
9 0 1 0 0 0 1 0 0 0 1 160 3.5 -74 1.5 1 0.5
9 0 1 0 0 0 1 0 0 0 1 160 3.5 -6 1.5 1 0.5
9 0 1 0 0 0 1 0 0 0 1 160 3.5 6 1.5 1 0.5
9 0 1 0 0 0 1 0 0 0 1 160 3.5 74 1.5 1 0.5
9 0 1 0 0 0 1 0 0 0 1 160 3.5 86 1.5 1 0.5
9 0 1 0 0 0 1 0 0 0 1 160 3.5 154 1.5 1 0.5
9 0 1 0 0 0 1 0 0 0 1 160 3.5 166 1.5 1 0.5
9 0 1 0 0 0 1 0 0 0 1 154 3.5 -160 0.5 1 1.5
9 0 1 0 0 0 1 0 0 0 1 154 3.5 -80 0.5 1 1.5
9 0 1 0 0 0 1 0 0 0 1 154 3.5 0 0.5 1 1.5
9 0 1 0 0 0 1 0 0 0 1 154 3.5 80 0.5 1 1.5
9 0 1 0 0 0 1 0 0 0 1 154 3.5 160 0.5 1 1.5
9 0 1 0 0 0 1 0 0 0 1 126 3.5 -120 0.5 1 1.5
9 0 1 0 0 0 1 0 0 0 1 126 3.5 -40 0.5 1 1.5
9 0 1 0 0 0 1 0 0 0 1 126 3.5 40 0.5 1 1.5
9 0 1 0 0 0 1 0 0 0 1 126 3.5 120 0.5 1 1.5
9 0 1 0 0 0 1 0 0 0 1 120 3.5 -126 1.5 1 0.5
9 0 1 0 0 0 1 0 0 0 1 120 3.5 -114 1.5 1 0.5
9 0 1 0 0 0 1 0 0 0 1 120 3.5 -46 1.5 1 0.5
9 0 1 0 0 0 1 0 0 0 1 120 3.5 -34 1.5 1 0.5
9 0 1 0 0 0 1 0 0 0 1 120 3.5 34 1.5 1 0.5
9 0 1 0 0 0 1 0 0 0 1 120 3.5 46 1.5 1 0.5
9 0 1 0 0 0 1 0 0 0 1 120 3.5 114 1.5 1 0.5
9 0 1 0 0 0 1 0 0 0 1 120 3.5 126 1.5 1 0.5
9 0 1 0 0 0 1 0 0 0 1 114 3.5 -120 0.5 1 1.5
9 0 1 0 0 0 1 0 0 0 1 114 3.5 -40 0.5 1 1.5
9 0 1 0 0 0 1 0 0 0 1 114 3.5 40 0.5 1 1.5
9 0 1 0 0 0 1 0 0 0 1 114 3.5 120 0.5 1 1.5
9 0 1 0 0 0 1 0 0 0 1 86 3.5 -160 0.5 1 1.5
9 0 1 0 0 0 1 0 0 0 1 86 3.5 -80 0.5 1 1.5
9 0 1 0 0 0 1 0 0 0 1 86 3.5 0 0.5 1 1.5
9 0 1 0 0 0 1 0 0 0 1 86 3.5 80 0.5 1 1.5
9 0 1 0 0 0 1 0 0 0 1 86 3.5 160 0.5 1 1.5
9 0 1 0 0 0 1 0 0 0 1 80 3.5 -166 1.5 1 0.5
9 0 1 0 0 0 1 0 0 0 1 80 3.5 -154 1.5 1 0.5
9 0 1 0 0 0 1 0 0 0 1 80 3.5 -86 1.5 1 0.5
9 0 1 0 0 0 1 0 0 0 1 80 3.5 -74 1.5 1 0.5
9 0 1 0 0 0 1 0 0 0 1 80 3.5 -6 1.5 1 0.5
9 0 1 0 0 0 1 0 0 0 1 80 3.5 6 1.5 1 0.5
9 0 1 0 0 0 1 0 0 0 1 80 3.5 74 1.5 1 0.5
9 0 1 0 0 0 1 0 0 0 1 80 3.5 86 1.5 1 0.5
9 0 1 0 0 0 1 0 0 0 1 80 3.5 154 1.5 1 0.5
9 0 1 0 0 0 1 0 0 0 1 80 3.5 166 1.5 1 0.5
9 0 1 0 0 0 1 0 0 0 1 74 3.5 -160 0.5 1 1.5
9 0 1 0 0 0 1 0 0 0 1 74 3.5 -80 0.5 1 1.5
9 0 1 0 0 0 1 0 0 0 1 74 3.5 0 0.5 1 1.5
9 0 1 0 0 0 1 0 0 0 1 74 3.5 80 0.5 1 1.5
9 0 1 0 0 0 1 0 0 0 1 74 3.5 160 0.5 1 1.5
9 0 1 0 0 0 1 0 0 0 1 46 3.5 -120 0.5 1 1.5
9 0 1 0 0 0 1 0 0 0 1 46 3.5 -40 0.5 1 1.5
9 0 1 0 0 0 1 0 0 0 1 46 3.5 40 0.5 1 1.5
9 0 1 0 0 0 1 0 0 0 1 46 3.5 120 0.5 1 1.5
9 0 1 0 0 0 1 0 0 0 1 40 3.5 -126 1.5 1 0.5
9 0 1 0 0 0 1 0 0 0 1 40 3.5 -114 1.5 1 0.5
9 0 1 0 0 0 1 0 0 0 1 40 3.5 -46 1.5 1 0.5
9 0 1 0 0 0 1 0 0 0 1 40 3.5 -34 1.5 1 0.5
9 0 1 0 0 0 1 0 0 0 1 40 3.5 34 1.5 1 0.5
9 0 1 0 0 0 1 0 0 0 1 40 3.5 46 1.5 1 0.5
9 0 1 0 0 0 1 0 0 0 1 40 3.5 114 1.5 1 0.5
9 0 1 0 0 0 1 0 0 0 1 40 3.5 126 1.5 1 0.5
9 0 1 0 0 0 1 0 0 0 1 34 3.5 -120 0.5 1 1.5
9 0 1 0 0 0 1 0 0 0 1 34 3.5 -40 0.5 1 1.5
9 0 1 0 0 0 1 0 0 0 1 34 3.5 40 0.5 1 1.5
9 0 1 0 0 0 1 0 0 0 1 34 3.5 120 0.5 1 1.5
9 0 1 0 0 0 1 0 0 0 1 6 3.5 -160 0.5 1 1.5
9 0 1 0 0 0 1 0 0 0 1 6 3.5 -80 0.5 1 1.5
9 0 1 0 0 0 1 0 0 0 1 6 3.5 0 0.5 1 1.5
9 0 1 0 0 0 1 0 0 0 1 6 3.5 80 0.5 1 1.5
9 0 1 0 0 0 1 0 0 0 1 6 3.5 160 0.5 1 1.5
9 0 1 0 0 0 1 0 0 0 1 0 3.5 -166 1.5 1 0.5
9 0 1 0 0 0 1 0 0 0 1 0 3.5 -154 1.5 1 0.5
9 0 1 0 0 0 1 0 0 0 1 0 3.5 -86 1.5 1 0.5
9 0 1 0 0 0 1 0 0 0 1 0 3.5 -74 1.5 1 0.5
9 0 1 0 0 0 1 0 0 0 1 0 3.5 -6 1.5 1 0.5
9 0 1 0 0 0 1 0 0 0 1 0 3.5 6 1.5 1 0.5
9 0 1 0 0 0 1 0 0 0 1 0 3.5 74 1.5 1 0.5
9 0 1 0 0 0 1 0 0 0 1 0 3.5 86 1.5 1 0.5
9 0 1 0 0 0 1 0 0 0 1 0 3.5 154 1.5 1 0.5
9 0 1 0 0 0 1 0 0 0 1 0 3.5 166 1.5 1 0.5
9 0 1 0 0 0 1 0 0 0 1 -6 3.5 -160 0.5 1 1.5
9 0 1 0 0 0 1 0 0 0 1 -6 3.5 -80 0.5 1 1.5
9 0 1 0 0 0 1 0 0 0 1 -6 3.5 0 0.5 1 1.5
9 0 1 0 0 0 1 0 0 0 1 -6 3.5 80 0.5 1 1.5
9 0 1 0 0 0 1 0 0 0 1 -6 3.5 160 0.5 1 1.5
9 0 1 0 0 0 1 0 0 0 1 -34 3.5 -120 0.5 1 1.5
9 0 1 0 0 0 1 0 0 0 1 -34 3.5 -40 0.5 1 1.5
9 0 1 0 0 0 1 0 0 0 1 -34 3.5 40 0.5 1 1.5
9 0 1 0 0 0 1 0 0 0 1 -34 3.5 120 0.5 1 1.5
9 0 1 0 0 0 1 0 0 0 1 -40 3.5 -126 1.5 1 0.5
9 0 1 0 0 0 1 0 0 0 1 -40 3.5 -114 1.5 1 0.5
9 0 1 0 0 0 1 0 0 0 1 -40 3.5 -46 1.5 1 0.5
9 0 1 0 0 0 1 0 0 0 1 -40 3.5 -34 1.5 1 0.5
9 0 1 0 0 0 1 0 0 0 1 -40 3.5 34 1.5 1 0.5
9 0 1 0 0 0 1 0 0 0 1 -40 3.5 46 1.5 1 0.5
9 0 1 0 0 0 1 0 0 0 1 -40 3.5 114 1.5 1 0.5
9 0 1 0 0 0 1 0 0 0 1 -40 3.5 126 1.5 1 0.5
9 0 1 0 0 0 1 0 0 0 1 -46 3.5 -120 0.5 1 1.5
9 0 1 0 0 0 1 0 0 0 1 -46 3.5 -40 0.5 1 1.5
9 0 1 0 0 0 1 0 0 0 1 -46 3.5 40 0.5 1 1.5
9 0 1 0 0 0 1 0 0 0 1 -46 3.5 120 0.5 1 1.5
9 0 1 0 0 0 1 0 0 0 1 -74 3.5 -160 0.5 1 1.5
9 0 1 0 0 0 1 0 0 0 1 -74 3.5 -80 0.5 1 1.5
9 0 1 0 0 0 1 0 0 0 1 -74 3.5 0 0.5 1 1.5
9 0 1 0 0 0 1 0 0 0 1 -74 3.5 80 0.5 1 1.5
9 0 1 0 0 0 1 0 0 0 1 -74 3.5 160 0.5 1 1.5
9 0 1 0 0 0 1 0 0 0 1 -80 3.5 -166 1.5 1 0.5
9 0 1 0 0 0 1 0 0 0 1 -80 3.5 -154 1.5 1 0.5
9 0 1 0 0 0 1 0 0 0 1 -80 3.5 -86 1.5 1 0.5
9 0 1 0 0 0 1 0 0 0 1 -80 3.5 -74 1.5 1 0.5
9 0 1 0 0 0 1 0 0 0 1 -80 3.5 -6 1.5 1 0.5
9 0 1 0 0 0 1 0 0 0 1 -80 3.5 6 1.5 1 0.5
9 0 1 0 0 0 1 0 0 0 1 -80 3.5 74 1.5 1 0.5
9 0 1 0 0 0 1 0 0 0 1 -80 3.5 86 1.5 1 0.5
9 0 1 0 0 0 1 0 0 0 1 -80 3.5 154 1.5 1 0.5
9 0 1 0 0 0 1 0 0 0 1 -80 3.5 166 1.5 1 0.5
9 0 1 0 0 0 1 0 0 0 1 -86 3.5 -160 0.5 1 1.5
9 0 1 0 0 0 1 0 0 0 1 -86 3.5 -80 0.5 1 1.5
9 0 1 0 0 0 1 0 0 0 1 -86 3.5 0 0.5 1 1.5
9 0 1 0 0 0 1 0 0 0 1 -86 3.5 80 0.5 1 1.5
9 0 1 0 0 0 1 0 0 0 1 -86 3.5 160 0.5 1 1.5
9 0 1 0 0 0 1 0 0 0 1 -114 3.5 -120 0.5 1 1.5
9 0 1 0 0 0 1 0 0 0 1 -114 3.5 -40 0.5 1 1.5
9 0 1 0 0 0 1 0 0 0 1 -114 3.5 40 0.5 1 1.5
9 0 1 0 0 0 1 0 0 0 1 -114 3.5 120 0.5 1 1.5
9 0 1 0 0 0 1 0 0 0 1 -120 3.5 -126 1.5 1 0.5
9 0 1 0 0 0 1 0 0 0 1 -120 3.5 -114 1.5 1 0.5
9 0 1 0 0 0 1 0 0 0 1 -120 3.5 -46 1.5 1 0.5
9 0 1 0 0 0 1 0 0 0 1 -120 3.5 -34 1.5 1 0.5
9 0 1 0 0 0 1 0 0 0 1 -120 3.5 34 1.5 1 0.5
9 0 1 0 0 0 1 0 0 0 1 -120 3.5 46 1.5 1 0.5
9 0 1 0 0 0 1 0 0 0 1 -120 3.5 114 1.5 1 0.5
9 0 1 0 0 0 1 0 0 0 1 -120 3.5 126 1.5 1 0.5
9 0 1 0 0 0 1 0 0 0 1 -126 3.5 -120 0.5 1 1.5
9 0 1 0 0 0 1 0 0 0 1 -126 3.5 -40 0.5 1 1.5
9 0 1 0 0 0 1 0 0 0 1 -126 3.5 40 0.5 1 1.5
9 0 1 0 0 0 1 0 0 0 1 -126 3.5 120 0.5 1 1.5
9 0 1 0 0 0 1 0 0 0 1 -154 3.5 -160 0.5 1 1.5
9 0 1 0 0 0 1 0 0 0 1 -154 3.5 -80 0.5 1 1.5
9 0 1 0 0 0 1 0 0 0 1 -154 3.5 0 0.5 1 1.5
9 0 1 0 0 0 1 0 0 0 1 -154 3.5 80 0.5 1 1.5
9 0 1 0 0 0 1 0 0 0 1 -154 3.5 160 0.5 1 1.5
9 0 1 0 0 0 1 0 0 0 1 -160 3.5 -166 1.5 1 0.5
9 0 1 0 0 0 1 0 0 0 1 -160 3.5 -154 1.5 1 0.5
9 0 1 0 0 0 1 0 0 0 1 -160 3.5 -86 1.5 1 0.5
9 0 1 0 0 0 1 0 0 0 1 -160 3.5 -74 1.5 1 0.5
9 0 1 0 0 0 1 0 0 0 1 -160 3.5 -6 1.5 1 0.5
9 0 1 0 0 0 1 0 0 0 1 -160 3.5 6 1.5 1 0.5
9 0 1 0 0 0 1 0 0 0 1 -160 3.5 74 1.5 1 0.5
9 0 1 0 0 0 1 0 0 0 1 -160 3.5 86 1.5 1 0.5
9 0 1 0 0 0 1 0 0 0 1 -160 3.5 154 1.5 1 0.5
9 0 1 0 0 0 1 0 0 0 1 -160 3.5 166 1.5 1 0.5
9 0 1 0 0 0 1 0 0 0 1 -166 3.5 -160 0.5 1 1.5
9 0 1 0 0 0 1 0 0 0 1 -166 3.5 -80 0.5 1 1.5
9 0 1 0 0 0 1 0 0 0 1 -166 3.5 0 0.5 1 1.5
9 0 1 0 0 0 1 0 0 0 1 -166 3.5 80 0.5 1 1.5
9 0 1 0 0 0 1 0 0 0 1 -166 3.5 160 0.5 1 1.5
9 0 1 0 0 0 1 0 0 0 1 -194 3.5 -120 0.5 1 1.5
9 0 1 0 0 0 1 0 0 0 1 -194 3.5 -40 0.5 1 1.5
9 0 1 0 0 0 1 0 0 0 1 -194 3.5 40 0.5 1 1.5
9 0 1 0 0 0 1 0 0 0 1 -194 3.5 120 0.5 1 1.5
9 0 1 0 0 0 1 0 0 0 1 -200 3.5 -126 1.5 1 0.5
9 0 1 0 0 0 1 0 0 0 1 -200 3.5 -114 1.5 1 0.5
9 0 1 0 0 0 1 0 0 0 1 -200 3.5 -46 1.5 1 0.5
9 0 1 0 0 0 1 0 0 0 1 -200 3.5 -34 1.5 1 0.5
9 0 1 0 0 0 1 0 0 0 1 -200 3.5 34 1.5 1 0.5
9 0 1 0 0 0 1 0 0 0 1 -200 3.5 46 1.5 1 0.5
9 0 1 0 0 0 1 0 0 0 1 -200 3.5 114 1.5 1 0.5
9 0 1 0 0 0 1 0 0 0 1 -200 3.5 126 1.5 1 0.5
9 0 1 0 0 0 1 0 0 0 1 -206 3.5 -120 0.5 1 1.5
9 0 1 0 0 0 1 0 0 0 1 -206 3.5 -40 0.5 1 1.5
9 0 1 0 0 0 1 0 0 0 1 -206 3.5 40 0.5 1 1.5
9 0 1 0 0 0 1 0 0 0 1 -206 3.5 120 0.5 1 1.5
9 0 1 0 0 0 1 0 0 0 1 -234 3.5 -160 0.5 1 1.5
9 0 1 0 0 0 1 0 0 0 1 -234 3.5 -80 0.5 1 1.5
9 0 1 0 0 0 1 0 0 0 1 -234 3.5 0 0.5 1 1.5
9 0 1 0 0 0 1 0 0 0 1 -234 3.5 80 0.5 1 1.5
9 0 1 0 0 0 1 0 0 0 1 -234 3.5 160 0.5 1 1.5
9 0 1 0 0 0 1 0 0 0 1 -240 3.5 -166 1.5 1 0.5
9 0 1 0 0 0 1 0 0 0 1 -240 3.5 -154 1.5 1 0.5
9 0 1 0 0 0 1 0 0 0 1 -240 3.5 -86 1.5 1 0.5
9 0 1 0 0 0 1 0 0 0 1 -240 3.5 -74 1.5 1 0.5
9 0 1 0 0 0 1 0 0 0 1 -240 3.5 -6 1.5 1 0.5
9 0 1 0 0 0 1 0 0 0 1 -240 3.5 6 1.5 1 0.5
9 0 1 0 0 0 1 0 0 0 1 -240 3.5 74 1.5 1 0.5
9 0 1 0 0 0 1 0 0 0 1 -240 3.5 86 1.5 1 0.5
9 0 1 0 0 0 1 0 0 0 1 -240 3.5 154 1.5 1 0.5
9 0 1 0 0 0 1 0 0 0 1 -240 3.5 166 1.5 1 0.5
9 0 1 0 0 0 1 0 0 0 1 -246 3.5 -160 0.5 1 1.5
9 0 1 0 0 0 1 0 0 0 1 -246 3.5 -80 0.5 1 1.5
9 0 1 0 0 0 1 0 0 0 1 -246 3.5 0 0.5 1 1.5
9 0 1 0 0 0 1 0 0 0 1 -246 3.5 80 0.5 1 1.5
9 0 1 0 0 0 1 0 0 0 1 -246 3.5 160 0.5 1 1.5
9 0 1 0 0 0 1 0 0 0 1 -274 3.5 -120 0.5 1 1.5
9 0 1 0 0 0 1 0 0 0 1 -274 3.5 -40 0.5 1 1.5
9 0 1 0 0 0 1 0 0 0 1 -274 3.5 40 0.5 1 1.5
9 0 1 0 0 0 1 0 0 0 1 -274 3.5 120 0.5 1 1.5
9 0 1 0 0 0 1 0 0 0 1 -280 3.5 -126 1.5 1 0.5
9 0 1 0 0 0 1 0 0 0 1 -280 3.5 -114 1.5 1 0.5
9 0 1 0 0 0 1 0 0 0 1 -280 3.5 -46 1.5 1 0.5
9 0 1 0 0 0 1 0 0 0 1 -280 3.5 -34 1.5 1 0.5
9 0 1 0 0 0 1 0 0 0 1 -280 3.5 34 1.5 1 0.5
9 0 1 0 0 0 1 0 0 0 1 -280 3.5 46 1.5 1 0.5
9 0 1 0 0 0 1 0 0 0 1 -280 3.5 114 1.5 1 0.5
9 0 1 0 0 0 1 0 0 0 1 -280 3.5 126 1.5 1 0.5
9 0 1 0 0 0 1 0 0 0 1 -286 3.5 -120 0.5 1 1.5
9 0 1 0 0 0 1 0 0 0 1 -286 3.5 -40 0.5 1 1.5
9 0 1 0 0 0 1 0 0 0 1 -286 3.5 40 0.5 1 1.5
9 0 1 0 0 0 1 0 0 0 1 -286 3.5 120 0.5 1 1.5
9 0 1 0 0 0 1 0 0 0 1 -314 3.5 -160 0.5 1 1.5
9 0 1 0 0 0 1 0 0 0 1 -314 3.5 -80 0.5 1 1.5
9 0 1 0 0 0 1 0 0 0 1 -314 3.5 0 0.5 1 1.5
9 0 1 0 0 0 1 0 0 0 1 -314 3.5 80 0.5 1 1.5
9 0 1 0 0 0 1 0 0 0 1 -314 3.5 160 0.5 1 1.5
9 0 1 0 0 0 1 0 0 0 1 -320 3.5 -166 1.5 1 0.5
9 0 1 0 0 0 1 0 0 0 1 -320 3.5 -154 1.5 1 0.5
9 0 1 0 0 0 1 0 0 0 1 -320 3.5 -86 1.5 1 0.5
9 0 1 0 0 0 1 0 0 0 1 -320 3.5 -74 1.5 1 0.5
9 0 1 0 0 0 1 0 0 0 1 -320 3.5 -6 1.5 1 0.5
9 0 1 0 0 0 1 0 0 0 1 -320 3.5 6 1.5 1 0.5
9 0 1 0 0 0 1 0 0 0 1 -320 3.5 74 1.5 1 0.5
9 0 1 0 0 0 1 0 0 0 1 -320 3.5 86 1.5 1 0.5
9 0 1 0 0 0 1 0 0 0 1 -320 3.5 154 1.5 1 0.5
9 0 1 0 0 0 1 0 0 0 1 -320 3.5 166 1.5 1 0.5
9 0 1 0 0 0 1 0 0 0 1 -326 3.5 -160 0.5 1 1.5
9 0 1 0 0 0 1 0 0 0 1 -326 3.5 -80 0.5 1 1.5
9 0 1 0 0 0 1 0 0 0 1 -326 3.5 0 0.5 1 1.5
9 0 1 0 0 0 1 0 0 0 1 -326 3.5 80 0.5 1 1.5
9 0 1 0 0 0 1 0 0 0 1 -326 3.5 160 0.5 1 1.5
9 0 1 0 0 0 1 0 0 0 1 -354 3.5 -120 0.5 1 1.5
9 0 1 0 0 0 1 0 0 0 1 -354 3.5 -40 0.5 1 1.5
9 0 1 0 0 0 1 0 0 0 1 -354 3.5 40 0.5 1 1.5
9 0 1 0 0 0 1 0 0 0 1 -354 3.5 120 0.5 1 1.5
9 0 1 0 0 0 1 0 0 0 1 -360 3.5 -126 1.5 1 0.5
9 0 1 0 0 0 1 0 0 0 1 -360 3.5 -114 1.5 1 0.5
9 0 1 0 0 0 1 0 0 0 1 -360 3.5 -46 1.5 1 0.5
9 0 1 0 0 0 1 0 0 0 1 -360 3.5 -34 1.5 1 0.5
9 0 1 0 0 0 1 0 0 0 1 -360 3.5 34 1.5 1 0.5
9 0 1 0 0 0 1 0 0 0 1 -360 3.5 46 1.5 1 0.5
9 0 1 0 0 0 1 0 0 0 1 -360 3.5 114 1.5 1 0.5
9 0 1 0 0 0 1 0 0 0 1 -360 3.5 126 1.5 1 0.5
9 0 1 0 0 0 1 0 0 0 1 -366 3.5 -120 0.5 1 1.5
9 0 1 0 0 0 1 0 0 0 1 -366 3.5 -40 0.5 1 1.5
9 0 1 0 0 0 1 0 0 0 1 -366 3.5 40 0.5 1 1.5
9 0 1 0 0 0 1 0 0 0 1 -366 3.5 120 0.5 1 1.5
9 0 1 0 0 0 1 0 0 0 1 -394 3.5 -160 0.5 1 1.5
9 0 1 0 0 0 1 0 0 0 1 -394 3.5 -80 0.5 1 1.5
9 0 1 0 0 0 1 0 0 0 1 -394 3.5 0 0.5 1 1.5
9 0 1 0 0 0 1 0 0 0 1 -394 3.5 80 0.5 1 1.5
9 0 1 0 0 0 1 0 0 0 1 -394 3.5 160 0.5 1 1.5
9 0 1 0 0 0 1 0 0 0 1 -400 3.5 -166 1.5 1 0.5
9 0 1 0 0 0 1 0 0 0 1 -400 3.5 -154 1.5 1 0.5
9 0 1 0 0 0 1 0 0 0 1 -400 3.5 -86 1.5 1 0.5
9 0 1 0 0 0 1 0 0 0 1 -400 3.5 -74 1.5 1 0.5
9 0 1 0 0 0 1 0 0 0 1 -400 3.5 -6 1.5 1 0.5
9 0 1 0 0 0 1 0 0 0 1 -400 3.5 6 1.5 1 0.5
9 0 1 0 0 0 1 0 0 0 1 -400 3.5 74 1.5 1 0.5
9 0 1 0 0 0 1 0 0 0 1 -400 3.5 86 1.5 1 0.5
9 0 1 0 0 0 1 0 0 0 1 -400 3.5 154 1.5 1 0.5
9 0 1 0 0 0 1 0 0 0 1 -400 3.5 166 1.5 1 0.5
9 0 1 0 0 0 1 0 0 0 1 -406 3.5 -160 0.5 1 1.5
9 0 1 0 0 0 1 0 0 0 1 -406 3.5 -80 0.5 1 1.5
9 0 1 0 0 0 1 0 0 0 1 -406 3.5 0 0.5 1 1.5
9 0 1 0 0 0 1 0 0 0 1 -406 3.5 80 0.5 1 1.5
9 0 1 0 0 0 1 0 0 0 1 -406 3.5 160 0.5 1 1.5
9 0 1 0 0 0 1 0 0 0 1 404 6 -160 0.5 0.5 2.5
9 0 1 0 0 0 1 0 0 0 1 404 6 -80 0.5 0.5 2.5
9 0 1 0 0 0 1 0 0 0 1 404 6 0 0.5 0.5 2.5
9 0 1 0 0 0 1 0 0 0 1 404 6 80 0.5 0.5 2.5
9 0 1 0 0 0 1 0 0 0 1 404 6 160 0.5 0.5 2.5
9 0 1 0 0 0 1 0 0 0 1 400 6 -164 2.5 0.5 0.5
9 0 1 0 0 0 1 0 0 0 1 400 6 -156 2.5 0.5 0.5
9 0 1 0 0 0 1 0 0 0 1 400 6 -84 2.5 0.5 0.5
9 0 1 0 0 0 1 0 0 0 1 400 6 -76 2.5 0.5 0.5
9 0 1 0 0 0 1 0 0 0 1 400 6 -4 2.5 0.5 0.5
9 0 1 0 0 0 1 0 0 0 1 400 6 4 2.5 0.5 0.5
9 0 1 0 0 0 1 0 0 0 1 400 6 76 2.5 0.5 0.5
9 0 1 0 0 0 1 0 0 0 1 400 6 84 2.5 0.5 0.5
9 0 1 0 0 0 1 0 0 0 1 400 6 156 2.5 0.5 0.5
9 0 1 0 0 0 1 0 0 0 1 400 6 164 2.5 0.5 0.5
9 0 1 0 0 0 1 0 0 0 1 396 6 -160 0.5 0.5 2.5
9 0 1 0 0 0 1 0 0 0 1 396 6 -80 0.5 0.5 2.5
9 0 1 0 0 0 1 0 0 0 1 396 6 0 0.5 0.5 2.5
9 0 1 0 0 0 1 0 0 0 1 396 6 80 0.5 0.5 2.5
9 0 1 0 0 0 1 0 0 0 1 396 6 160 0.5 0.5 2.5
9 0 1 0 0 0 1 0 0 0 1 364 6 -120 0.5 0.5 2.5
9 0 1 0 0 0 1 0 0 0 1 364 6 -40 0.5 0.5 2.5
9 0 1 0 0 0 1 0 0 0 1 364 6 40 0.5 0.5 2.5
9 0 1 0 0 0 1 0 0 0 1 364 6 120 0.5 0.5 2.5
9 0 1 0 0 0 1 0 0 0 1 360 6 -124 2.5 0.5 0.5
9 0 1 0 0 0 1 0 0 0 1 360 6 -116 2.5 0.5 0.5
9 0 1 0 0 0 1 0 0 0 1 360 6 -44 2.5 0.5 0.5
9 0 1 0 0 0 1 0 0 0 1 360 6 -36 2.5 0.5 0.5
9 0 1 0 0 0 1 0 0 0 1 360 6 36 2.5 0.5 0.5
9 0 1 0 0 0 1 0 0 0 1 360 6 44 2.5 0.5 0.5
9 0 1 0 0 0 1 0 0 0 1 360 6 116 2.5 0.5 0.5
9 0 1 0 0 0 1 0 0 0 1 360 6 124 2.5 0.5 0.5
9 0 1 0 0 0 1 0 0 0 1 356 6 -120 0.5 0.5 2.5
9 0 1 0 0 0 1 0 0 0 1 356 6 -40 0.5 0.5 2.5
9 0 1 0 0 0 1 0 0 0 1 356 6 40 0.5 0.5 2.5
9 0 1 0 0 0 1 0 0 0 1 356 6 120 0.5 0.5 2.5
9 0 1 0 0 0 1 0 0 0 1 324 6 -160 0.5 0.5 2.5
9 0 1 0 0 0 1 0 0 0 1 324 6 -80 0.5 0.5 2.5
9 0 1 0 0 0 1 0 0 0 1 324 6 0 0.5 0.5 2.5
9 0 1 0 0 0 1 0 0 0 1 324 6 80 0.5 0.5 2.5
9 0 1 0 0 0 1 0 0 0 1 324 6 160 0.5 0.5 2.5
9 0 1 0 0 0 1 0 0 0 1 320 6 -164 2.5 0.5 0.5
9 0 1 0 0 0 1 0 0 0 1 320 6 -156 2.5 0.5 0.5
9 0 1 0 0 0 1 0 0 0 1 320 6 -84 2.5 0.5 0.5
9 0 1 0 0 0 1 0 0 0 1 320 6 -76 2.5 0.5 0.5
9 0 1 0 0 0 1 0 0 0 1 320 6 -4 2.5 0.5 0.5
9 0 1 0 0 0 1 0 0 0 1 320 6 4 2.5 0.5 0.5
9 0 1 0 0 0 1 0 0 0 1 320 6 76 2.5 0.5 0.5
9 0 1 0 0 0 1 0 0 0 1 320 6 84 2.5 0.5 0.5
9 0 1 0 0 0 1 0 0 0 1 320 6 156 2.5 0.5 0.5
9 0 1 0 0 0 1 0 0 0 1 320 6 164 2.5 0.5 0.5
9 0 1 0 0 0 1 0 0 0 1 316 6 -160 0.5 0.5 2.5
9 0 1 0 0 0 1 0 0 0 1 316 6 -80 0.5 0.5 2.5
9 0 1 0 0 0 1 0 0 0 1 316 6 0 0.5 0.5 2.5
9 0 1 0 0 0 1 0 0 0 1 316 6 80 0.5 0.5 2.5
9 0 1 0 0 0 1 0 0 0 1 316 6 160 0.5 0.5 2.5
9 0 1 0 0 0 1 0 0 0 1 284 6 -120 0.5 0.5 2.5
9 0 1 0 0 0 1 0 0 0 1 284 6 -40 0.5 0.5 2.5
9 0 1 0 0 0 1 0 0 0 1 284 6 40 0.5 0.5 2.5
9 0 1 0 0 0 1 0 0 0 1 284 6 120 0.5 0.5 2.5
9 0 1 0 0 0 1 0 0 0 1 280 6 -124 2.5 0.5 0.5
9 0 1 0 0 0 1 0 0 0 1 280 6 -116 2.5 0.5 0.5
9 0 1 0 0 0 1 0 0 0 1 280 6 -44 2.5 0.5 0.5
9 0 1 0 0 0 1 0 0 0 1 280 6 -36 2.5 0.5 0.5
9 0 1 0 0 0 1 0 0 0 1 280 6 36 2.5 0.5 0.5
9 0 1 0 0 0 1 0 0 0 1 280 6 44 2.5 0.5 0.5
9 0 1 0 0 0 1 0 0 0 1 280 6 116 2.5 0.5 0.5
9 0 1 0 0 0 1 0 0 0 1 280 6 124 2.5 0.5 0.5
9 0 1 0 0 0 1 0 0 0 1 276 6 -120 0.5 0.5 2.5
9 0 1 0 0 0 1 0 0 0 1 276 6 -40 0.5 0.5 2.5
9 0 1 0 0 0 1 0 0 0 1 276 6 40 0.5 0.5 2.5
9 0 1 0 0 0 1 0 0 0 1 276 6 120 0.5 0.5 2.5
9 0 1 0 0 0 1 0 0 0 1 244 6 -160 0.5 0.5 2.5
9 0 1 0 0 0 1 0 0 0 1 244 6 -80 0.5 0.5 2.5
9 0 1 0 0 0 1 0 0 0 1 244 6 0 0.5 0.5 2.5
9 0 1 0 0 0 1 0 0 0 1 244 6 80 0.5 0.5 2.5
9 0 1 0 0 0 1 0 0 0 1 244 6 160 0.5 0.5 2.5
9 0 1 0 0 0 1 0 0 0 1 240 6 -164 2.5 0.5 0.5
9 0 1 0 0 0 1 0 0 0 1 240 6 -156 2.5 0.5 0.5
9 0 1 0 0 0 1 0 0 0 1 240 6 -84 2.5 0.5 0.5
9 0 1 0 0 0 1 0 0 0 1 240 6 -76 2.5 0.5 0.5
9 0 1 0 0 0 1 0 0 0 1 240 6 -4 2.5 0.5 0.5
9 0 1 0 0 0 1 0 0 0 1 240 6 4 2.5 0.5 0.5
9 0 1 0 0 0 1 0 0 0 1 240 6 76 2.5 0.5 0.5
9 0 1 0 0 0 1 0 0 0 1 240 6 84 2.5 0.5 0.5
9 0 1 0 0 0 1 0 0 0 1 240 6 156 2.5 0.5 0.5
9 0 1 0 0 0 1 0 0 0 1 240 6 164 2.5 0.5 0.5
9 0 1 0 0 0 1 0 0 0 1 236 6 -160 0.5 0.5 2.5
9 0 1 0 0 0 1 0 0 0 1 236 6 -80 0.5 0.5 2.5
9 0 1 0 0 0 1 0 0 0 1 236 6 0 0.5 0.5 2.5
9 0 1 0 0 0 1 0 0 0 1 236 6 80 0.5 0.5 2.5
9 0 1 0 0 0 1 0 0 0 1 236 6 160 0.5 0.5 2.5
9 0 1 0 0 0 1 0 0 0 1 204 6 -120 0.5 0.5 2.5
9 0 1 0 0 0 1 0 0 0 1 204 6 -40 0.5 0.5 2.5
9 0 1 0 0 0 1 0 0 0 1 204 6 40 0.5 0.5 2.5
9 0 1 0 0 0 1 0 0 0 1 204 6 120 0.5 0.5 2.5
9 0 1 0 0 0 1 0 0 0 1 200 6 -124 2.5 0.5 0.5
9 0 1 0 0 0 1 0 0 0 1 200 6 -116 2.5 0.5 0.5
9 0 1 0 0 0 1 0 0 0 1 200 6 -44 2.5 0.5 0.5
9 0 1 0 0 0 1 0 0 0 1 200 6 -36 2.5 0.5 0.5
9 0 1 0 0 0 1 0 0 0 1 200 6 36 2.5 0.5 0.5
9 0 1 0 0 0 1 0 0 0 1 200 6 44 2.5 0.5 0.5
9 0 1 0 0 0 1 0 0 0 1 200 6 116 2.5 0.5 0.5
9 0 1 0 0 0 1 0 0 0 1 200 6 124 2.5 0.5 0.5
9 0 1 0 0 0 1 0 0 0 1 196 6 -120 0.5 0.5 2.5
9 0 1 0 0 0 1 0 0 0 1 196 6 -40 0.5 0.5 2.5
9 0 1 0 0 0 1 0 0 0 1 196 6 40 0.5 0.5 2.5
9 0 1 0 0 0 1 0 0 0 1 196 6 120 0.5 0.5 2.5
9 0 1 0 0 0 1 0 0 0 1 164 6 -160 0.5 0.5 2.5
9 0 1 0 0 0 1 0 0 0 1 164 6 -80 0.5 0.5 2.5
9 0 1 0 0 0 1 0 0 0 1 164 6 0 0.5 0.5 2.5
9 0 1 0 0 0 1 0 0 0 1 164 6 80 0.5 0.5 2.5
9 0 1 0 0 0 1 0 0 0 1 164 6 160 0.5 0.5 2.5
9 0 1 0 0 0 1 0 0 0 1 160 6 -164 2.5 0.5 0.5
9 0 1 0 0 0 1 0 0 0 1 160 6 -156 2.5 0.5 0.5
9 0 1 0 0 0 1 0 0 0 1 160 6 -84 2.5 0.5 0.5
9 0 1 0 0 0 1 0 0 0 1 160 6 -76 2.5 0.5 0.5
9 0 1 0 0 0 1 0 0 0 1 160 6 -4 2.5 0.5 0.5
9 0 1 0 0 0 1 0 0 0 1 160 6 4 2.5 0.5 0.5
9 0 1 0 0 0 1 0 0 0 1 160 6 76 2.5 0.5 0.5
9 0 1 0 0 0 1 0 0 0 1 160 6 84 2.5 0.5 0.5
9 0 1 0 0 0 1 0 0 0 1 160 6 156 2.5 0.5 0.5
9 0 1 0 0 0 1 0 0 0 1 160 6 164 2.5 0.5 0.5
9 0 1 0 0 0 1 0 0 0 1 156 6 -160 0.5 0.5 2.5
9 0 1 0 0 0 1 0 0 0 1 156 6 -80 0.5 0.5 2.5
9 0 1 0 0 0 1 0 0 0 1 156 6 0 0.5 0.5 2.5
9 0 1 0 0 0 1 0 0 0 1 156 6 80 0.5 0.5 2.5
9 0 1 0 0 0 1 0 0 0 1 156 6 160 0.5 0.5 2.5
9 0 1 0 0 0 1 0 0 0 1 124 6 -120 0.5 0.5 2.5
9 0 1 0 0 0 1 0 0 0 1 124 6 -40 0.5 0.5 2.5
9 0 1 0 0 0 1 0 0 0 1 124 6 40 0.5 0.5 2.5
9 0 1 0 0 0 1 0 0 0 1 124 6 120 0.5 0.5 2.5
9 0 1 0 0 0 1 0 0 0 1 120 6 -124 2.5 0.5 0.5
9 0 1 0 0 0 1 0 0 0 1 120 6 -116 2.5 0.5 0.5
9 0 1 0 0 0 1 0 0 0 1 120 6 -44 2.5 0.5 0.5
9 0 1 0 0 0 1 0 0 0 1 120 6 -36 2.5 0.5 0.5
9 0 1 0 0 0 1 0 0 0 1 120 6 36 2.5 0.5 0.5
9 0 1 0 0 0 1 0 0 0 1 120 6 44 2.5 0.5 0.5
9 0 1 0 0 0 1 0 0 0 1 120 6 116 2.5 0.5 0.5
9 0 1 0 0 0 1 0 0 0 1 120 6 124 2.5 0.5 0.5
9 0 1 0 0 0 1 0 0 0 1 116 6 -120 0.5 0.5 2.5
9 0 1 0 0 0 1 0 0 0 1 116 6 -40 0.5 0.5 2.5
9 0 1 0 0 0 1 0 0 0 1 116 6 40 0.5 0.5 2.5
9 0 1 0 0 0 1 0 0 0 1 116 6 120 0.5 0.5 2.5
9 0 1 0 0 0 1 0 0 0 1 84 6 -160 0.5 0.5 2.5
9 0 1 0 0 0 1 0 0 0 1 84 6 -80 0.5 0.5 2.5
9 0 1 0 0 0 1 0 0 0 1 84 6 0 0.5 0.5 2.5
9 0 1 0 0 0 1 0 0 0 1 84 6 80 0.5 0.5 2.5
9 0 1 0 0 0 1 0 0 0 1 84 6 160 0.5 0.5 2.5
9 0 1 0 0 0 1 0 0 0 1 80 6 -164 2.5 0.5 0.5
9 0 1 0 0 0 1 0 0 0 1 80 6 -156 2.5 0.5 0.5
9 0 1 0 0 0 1 0 0 0 1 80 6 -84 2.5 0.5 0.5
9 0 1 0 0 0 1 0 0 0 1 80 6 -76 2.5 0.5 0.5
9 0 1 0 0 0 1 0 0 0 1 80 6 -4 2.5 0.5 0.5
9 0 1 0 0 0 1 0 0 0 1 80 6 4 2.5 0.5 0.5
9 0 1 0 0 0 1 0 0 0 1 80 6 76 2.5 0.5 0.5
9 0 1 0 0 0 1 0 0 0 1 80 6 84 2.5 0.5 0.5
9 0 1 0 0 0 1 0 0 0 1 80 6 156 2.5 0.5 0.5
9 0 1 0 0 0 1 0 0 0 1 80 6 164 2.5 0.5 0.5
9 0 1 0 0 0 1 0 0 0 1 76 6 -160 0.5 0.5 2.5
9 0 1 0 0 0 1 0 0 0 1 76 6 -80 0.5 0.5 2.5
9 0 1 0 0 0 1 0 0 0 1 76 6 0 0.5 0.5 2.5
9 0 1 0 0 0 1 0 0 0 1 76 6 80 0.5 0.5 2.5
9 0 1 0 0 0 1 0 0 0 1 76 6 160 0.5 0.5 2.5
9 0 1 0 0 0 1 0 0 0 1 44 6 -120 0.5 0.5 2.5
9 0 1 0 0 0 1 0 0 0 1 44 6 -40 0.5 0.5 2.5
9 0 1 0 0 0 1 0 0 0 1 44 6 40 0.5 0.5 2.5
9 0 1 0 0 0 1 0 0 0 1 44 6 120 0.5 0.5 2.5
9 0 1 0 0 0 1 0 0 0 1 40 6 -124 2.5 0.5 0.5
9 0 1 0 0 0 1 0 0 0 1 40 6 -116 2.5 0.5 0.5
9 0 1 0 0 0 1 0 0 0 1 40 6 -44 2.5 0.5 0.5
9 0 1 0 0 0 1 0 0 0 1 40 6 -36 2.5 0.5 0.5
9 0 1 0 0 0 1 0 0 0 1 40 6 36 2.5 0.5 0.5
9 0 1 0 0 0 1 0 0 0 1 40 6 44 2.5 0.5 0.5
9 0 1 0 0 0 1 0 0 0 1 40 6 116 2.5 0.5 0.5
9 0 1 0 0 0 1 0 0 0 1 40 6 124 2.5 0.5 0.5
9 0 1 0 0 0 1 0 0 0 1 36 6 -120 0.5 0.5 2.5
9 0 1 0 0 0 1 0 0 0 1 36 6 -40 0.5 0.5 2.5
9 0 1 0 0 0 1 0 0 0 1 36 6 40 0.5 0.5 2.5
9 0 1 0 0 0 1 0 0 0 1 36 6 120 0.5 0.5 2.5
9 0 1 0 0 0 1 0 0 0 1 4 6 -160 0.5 0.5 2.5
9 0 1 0 0 0 1 0 0 0 1 4 6 -80 0.5 0.5 2.5
9 0 1 0 0 0 1 0 0 0 1 4 6 0 0.5 0.5 2.5
9 0 1 0 0 0 1 0 0 0 1 4 6 80 0.5 0.5 2.5
9 0 1 0 0 0 1 0 0 0 1 4 6 160 0.5 0.5 2.5
9 0 1 0 0 0 1 0 0 0 1 0 6 -164 2.5 0.5 0.5
9 0 1 0 0 0 1 0 0 0 1 0 6 -156 2.5 0.5 0.5
9 0 1 0 0 0 1 0 0 0 1 0 6 -84 2.5 0.5 0.5
9 0 1 0 0 0 1 0 0 0 1 0 6 -76 2.5 0.5 0.5
9 0 1 0 0 0 1 0 0 0 1 0 6 -4 2.5 0.5 0.5
9 0 1 0 0 0 1 0 0 0 1 0 6 4 2.5 0.5 0.5
9 0 1 0 0 0 1 0 0 0 1 0 6 76 2.5 0.5 0.5
9 0 1 0 0 0 1 0 0 0 1 0 6 84 2.5 0.5 0.5
9 0 1 0 0 0 1 0 0 0 1 0 6 156 2.5 0.5 0.5
9 0 1 0 0 0 1 0 0 0 1 0 6 164 2.5 0.5 0.5
9 0 1 0 0 0 1 0 0 0 1 -4 6 -160 0.5 0.5 2.5
9 0 1 0 0 0 1 0 0 0 1 -4 6 -80 0.5 0.5 2.5
9 0 1 0 0 0 1 0 0 0 1 -4 6 0 0.5 0.5 2.5
9 0 1 0 0 0 1 0 0 0 1 -4 6 80 0.5 0.5 2.5
9 0 1 0 0 0 1 0 0 0 1 -4 6 160 0.5 0.5 2.5
9 0 1 0 0 0 1 0 0 0 1 -36 6 -120 0.5 0.5 2.5
9 0 1 0 0 0 1 0 0 0 1 -36 6 -40 0.5 0.5 2.5
9 0 1 0 0 0 1 0 0 0 1 -36 6 40 0.5 0.5 2.5
9 0 1 0 0 0 1 0 0 0 1 -36 6 120 0.5 0.5 2.5
9 0 1 0 0 0 1 0 0 0 1 -40 6 -124 2.5 0.5 0.5
9 0 1 0 0 0 1 0 0 0 1 -40 6 -116 2.5 0.5 0.5
9 0 1 0 0 0 1 0 0 0 1 -40 6 -44 2.5 0.5 0.5
9 0 1 0 0 0 1 0 0 0 1 -40 6 -36 2.5 0.5 0.5
9 0 1 0 0 0 1 0 0 0 1 -40 6 36 2.5 0.5 0.5
9 0 1 0 0 0 1 0 0 0 1 -40 6 44 2.5 0.5 0.5
9 0 1 0 0 0 1 0 0 0 1 -40 6 116 2.5 0.5 0.5
9 0 1 0 0 0 1 0 0 0 1 -40 6 124 2.5 0.5 0.5
9 0 1 0 0 0 1 0 0 0 1 -44 6 -120 0.5 0.5 2.5
9 0 1 0 0 0 1 0 0 0 1 -44 6 -40 0.5 0.5 2.5
9 0 1 0 0 0 1 0 0 0 1 -44 6 40 0.5 0.5 2.5
9 0 1 0 0 0 1 0 0 0 1 -44 6 120 0.5 0.5 2.5
9 0 1 0 0 0 1 0 0 0 1 -76 6 -160 0.5 0.5 2.5
9 0 1 0 0 0 1 0 0 0 1 -76 6 -80 0.5 0.5 2.5
9 0 1 0 0 0 1 0 0 0 1 -76 6 0 0.5 0.5 2.5
9 0 1 0 0 0 1 0 0 0 1 -76 6 80 0.5 0.5 2.5
9 0 1 0 0 0 1 0 0 0 1 -76 6 160 0.5 0.5 2.5
9 0 1 0 0 0 1 0 0 0 1 -80 6 -164 2.5 0.5 0.5
9 0 1 0 0 0 1 0 0 0 1 -80 6 -156 2.5 0.5 0.5
9 0 1 0 0 0 1 0 0 0 1 -80 6 -84 2.5 0.5 0.5
9 0 1 0 0 0 1 0 0 0 1 -80 6 -76 2.5 0.5 0.5
9 0 1 0 0 0 1 0 0 0 1 -80 6 -4 2.5 0.5 0.5
9 0 1 0 0 0 1 0 0 0 1 -80 6 4 2.5 0.5 0.5
9 0 1 0 0 0 1 0 0 0 1 -80 6 76 2.5 0.5 0.5
9 0 1 0 0 0 1 0 0 0 1 -80 6 84 2.5 0.5 0.5
9 0 1 0 0 0 1 0 0 0 1 -80 6 156 2.5 0.5 0.5
9 0 1 0 0 0 1 0 0 0 1 -80 6 164 2.5 0.5 0.5
9 0 1 0 0 0 1 0 0 0 1 -84 6 -160 0.5 0.5 2.5
9 0 1 0 0 0 1 0 0 0 1 -84 6 -80 0.5 0.5 2.5
9 0 1 0 0 0 1 0 0 0 1 -84 6 0 0.5 0.5 2.5
9 0 1 0 0 0 1 0 0 0 1 -84 6 80 0.5 0.5 2.5
9 0 1 0 0 0 1 0 0 0 1 -84 6 160 0.5 0.5 2.5
9 0 1 0 0 0 1 0 0 0 1 -116 6 -120 0.5 0.5 2.5
9 0 1 0 0 0 1 0 0 0 1 -116 6 -40 0.5 0.5 2.5
9 0 1 0 0 0 1 0 0 0 1 -116 6 40 0.5 0.5 2.5
9 0 1 0 0 0 1 0 0 0 1 -116 6 120 0.5 0.5 2.5
9 0 1 0 0 0 1 0 0 0 1 -120 6 -124 2.5 0.5 0.5
9 0 1 0 0 0 1 0 0 0 1 -120 6 -116 2.5 0.5 0.5
9 0 1 0 0 0 1 0 0 0 1 -120 6 -44 2.5 0.5 0.5
9 0 1 0 0 0 1 0 0 0 1 -120 6 -36 2.5 0.5 0.5
9 0 1 0 0 0 1 0 0 0 1 -120 6 36 2.5 0.5 0.5
9 0 1 0 0 0 1 0 0 0 1 -120 6 44 2.5 0.5 0.5
9 0 1 0 0 0 1 0 0 0 1 -120 6 116 2.5 0.5 0.5
9 0 1 0 0 0 1 0 0 0 1 -120 6 124 2.5 0.5 0.5
9 0 1 0 0 0 1 0 0 0 1 -124 6 -120 0.5 0.5 2.5
9 0 1 0 0 0 1 0 0 0 1 -124 6 -40 0.5 0.5 2.5
9 0 1 0 0 0 1 0 0 0 1 -124 6 40 0.5 0.5 2.5
9 0 1 0 0 0 1 0 0 0 1 -124 6 120 0.5 0.5 2.5
9 0 1 0 0 0 1 0 0 0 1 -156 6 -160 0.5 0.5 2.5
9 0 1 0 0 0 1 0 0 0 1 -156 6 -80 0.5 0.5 2.5
9 0 1 0 0 0 1 0 0 0 1 -156 6 0 0.5 0.5 2.5
9 0 1 0 0 0 1 0 0 0 1 -156 6 80 0.5 0.5 2.5
9 0 1 0 0 0 1 0 0 0 1 -156 6 160 0.5 0.5 2.5
9 0 1 0 0 0 1 0 0 0 1 -160 6 -164 2.5 0.5 0.5
9 0 1 0 0 0 1 0 0 0 1 -160 6 -156 2.5 0.5 0.5
9 0 1 0 0 0 1 0 0 0 1 -160 6 -84 2.5 0.5 0.5
9 0 1 0 0 0 1 0 0 0 1 -160 6 -76 2.5 0.5 0.5
9 0 1 0 0 0 1 0 0 0 1 -160 6 -4 2.5 0.5 0.5
9 0 1 0 0 0 1 0 0 0 1 -160 6 4 2.5 0.5 0.5
9 0 1 0 0 0 1 0 0 0 1 -160 6 76 2.5 0.5 0.5
9 0 1 0 0 0 1 0 0 0 1 -160 6 84 2.5 0.5 0.5
9 0 1 0 0 0 1 0 0 0 1 -160 6 156 2.5 0.5 0.5
9 0 1 0 0 0 1 0 0 0 1 -160 6 164 2.5 0.5 0.5
9 0 1 0 0 0 1 0 0 0 1 -164 6 -160 0.5 0.5 2.5
9 0 1 0 0 0 1 0 0 0 1 -164 6 -80 0.5 0.5 2.5
9 0 1 0 0 0 1 0 0 0 1 -164 6 0 0.5 0.5 2.5
9 0 1 0 0 0 1 0 0 0 1 -164 6 80 0.5 0.5 2.5
9 0 1 0 0 0 1 0 0 0 1 -164 6 160 0.5 0.5 2.5
9 0 1 0 0 0 1 0 0 0 1 -196 6 -120 0.5 0.5 2.5
9 0 1 0 0 0 1 0 0 0 1 -196 6 -40 0.5 0.5 2.5
9 0 1 0 0 0 1 0 0 0 1 -196 6 40 0.5 0.5 2.5
9 0 1 0 0 0 1 0 0 0 1 -196 6 120 0.5 0.5 2.5
9 0 1 0 0 0 1 0 0 0 1 -200 6 -124 2.5 0.5 0.5
9 0 1 0 0 0 1 0 0 0 1 -200 6 -116 2.5 0.5 0.5
9 0 1 0 0 0 1 0 0 0 1 -200 6 -44 2.5 0.5 0.5
9 0 1 0 0 0 1 0 0 0 1 -200 6 -36 2.5 0.5 0.5
9 0 1 0 0 0 1 0 0 0 1 -200 6 36 2.5 0.5 0.5
9 0 1 0 0 0 1 0 0 0 1 -200 6 44 2.5 0.5 0.5
9 0 1 0 0 0 1 0 0 0 1 -200 6 116 2.5 0.5 0.5
9 0 1 0 0 0 1 0 0 0 1 -200 6 124 2.5 0.5 0.5
9 0 1 0 0 0 1 0 0 0 1 -204 6 -120 0.5 0.5 2.5
9 0 1 0 0 0 1 0 0 0 1 -204 6 -40 0.5 0.5 2.5
9 0 1 0 0 0 1 0 0 0 1 -204 6 40 0.5 0.5 2.5
9 0 1 0 0 0 1 0 0 0 1 -204 6 120 0.5 0.5 2.5
9 0 1 0 0 0 1 0 0 0 1 -236 6 -160 0.5 0.5 2.5
9 0 1 0 0 0 1 0 0 0 1 -236 6 -80 0.5 0.5 2.5
9 0 1 0 0 0 1 0 0 0 1 -236 6 0 0.5 0.5 2.5
9 0 1 0 0 0 1 0 0 0 1 -236 6 80 0.5 0.5 2.5
9 0 1 0 0 0 1 0 0 0 1 -236 6 160 0.5 0.5 2.5
9 0 1 0 0 0 1 0 0 0 1 -240 6 -164 2.5 0.5 0.5
9 0 1 0 0 0 1 0 0 0 1 -240 6 -156 2.5 0.5 0.5
9 0 1 0 0 0 1 0 0 0 1 -240 6 -84 2.5 0.5 0.5
9 0 1 0 0 0 1 0 0 0 1 -240 6 -76 2.5 0.5 0.5
9 0 1 0 0 0 1 0 0 0 1 -240 6 -4 2.5 0.5 0.5
9 0 1 0 0 0 1 0 0 0 1 -240 6 4 2.5 0.5 0.5
9 0 1 0 0 0 1 0 0 0 1 -240 6 76 2.5 0.5 0.5
9 0 1 0 0 0 1 0 0 0 1 -240 6 84 2.5 0.5 0.5
9 0 1 0 0 0 1 0 0 0 1 -240 6 156 2.5 0.5 0.5
9 0 1 0 0 0 1 0 0 0 1 -240 6 164 2.5 0.5 0.5
9 0 1 0 0 0 1 0 0 0 1 -244 6 -160 0.5 0.5 2.5
9 0 1 0 0 0 1 0 0 0 1 -244 6 -80 0.5 0.5 2.5
9 0 1 0 0 0 1 0 0 0 1 -244 6 0 0.5 0.5 2.5
9 0 1 0 0 0 1 0 0 0 1 -244 6 80 0.5 0.5 2.5
9 0 1 0 0 0 1 0 0 0 1 -244 6 160 0.5 0.5 2.5
9 0 1 0 0 0 1 0 0 0 1 -276 6 -120 0.5 0.5 2.5
9 0 1 0 0 0 1 0 0 0 1 -276 6 -40 0.5 0.5 2.5
9 0 1 0 0 0 1 0 0 0 1 -276 6 40 0.5 0.5 2.5
9 0 1 0 0 0 1 0 0 0 1 -276 6 120 0.5 0.5 2.5
9 0 1 0 0 0 1 0 0 0 1 -280 6 -124 2.5 0.5 0.5
9 0 1 0 0 0 1 0 0 0 1 -280 6 -116 2.5 0.5 0.5
9 0 1 0 0 0 1 0 0 0 1 -280 6 -44 2.5 0.5 0.5
9 0 1 0 0 0 1 0 0 0 1 -280 6 -36 2.5 0.5 0.5
9 0 1 0 0 0 1 0 0 0 1 -280 6 36 2.5 0.5 0.5
9 0 1 0 0 0 1 0 0 0 1 -280 6 44 2.5 0.5 0.5
9 0 1 0 0 0 1 0 0 0 1 -280 6 116 2.5 0.5 0.5
9 0 1 0 0 0 1 0 0 0 1 -280 6 124 2.5 0.5 0.5
9 0 1 0 0 0 1 0 0 0 1 -284 6 -120 0.5 0.5 2.5
9 0 1 0 0 0 1 0 0 0 1 -284 6 -40 0.5 0.5 2.5
9 0 1 0 0 0 1 0 0 0 1 -284 6 40 0.5 0.5 2.5
9 0 1 0 0 0 1 0 0 0 1 -284 6 120 0.5 0.5 2.5
9 0 1 0 0 0 1 0 0 0 1 -316 6 -160 0.5 0.5 2.5
9 0 1 0 0 0 1 0 0 0 1 -316 6 -80 0.5 0.5 2.5
9 0 1 0 0 0 1 0 0 0 1 -316 6 0 0.5 0.5 2.5
9 0 1 0 0 0 1 0 0 0 1 -316 6 80 0.5 0.5 2.5
9 0 1 0 0 0 1 0 0 0 1 -316 6 160 0.5 0.5 2.5
9 0 1 0 0 0 1 0 0 0 1 -320 6 -164 2.5 0.5 0.5
9 0 1 0 0 0 1 0 0 0 1 -320 6 -156 2.5 0.5 0.5
9 0 1 0 0 0 1 0 0 0 1 -320 6 -84 2.5 0.5 0.5
9 0 1 0 0 0 1 0 0 0 1 -320 6 -76 2.5 0.5 0.5
9 0 1 0 0 0 1 0 0 0 1 -320 6 -4 2.5 0.5 0.5
9 0 1 0 0 0 1 0 0 0 1 -320 6 4 2.5 0.5 0.5
9 0 1 0 0 0 1 0 0 0 1 -320 6 76 2.5 0.5 0.5
9 0 1 0 0 0 1 0 0 0 1 -320 6 84 2.5 0.5 0.5
9 0 1 0 0 0 1 0 0 0 1 -320 6 156 2.5 0.5 0.5
9 0 1 0 0 0 1 0 0 0 1 -320 6 164 2.5 0.5 0.5
9 0 1 0 0 0 1 0 0 0 1 -324 6 -160 0.5 0.5 2.5
9 0 1 0 0 0 1 0 0 0 1 -324 6 -80 0.5 0.5 2.5
9 0 1 0 0 0 1 0 0 0 1 -324 6 0 0.5 0.5 2.5
9 0 1 0 0 0 1 0 0 0 1 -324 6 80 0.5 0.5 2.5
9 0 1 0 0 0 1 0 0 0 1 -324 6 160 0.5 0.5 2.5
9 0 1 0 0 0 1 0 0 0 1 -356 6 -120 0.5 0.5 2.5
9 0 1 0 0 0 1 0 0 0 1 -356 6 -40 0.5 0.5 2.5
9 0 1 0 0 0 1 0 0 0 1 -356 6 40 0.5 0.5 2.5
9 0 1 0 0 0 1 0 0 0 1 -356 6 120 0.5 0.5 2.5
9 0 1 0 0 0 1 0 0 0 1 -360 6 -124 2.5 0.5 0.5
9 0 1 0 0 0 1 0 0 0 1 -360 6 -116 2.5 0.5 0.5
9 0 1 0 0 0 1 0 0 0 1 -360 6 -44 2.5 0.5 0.5
9 0 1 0 0 0 1 0 0 0 1 -360 6 -36 2.5 0.5 0.5
9 0 1 0 0 0 1 0 0 0 1 -360 6 36 2.5 0.5 0.5
9 0 1 0 0 0 1 0 0 0 1 -360 6 44 2.5 0.5 0.5
9 0 1 0 0 0 1 0 0 0 1 -360 6 116 2.5 0.5 0.5
9 0 1 0 0 0 1 0 0 0 1 -360 6 124 2.5 0.5 0.5
9 0 1 0 0 0 1 0 0 0 1 -364 6 -120 0.5 0.5 2.5
9 0 1 0 0 0 1 0 0 0 1 -364 6 -40 0.5 0.5 2.5
9 0 1 0 0 0 1 0 0 0 1 -364 6 40 0.5 0.5 2.5
9 0 1 0 0 0 1 0 0 0 1 -364 6 120 0.5 0.5 2.5
9 0 1 0 0 0 1 0 0 0 1 -396 6 -160 0.5 0.5 2.5
9 0 1 0 0 0 1 0 0 0 1 -396 6 -80 0.5 0.5 2.5
9 0 1 0 0 0 1 0 0 0 1 -396 6 0 0.5 0.5 2.5
9 0 1 0 0 0 1 0 0 0 1 -396 6 80 0.5 0.5 2.5
9 0 1 0 0 0 1 0 0 0 1 -396 6 160 0.5 0.5 2.5
9 0 1 0 0 0 1 0 0 0 1 -400 6 -164 2.5 0.5 0.5
9 0 1 0 0 0 1 0 0 0 1 -400 6 -156 2.5 0.5 0.5
9 0 1 0 0 0 1 0 0 0 1 -400 6 -84 2.5 0.5 0.5
9 0 1 0 0 0 1 0 0 0 1 -400 6 -76 2.5 0.5 0.5
9 0 1 0 0 0 1 0 0 0 1 -400 6 -4 2.5 0.5 0.5
9 0 1 0 0 0 1 0 0 0 1 -400 6 4 2.5 0.5 0.5
9 0 1 0 0 0 1 0 0 0 1 -400 6 76 2.5 0.5 0.5
9 0 1 0 0 0 1 0 0 0 1 -400 6 84 2.5 0.5 0.5
9 0 1 0 0 0 1 0 0 0 1 -400 6 156 2.5 0.5 0.5
9 0 1 0 0 0 1 0 0 0 1 -400 6 164 2.5 0.5 0.5
9 0 1 0 0 0 1 0 0 0 1 -404 6 -160 0.5 0.5 2.5
9 0 1 0 0 0 1 0 0 0 1 -404 6 -80 0.5 0.5 2.5
9 0 1 0 0 0 1 0 0 0 1 -404 6 0 0.5 0.5 2.5
9 0 1 0 0 0 1 0 0 0 1 -404 6 80 0.5 0.5 2.5
9 0 1 0 0 0 1 0 0 0 1 -404 6 160 0.5 0.5 2.5
9 0 1 0 0 0 1 0 0 0 1 433 -2 -210.5 0.5 0.5 2
9 0 1 0 0 0 1 0 0 0 1 433 -2 -170.5 0.5 0.5 2
9 0 1 0 0 0 1 0 0 0 1 433 -2 -130.5 0.5 0.5 2
9 0 1 0 0 0 1 0 0 0 1 433 -2 -90.5 0.5 0.5 2
9 0 1 0 0 0 1 0 0 0 1 433 -2 -50.5 0.5 0.5 2
9 0 1 0 0 0 1 0 0 0 1 433 -2 -10.5 0.5 0.5 2
9 0 1 0 0 0 1 0 0 0 1 433 -2 29.5 0.5 0.5 2
9 0 1 0 0 0 1 0 0 0 1 433 -2 69.5 0.5 0.5 2
9 0 1 0 0 0 1 0 0 0 1 433 -2 109.5 0.5 0.5 2
9 0 1 0 0 0 1 0 0 0 1 433 -2 149.5 0.5 0.5 2
9 0 1 0 0 0 1 0 0 0 1 433 -2 189.5 0.5 0.5 2
9 0 1 0 0 0 1 0 0 0 1 433.5 2 216 2 0.5 0.5
9 0 1 0 0 0 1 0 0 0 1 430.5 -2 -187 2 0.5 0.5
9 0 1 0 0 0 1 0 0 0 1 430.5 -2 -147 2 0.5 0.5
9 0 1 0 0 0 1 0 0 0 1 430.5 -2 -107 2 0.5 0.5
9 0 1 0 0 0 1 0 0 0 1 430.5 -2 -67 2 0.5 0.5
9 0 1 0 0 0 1 0 0 0 1 430.5 -2 -27 2 0.5 0.5
9 0 1 0 0 0 1 0 0 0 1 430.5 -2 13 2 0.5 0.5
9 0 1 0 0 0 1 0 0 0 1 430.5 -2 53 2 0.5 0.5
9 0 1 0 0 0 1 0 0 0 1 430.5 -2 93 2 0.5 0.5
9 0 1 0 0 0 1 0 0 0 1 430.5 -2 133 2 0.5 0.5
9 0 1 0 0 0 1 0 0 0 1 430.5 -2 173 2 0.5 0.5
9 0 1 0 0 0 1 0 0 0 1 430.5 -2 213 2 0.5 0.5
9 0 1 0 0 0 1 0 0 0 1 409.5 -2 -213 2 0.5 0.5
9 0 1 0 0 0 1 0 0 0 1 409.5 -2 -173 2 0.5 0.5
9 0 1 0 0 0 1 0 0 0 1 409.5 -2 -133 2 0.5 0.5
9 0 1 0 0 0 1 0 0 0 1 409.5 -2 -93 2 0.5 0.5
9 0 1 0 0 0 1 0 0 0 1 409.5 -2 -53 2 0.5 0.5
9 0 1 0 0 0 1 0 0 0 1 409.5 -2 -13 2 0.5 0.5
9 0 1 0 0 0 1 0 0 0 1 409.5 -2 27 2 0.5 0.5
9 0 1 0 0 0 1 0 0 0 1 409.5 -2 67 2 0.5 0.5
9 0 1 0 0 0 1 0 0 0 1 409.5 -2 107 2 0.5 0.5
9 0 1 0 0 0 1 0 0 0 1 409.5 -2 147 2 0.5 0.5
9 0 1 0 0 0 1 0 0 0 1 409.5 -2 187 2 0.5 0.5
9 0 1 0 0 0 1 0 0 0 1 407 -2 -189.5 0.5 0.5 2
9 0 1 0 0 0 1 0 0 0 1 407 -2 -149.5 0.5 0.5 2
9 0 1 0 0 0 1 0 0 0 1 407 -2 -109.5 0.5 0.5 2
9 0 1 0 0 0 1 0 0 0 1 407 -2 -69.5 0.5 0.5 2
9 0 1 0 0 0 1 0 0 0 1 407 -2 -29.5 0.5 0.5 2
9 0 1 0 0 0 1 0 0 0 1 407 -2 10.5 0.5 0.5 2
9 0 1 0 0 0 1 0 0 0 1 407 -2 50.5 0.5 0.5 2
9 0 1 0 0 0 1 0 0 0 1 407 -2 90.5 0.5 0.5 2
9 0 1 0 0 0 1 0 0 0 1 407 -2 130.5 0.5 0.5 2
9 0 1 0 0 0 1 0 0 0 1 407 -2 170.5 0.5 0.5 2
9 0 1 0 0 0 1 0 0 0 1 407 -2 210.5 0.5 0.5 2
9 0 1 0 0 0 1 0 0 0 1 393 -2 -210.5 0.5 0.5 2
9 0 1 0 0 0 1 0 0 0 1 393 -2 -170.5 0.5 0.5 2
9 0 1 0 0 0 1 0 0 0 1 393 -2 -130.5 0.5 0.5 2
9 0 1 0 0 0 1 0 0 0 1 393 -2 -90.5 0.5 0.5 2
9 0 1 0 0 0 1 0 0 0 1 393 -2 -50.5 0.5 0.5 2
9 0 1 0 0 0 1 0 0 0 1 393 -2 -10.5 0.5 0.5 2
9 0 1 0 0 0 1 0 0 0 1 393 -2 29.5 0.5 0.5 2
9 0 1 0 0 0 1 0 0 0 1 393 -2 69.5 0.5 0.5 2
9 0 1 0 0 0 1 0 0 0 1 393 -2 109.5 0.5 0.5 2
9 0 1 0 0 0 1 0 0 0 1 393 -2 149.5 0.5 0.5 2
9 0 1 0 0 0 1 0 0 0 1 393 -2 189.5 0.5 0.5 2
9 0 1 0 0 0 1 0 0 0 1 390.5 -2 -187 2 0.5 0.5
9 0 1 0 0 0 1 0 0 0 1 390.5 -2 -147 2 0.5 0.5
9 0 1 0 0 0 1 0 0 0 1 390.5 -2 -107 2 0.5 0.5
9 0 1 0 0 0 1 0 0 0 1 390.5 -2 -67 2 0.5 0.5
9 0 1 0 0 0 1 0 0 0 1 390.5 -2 -27 2 0.5 0.5
9 0 1 0 0 0 1 0 0 0 1 390.5 -2 13 2 0.5 0.5
9 0 1 0 0 0 1 0 0 0 1 390.5 -2 53 2 0.5 0.5
9 0 1 0 0 0 1 0 0 0 1 390.5 -2 93 2 0.5 0.5
9 0 1 0 0 0 1 0 0 0 1 390.5 -2 133 2 0.5 0.5
9 0 1 0 0 0 1 0 0 0 1 390.5 -2 173 2 0.5 0.5
9 0 1 0 0 0 1 0 0 0 1 390.5 -2 213 2 0.5 0.5
9 0 1 0 0 0 1 0 0 0 1 369.5 -2 -213 2 0.5 0.5
9 0 1 0 0 0 1 0 0 0 1 369.5 -2 -173 2 0.5 0.5
9 0 1 0 0 0 1 0 0 0 1 369.5 -2 -133 2 0.5 0.5
9 0 1 0 0 0 1 0 0 0 1 369.5 -2 -93 2 0.5 0.5
9 0 1 0 0 0 1 0 0 0 1 369.5 -2 -53 2 0.5 0.5
9 0 1 0 0 0 1 0 0 0 1 369.5 -2 -13 2 0.5 0.5
9 0 1 0 0 0 1 0 0 0 1 369.5 -2 27 2 0.5 0.5
9 0 1 0 0 0 1 0 0 0 1 369.5 -2 67 2 0.5 0.5
9 0 1 0 0 0 1 0 0 0 1 369.5 -2 107 2 0.5 0.5
9 0 1 0 0 0 1 0 0 0 1 369.5 -2 147 2 0.5 0.5
9 0 1 0 0 0 1 0 0 0 1 369.5 -2 187 2 0.5 0.5
9 0 1 0 0 0 1 0 0 0 1 367 -2 -189.5 0.5 0.5 2
9 0 1 0 0 0 1 0 0 0 1 367 -2 -149.5 0.5 0.5 2
9 0 1 0 0 0 1 0 0 0 1 367 -2 -109.5 0.5 0.5 2
9 0 1 0 0 0 1 0 0 0 1 367 -2 -69.5 0.5 0.5 2
9 0 1 0 0 0 1 0 0 0 1 367 -2 -29.5 0.5 0.5 2
9 0 1 0 0 0 1 0 0 0 1 367 -2 10.5 0.5 0.5 2
9 0 1 0 0 0 1 0 0 0 1 367 -2 50.5 0.5 0.5 2
9 0 1 0 0 0 1 0 0 0 1 367 -2 90.5 0.5 0.5 2
9 0 1 0 0 0 1 0 0 0 1 367 -2 130.5 0.5 0.5 2
9 0 1 0 0 0 1 0 0 0 1 367 -2 170.5 0.5 0.5 2
9 0 1 0 0 0 1 0 0 0 1 367 -2 210.5 0.5 0.5 2
9 0 1 0 0 0 1 0 0 0 1 353 -2 -210.5 0.5 0.5 2
9 0 1 0 0 0 1 0 0 0 1 353 -2 -170.5 0.5 0.5 2
9 0 1 0 0 0 1 0 0 0 1 353 -2 -130.5 0.5 0.5 2
9 0 1 0 0 0 1 0 0 0 1 353 -2 -90.5 0.5 0.5 2
9 0 1 0 0 0 1 0 0 0 1 353 -2 -50.5 0.5 0.5 2
9 0 1 0 0 0 1 0 0 0 1 353 -2 -10.5 0.5 0.5 2
9 0 1 0 0 0 1 0 0 0 1 353 -2 29.5 0.5 0.5 2
9 0 1 0 0 0 1 0 0 0 1 353 -2 69.5 0.5 0.5 2
9 0 1 0 0 0 1 0 0 0 1 353 -2 109.5 0.5 0.5 2
9 0 1 0 0 0 1 0 0 0 1 353 -2 149.5 0.5 0.5 2
9 0 1 0 0 0 1 0 0 0 1 353 -2 189.5 0.5 0.5 2
9 0 1 0 0 0 1 0 0 0 1 350.5 -2 -187 2 0.5 0.5
9 0 1 0 0 0 1 0 0 0 1 350.5 -2 -147 2 0.5 0.5
9 0 1 0 0 0 1 0 0 0 1 350.5 -2 -107 2 0.5 0.5
9 0 1 0 0 0 1 0 0 0 1 350.5 -2 -67 2 0.5 0.5
9 0 1 0 0 0 1 0 0 0 1 350.5 -2 -27 2 0.5 0.5
9 0 1 0 0 0 1 0 0 0 1 350.5 -2 13 2 0.5 0.5
9 0 1 0 0 0 1 0 0 0 1 350.5 -2 53 2 0.5 0.5
9 0 1 0 0 0 1 0 0 0 1 350.5 -2 93 2 0.5 0.5
9 0 1 0 0 0 1 0 0 0 1 350.5 -2 133 2 0.5 0.5
9 0 1 0 0 0 1 0 0 0 1 350.5 -2 173 2 0.5 0.5
9 0 1 0 0 0 1 0 0 0 1 350.5 -2 213 2 0.5 0.5
9 0 1 0 0 0 1 0 0 0 1 329.5 -2 -213 2 0.5 0.5
9 0 1 0 0 0 1 0 0 0 1 329.5 -2 -173 2 0.5 0.5
9 0 1 0 0 0 1 0 0 0 1 329.5 -2 -133 2 0.5 0.5
9 0 1 0 0 0 1 0 0 0 1 329.5 -2 -93 2 0.5 0.5
9 0 1 0 0 0 1 0 0 0 1 329.5 -2 -53 2 0.5 0.5
9 0 1 0 0 0 1 0 0 0 1 329.5 -2 -13 2 0.5 0.5
9 0 1 0 0 0 1 0 0 0 1 329.5 -2 27 2 0.5 0.5
9 0 1 0 0 0 1 0 0 0 1 329.5 -2 67 2 0.5 0.5
9 0 1 0 0 0 1 0 0 0 1 329.5 -2 107 2 0.5 0.5
9 0 1 0 0 0 1 0 0 0 1 329.5 -2 147 2 0.5 0.5
9 0 1 0 0 0 1 0 0 0 1 329.5 -2 187 2 0.5 0.5
9 0 1 0 0 0 1 0 0 0 1 327 -2 -189.5 0.5 0.5 2
9 0 1 0 0 0 1 0 0 0 1 327 -2 -149.5 0.5 0.5 2
9 0 1 0 0 0 1 0 0 0 1 327 -2 -109.5 0.5 0.5 2
9 0 1 0 0 0 1 0 0 0 1 327 -2 -69.5 0.5 0.5 2
9 0 1 0 0 0 1 0 0 0 1 327 -2 -29.5 0.5 0.5 2
9 0 1 0 0 0 1 0 0 0 1 327 -2 10.5 0.5 0.5 2
9 0 1 0 0 0 1 0 0 0 1 327 -2 50.5 0.5 0.5 2
9 0 1 0 0 0 1 0 0 0 1 327 -2 90.5 0.5 0.5 2
9 0 1 0 0 0 1 0 0 0 1 327 -2 130.5 0.5 0.5 2
9 0 1 0 0 0 1 0 0 0 1 327 -2 170.5 0.5 0.5 2
9 0 1 0 0 0 1 0 0 0 1 327 -2 210.5 0.5 0.5 2
9 0 1 0 0 0 1 0 0 0 1 313 -2 -210.5 0.5 0.5 2
9 0 1 0 0 0 1 0 0 0 1 313 -2 -170.5 0.5 0.5 2
9 0 1 0 0 0 1 0 0 0 1 313 -2 -130.5 0.5 0.5 2
9 0 1 0 0 0 1 0 0 0 1 313 -2 -90.5 0.5 0.5 2
9 0 1 0 0 0 1 0 0 0 1 313 -2 -50.5 0.5 0.5 2
9 0 1 0 0 0 1 0 0 0 1 313 -2 -10.5 0.5 0.5 2
9 0 1 0 0 0 1 0 0 0 1 313 -2 29.5 0.5 0.5 2
9 0 1 0 0 0 1 0 0 0 1 313 -2 69.5 0.5 0.5 2
9 0 1 0 0 0 1 0 0 0 1 313 -2 109.5 0.5 0.5 2
9 0 1 0 0 0 1 0 0 0 1 313 -2 149.5 0.5 0.5 2
9 0 1 0 0 0 1 0 0 0 1 313 -2 189.5 0.5 0.5 2
9 0 1 0 0 0 1 0 0 0 1 310.5 -2 -187 2 0.5 0.5
9 0 1 0 0 0 1 0 0 0 1 310.5 -2 -147 2 0.5 0.5
9 0 1 0 0 0 1 0 0 0 1 310.5 -2 -107 2 0.5 0.5
9 0 1 0 0 0 1 0 0 0 1 310.5 -2 -67 2 0.5 0.5
9 0 1 0 0 0 1 0 0 0 1 310.5 -2 -27 2 0.5 0.5
9 0 1 0 0 0 1 0 0 0 1 310.5 -2 13 2 0.5 0.5
9 0 1 0 0 0 1 0 0 0 1 310.5 -2 53 2 0.5 0.5
9 0 1 0 0 0 1 0 0 0 1 310.5 -2 93 2 0.5 0.5
9 0 1 0 0 0 1 0 0 0 1 310.5 -2 133 2 0.5 0.5
9 0 1 0 0 0 1 0 0 0 1 310.5 -2 173 2 0.5 0.5
9 0 1 0 0 0 1 0 0 0 1 310.5 -2 213 2 0.5 0.5
9 0 1 0 0 0 1 0 0 0 1 289.5 -2 -213 2 0.5 0.5
9 0 1 0 0 0 1 0 0 0 1 289.5 -2 -173 2 0.5 0.5
9 0 1 0 0 0 1 0 0 0 1 289.5 -2 -133 2 0.5 0.5
9 0 1 0 0 0 1 0 0 0 1 289.5 -2 -93 2 0.5 0.5
9 0 1 0 0 0 1 0 0 0 1 289.5 -2 -53 2 0.5 0.5
9 0 1 0 0 0 1 0 0 0 1 289.5 -2 -13 2 0.5 0.5
9 0 1 0 0 0 1 0 0 0 1 289.5 -2 27 2 0.5 0.5
9 0 1 0 0 0 1 0 0 0 1 289.5 -2 67 2 0.5 0.5
9 0 1 0 0 0 1 0 0 0 1 289.5 -2 107 2 0.5 0.5
9 0 1 0 0 0 1 0 0 0 1 289.5 -2 147 2 0.5 0.5
9 0 1 0 0 0 1 0 0 0 1 289.5 -2 187 2 0.5 0.5
9 0 1 0 0 0 1 0 0 0 1 287 -2 -189.5 0.5 0.5 2
9 0 1 0 0 0 1 0 0 0 1 287 -2 -149.5 0.5 0.5 2
9 0 1 0 0 0 1 0 0 0 1 287 -2 -109.5 0.5 0.5 2
9 0 1 0 0 0 1 0 0 0 1 287 -2 -69.5 0.5 0.5 2
9 0 1 0 0 0 1 0 0 0 1 287 -2 -29.5 0.5 0.5 2
9 0 1 0 0 0 1 0 0 0 1 287 -2 10.5 0.5 0.5 2
9 0 1 0 0 0 1 0 0 0 1 287 -2 50.5 0.5 0.5 2
9 0 1 0 0 0 1 0 0 0 1 287 -2 90.5 0.5 0.5 2
9 0 1 0 0 0 1 0 0 0 1 287 -2 130.5 0.5 0.5 2
9 0 1 0 0 0 1 0 0 0 1 287 -2 170.5 0.5 0.5 2
9 0 1 0 0 0 1 0 0 0 1 287 -2 210.5 0.5 0.5 2
9 0 1 0 0 0 1 0 0 0 1 273 -2 -210.5 0.5 0.5 2
9 0 1 0 0 0 1 0 0 0 1 273 -2 -170.5 0.5 0.5 2
9 0 1 0 0 0 1 0 0 0 1 273 -2 -130.5 0.5 0.5 2
9 0 1 0 0 0 1 0 0 0 1 273 -2 -90.5 0.5 0.5 2
9 0 1 0 0 0 1 0 0 0 1 273 -2 -50.5 0.5 0.5 2
9 0 1 0 0 0 1 0 0 0 1 273 -2 -10.5 0.5 0.5 2
9 0 1 0 0 0 1 0 0 0 1 273 -2 29.5 0.5 0.5 2
9 0 1 0 0 0 1 0 0 0 1 273 -2 69.5 0.5 0.5 2
9 0 1 0 0 0 1 0 0 0 1 273 -2 109.5 0.5 0.5 2
9 0 1 0 0 0 1 0 0 0 1 273 -2 149.5 0.5 0.5 2
9 0 1 0 0 0 1 0 0 0 1 273 -2 189.5 0.5 0.5 2
9 0 1 0 0 0 1 0 0 0 1 270.5 -2 -187 2 0.5 0.5
9 0 1 0 0 0 1 0 0 0 1 270.5 -2 -147 2 0.5 0.5
9 0 1 0 0 0 1 0 0 0 1 270.5 -2 -107 2 0.5 0.5
9 0 1 0 0 0 1 0 0 0 1 270.5 -2 -67 2 0.5 0.5
9 0 1 0 0 0 1 0 0 0 1 270.5 -2 -27 2 0.5 0.5
9 0 1 0 0 0 1 0 0 0 1 270.5 -2 13 2 0.5 0.5
9 0 1 0 0 0 1 0 0 0 1 270.5 -2 53 2 0.5 0.5
9 0 1 0 0 0 1 0 0 0 1 270.5 -2 93 2 0.5 0.5
9 0 1 0 0 0 1 0 0 0 1 270.5 -2 133 2 0.5 0.5
9 0 1 0 0 0 1 0 0 0 1 270.5 -2 173 2 0.5 0.5
9 0 1 0 0 0 1 0 0 0 1 270.5 -2 213 2 0.5 0.5
9 0 1 0 0 0 1 0 0 0 1 249.5 -2 -213 2 0.5 0.5
9 0 1 0 0 0 1 0 0 0 1 249.5 -2 -173 2 0.5 0.5
9 0 1 0 0 0 1 0 0 0 1 249.5 -2 -133 2 0.5 0.5
9 0 1 0 0 0 1 0 0 0 1 249.5 -2 -93 2 0.5 0.5
9 0 1 0 0 0 1 0 0 0 1 249.5 -2 -53 2 0.5 0.5
9 0 1 0 0 0 1 0 0 0 1 249.5 -2 -13 2 0.5 0.5
9 0 1 0 0 0 1 0 0 0 1 249.5 -2 27 2 0.5 0.5
9 0 1 0 0 0 1 0 0 0 1 249.5 -2 67 2 0.5 0.5
9 0 1 0 0 0 1 0 0 0 1 249.5 -2 107 2 0.5 0.5
9 0 1 0 0 0 1 0 0 0 1 249.5 -2 147 2 0.5 0.5
9 0 1 0 0 0 1 0 0 0 1 249.5 -2 187 2 0.5 0.5
9 0 1 0 0 0 1 0 0 0 1 247 -2 -189.5 0.5 0.5 2
9 0 1 0 0 0 1 0 0 0 1 247 -2 -149.5 0.5 0.5 2
9 0 1 0 0 0 1 0 0 0 1 247 -2 -109.5 0.5 0.5 2
9 0 1 0 0 0 1 0 0 0 1 247 -2 -69.5 0.5 0.5 2
9 0 1 0 0 0 1 0 0 0 1 247 -2 -29.5 0.5 0.5 2
9 0 1 0 0 0 1 0 0 0 1 247 -2 10.5 0.5 0.5 2
9 0 1 0 0 0 1 0 0 0 1 247 -2 50.5 0.5 0.5 2
9 0 1 0 0 0 1 0 0 0 1 247 -2 90.5 0.5 0.5 2
9 0 1 0 0 0 1 0 0 0 1 247 -2 130.5 0.5 0.5 2
9 0 1 0 0 0 1 0 0 0 1 247 -2 170.5 0.5 0.5 2
9 0 1 0 0 0 1 0 0 0 1 247 -2 210.5 0.5 0.5 2
9 0 1 0 0 0 1 0 0 0 1 233 -2 -210.5 0.5 0.5 2
9 0 1 0 0 0 1 0 0 0 1 233 -2 -170.5 0.5 0.5 2
9 0 1 0 0 0 1 0 0 0 1 233 -2 -130.5 0.5 0.5 2
9 0 1 0 0 0 1 0 0 0 1 233 -2 -90.5 0.5 0.5 2
9 0 1 0 0 0 1 0 0 0 1 233 -2 -50.5 0.5 0.5 2
9 0 1 0 0 0 1 0 0 0 1 233 -2 -10.5 0.5 0.5 2
9 0 1 0 0 0 1 0 0 0 1 233 -2 29.5 0.5 0.5 2
9 0 1 0 0 0 1 0 0 0 1 233 -2 69.5 0.5 0.5 2
9 0 1 0 0 0 1 0 0 0 1 233 -2 109.5 0.5 0.5 2
9 0 1 0 0 0 1 0 0 0 1 233 -2 149.5 0.5 0.5 2
9 0 1 0 0 0 1 0 0 0 1 233 -2 189.5 0.5 0.5 2
9 0 1 0 0 0 1 0 0 0 1 230.5 -2 -187 2 0.5 0.5
9 0 1 0 0 0 1 0 0 0 1 230.5 -2 -147 2 0.5 0.5
9 0 1 0 0 0 1 0 0 0 1 230.5 -2 -107 2 0.5 0.5
9 0 1 0 0 0 1 0 0 0 1 230.5 -2 -67 2 0.5 0.5
9 0 1 0 0 0 1 0 0 0 1 230.5 -2 -27 2 0.5 0.5
9 0 1 0 0 0 1 0 0 0 1 230.5 -2 13 2 0.5 0.5
9 0 1 0 0 0 1 0 0 0 1 230.5 -2 53 2 0.5 0.5
9 0 1 0 0 0 1 0 0 0 1 230.5 -2 93 2 0.5 0.5
9 0 1 0 0 0 1 0 0 0 1 230.5 -2 133 2 0.5 0.5
9 0 1 0 0 0 1 0 0 0 1 230.5 -2 173 2 0.5 0.5
9 0 1 0 0 0 1 0 0 0 1 230.5 -2 213 2 0.5 0.5
9 0 1 0 0 0 1 0 0 0 1 209.5 -2 -213 2 0.5 0.5
9 0 1 0 0 0 1 0 0 0 1 209.5 -2 -173 2 0.5 0.5
9 0 1 0 0 0 1 0 0 0 1 209.5 -2 -133 2 0.5 0.5
9 0 1 0 0 0 1 0 0 0 1 209.5 -2 -93 2 0.5 0.5
9 0 1 0 0 0 1 0 0 0 1 209.5 -2 -53 2 0.5 0.5
9 0 1 0 0 0 1 0 0 0 1 209.5 -2 -13 2 0.5 0.5
9 0 1 0 0 0 1 0 0 0 1 209.5 -2 27 2 0.5 0.5
9 0 1 0 0 0 1 0 0 0 1 209.5 -2 67 2 0.5 0.5
9 0 1 0 0 0 1 0 0 0 1 209.5 -2 107 2 0.5 0.5
9 0 1 0 0 0 1 0 0 0 1 209.5 -2 147 2 0.5 0.5
9 0 1 0 0 0 1 0 0 0 1 209.5 -2 187 2 0.5 0.5
9 0 1 0 0 0 1 0 0 0 1 207 -2 -189.5 0.5 0.5 2
9 0 1 0 0 0 1 0 0 0 1 207 -2 -149.5 0.5 0.5 2
9 0 1 0 0 0 1 0 0 0 1 207 -2 -109.5 0.5 0.5 2
9 0 1 0 0 0 1 0 0 0 1 207 -2 -69.5 0.5 0.5 2
9 0 1 0 0 0 1 0 0 0 1 207 -2 -29.5 0.5 0.5 2
9 0 1 0 0 0 1 0 0 0 1 207 -2 10.5 0.5 0.5 2
9 0 1 0 0 0 1 0 0 0 1 207 -2 50.5 0.5 0.5 2
9 0 1 0 0 0 1 0 0 0 1 207 -2 90.5 0.5 0.5 2
9 0 1 0 0 0 1 0 0 0 1 207 -2 130.5 0.5 0.5 2
9 0 1 0 0 0 1 0 0 0 1 207 -2 170.5 0.5 0.5 2
9 0 1 0 0 0 1 0 0 0 1 207 -2 210.5 0.5 0.5 2
9 0 1 0 0 0 1 0 0 0 1 193 -2 -210.5 0.5 0.5 2
9 0 1 0 0 0 1 0 0 0 1 193 -2 -170.5 0.5 0.5 2
9 0 1 0 0 0 1 0 0 0 1 193 -2 -130.5 0.5 0.5 2
9 0 1 0 0 0 1 0 0 0 1 193 -2 -90.5 0.5 0.5 2
9 0 1 0 0 0 1 0 0 0 1 193 -2 -50.5 0.5 0.5 2
9 0 1 0 0 0 1 0 0 0 1 193 -2 -10.5 0.5 0.5 2
9 0 1 0 0 0 1 0 0 0 1 193 -2 29.5 0.5 0.5 2
9 0 1 0 0 0 1 0 0 0 1 193 -2 69.5 0.5 0.5 2
9 0 1 0 0 0 1 0 0 0 1 193 -2 109.5 0.5 0.5 2
9 0 1 0 0 0 1 0 0 0 1 193 -2 149.5 0.5 0.5 2
9 0 1 0 0 0 1 0 0 0 1 193 -2 189.5 0.5 0.5 2
9 0 1 0 0 0 1 0 0 0 1 190.5 -2 -187 2 0.5 0.5
9 0 1 0 0 0 1 0 0 0 1 190.5 -2 -147 2 0.5 0.5
9 0 1 0 0 0 1 0 0 0 1 190.5 -2 -107 2 0.5 0.5
9 0 1 0 0 0 1 0 0 0 1 190.5 -2 -67 2 0.5 0.5
9 0 1 0 0 0 1 0 0 0 1 190.5 -2 -27 2 0.5 0.5
9 0 1 0 0 0 1 0 0 0 1 190.5 -2 13 2 0.5 0.5
9 0 1 0 0 0 1 0 0 0 1 190.5 -2 53 2 0.5 0.5
9 0 1 0 0 0 1 0 0 0 1 190.5 -2 93 2 0.5 0.5
9 0 1 0 0 0 1 0 0 0 1 190.5 -2 133 2 0.5 0.5
9 0 1 0 0 0 1 0 0 0 1 190.5 -2 173 2 0.5 0.5
9 0 1 0 0 0 1 0 0 0 1 190.5 -2 213 2 0.5 0.5
9 0 1 0 0 0 1 0 0 0 1 169.5 -2 -213 2 0.5 0.5
9 0 1 0 0 0 1 0 0 0 1 169.5 -2 -173 2 0.5 0.5
9 0 1 0 0 0 1 0 0 0 1 169.5 -2 -133 2 0.5 0.5
9 0 1 0 0 0 1 0 0 0 1 169.5 -2 -93 2 0.5 0.5
9 0 1 0 0 0 1 0 0 0 1 169.5 -2 -53 2 0.5 0.5
9 0 1 0 0 0 1 0 0 0 1 169.5 -2 -13 2 0.5 0.5
9 0 1 0 0 0 1 0 0 0 1 169.5 -2 27 2 0.5 0.5
9 0 1 0 0 0 1 0 0 0 1 169.5 -2 67 2 0.5 0.5
9 0 1 0 0 0 1 0 0 0 1 169.5 -2 107 2 0.5 0.5
9 0 1 0 0 0 1 0 0 0 1 169.5 -2 147 2 0.5 0.5
9 0 1 0 0 0 1 0 0 0 1 169.5 -2 187 2 0.5 0.5
9 0 1 0 0 0 1 0 0 0 1 167 -2 -189.5 0.5 0.5 2
9 0 1 0 0 0 1 0 0 0 1 167 -2 -149.5 0.5 0.5 2
9 0 1 0 0 0 1 0 0 0 1 167 -2 -109.5 0.5 0.5 2
9 0 1 0 0 0 1 0 0 0 1 167 -2 -69.5 0.5 0.5 2
9 0 1 0 0 0 1 0 0 0 1 167 -2 -29.5 0.5 0.5 2
9 0 1 0 0 0 1 0 0 0 1 167 -2 10.5 0.5 0.5 2
9 0 1 0 0 0 1 0 0 0 1 167 -2 50.5 0.5 0.5 2
9 0 1 0 0 0 1 0 0 0 1 167 -2 90.5 0.5 0.5 2
9 0 1 0 0 0 1 0 0 0 1 167 -2 130.5 0.5 0.5 2
9 0 1 0 0 0 1 0 0 0 1 167 -2 170.5 0.5 0.5 2
9 0 1 0 0 0 1 0 0 0 1 167 -2 210.5 0.5 0.5 2
9 0 1 0 0 0 1 0 0 0 1 153 -2 -210.5 0.5 0.5 2
9 0 1 0 0 0 1 0 0 0 1 153 -2 -170.5 0.5 0.5 2
9 0 1 0 0 0 1 0 0 0 1 153 -2 -130.5 0.5 0.5 2
9 0 1 0 0 0 1 0 0 0 1 153 -2 -90.5 0.5 0.5 2
9 0 1 0 0 0 1 0 0 0 1 153 -2 -50.5 0.5 0.5 2
9 0 1 0 0 0 1 0 0 0 1 153 -2 -10.5 0.5 0.5 2
9 0 1 0 0 0 1 0 0 0 1 153 -2 29.5 0.5 0.5 2
9 0 1 0 0 0 1 0 0 0 1 153 -2 69.5 0.5 0.5 2
9 0 1 0 0 0 1 0 0 0 1 153 -2 109.5 0.5 0.5 2
9 0 1 0 0 0 1 0 0 0 1 153 -2 149.5 0.5 0.5 2
9 0 1 0 0 0 1 0 0 0 1 153 -2 189.5 0.5 0.5 2
9 0 1 0 0 0 1 0 0 0 1 150.5 -2 -187 2 0.5 0.5
9 0 1 0 0 0 1 0 0 0 1 150.5 -2 -147 2 0.5 0.5
9 0 1 0 0 0 1 0 0 0 1 150.5 -2 -107 2 0.5 0.5
9 0 1 0 0 0 1 0 0 0 1 150.5 -2 -67 2 0.5 0.5
9 0 1 0 0 0 1 0 0 0 1 150.5 -2 -27 2 0.5 0.5
9 0 1 0 0 0 1 0 0 0 1 150.5 -2 13 2 0.5 0.5
9 0 1 0 0 0 1 0 0 0 1 150.5 -2 53 2 0.5 0.5
9 0 1 0 0 0 1 0 0 0 1 150.5 -2 93 2 0.5 0.5
9 0 1 0 0 0 1 0 0 0 1 150.5 -2 133 2 0.5 0.5
9 0 1 0 0 0 1 0 0 0 1 150.5 -2 173 2 0.5 0.5
9 0 1 0 0 0 1 0 0 0 1 150.5 -2 213 2 0.5 0.5
9 0 1 0 0 0 1 0 0 0 1 129.5 -2 -213 2 0.5 0.5
9 0 1 0 0 0 1 0 0 0 1 129.5 -2 -173 2 0.5 0.5
9 0 1 0 0 0 1 0 0 0 1 129.5 -2 -133 2 0.5 0.5
9 0 1 0 0 0 1 0 0 0 1 129.5 -2 -93 2 0.5 0.5
9 0 1 0 0 0 1 0 0 0 1 129.5 -2 -53 2 0.5 0.5
9 0 1 0 0 0 1 0 0 0 1 129.5 -2 -13 2 0.5 0.5
9 0 1 0 0 0 1 0 0 0 1 129.5 -2 27 2 0.5 0.5
9 0 1 0 0 0 1 0 0 0 1 129.5 -2 67 2 0.5 0.5
9 0 1 0 0 0 1 0 0 0 1 129.5 -2 107 2 0.5 0.5
9 0 1 0 0 0 1 0 0 0 1 129.5 -2 147 2 0.5 0.5
9 0 1 0 0 0 1 0 0 0 1 129.5 -2 187 2 0.5 0.5
9 0 1 0 0 0 1 0 0 0 1 127 -2 -189.5 0.5 0.5 2
9 0 1 0 0 0 1 0 0 0 1 127 -2 -149.5 0.5 0.5 2
9 0 1 0 0 0 1 0 0 0 1 127 -2 -109.5 0.5 0.5 2
9 0 1 0 0 0 1 0 0 0 1 127 -2 -69.5 0.5 0.5 2
9 0 1 0 0 0 1 0 0 0 1 127 -2 -29.5 0.5 0.5 2
9 0 1 0 0 0 1 0 0 0 1 127 -2 10.5 0.5 0.5 2
9 0 1 0 0 0 1 0 0 0 1 127 -2 50.5 0.5 0.5 2
9 0 1 0 0 0 1 0 0 0 1 127 -2 90.5 0.5 0.5 2
9 0 1 0 0 0 1 0 0 0 1 127 -2 130.5 0.5 0.5 2
9 0 1 0 0 0 1 0 0 0 1 127 -2 170.5 0.5 0.5 2
9 0 1 0 0 0 1 0 0 0 1 127 -2 210.5 0.5 0.5 2
9 0 1 0 0 0 1 0 0 0 1 113 -2 -210.5 0.5 0.5 2
9 0 1 0 0 0 1 0 0 0 1 113 -2 -170.5 0.5 0.5 2
9 0 1 0 0 0 1 0 0 0 1 113 -2 -130.5 0.5 0.5 2
9 0 1 0 0 0 1 0 0 0 1 113 -2 -90.5 0.5 0.5 2
9 0 1 0 0 0 1 0 0 0 1 113 -2 -50.5 0.5 0.5 2
9 0 1 0 0 0 1 0 0 0 1 113 -2 -10.5 0.5 0.5 2
9 0 1 0 0 0 1 0 0 0 1 113 -2 29.5 0.5 0.5 2
9 0 1 0 0 0 1 0 0 0 1 113 -2 69.5 0.5 0.5 2
9 0 1 0 0 0 1 0 0 0 1 113 -2 109.5 0.5 0.5 2
9 0 1 0 0 0 1 0 0 0 1 113 -2 149.5 0.5 0.5 2
9 0 1 0 0 0 1 0 0 0 1 113 -2 189.5 0.5 0.5 2
9 0 1 0 0 0 1 0 0 0 1 110.5 -2 -187 2 0.5 0.5
9 0 1 0 0 0 1 0 0 0 1 110.5 -2 -147 2 0.5 0.5
9 0 1 0 0 0 1 0 0 0 1 110.5 -2 -107 2 0.5 0.5
9 0 1 0 0 0 1 0 0 0 1 110.5 -2 -67 2 0.5 0.5
9 0 1 0 0 0 1 0 0 0 1 110.5 -2 -27 2 0.5 0.5
9 0 1 0 0 0 1 0 0 0 1 110.5 -2 13 2 0.5 0.5
9 0 1 0 0 0 1 0 0 0 1 110.5 -2 53 2 0.5 0.5
9 0 1 0 0 0 1 0 0 0 1 110.5 -2 93 2 0.5 0.5
9 0 1 0 0 0 1 0 0 0 1 110.5 -2 133 2 0.5 0.5
9 0 1 0 0 0 1 0 0 0 1 110.5 -2 173 2 0.5 0.5
9 0 1 0 0 0 1 0 0 0 1 110.5 -2 213 2 0.5 0.5
9 0 1 0 0 0 1 0 0 0 1 89.5 -2 -213 2 0.5 0.5
9 0 1 0 0 0 1 0 0 0 1 89.5 -2 -173 2 0.5 0.5
9 0 1 0 0 0 1 0 0 0 1 89.5 -2 -133 2 0.5 0.5
9 0 1 0 0 0 1 0 0 0 1 89.5 -2 -93 2 0.5 0.5
9 0 1 0 0 0 1 0 0 0 1 89.5 -2 -53 2 0.5 0.5
9 0 1 0 0 0 1 0 0 0 1 89.5 -2 -13 2 0.5 0.5
9 0 1 0 0 0 1 0 0 0 1 89.5 -2 27 2 0.5 0.5
9 0 1 0 0 0 1 0 0 0 1 89.5 -2 67 2 0.5 0.5
9 0 1 0 0 0 1 0 0 0 1 89.5 -2 107 2 0.5 0.5
9 0 1 0 0 0 1 0 0 0 1 89.5 -2 147 2 0.5 0.5
9 0 1 0 0 0 1 0 0 0 1 89.5 -2 187 2 0.5 0.5
9 0 1 0 0 0 1 0 0 0 1 87 -2 -189.5 0.5 0.5 2
9 0 1 0 0 0 1 0 0 0 1 87 -2 -149.5 0.5 0.5 2
9 0 1 0 0 0 1 0 0 0 1 87 -2 -109.5 0.5 0.5 2
9 0 1 0 0 0 1 0 0 0 1 87 -2 -69.5 0.5 0.5 2
9 0 1 0 0 0 1 0 0 0 1 87 -2 -29.5 0.5 0.5 2
9 0 1 0 0 0 1 0 0 0 1 87 -2 10.5 0.5 0.5 2
9 0 1 0 0 0 1 0 0 0 1 87 -2 50.5 0.5 0.5 2
9 0 1 0 0 0 1 0 0 0 1 87 -2 90.5 0.5 0.5 2
9 0 1 0 0 0 1 0 0 0 1 87 -2 130.5 0.5 0.5 2
9 0 1 0 0 0 1 0 0 0 1 87 -2 170.5 0.5 0.5 2
9 0 1 0 0 0 1 0 0 0 1 87 -2 210.5 0.5 0.5 2
9 0 1 0 0 0 1 0 0 0 1 73 -2 -210.5 0.5 0.5 2
9 0 1 0 0 0 1 0 0 0 1 73 -2 -170.5 0.5 0.5 2
9 0 1 0 0 0 1 0 0 0 1 73 -2 -130.5 0.5 0.5 2
9 0 1 0 0 0 1 0 0 0 1 73 -2 -90.5 0.5 0.5 2
9 0 1 0 0 0 1 0 0 0 1 73 -2 -50.5 0.5 0.5 2
9 0 1 0 0 0 1 0 0 0 1 73 -2 -10.5 0.5 0.5 2
9 0 1 0 0 0 1 0 0 0 1 73 -2 29.5 0.5 0.5 2
9 0 1 0 0 0 1 0 0 0 1 73 -2 69.5 0.5 0.5 2
9 0 1 0 0 0 1 0 0 0 1 73 -2 109.5 0.5 0.5 2
9 0 1 0 0 0 1 0 0 0 1 73 -2 149.5 0.5 0.5 2
9 0 1 0 0 0 1 0 0 0 1 73 -2 189.5 0.5 0.5 2
9 0 1 0 0 0 1 0 0 0 1 70.5 -2 -187 2 0.5 0.5
9 0 1 0 0 0 1 0 0 0 1 70.5 -2 -147 2 0.5 0.5
9 0 1 0 0 0 1 0 0 0 1 70.5 -2 -107 2 0.5 0.5
9 0 1 0 0 0 1 0 0 0 1 70.5 -2 -67 2 0.5 0.5
9 0 1 0 0 0 1 0 0 0 1 70.5 -2 -27 2 0.5 0.5
9 0 1 0 0 0 1 0 0 0 1 70.5 -2 13 2 0.5 0.5
9 0 1 0 0 0 1 0 0 0 1 70.5 -2 53 2 0.5 0.5
9 0 1 0 0 0 1 0 0 0 1 70.5 -2 93 2 0.5 0.5
9 0 1 0 0 0 1 0 0 0 1 70.5 -2 133 2 0.5 0.5
9 0 1 0 0 0 1 0 0 0 1 70.5 -2 173 2 0.5 0.5
9 0 1 0 0 0 1 0 0 0 1 70.5 -2 213 2 0.5 0.5
9 0 1 0 0 0 1 0 0 0 1 49.5 -2 -213 2 0.5 0.5
9 0 1 0 0 0 1 0 0 0 1 49.5 -2 -173 2 0.5 0.5
9 0 1 0 0 0 1 0 0 0 1 49.5 -2 -133 2 0.5 0.5
9 0 1 0 0 0 1 0 0 0 1 49.5 -2 -93 2 0.5 0.5
9 0 1 0 0 0 1 0 0 0 1 49.5 -2 -53 2 0.5 0.5
9 0 1 0 0 0 1 0 0 0 1 49.5 -2 -13 2 0.5 0.5
9 0 1 0 0 0 1 0 0 0 1 49.5 -2 27 2 0.5 0.5
9 0 1 0 0 0 1 0 0 0 1 49.5 -2 67 2 0.5 0.5
9 0 1 0 0 0 1 0 0 0 1 49.5 -2 107 2 0.5 0.5
9 0 1 0 0 0 1 0 0 0 1 49.5 -2 147 2 0.5 0.5
9 0 1 0 0 0 1 0 0 0 1 49.5 -2 187 2 0.5 0.5
9 0 1 0 0 0 1 0 0 0 1 47 -2 -189.5 0.5 0.5 2
9 0 1 0 0 0 1 0 0 0 1 47 -2 -149.5 0.5 0.5 2
9 0 1 0 0 0 1 0 0 0 1 47 -2 -109.5 0.5 0.5 2
9 0 1 0 0 0 1 0 0 0 1 47 -2 -69.5 0.5 0.5 2
9 0 1 0 0 0 1 0 0 0 1 47 -2 -29.5 0.5 0.5 2
9 0 1 0 0 0 1 0 0 0 1 47 -2 10.5 0.5 0.5 2
9 0 1 0 0 0 1 0 0 0 1 47 -2 50.5 0.5 0.5 2
9 0 1 0 0 0 1 0 0 0 1 47 -2 90.5 0.5 0.5 2
9 0 1 0 0 0 1 0 0 0 1 47 -2 130.5 0.5 0.5 2
9 0 1 0 0 0 1 0 0 0 1 47 -2 170.5 0.5 0.5 2
9 0 1 0 0 0 1 0 0 0 1 47 -2 210.5 0.5 0.5 2
9 0 1 0 0 0 1 0 0 0 1 33 -2 -210.5 0.5 0.5 2
9 0 1 0 0 0 1 0 0 0 1 33 -2 -170.5 0.5 0.5 2
9 0 1 0 0 0 1 0 0 0 1 33 -2 -130.5 0.5 0.5 2
9 0 1 0 0 0 1 0 0 0 1 33 -2 -90.5 0.5 0.5 2
9 0 1 0 0 0 1 0 0 0 1 33 -2 -50.5 0.5 0.5 2
9 0 1 0 0 0 1 0 0 0 1 33 -2 -10.5 0.5 0.5 2
9 0 1 0 0 0 1 0 0 0 1 33 -2 29.5 0.5 0.5 2
9 0 1 0 0 0 1 0 0 0 1 33 -2 69.5 0.5 0.5 2
9 0 1 0 0 0 1 0 0 0 1 33 -2 109.5 0.5 0.5 2
9 0 1 0 0 0 1 0 0 0 1 33 -2 149.5 0.5 0.5 2
9 0 1 0 0 0 1 0 0 0 1 33 -2 189.5 0.5 0.5 2
9 0 1 0 0 0 1 0 0 0 1 30.5 -2 -187 2 0.5 0.5
9 0 1 0 0 0 1 0 0 0 1 30.5 -2 -147 2 0.5 0.5
9 0 1 0 0 0 1 0 0 0 1 30.5 -2 -107 2 0.5 0.5
9 0 1 0 0 0 1 0 0 0 1 30.5 -2 -67 2 0.5 0.5
9 0 1 0 0 0 1 0 0 0 1 30.5 -2 -27 2 0.5 0.5
9 0 1 0 0 0 1 0 0 0 1 30.5 -2 13 2 0.5 0.5
9 0 1 0 0 0 1 0 0 0 1 30.5 -2 53 2 0.5 0.5
9 0 1 0 0 0 1 0 0 0 1 30.5 -2 93 2 0.5 0.5
9 0 1 0 0 0 1 0 0 0 1 30.5 -2 133 2 0.5 0.5
9 0 1 0 0 0 1 0 0 0 1 30.5 -2 173 2 0.5 0.5
9 0 1 0 0 0 1 0 0 0 1 30.5 -2 213 2 0.5 0.5
9 0 1 0 0 0 1 0 0 0 1 9.5 -2 -213 2 0.5 0.5
9 0 1 0 0 0 1 0 0 0 1 9.5 -2 -173 2 0.5 0.5
9 0 1 0 0 0 1 0 0 0 1 9.5 -2 -133 2 0.5 0.5
9 0 1 0 0 0 1 0 0 0 1 9.5 -2 -93 2 0.5 0.5
9 0 1 0 0 0 1 0 0 0 1 9.5 -2 -53 2 0.5 0.5
9 0 1 0 0 0 1 0 0 0 1 9.5 -2 -13 2 0.5 0.5
9 0 1 0 0 0 1 0 0 0 1 9.5 -2 27 2 0.5 0.5
9 0 1 0 0 0 1 0 0 0 1 9.5 -2 67 2 0.5 0.5
9 0 1 0 0 0 1 0 0 0 1 9.5 -2 107 2 0.5 0.5
9 0 1 0 0 0 1 0 0 0 1 9.5 -2 147 2 0.5 0.5
9 0 1 0 0 0 1 0 0 0 1 9.5 -2 187 2 0.5 0.5
9 0 1 0 0 0 1 0 0 0 1 7 -2 -189.5 0.5 0.5 2
9 0 1 0 0 0 1 0 0 0 1 7 -2 -149.5 0.5 0.5 2
9 0 1 0 0 0 1 0 0 0 1 7 -2 -109.5 0.5 0.5 2
9 0 1 0 0 0 1 0 0 0 1 7 -2 -69.5 0.5 0.5 2
9 0 1 0 0 0 1 0 0 0 1 7 -2 -29.5 0.5 0.5 2
9 0 1 0 0 0 1 0 0 0 1 7 -2 10.5 0.5 0.5 2
9 0 1 0 0 0 1 0 0 0 1 7 -2 50.5 0.5 0.5 2
9 0 1 0 0 0 1 0 0 0 1 7 -2 90.5 0.5 0.5 2
9 0 1 0 0 0 1 0 0 0 1 7 -2 130.5 0.5 0.5 2
9 0 1 0 0 0 1 0 0 0 1 7 -2 170.5 0.5 0.5 2
9 0 1 0 0 0 1 0 0 0 1 7 -2 210.5 0.5 0.5 2
9 0 1 0 0 0 1 0 0 0 1 -7 -2 -210.5 0.5 0.5 2
9 0 1 0 0 0 1 0 0 0 1 -7 -2 -170.5 0.5 0.5 2
9 0 1 0 0 0 1 0 0 0 1 -7 -2 -130.5 0.5 0.5 2
9 0 1 0 0 0 1 0 0 0 1 -7 -2 -90.5 0.5 0.5 2
9 0 1 0 0 0 1 0 0 0 1 -7 -2 -50.5 0.5 0.5 2
9 0 1 0 0 0 1 0 0 0 1 -7 -2 -10.5 0.5 0.5 2
9 0 1 0 0 0 1 0 0 0 1 -7 -2 29.5 0.5 0.5 2
9 0 1 0 0 0 1 0 0 0 1 -7 -2 69.5 0.5 0.5 2
9 0 1 0 0 0 1 0 0 0 1 -7 -2 109.5 0.5 0.5 2
9 0 1 0 0 0 1 0 0 0 1 -7 -2 149.5 0.5 0.5 2
9 0 1 0 0 0 1 0 0 0 1 -7 -2 189.5 0.5 0.5 2
9 0 1 0 0 0 1 0 0 0 1 -9.5 -2 -187 2 0.5 0.5
9 0 1 0 0 0 1 0 0 0 1 -9.5 -2 -147 2 0.5 0.5
9 0 1 0 0 0 1 0 0 0 1 -9.5 -2 -107 2 0.5 0.5
9 0 1 0 0 0 1 0 0 0 1 -9.5 -2 -67 2 0.5 0.5
9 0 1 0 0 0 1 0 0 0 1 -9.5 -2 -27 2 0.5 0.5
9 0 1 0 0 0 1 0 0 0 1 -9.5 -2 13 2 0.5 0.5
9 0 1 0 0 0 1 0 0 0 1 -9.5 -2 53 2 0.5 0.5
9 0 1 0 0 0 1 0 0 0 1 -9.5 -2 93 2 0.5 0.5
9 0 1 0 0 0 1 0 0 0 1 -9.5 -2 133 2 0.5 0.5
9 0 1 0 0 0 1 0 0 0 1 -9.5 -2 173 2 0.5 0.5
9 0 1 0 0 0 1 0 0 0 1 -9.5 -2 213 2 0.5 0.5
9 0 1 0 0 0 1 0 0 0 1 -30.5 -2 -213 2 0.5 0.5
9 0 1 0 0 0 1 0 0 0 1 -30.5 -2 -173 2 0.5 0.5
9 0 1 0 0 0 1 0 0 0 1 -30.5 -2 -133 2 0.5 0.5
9 0 1 0 0 0 1 0 0 0 1 -30.5 -2 -93 2 0.5 0.5
9 0 1 0 0 0 1 0 0 0 1 -30.5 -2 -53 2 0.5 0.5
9 0 1 0 0 0 1 0 0 0 1 -30.5 -2 -13 2 0.5 0.5
9 0 1 0 0 0 1 0 0 0 1 -30.5 -2 27 2 0.5 0.5
9 0 1 0 0 0 1 0 0 0 1 -30.5 -2 67 2 0.5 0.5
9 0 1 0 0 0 1 0 0 0 1 -30.5 -2 107 2 0.5 0.5
9 0 1 0 0 0 1 0 0 0 1 -30.5 -2 147 2 0.5 0.5
9 0 1 0 0 0 1 0 0 0 1 -30.5 -2 187 2 0.5 0.5
9 0 1 0 0 0 1 0 0 0 1 -33 -2 -189.5 0.5 0.5 2
9 0 1 0 0 0 1 0 0 0 1 -33 -2 -149.5 0.5 0.5 2
9 0 1 0 0 0 1 0 0 0 1 -33 -2 -109.5 0.5 0.5 2
9 0 1 0 0 0 1 0 0 0 1 -33 -2 -69.5 0.5 0.5 2
9 0 1 0 0 0 1 0 0 0 1 -33 -2 -29.5 0.5 0.5 2
9 0 1 0 0 0 1 0 0 0 1 -33 -2 10.5 0.5 0.5 2
9 0 1 0 0 0 1 0 0 0 1 -33 -2 50.5 0.5 0.5 2
9 0 1 0 0 0 1 0 0 0 1 -33 -2 90.5 0.5 0.5 2
9 0 1 0 0 0 1 0 0 0 1 -33 -2 130.5 0.5 0.5 2
9 0 1 0 0 0 1 0 0 0 1 -33 -2 170.5 0.5 0.5 2
9 0 1 0 0 0 1 0 0 0 1 -33 -2 210.5 0.5 0.5 2
9 0 1 0 0 0 1 0 0 0 1 -47 -2 -210.5 0.5 0.5 2
9 0 1 0 0 0 1 0 0 0 1 -47 -2 -170.5 0.5 0.5 2
9 0 1 0 0 0 1 0 0 0 1 -47 -2 -130.5 0.5 0.5 2
9 0 1 0 0 0 1 0 0 0 1 -47 -2 -90.5 0.5 0.5 2
9 0 1 0 0 0 1 0 0 0 1 -47 -2 -50.5 0.5 0.5 2
9 0 1 0 0 0 1 0 0 0 1 -47 -2 -10.5 0.5 0.5 2
9 0 1 0 0 0 1 0 0 0 1 -47 -2 29.5 0.5 0.5 2
9 0 1 0 0 0 1 0 0 0 1 -47 -2 69.5 0.5 0.5 2
9 0 1 0 0 0 1 0 0 0 1 -47 -2 109.5 0.5 0.5 2
9 0 1 0 0 0 1 0 0 0 1 -47 -2 149.5 0.5 0.5 2
9 0 1 0 0 0 1 0 0 0 1 -47 -2 189.5 0.5 0.5 2
9 0 1 0 0 0 1 0 0 0 1 -49.5 -2 -187 2 0.5 0.5
9 0 1 0 0 0 1 0 0 0 1 -49.5 -2 -147 2 0.5 0.5
9 0 1 0 0 0 1 0 0 0 1 -49.5 -2 -107 2 0.5 0.5
9 0 1 0 0 0 1 0 0 0 1 -49.5 -2 -67 2 0.5 0.5
9 0 1 0 0 0 1 0 0 0 1 -49.5 -2 -27 2 0.5 0.5
9 0 1 0 0 0 1 0 0 0 1 -49.5 -2 13 2 0.5 0.5
9 0 1 0 0 0 1 0 0 0 1 -49.5 -2 53 2 0.5 0.5
9 0 1 0 0 0 1 0 0 0 1 -49.5 -2 93 2 0.5 0.5
9 0 1 0 0 0 1 0 0 0 1 -49.5 -2 133 2 0.5 0.5
9 0 1 0 0 0 1 0 0 0 1 -49.5 -2 173 2 0.5 0.5
9 0 1 0 0 0 1 0 0 0 1 -49.5 -2 213 2 0.5 0.5
9 0 1 0 0 0 1 0 0 0 1 -70.5 -2 -213 2 0.5 0.5
9 0 1 0 0 0 1 0 0 0 1 -70.5 -2 -173 2 0.5 0.5
9 0 1 0 0 0 1 0 0 0 1 -70.5 -2 -133 2 0.5 0.5
9 0 1 0 0 0 1 0 0 0 1 -70.5 -2 -93 2 0.5 0.5
9 0 1 0 0 0 1 0 0 0 1 -70.5 -2 -53 2 0.5 0.5
9 0 1 0 0 0 1 0 0 0 1 -70.5 -2 -13 2 0.5 0.5
9 0 1 0 0 0 1 0 0 0 1 -70.5 -2 27 2 0.5 0.5
9 0 1 0 0 0 1 0 0 0 1 -70.5 -2 67 2 0.5 0.5
9 0 1 0 0 0 1 0 0 0 1 -70.5 -2 107 2 0.5 0.5
9 0 1 0 0 0 1 0 0 0 1 -70.5 -2 147 2 0.5 0.5
9 0 1 0 0 0 1 0 0 0 1 -70.5 -2 187 2 0.5 0.5
9 0 1 0 0 0 1 0 0 0 1 -73 -2 -189.5 0.5 0.5 2
9 0 1 0 0 0 1 0 0 0 1 -73 -2 -149.5 0.5 0.5 2
9 0 1 0 0 0 1 0 0 0 1 -73 -2 -109.5 0.5 0.5 2
9 0 1 0 0 0 1 0 0 0 1 -73 -2 -69.5 0.5 0.5 2
9 0 1 0 0 0 1 0 0 0 1 -73 -2 -29.5 0.5 0.5 2
9 0 1 0 0 0 1 0 0 0 1 -73 -2 10.5 0.5 0.5 2
9 0 1 0 0 0 1 0 0 0 1 -73 -2 50.5 0.5 0.5 2
9 0 1 0 0 0 1 0 0 0 1 -73 -2 90.5 0.5 0.5 2
9 0 1 0 0 0 1 0 0 0 1 -73 -2 130.5 0.5 0.5 2
9 0 1 0 0 0 1 0 0 0 1 -73 -2 170.5 0.5 0.5 2
9 0 1 0 0 0 1 0 0 0 1 -73 -2 210.5 0.5 0.5 2
9 0 1 0 0 0 1 0 0 0 1 -87 -2 -210.5 0.5 0.5 2
9 0 1 0 0 0 1 0 0 0 1 -87 -2 -170.5 0.5 0.5 2
9 0 1 0 0 0 1 0 0 0 1 -87 -2 -130.5 0.5 0.5 2
9 0 1 0 0 0 1 0 0 0 1 -87 -2 -90.5 0.5 0.5 2
9 0 1 0 0 0 1 0 0 0 1 -87 -2 -50.5 0.5 0.5 2
9 0 1 0 0 0 1 0 0 0 1 -87 -2 -10.5 0.5 0.5 2
9 0 1 0 0 0 1 0 0 0 1 -87 -2 29.5 0.5 0.5 2
9 0 1 0 0 0 1 0 0 0 1 -87 -2 69.5 0.5 0.5 2
9 0 1 0 0 0 1 0 0 0 1 -87 -2 109.5 0.5 0.5 2
9 0 1 0 0 0 1 0 0 0 1 -87 -2 149.5 0.5 0.5 2
9 0 1 0 0 0 1 0 0 0 1 -87 -2 189.5 0.5 0.5 2
9 0 1 0 0 0 1 0 0 0 1 -89.5 -2 -187 2 0.5 0.5
9 0 1 0 0 0 1 0 0 0 1 -89.5 -2 -147 2 0.5 0.5
9 0 1 0 0 0 1 0 0 0 1 -89.5 -2 -107 2 0.5 0.5
9 0 1 0 0 0 1 0 0 0 1 -89.5 -2 -67 2 0.5 0.5
9 0 1 0 0 0 1 0 0 0 1 -89.5 -2 -27 2 0.5 0.5
9 0 1 0 0 0 1 0 0 0 1 -89.5 -2 13 2 0.5 0.5
9 0 1 0 0 0 1 0 0 0 1 -89.5 -2 53 2 0.5 0.5
9 0 1 0 0 0 1 0 0 0 1 -89.5 -2 93 2 0.5 0.5
9 0 1 0 0 0 1 0 0 0 1 -89.5 -2 133 2 0.5 0.5
9 0 1 0 0 0 1 0 0 0 1 -89.5 -2 173 2 0.5 0.5
9 0 1 0 0 0 1 0 0 0 1 -89.5 -2 213 2 0.5 0.5
9 0 1 0 0 0 1 0 0 0 1 -110.5 -2 -213 2 0.5 0.5
9 0 1 0 0 0 1 0 0 0 1 -110.5 -2 -173 2 0.5 0.5
9 0 1 0 0 0 1 0 0 0 1 -110.5 -2 -133 2 0.5 0.5
9 0 1 0 0 0 1 0 0 0 1 -110.5 -2 -93 2 0.5 0.5
9 0 1 0 0 0 1 0 0 0 1 -110.5 -2 -53 2 0.5 0.5
9 0 1 0 0 0 1 0 0 0 1 -110.5 -2 -13 2 0.5 0.5
9 0 1 0 0 0 1 0 0 0 1 -110.5 -2 27 2 0.5 0.5
9 0 1 0 0 0 1 0 0 0 1 -110.5 -2 67 2 0.5 0.5
9 0 1 0 0 0 1 0 0 0 1 -110.5 -2 107 2 0.5 0.5
9 0 1 0 0 0 1 0 0 0 1 -110.5 -2 147 2 0.5 0.5
9 0 1 0 0 0 1 0 0 0 1 -110.5 -2 187 2 0.5 0.5
9 0 1 0 0 0 1 0 0 0 1 -113 -2 -189.5 0.5 0.5 2
9 0 1 0 0 0 1 0 0 0 1 -113 -2 -149.5 0.5 0.5 2
9 0 1 0 0 0 1 0 0 0 1 -113 -2 -109.5 0.5 0.5 2
9 0 1 0 0 0 1 0 0 0 1 -113 -2 -69.5 0.5 0.5 2
9 0 1 0 0 0 1 0 0 0 1 -113 -2 -29.5 0.5 0.5 2
9 0 1 0 0 0 1 0 0 0 1 -113 -2 10.5 0.5 0.5 2
9 0 1 0 0 0 1 0 0 0 1 -113 -2 50.5 0.5 0.5 2
9 0 1 0 0 0 1 0 0 0 1 -113 -2 90.5 0.5 0.5 2
9 0 1 0 0 0 1 0 0 0 1 -113 -2 130.5 0.5 0.5 2
9 0 1 0 0 0 1 0 0 0 1 -113 -2 170.5 0.5 0.5 2
9 0 1 0 0 0 1 0 0 0 1 -113 -2 210.5 0.5 0.5 2
9 0 1 0 0 0 1 0 0 0 1 -127 -2 -210.5 0.5 0.5 2
9 0 1 0 0 0 1 0 0 0 1 -127 -2 -170.5 0.5 0.5 2
9 0 1 0 0 0 1 0 0 0 1 -127 -2 -130.5 0.5 0.5 2
9 0 1 0 0 0 1 0 0 0 1 -127 -2 -90.5 0.5 0.5 2
9 0 1 0 0 0 1 0 0 0 1 -127 -2 -50.5 0.5 0.5 2
9 0 1 0 0 0 1 0 0 0 1 -127 -2 -10.5 0.5 0.5 2
9 0 1 0 0 0 1 0 0 0 1 -127 -2 29.5 0.5 0.5 2
9 0 1 0 0 0 1 0 0 0 1 -127 -2 69.5 0.5 0.5 2
9 0 1 0 0 0 1 0 0 0 1 -127 -2 109.5 0.5 0.5 2
9 0 1 0 0 0 1 0 0 0 1 -127 -2 149.5 0.5 0.5 2
9 0 1 0 0 0 1 0 0 0 1 -127 -2 189.5 0.5 0.5 2
9 0 1 0 0 0 1 0 0 0 1 -129.5 -2 -187 2 0.5 0.5
9 0 1 0 0 0 1 0 0 0 1 -129.5 -2 -147 2 0.5 0.5
9 0 1 0 0 0 1 0 0 0 1 -129.5 -2 -107 2 0.5 0.5
9 0 1 0 0 0 1 0 0 0 1 -129.5 -2 -67 2 0.5 0.5
9 0 1 0 0 0 1 0 0 0 1 -129.5 -2 -27 2 0.5 0.5
9 0 1 0 0 0 1 0 0 0 1 -129.5 -2 13 2 0.5 0.5
9 0 1 0 0 0 1 0 0 0 1 -129.5 -2 53 2 0.5 0.5
9 0 1 0 0 0 1 0 0 0 1 -129.5 -2 93 2 0.5 0.5
9 0 1 0 0 0 1 0 0 0 1 -129.5 -2 133 2 0.5 0.5
9 0 1 0 0 0 1 0 0 0 1 -129.5 -2 173 2 0.5 0.5
9 0 1 0 0 0 1 0 0 0 1 -129.5 -2 213 2 0.5 0.5
9 0 1 0 0 0 1 0 0 0 1 -150.5 -2 -213 2 0.5 0.5
9 0 1 0 0 0 1 0 0 0 1 -150.5 -2 -173 2 0.5 0.5
9 0 1 0 0 0 1 0 0 0 1 -150.5 -2 -133 2 0.5 0.5
9 0 1 0 0 0 1 0 0 0 1 -150.5 -2 -93 2 0.5 0.5
9 0 1 0 0 0 1 0 0 0 1 -150.5 -2 -53 2 0.5 0.5
9 0 1 0 0 0 1 0 0 0 1 -150.5 -2 -13 2 0.5 0.5
9 0 1 0 0 0 1 0 0 0 1 -150.5 -2 27 2 0.5 0.5
9 0 1 0 0 0 1 0 0 0 1 -150.5 -2 67 2 0.5 0.5
9 0 1 0 0 0 1 0 0 0 1 -150.5 -2 107 2 0.5 0.5
9 0 1 0 0 0 1 0 0 0 1 -150.5 -2 147 2 0.5 0.5
9 0 1 0 0 0 1 0 0 0 1 -150.5 -2 187 2 0.5 0.5
9 0 1 0 0 0 1 0 0 0 1 -153 -2 -189.5 0.5 0.5 2
9 0 1 0 0 0 1 0 0 0 1 -153 -2 -149.5 0.5 0.5 2
9 0 1 0 0 0 1 0 0 0 1 -153 -2 -109.5 0.5 0.5 2
9 0 1 0 0 0 1 0 0 0 1 -153 -2 -69.5 0.5 0.5 2
9 0 1 0 0 0 1 0 0 0 1 -153 -2 -29.5 0.5 0.5 2
9 0 1 0 0 0 1 0 0 0 1 -153 -2 10.5 0.5 0.5 2
9 0 1 0 0 0 1 0 0 0 1 -153 -2 50.5 0.5 0.5 2
9 0 1 0 0 0 1 0 0 0 1 -153 -2 90.5 0.5 0.5 2
9 0 1 0 0 0 1 0 0 0 1 -153 -2 130.5 0.5 0.5 2
9 0 1 0 0 0 1 0 0 0 1 -153 -2 170.5 0.5 0.5 2
9 0 1 0 0 0 1 0 0 0 1 -153 -2 210.5 0.5 0.5 2
9 0 1 0 0 0 1 0 0 0 1 -167 -2 -210.5 0.5 0.5 2
9 0 1 0 0 0 1 0 0 0 1 -167 -2 -170.5 0.5 0.5 2
9 0 1 0 0 0 1 0 0 0 1 -167 -2 -130.5 0.5 0.5 2
9 0 1 0 0 0 1 0 0 0 1 -167 -2 -90.5 0.5 0.5 2
9 0 1 0 0 0 1 0 0 0 1 -167 -2 -50.5 0.5 0.5 2
9 0 1 0 0 0 1 0 0 0 1 -167 -2 -10.5 0.5 0.5 2
9 0 1 0 0 0 1 0 0 0 1 -167 -2 29.5 0.5 0.5 2
9 0 1 0 0 0 1 0 0 0 1 -167 -2 69.5 0.5 0.5 2
9 0 1 0 0 0 1 0 0 0 1 -167 -2 109.5 0.5 0.5 2
9 0 1 0 0 0 1 0 0 0 1 -167 -2 149.5 0.5 0.5 2
9 0 1 0 0 0 1 0 0 0 1 -167 -2 189.5 0.5 0.5 2
9 0 1 0 0 0 1 0 0 0 1 -169.5 -2 -187 2 0.5 0.5
9 0 1 0 0 0 1 0 0 0 1 -169.5 -2 -147 2 0.5 0.5
9 0 1 0 0 0 1 0 0 0 1 -169.5 -2 -107 2 0.5 0.5
9 0 1 0 0 0 1 0 0 0 1 -169.5 -2 -67 2 0.5 0.5
9 0 1 0 0 0 1 0 0 0 1 -169.5 -2 -27 2 0.5 0.5
9 0 1 0 0 0 1 0 0 0 1 -169.5 -2 13 2 0.5 0.5
9 0 1 0 0 0 1 0 0 0 1 -169.5 -2 53 2 0.5 0.5
9 0 1 0 0 0 1 0 0 0 1 -169.5 -2 93 2 0.5 0.5
9 0 1 0 0 0 1 0 0 0 1 -169.5 -2 133 2 0.5 0.5
9 0 1 0 0 0 1 0 0 0 1 -169.5 -2 173 2 0.5 0.5
9 0 1 0 0 0 1 0 0 0 1 -169.5 -2 213 2 0.5 0.5
9 0 1 0 0 0 1 0 0 0 1 -190.5 -2 -213 2 0.5 0.5
9 0 1 0 0 0 1 0 0 0 1 -190.5 -2 -173 2 0.5 0.5
9 0 1 0 0 0 1 0 0 0 1 -190.5 -2 -133 2 0.5 0.5
9 0 1 0 0 0 1 0 0 0 1 -190.5 -2 -93 2 0.5 0.5
9 0 1 0 0 0 1 0 0 0 1 -190.5 -2 -53 2 0.5 0.5
9 0 1 0 0 0 1 0 0 0 1 -190.5 -2 -13 2 0.5 0.5
9 0 1 0 0 0 1 0 0 0 1 -190.5 -2 27 2 0.5 0.5
9 0 1 0 0 0 1 0 0 0 1 -190.5 -2 67 2 0.5 0.5
9 0 1 0 0 0 1 0 0 0 1 -190.5 -2 107 2 0.5 0.5
9 0 1 0 0 0 1 0 0 0 1 -190.5 -2 147 2 0.5 0.5
9 0 1 0 0 0 1 0 0 0 1 -190.5 -2 187 2 0.5 0.5
9 0 1 0 0 0 1 0 0 0 1 -193 -2 -189.5 0.5 0.5 2
9 0 1 0 0 0 1 0 0 0 1 -193 -2 -149.5 0.5 0.5 2
9 0 1 0 0 0 1 0 0 0 1 -193 -2 -109.5 0.5 0.5 2
9 0 1 0 0 0 1 0 0 0 1 -193 -2 -69.5 0.5 0.5 2
9 0 1 0 0 0 1 0 0 0 1 -193 -2 -29.5 0.5 0.5 2
9 0 1 0 0 0 1 0 0 0 1 -193 -2 10.5 0.5 0.5 2
9 0 1 0 0 0 1 0 0 0 1 -193 -2 50.5 0.5 0.5 2
9 0 1 0 0 0 1 0 0 0 1 -193 -2 90.5 0.5 0.5 2
9 0 1 0 0 0 1 0 0 0 1 -193 -2 130.5 0.5 0.5 2
9 0 1 0 0 0 1 0 0 0 1 -193 -2 170.5 0.5 0.5 2
9 0 1 0 0 0 1 0 0 0 1 -193 -2 210.5 0.5 0.5 2
9 0 1 0 0 0 1 0 0 0 1 -207 -2 -210.5 0.5 0.5 2
9 0 1 0 0 0 1 0 0 0 1 -207 -2 -170.5 0.5 0.5 2
9 0 1 0 0 0 1 0 0 0 1 -207 -2 -130.5 0.5 0.5 2
9 0 1 0 0 0 1 0 0 0 1 -207 -2 -90.5 0.5 0.5 2
9 0 1 0 0 0 1 0 0 0 1 -207 -2 -50.5 0.5 0.5 2
9 0 1 0 0 0 1 0 0 0 1 -207 -2 -10.5 0.5 0.5 2
9 0 1 0 0 0 1 0 0 0 1 -207 -2 29.5 0.5 0.5 2
9 0 1 0 0 0 1 0 0 0 1 -207 -2 69.5 0.5 0.5 2
9 0 1 0 0 0 1 0 0 0 1 -207 -2 109.5 0.5 0.5 2
9 0 1 0 0 0 1 0 0 0 1 -207 -2 149.5 0.5 0.5 2
9 0 1 0 0 0 1 0 0 0 1 -207 -2 189.5 0.5 0.5 2
9 0 1 0 0 0 1 0 0 0 1 -209.5 -2 -187 2 0.5 0.5
9 0 1 0 0 0 1 0 0 0 1 -209.5 -2 -147 2 0.5 0.5
9 0 1 0 0 0 1 0 0 0 1 -209.5 -2 -107 2 0.5 0.5
9 0 1 0 0 0 1 0 0 0 1 -209.5 -2 -67 2 0.5 0.5
9 0 1 0 0 0 1 0 0 0 1 -209.5 -2 -27 2 0.5 0.5
9 0 1 0 0 0 1 0 0 0 1 -209.5 -2 13 2 0.5 0.5
9 0 1 0 0 0 1 0 0 0 1 -209.5 -2 53 2 0.5 0.5
9 0 1 0 0 0 1 0 0 0 1 -209.5 -2 93 2 0.5 0.5
9 0 1 0 0 0 1 0 0 0 1 -209.5 -2 133 2 0.5 0.5
9 0 1 0 0 0 1 0 0 0 1 -209.5 -2 173 2 0.5 0.5
9 0 1 0 0 0 1 0 0 0 1 -209.5 -2 213 2 0.5 0.5
9 0 1 0 0 0 1 0 0 0 1 -230.5 -2 -213 2 0.5 0.5
9 0 1 0 0 0 1 0 0 0 1 -230.5 -2 -173 2 0.5 0.5
9 0 1 0 0 0 1 0 0 0 1 -230.5 -2 -133 2 0.5 0.5
9 0 1 0 0 0 1 0 0 0 1 -230.5 -2 -93 2 0.5 0.5
9 0 1 0 0 0 1 0 0 0 1 -230.5 -2 -53 2 0.5 0.5
9 0 1 0 0 0 1 0 0 0 1 -230.5 -2 -13 2 0.5 0.5
9 0 1 0 0 0 1 0 0 0 1 -230.5 -2 27 2 0.5 0.5
9 0 1 0 0 0 1 0 0 0 1 -230.5 -2 67 2 0.5 0.5
9 0 1 0 0 0 1 0 0 0 1 -230.5 -2 107 2 0.5 0.5
9 0 1 0 0 0 1 0 0 0 1 -230.5 -2 147 2 0.5 0.5
9 0 1 0 0 0 1 0 0 0 1 -230.5 -2 187 2 0.5 0.5
9 0 1 0 0 0 1 0 0 0 1 -233 -2 -189.5 0.5 0.5 2
9 0 1 0 0 0 1 0 0 0 1 -233 -2 -149.5 0.5 0.5 2
9 0 1 0 0 0 1 0 0 0 1 -233 -2 -109.5 0.5 0.5 2
9 0 1 0 0 0 1 0 0 0 1 -233 -2 -69.5 0.5 0.5 2
9 0 1 0 0 0 1 0 0 0 1 -233 -2 -29.5 0.5 0.5 2
9 0 1 0 0 0 1 0 0 0 1 -233 -2 10.5 0.5 0.5 2
9 0 1 0 0 0 1 0 0 0 1 -233 -2 50.5 0.5 0.5 2
9 0 1 0 0 0 1 0 0 0 1 -233 -2 90.5 0.5 0.5 2
9 0 1 0 0 0 1 0 0 0 1 -233 -2 130.5 0.5 0.5 2
9 0 1 0 0 0 1 0 0 0 1 -233 -2 170.5 0.5 0.5 2
9 0 1 0 0 0 1 0 0 0 1 -233 -2 210.5 0.5 0.5 2
9 0 1 0 0 0 1 0 0 0 1 -247 -2 -210.5 0.5 0.5 2
9 0 1 0 0 0 1 0 0 0 1 -247 -2 -170.5 0.5 0.5 2
9 0 1 0 0 0 1 0 0 0 1 -247 -2 -130.5 0.5 0.5 2
9 0 1 0 0 0 1 0 0 0 1 -247 -2 -90.5 0.5 0.5 2
9 0 1 0 0 0 1 0 0 0 1 -247 -2 -50.5 0.5 0.5 2
9 0 1 0 0 0 1 0 0 0 1 -247 -2 -10.5 0.5 0.5 2
9 0 1 0 0 0 1 0 0 0 1 -247 -2 29.5 0.5 0.5 2
9 0 1 0 0 0 1 0 0 0 1 -247 -2 69.5 0.5 0.5 2
9 0 1 0 0 0 1 0 0 0 1 -247 -2 109.5 0.5 0.5 2
9 0 1 0 0 0 1 0 0 0 1 -247 -2 149.5 0.5 0.5 2
9 0 1 0 0 0 1 0 0 0 1 -247 -2 189.5 0.5 0.5 2
9 0 1 0 0 0 1 0 0 0 1 -249.5 -2 -187 2 0.5 0.5
9 0 1 0 0 0 1 0 0 0 1 -249.5 -2 -147 2 0.5 0.5
9 0 1 0 0 0 1 0 0 0 1 -249.5 -2 -107 2 0.5 0.5
9 0 1 0 0 0 1 0 0 0 1 -249.5 -2 -67 2 0.5 0.5
9 0 1 0 0 0 1 0 0 0 1 -249.5 -2 -27 2 0.5 0.5
9 0 1 0 0 0 1 0 0 0 1 -249.5 -2 13 2 0.5 0.5
9 0 1 0 0 0 1 0 0 0 1 -249.5 -2 53 2 0.5 0.5
9 0 1 0 0 0 1 0 0 0 1 -249.5 -2 93 2 0.5 0.5
9 0 1 0 0 0 1 0 0 0 1 -249.5 -2 133 2 0.5 0.5
9 0 1 0 0 0 1 0 0 0 1 -249.5 -2 173 2 0.5 0.5
9 0 1 0 0 0 1 0 0 0 1 -249.5 -2 213 2 0.5 0.5
9 0 1 0 0 0 1 0 0 0 1 -270.5 -2 -213 2 0.5 0.5
9 0 1 0 0 0 1 0 0 0 1 -270.5 -2 -173 2 0.5 0.5
9 0 1 0 0 0 1 0 0 0 1 -270.5 -2 -133 2 0.5 0.5
9 0 1 0 0 0 1 0 0 0 1 -270.5 -2 -93 2 0.5 0.5
9 0 1 0 0 0 1 0 0 0 1 -270.5 -2 -53 2 0.5 0.5
9 0 1 0 0 0 1 0 0 0 1 -270.5 -2 -13 2 0.5 0.5
9 0 1 0 0 0 1 0 0 0 1 -270.5 -2 27 2 0.5 0.5
9 0 1 0 0 0 1 0 0 0 1 -270.5 -2 67 2 0.5 0.5
9 0 1 0 0 0 1 0 0 0 1 -270.5 -2 107 2 0.5 0.5
9 0 1 0 0 0 1 0 0 0 1 -270.5 -2 147 2 0.5 0.5
9 0 1 0 0 0 1 0 0 0 1 -270.5 -2 187 2 0.5 0.5
9 0 1 0 0 0 1 0 0 0 1 -273 -2 -189.5 0.5 0.5 2
9 0 1 0 0 0 1 0 0 0 1 -273 -2 -149.5 0.5 0.5 2
9 0 1 0 0 0 1 0 0 0 1 -273 -2 -109.5 0.5 0.5 2
9 0 1 0 0 0 1 0 0 0 1 -273 -2 -69.5 0.5 0.5 2
9 0 1 0 0 0 1 0 0 0 1 -273 -2 -29.5 0.5 0.5 2
9 0 1 0 0 0 1 0 0 0 1 -273 -2 10.5 0.5 0.5 2
9 0 1 0 0 0 1 0 0 0 1 -273 -2 50.5 0.5 0.5 2
9 0 1 0 0 0 1 0 0 0 1 -273 -2 90.5 0.5 0.5 2
9 0 1 0 0 0 1 0 0 0 1 -273 -2 130.5 0.5 0.5 2
9 0 1 0 0 0 1 0 0 0 1 -273 -2 170.5 0.5 0.5 2
9 0 1 0 0 0 1 0 0 0 1 -273 -2 210.5 0.5 0.5 2
9 0 1 0 0 0 1 0 0 0 1 -287 -2 -210.5 0.5 0.5 2
9 0 1 0 0 0 1 0 0 0 1 -287 -2 -170.5 0.5 0.5 2
9 0 1 0 0 0 1 0 0 0 1 -287 -2 -130.5 0.5 0.5 2
9 0 1 0 0 0 1 0 0 0 1 -287 -2 -90.5 0.5 0.5 2
9 0 1 0 0 0 1 0 0 0 1 -287 -2 -50.5 0.5 0.5 2
9 0 1 0 0 0 1 0 0 0 1 -287 -2 -10.5 0.5 0.5 2
9 0 1 0 0 0 1 0 0 0 1 -287 -2 29.5 0.5 0.5 2
9 0 1 0 0 0 1 0 0 0 1 -287 -2 69.5 0.5 0.5 2
9 0 1 0 0 0 1 0 0 0 1 -287 -2 109.5 0.5 0.5 2
9 0 1 0 0 0 1 0 0 0 1 -287 -2 149.5 0.5 0.5 2
9 0 1 0 0 0 1 0 0 0 1 -287 -2 189.5 0.5 0.5 2
9 0 1 0 0 0 1 0 0 0 1 -289.5 -2 -187 2 0.5 0.5
9 0 1 0 0 0 1 0 0 0 1 -289.5 -2 -147 2 0.5 0.5
9 0 1 0 0 0 1 0 0 0 1 -289.5 -2 -107 2 0.5 0.5
9 0 1 0 0 0 1 0 0 0 1 -289.5 -2 -67 2 0.5 0.5
9 0 1 0 0 0 1 0 0 0 1 -289.5 -2 -27 2 0.5 0.5
9 0 1 0 0 0 1 0 0 0 1 -289.5 -2 13 2 0.5 0.5
9 0 1 0 0 0 1 0 0 0 1 -289.5 -2 53 2 0.5 0.5
9 0 1 0 0 0 1 0 0 0 1 -289.5 -2 93 2 0.5 0.5
9 0 1 0 0 0 1 0 0 0 1 -289.5 -2 133 2 0.5 0.5
9 0 1 0 0 0 1 0 0 0 1 -289.5 -2 173 2 0.5 0.5
9 0 1 0 0 0 1 0 0 0 1 -289.5 -2 213 2 0.5 0.5
9 0 1 0 0 0 1 0 0 0 1 -310.5 -2 -213 2 0.5 0.5
9 0 1 0 0 0 1 0 0 0 1 -310.5 -2 -173 2 0.5 0.5
9 0 1 0 0 0 1 0 0 0 1 -310.5 -2 -133 2 0.5 0.5
9 0 1 0 0 0 1 0 0 0 1 -310.5 -2 -93 2 0.5 0.5
9 0 1 0 0 0 1 0 0 0 1 -310.5 -2 -53 2 0.5 0.5
9 0 1 0 0 0 1 0 0 0 1 -310.5 -2 -13 2 0.5 0.5
9 0 1 0 0 0 1 0 0 0 1 -310.5 -2 27 2 0.5 0.5
9 0 1 0 0 0 1 0 0 0 1 -310.5 -2 67 2 0.5 0.5
9 0 1 0 0 0 1 0 0 0 1 -310.5 -2 107 2 0.5 0.5
9 0 1 0 0 0 1 0 0 0 1 -310.5 -2 147 2 0.5 0.5
9 0 1 0 0 0 1 0 0 0 1 -310.5 -2 187 2 0.5 0.5
9 0 1 0 0 0 1 0 0 0 1 -313 -2 -189.5 0.5 0.5 2
9 0 1 0 0 0 1 0 0 0 1 -313 -2 -149.5 0.5 0.5 2
9 0 1 0 0 0 1 0 0 0 1 -313 -2 -109.5 0.5 0.5 2
9 0 1 0 0 0 1 0 0 0 1 -313 -2 -69.5 0.5 0.5 2
9 0 1 0 0 0 1 0 0 0 1 -313 -2 -29.5 0.5 0.5 2
9 0 1 0 0 0 1 0 0 0 1 -313 -2 10.5 0.5 0.5 2
9 0 1 0 0 0 1 0 0 0 1 -313 -2 50.5 0.5 0.5 2
9 0 1 0 0 0 1 0 0 0 1 -313 -2 90.5 0.5 0.5 2
9 0 1 0 0 0 1 0 0 0 1 -313 -2 130.5 0.5 0.5 2
9 0 1 0 0 0 1 0 0 0 1 -313 -2 170.5 0.5 0.5 2
9 0 1 0 0 0 1 0 0 0 1 -313 -2 210.5 0.5 0.5 2
9 0 1 0 0 0 1 0 0 0 1 -327 -2 -210.5 0.5 0.5 2
9 0 1 0 0 0 1 0 0 0 1 -327 -2 -170.5 0.5 0.5 2
9 0 1 0 0 0 1 0 0 0 1 -327 -2 -130.5 0.5 0.5 2
9 0 1 0 0 0 1 0 0 0 1 -327 -2 -90.5 0.5 0.5 2
9 0 1 0 0 0 1 0 0 0 1 -327 -2 -50.5 0.5 0.5 2
9 0 1 0 0 0 1 0 0 0 1 -327 -2 -10.5 0.5 0.5 2
9 0 1 0 0 0 1 0 0 0 1 -327 -2 29.5 0.5 0.5 2
9 0 1 0 0 0 1 0 0 0 1 -327 -2 69.5 0.5 0.5 2
9 0 1 0 0 0 1 0 0 0 1 -327 -2 109.5 0.5 0.5 2
9 0 1 0 0 0 1 0 0 0 1 -327 -2 149.5 0.5 0.5 2
9 0 1 0 0 0 1 0 0 0 1 -327 -2 189.5 0.5 0.5 2
9 0 1 0 0 0 1 0 0 0 1 -329.5 -2 -187 2 0.5 0.5
9 0 1 0 0 0 1 0 0 0 1 -329.5 -2 -147 2 0.5 0.5
9 0 1 0 0 0 1 0 0 0 1 -329.5 -2 -107 2 0.5 0.5
9 0 1 0 0 0 1 0 0 0 1 -329.5 -2 -67 2 0.5 0.5
9 0 1 0 0 0 1 0 0 0 1 -329.5 -2 -27 2 0.5 0.5
9 0 1 0 0 0 1 0 0 0 1 -329.5 -2 13 2 0.5 0.5
9 0 1 0 0 0 1 0 0 0 1 -329.5 -2 53 2 0.5 0.5
9 0 1 0 0 0 1 0 0 0 1 -329.5 -2 93 2 0.5 0.5
9 0 1 0 0 0 1 0 0 0 1 -329.5 -2 133 2 0.5 0.5
9 0 1 0 0 0 1 0 0 0 1 -329.5 -2 173 2 0.5 0.5
9 0 1 0 0 0 1 0 0 0 1 -329.5 -2 213 2 0.5 0.5
9 0 1 0 0 0 1 0 0 0 1 -350.5 -2 -213 2 0.5 0.5
9 0 1 0 0 0 1 0 0 0 1 -350.5 -2 -173 2 0.5 0.5
9 0 1 0 0 0 1 0 0 0 1 -350.5 -2 -133 2 0.5 0.5
9 0 1 0 0 0 1 0 0 0 1 -350.5 -2 -93 2 0.5 0.5
9 0 1 0 0 0 1 0 0 0 1 -350.5 -2 -53 2 0.5 0.5
9 0 1 0 0 0 1 0 0 0 1 -350.5 -2 -13 2 0.5 0.5
9 0 1 0 0 0 1 0 0 0 1 -350.5 -2 27 2 0.5 0.5
9 0 1 0 0 0 1 0 0 0 1 -350.5 -2 67 2 0.5 0.5
9 0 1 0 0 0 1 0 0 0 1 -350.5 -2 107 2 0.5 0.5
9 0 1 0 0 0 1 0 0 0 1 -350.5 -2 147 2 0.5 0.5
9 0 1 0 0 0 1 0 0 0 1 -350.5 -2 187 2 0.5 0.5
9 0 1 0 0 0 1 0 0 0 1 -353 -2 -189.5 0.5 0.5 2
9 0 1 0 0 0 1 0 0 0 1 -353 -2 -149.5 0.5 0.5 2
9 0 1 0 0 0 1 0 0 0 1 -353 -2 -109.5 0.5 0.5 2
9 0 1 0 0 0 1 0 0 0 1 -353 -2 -69.5 0.5 0.5 2
9 0 1 0 0 0 1 0 0 0 1 -353 -2 -29.5 0.5 0.5 2
9 0 1 0 0 0 1 0 0 0 1 -353 -2 10.5 0.5 0.5 2
9 0 1 0 0 0 1 0 0 0 1 -353 -2 50.5 0.5 0.5 2
9 0 1 0 0 0 1 0 0 0 1 -353 -2 90.5 0.5 0.5 2
9 0 1 0 0 0 1 0 0 0 1 -353 -2 130.5 0.5 0.5 2
9 0 1 0 0 0 1 0 0 0 1 -353 -2 170.5 0.5 0.5 2
9 0 1 0 0 0 1 0 0 0 1 -353 -2 210.5 0.5 0.5 2
9 0 1 0 0 0 1 0 0 0 1 -367 -2 -210.5 0.5 0.5 2
9 0 1 0 0 0 1 0 0 0 1 -367 -2 -170.5 0.5 0.5 2
9 0 1 0 0 0 1 0 0 0 1 -367 -2 -130.5 0.5 0.5 2
9 0 1 0 0 0 1 0 0 0 1 -367 -2 -90.5 0.5 0.5 2
9 0 1 0 0 0 1 0 0 0 1 -367 -2 -50.5 0.5 0.5 2
9 0 1 0 0 0 1 0 0 0 1 -367 -2 -10.5 0.5 0.5 2
9 0 1 0 0 0 1 0 0 0 1 -367 -2 29.5 0.5 0.5 2
9 0 1 0 0 0 1 0 0 0 1 -367 -2 69.5 0.5 0.5 2
9 0 1 0 0 0 1 0 0 0 1 -367 -2 109.5 0.5 0.5 2
9 0 1 0 0 0 1 0 0 0 1 -367 -2 149.5 0.5 0.5 2
9 0 1 0 0 0 1 0 0 0 1 -367 -2 189.5 0.5 0.5 2
9 0 1 0 0 0 1 0 0 0 1 -369.5 -2 -187 2 0.5 0.5
9 0 1 0 0 0 1 0 0 0 1 -369.5 -2 -147 2 0.5 0.5
9 0 1 0 0 0 1 0 0 0 1 -369.5 -2 -107 2 0.5 0.5
9 0 1 0 0 0 1 0 0 0 1 -369.5 -2 -67 2 0.5 0.5
9 0 1 0 0 0 1 0 0 0 1 -369.5 -2 -27 2 0.5 0.5
9 0 1 0 0 0 1 0 0 0 1 -369.5 -2 13 2 0.5 0.5
9 0 1 0 0 0 1 0 0 0 1 -369.5 -2 53 2 0.5 0.5
9 0 1 0 0 0 1 0 0 0 1 -369.5 -2 93 2 0.5 0.5
9 0 1 0 0 0 1 0 0 0 1 -369.5 -2 133 2 0.5 0.5
9 0 1 0 0 0 1 0 0 0 1 -369.5 -2 173 2 0.5 0.5
9 0 1 0 0 0 1 0 0 0 1 -369.5 -2 213 2 0.5 0.5
9 0 1 0 0 0 1 0 0 0 1 -390.5 -2 -213 2 0.5 0.5
9 0 1 0 0 0 1 0 0 0 1 -390.5 -2 -173 2 0.5 0.5
9 0 1 0 0 0 1 0 0 0 1 -390.5 -2 -133 2 0.5 0.5
9 0 1 0 0 0 1 0 0 0 1 -390.5 -2 -93 2 0.5 0.5
9 0 1 0 0 0 1 0 0 0 1 -390.5 -2 -53 2 0.5 0.5
9 0 1 0 0 0 1 0 0 0 1 -390.5 -2 -13 2 0.5 0.5
9 0 1 0 0 0 1 0 0 0 1 -390.5 -2 27 2 0.5 0.5
9 0 1 0 0 0 1 0 0 0 1 -390.5 -2 67 2 0.5 0.5
9 0 1 0 0 0 1 0 0 0 1 -390.5 -2 107 2 0.5 0.5
9 0 1 0 0 0 1 0 0 0 1 -390.5 -2 147 2 0.5 0.5
9 0 1 0 0 0 1 0 0 0 1 -390.5 -2 187 2 0.5 0.5
9 0 1 0 0 0 1 0 0 0 1 -393 -2 -189.5 0.5 0.5 2
9 0 1 0 0 0 1 0 0 0 1 -393 -2 -149.5 0.5 0.5 2
9 0 1 0 0 0 1 0 0 0 1 -393 -2 -109.5 0.5 0.5 2
9 0 1 0 0 0 1 0 0 0 1 -393 -2 -69.5 0.5 0.5 2
9 0 1 0 0 0 1 0 0 0 1 -393 -2 -29.5 0.5 0.5 2
9 0 1 0 0 0 1 0 0 0 1 -393 -2 10.5 0.5 0.5 2
9 0 1 0 0 0 1 0 0 0 1 -393 -2 50.5 0.5 0.5 2
9 0 1 0 0 0 1 0 0 0 1 -393 -2 90.5 0.5 0.5 2
9 0 1 0 0 0 1 0 0 0 1 -393 -2 130.5 0.5 0.5 2
9 0 1 0 0 0 1 0 0 0 1 -393 -2 170.5 0.5 0.5 2
9 0 1 0 0 0 1 0 0 0 1 -393 -2 210.5 0.5 0.5 2
9 0 1 0 0 0 1 0 0 0 1 -407 -2 -210.5 0.5 0.5 2
9 0 1 0 0 0 1 0 0 0 1 -407 -2 -170.5 0.5 0.5 2
9 0 1 0 0 0 1 0 0 0 1 -407 -2 -130.5 0.5 0.5 2
9 0 1 0 0 0 1 0 0 0 1 -407 -2 -90.5 0.5 0.5 2
9 0 1 0 0 0 1 0 0 0 1 -407 -2 -50.5 0.5 0.5 2
9 0 1 0 0 0 1 0 0 0 1 -407 -2 -10.5 0.5 0.5 2
9 0 1 0 0 0 1 0 0 0 1 -407 -2 29.5 0.5 0.5 2
9 0 1 0 0 0 1 0 0 0 1 -407 -2 69.5 0.5 0.5 2
9 0 1 0 0 0 1 0 0 0 1 -407 -2 109.5 0.5 0.5 2
9 0 1 0 0 0 1 0 0 0 1 -407 -2 149.5 0.5 0.5 2
9 0 1 0 0 0 1 0 0 0 1 -407 -2 189.5 0.5 0.5 2
9 0 1 0 0 0 1 0 0 0 1 -409.5 -2 -187 2 0.5 0.5
9 0 1 0 0 0 1 0 0 0 1 -409.5 -2 -147 2 0.5 0.5
9 0 1 0 0 0 1 0 0 0 1 -409.5 -2 -107 2 0.5 0.5
9 0 1 0 0 0 1 0 0 0 1 -409.5 -2 -67 2 0.5 0.5
9 0 1 0 0 0 1 0 0 0 1 -409.5 -2 -27 2 0.5 0.5
9 0 1 0 0 0 1 0 0 0 1 -409.5 -2 13 2 0.5 0.5
9 0 1 0 0 0 1 0 0 0 1 -409.5 -2 53 2 0.5 0.5
9 0 1 0 0 0 1 0 0 0 1 -409.5 -2 93 2 0.5 0.5
9 0 1 0 0 0 1 0 0 0 1 -409.5 -2 133 2 0.5 0.5
9 0 1 0 0 0 1 0 0 0 1 -409.5 -2 173 2 0.5 0.5
9 0 1 0 0 0 1 0 0 0 1 -409.5 -2 213 2 0.5 0.5
9 0 1 0 0 0 1 0 0 0 1 -430.5 -2 -213 2 0.5 0.5
9 0 1 0 0 0 1 0 0 0 1 -430.5 -2 -173 2 0.5 0.5
9 0 1 0 0 0 1 0 0 0 1 -430.5 -2 -133 2 0.5 0.5
9 0 1 0 0 0 1 0 0 0 1 -430.5 -2 -93 2 0.5 0.5
9 0 1 0 0 0 1 0 0 0 1 -430.5 -2 -53 2 0.5 0.5
9 0 1 0 0 0 1 0 0 0 1 -430.5 -2 -13 2 0.5 0.5
9 0 1 0 0 0 1 0 0 0 1 -430.5 -2 27 2 0.5 0.5
9 0 1 0 0 0 1 0 0 0 1 -430.5 -2 67 2 0.5 0.5
9 0 1 0 0 0 1 0 0 0 1 -430.5 -2 107 2 0.5 0.5
9 0 1 0 0 0 1 0 0 0 1 -430.5 -2 147 2 0.5 0.5
9 0 1 0 0 0 1 0 0 0 1 -430.5 -2 187 2 0.5 0.5
9 0 1 0 0 0 1 0 0 0 1 -433 -2 -189.5 0.5 0.5 2
9 0 1 0 0 0 1 0 0 0 1 -433 -2 -149.5 0.5 0.5 2
9 0 1 0 0 0 1 0 0 0 1 -433 -2 -109.5 0.5 0.5 2
9 0 1 0 0 0 1 0 0 0 1 -433 -2 -69.5 0.5 0.5 2
9 0 1 0 0 0 1 0 0 0 1 -433 -2 -29.5 0.5 0.5 2
9 0 1 0 0 0 1 0 0 0 1 -433 -2 10.5 0.5 0.5 2
9 0 1 0 0 0 1 0 0 0 1 -433 -2 50.5 0.5 0.5 2
9 0 1 0 0 0 1 0 0 0 1 -433 -2 90.5 0.5 0.5 2
9 0 1 0 0 0 1 0 0 0 1 -433 -2 130.5 0.5 0.5 2
9 0 1 0 0 0 1 0 0 0 1 -433 -2 170.5 0.5 0.5 2
9 0 1 0 0 0 1 0 0 0 1 -433 -2 210.5 0.5 0.5 2
9 0 1 0 0 0 1 0 0 0 1 -436 2 213.5 0.5 0.5 2
