9 0 -1 0 0 0 1 0 0 0 -1 10 -2 -10 3.35 0.5 3.35
9 0 -1 0 0 0 1 0 0 0 -1 -10 -2 -10 3.35 0.5 3.35
9 0 -1 0 0 0 1 0 0 0 -1 30 6 10 3.35 0.5 3.35
9 0 -1 0 0 0 1 0 0 0 -1 10 6 10 3.35 0.5 3.35
9 0 -1 0 0 0 1 0 0 0 -1 -10 6 10 3.35 0.5 3.35
9 0 -1 0 0 0 1 0 0 0 -1 -30 6 10 3.35 0.5 3.35
9 0 1 0 0 0 1 0 0 0 1 0 10 10.5 38.5 0.5 8
9 0 1 0 0 0 1 0 0 0 1 0 16.5 18 38.5 6 0.5
9 0 1 0 0 0 1 0 0 0 1 38 28 -10 0.5 18.5 8.5
9 0 1 0 0 0 1 0 0 0 1 -38 28 -10 0.5 18.5 8.5
9 0 1 0 0 0 1 0 0 0 1 31 10 -8 6.5 0.5 10.5
9 0 1 0 0 0 1 0 0 0 1 -31 10 -8 6.5 0.5 10.5
9 0 1 0 0 0 1 0 0 0 1 38 16.5 8 0.5 6 9.5
9 0 1 0 0 0 1 0 0 0 1 -38 16.5 8 0.5 6 9.5
9 0 1 0 0 0 1 0 0 0 1 14 2 -11.5 4.5 0.5 10
9 0 1 0 0 0 1 0 0 0 1 -14 2 -11.5 4.5 0.5 10
9 0 1 0 0 0 1 0 0 0 1 36 28.5 -2 1.5 18 0.5
9 0 1 0 0 0 1 0 0 0 1 27 16.5 2 4.5 6 0.5
9 0 1 0 0 0 1 0 0 0 1 -36 28.5 -2 1.5 18 0.5
9 0 1 0 0 0 1 0 0 0 1 -27.5 16.5 2 4 6 0.5
9 0 1 0 0 0 1 0 0 0 1 20 18 10 1.5 4.5 1.5
9 0 1 0 0 0 1 0 0 0 1 0 18 10 1.5 4.5 1.5
9 0 1 0 0 0 1 0 0 0 1 -20 18 10 1.5 4.5 1.5
9 0 1 0 0 0 1 0 0 0 1 32.5 14.5 -10 2 4 0.5
9 0 1 0 0 0 1 0 0 0 1 -32.5 14.5 -10 2 4 0.5
9 0 1 0 0 0 1 0 0 0 1 17 3.5 -19.5 1.5 1 2
9 0 1 0 0 0 1 0 0 0 1 -15.5 3 -19.5 3 0.5 2
9 0 1 0 0 0 1 0 0 0 1 28 10 -20 3.5 0.5 1.5
9 0 1 0 0 0 1 0 0 0 1 37 37.5 -21 0.5 9 0.5
9 0 1 0 0 0 1 0 0 0 1 -27.5 10 -20 3 0.5 1.5
9 0 1 0 0 0 1 0 0 0 1 -37 37.5 -21 0.5 9 0.5
9 0 1 0 0 0 1 0 0 0 1 38 43 -19.5 0.5 3.5 1
9 0 1 0 0 0 1 0 0 0 1 -38 43 -19.5 0.5 3.5 1
9 0 1 0 0 0 1 0 0 0 1 34 16.5 -2 0.5 6 0.5
9 0 1 0 0 0 1 0 0 0 1 30.5 12 -20.5 1 1.5 1
9 0 1 0 0 0 1 0 0 0 1 14 3 -19.5 1.5 0.5 2
9 0 1 0 0 0 1 0 0 0 1 -17 4 -19.5 1.5 0.5 2
9 0 1 0 0 0 1 0 0 0 1 -29.5 11.5 -21 1 1 1.5
9 0 1 0 0 0 1 0 0 0 1 -34 16.5 -2 0.5 6 0.5
9 0 1 0 0 0 1 0 0 0 1 -36 34.5 -22 0.5 6 0.5
9 0 1 0 0 0 1 0 0 0 1 33.5 21 -10 1 2.5 0.5
9 0 1 0 0 0 1 0 0 0 1 29.5 13 -10 1 2.5 0.5
9 0 1 0 0 0 1 0 0 0 1 -29.5 13 -10 1 2.5 0.5
9 0 1 0 0 0 1 0 0 0 1 -33.5 21 -10 1 2.5 0.5
9 0 1 0 0 0 1 0 0 0 1 36 34 -22 0.5 4.5 0.5
9 0 1 0 0 0 1 0 0 0 1 22 18 10 0.5 4.5 0.5
9 0 1 0 0 0 1 0 0 0 1 20 18 8 0.5 4.5 0.5
9 0 1 0 0 0 1 0 0 0 1 20 18 12 0.5 4.5 0.5
9 0 1 0 0 0 1 0 0 0 1 18 18 10 0.5 4.5 0.5
9 0 1 0 0 0 1 0 0 0 1 2 18 10 0.5 4.5 0.5
9 0 1 0 0 0 1 0 0 0 1 0 18 8 0.5 4.5 0.5
9 0 1 0 0 0 1 0 0 0 1 0 18 12 0.5 4.5 0.5
9 0 1 0 0 0 1 0 0 0 1 -2 18 10 0.5 4.5 0.5
9 0 1 0 0 0 1 0 0 0 1 -18 18 10 0.5 4.5 0.5
9 0 1 0 0 0 1 0 0 0 1 -20 18 8 0.5 4.5 0.5
9 0 1 0 0 0 1 0 0 0 1 -20 18 12 0.5 4.5 0.5
9 0 1 0 0 0 1 0 0 0 1 -22 18 10 0.5 4.5 0.5
9 0 1 0 0 0 1 0 0 0 1 33 17.5 -21.5 0.5 2 1
9 0 1 0 0 0 1 0 0 0 1 16.5 3.5 -2 2 1 0.5
9 0 1 0 0 0 1 0 0 0 1 -16.5 3.5 -2 2 1 0.5
9 0 1 0 0 0 1 0 0 0 1 -30.5 13.5 -21.5 1 1 1
9 0 1 0 0 0 1 0 0 0 1 -31.5 15.5 -21.5 1 1 1
9 0 1 0 0 0 1 0 0 0 1 -33 17.5 -21.5 0.5 2 1
9 0 1 0 0 0 1 0 0 0 1 35 33 -23 0.5 3.5 0.5
9 0 1 0 0 0 1 0 0 0 1 35 25 -22 0.5 3.5 0.5
9 0 1 0 0 0 1 0 0 0 1 -35 32 -23 0.5 3.5 0.5
9 0 1 0 0 0 1 0 0 0 1 37 30.5 -20 0.5 3 0.5
9 0 1 0 0 0 1 0 0 0 1 34 20 -21.5 0.5 1.5 1
9 0 1 0 0 0 1 0 0 0 1 32 18 -22.5 0.5 1.5 1
9 0 1 0 0 0 1 0 0 0 1 32 14 -20.5 0.5 1.5 1
9 0 1 0 0 0 1 0 0 0 1 29 11.5 -21 0.5 1 1.5
9 0 1 0 0 0 1 0 0 0 1 -34 20 -21.5 0.5 1.5 1
9 0 1 0 0 0 1 0 0 0 1 -35 24.5 -22 0.5 3 0.5
9 0 1 0 0 0 1 0 0 0 1 -37 30.5 -20 0.5 3 0.5
9 0 1 0 0 0 1 0 0 0 1 38 10 0.5 0.5 0.5 2
9 0 1 0 0 0 1 0 0 0 1 36 26.5 -21 0.5 2 0.5
9 0 1 0 0 0 1 0 0 0 1 34 25.5 -10 0.5 2 0.5
9 0 1 0 0 0 1 0 0 0 1 34 24.5 -23 0.5 2 0.5
9 0 1 0 0 0 1 0 0 0 1 33 20.5 -22.5 0.5 1 1
9 0 1 0 0 0 1 0 0 0 1 31.5 15.5 -22 1 1 0.5
9 0 1 0 0 0 1 0 0 0 1 30.5 14 -21.5 1 0.5 1
9 0 1 0 0 0 1 0 0 0 1 27.5 11.5 -10 1 1 0.5
9 0 1 0 0 0 1 0 0 0 1 18 5 -19.5 0.5 0.5 2
9 0 1 0 0 0 1 0 0 0 1 -18 5 -19.5 0.5 0.5 2
9 0 1 0 0 0 1 0 0 0 1 -27.5 11.5 -10 1 1 0.5
9 0 1 0 0 0 1 0 0 0 1 -31 11.5 -20.5 0.5 1 1
9 0 1 0 0 0 1 0 0 0 1 -32 17.5 -22.5 0.5 1 1
9 0 1 0 0 0 1 0 0 0 1 -32 14.5 -20 0.5 2 0.5
9 0 1 0 0 0 1 0 0 0 1 -33 20.5 -23 0.5 2 0.5
9 0 1 0 0 0 1 0 0 0 1 -34 25.5 -10 0.5 2 0.5
9 0 1 0 0 0 1 0 0 0 1 -34 24.5 -23 0.5 2 0.5
9 0 1 0 0 0 1 0 0 0 1 -36 26.5 -21 0.5 2 0.5
9 0 1 0 0 0 1 0 0 0 1 -38 10 0.5 0.5 0.5 2
9 0 1 0 0 0 1 0 0 0 1 30 12 -22 0.5 1.5 0.5
9 0 1 0 0 0 1 0 0 0 1 13 3 -2 1.5 0.5 0.5
9 0 1 0 0 0 1 0 0 0 1 -23 10 2 1.5 0.5 0.5
9 0 1 0 0 0 1 0 0 0 1 -28 9 -22 0.5 1.5 0.5
9 0 1 0 0 0 1 0 0 0 1 -35 23 -21 0.5 1.5 0.5
