9 0 1 0 0 0 1 0 0 0 1 -8 -8.070499 -2.5 0.5 6.5 31
9 0 1 0 0 0 1 0 0 0 1 8 -4.070499 -0.5 0.5 2.5 29
9 0 1 0 0 0 1 0 0 0 1 -8 -17.5705 27.5 0.5 3 21
9 0 1 0 0 0 1 0 0 0 1 -6.5 -9.070499 -30 1 2.5 7.5
9 0 1 0 0 0 1 0 0 0 1 -2 -7.070499 28 5.5 5.5 0.5
9 0 1 0 0 0 1 0 0 0 1 -8 -6.570499 -39.5 0.5 5 6
9 0 1 0 0 0 1 0 0 0 1 -8 -12.0705 38.5 0.5 2.5 10
9 0 1 0 0 0 1 0 0 0 1 -3 -13.5705 48 4.5 4 0.5
9 0 1 0 0 0 1 0 0 0 1 -8 -22.0705 37 0.5 1.5 11.5
9 0 1 0 0 0 1 0 0 0 1 -8 -16.0705 -3 0.5 1.5 9.5
9 0 1 0 0 0 1 0 0 0 1 -5 -9.070499 -27 0.5 2.5 4.5
9 0 1 0 0 0 1 0 0 0 1 -7 -9.070499 -41 0.5 2.5 3.5
9 0 1 0 0 0 1 0 0 0 1 -4.5 -15.0705 28 3 2.5 0.5
9 0 1 0 0 0 1 0 0 0 1 -8 -24.5705 43 0.5 1 5.5
9 0 1 0 0 0 1 0 0 0 1 5.5 -4.070499 28 2 2.5 0.5
9 0 1 0 0 0 1 0 0 0 1 -4 -8.570499 -25 0.5 2 2.5
9 0 1 0 0 0 1 0 0 0 1 -5 -19.5705 48 2.5 2 0.5
9 0 1 0 0 0 1 0 0 0 1 0 -2.570499 -10 1.5 1 1.5
9 0 1 0 0 0 1 0 0 0 1 0 -2.570499 10 1.5 1 1.5
9 0 1 0 0 0 1 0 0 0 1 -6.5 -12.0705 -27 1 0.5 4.5
9 0 1 0 0 0 1 0 0 0 1 3.5 -11.5705 48 2 2 0.5
9 0 1 0 0 0 1 0 0 0 1 -8 -18.5705 3 0.5 1 3.5
9 0 1 0 0 0 1 0 0 0 1 -8 -15.0705 -19 0.5 0.5 6.5
9 0 1 0 0 0 1 0 0 0 1 -8 -21.0705 19 0.5 0.5 6.5
9 0 1 0 0 0 1 0 0 0 1 -8 -12.0705 -38.5 0.5 0.5 5
9 0 1 0 0 0 1 0 0 0 1 -2 -6.070499 10 0.5 4.5 0.5
9 0 1 0 0 0 1 0 0 0 1 -7 -13.0705 -27 0.5 0.5 4.5
9 0 1 0 0 0 1 0 0 0 1 -6 -19.0705 28 1.5 1.5 0.5
9 0 1 0 0 0 1 0 0 0 1 5 -8.570499 27.5 0.5 2 1
9 0 1 0 0 0 1 0 0 0 1 -5 -8.570499 -32.5 0.5 2 1
9 0 1 0 0 0 1 0 0 0 1 -6 -8.570499 -38.5 0.5 2 1
9 0 1 0 0 0 1 0 0 0 1 -1 -7.070499 11 0.5 3.5 0.5
9 0 1 0 0 0 1 0 0 0 1 0 -13.5705 28 1.5 1 0.5
9 0 1 0 0 0 1 0 0 0 1 -7 -12.0705 -34.5 0.5 0.5 3
9 0 1 0 0 0 1 0 0 0 1 -6 -22.5705 48 1.5 1 0.5
9 0 1 0 0 0 1 0 0 0 1 -8 -16.0705 -15.5 0.5 0.5 3
9 0 1 0 0 0 1 0 0 0 1 -8 -18.0705 -3.5 0.5 0.5 3
9 0 1 0 0 0 1 0 0 0 1 -8 -22.0705 22.5 0.5 0.5 3
9 0 1 0 0 0 1 0 0 0 1 -8 -24.0705 34.5 0.5 0.5 3
9 0 1 0 0 0 1 0 0 0 1 4 -9.070499 28 0.5 2.5 0.5
9 0 1 0 0 0 1 0 0 0 1 6.5 -10.5705 48 1 1 0.5
9 0 1 0 0 0 1 0 0 0 1 2.5 -14.5705 48 1 1 0.5
9 0 1 0 0 0 1 0 0 0 1 -1.5 -18.5705 48 1 1 0.5
9 0 1 0 0 0 1 0 0 0 1 -7 -25.0705 46.5 0.5 0.5 2
9 0 1 0 0 0 1 0 0 0 1 -8 -13.0705 -35.5 0.5 0.5 2
9 0 1 0 0 0 1 0 0 0 1 -8 -26.0705 46.5 0.5 0.5 2
9 0 1 0 0 0 1 0 0 0 1 8 -10.0705 47 0.5 0.5 1.5
9 0 1 0 0 0 1 0 0 0 1 -4 -11.0705 -24 0.5 0.5 1.5
9 0 1 0 0 0 1 0 0 0 1 -5 -12.0705 -24 0.5 0.5 1.5
9 0 1 0 0 0 1 0 0 0 1 -7 -14.0705 -24 0.5 0.5 1.5
9 0 1 0 0 0 1 0 0 0 1 -7 -15.0705 -17 0.5 0.5 1.5
9 0 1 0 0 0 1 0 0 0 1 -7 -16.0705 -11 0.5 0.5 1.5
9 0 1 0 0 0 1 0 0 0 1 -7 -18.0705 2 0.5 0.5 1.5
9 0 1 0 0 0 1 0 0 0 1 -7 -19.0705 8 0.5 0.5 1.5
9 0 1 0 0 0 1 0 0 0 1 -7 -20.0705 14 0.5 0.5 1.5
9 0 1 0 0 0 1 0 0 0 1 -7 -22.0705 27 0.5 0.5 1.5
