9 0 1 0 0 0 1 0 0 0 1 5.499757 4.499757 6 1 1 0.5
9 0 1 0 0 0 1 0 0 0 1 5.499757 -4.000243 5.5 1 0.5 1
9 0 1 0 0 0 1 0 0 0 1 4.499757 -5.000243 5.5 1 0.5 1
9 0 1 0 0 0 1 0 0 0 1 -4.000243 5.499757 5.5 0.5 1 1
9 0 1 0 0 0 1 0 0 0 1 -4.000243 -5.500243 5.5 0.5 1 1
9 0 1 0 0 0 1 0 0 0 1 -5.000243 4.499757 5.5 0.5 1 1
9 0 1 0 0 0 1 0 0 0 1 -5.000243 -4.500243 5.5 0.5 1 1
9 0 1 0 0 0 1 0 0 0 1 7.999757 -0.000243187 6 0.5 1.5 0.5
9 0 1 0 0 0 1 0 0 0 1 -0.000243187 7.999757 6 1.5 0.5 0.5
9 0 1 0 0 0 1 0 0 0 1 -0.000243187 -8.000243 6 1.5 0.5 0.5
9 0 1 0 0 0 1 0 0 0 1 -8.000243 -0.000243187 6 0.5 1.5 0.5
