9 0 1 0 0 0 1 0 0 0 1 0 12.5 0 7.5 2 2.5
9 0 1 0 0 0 1 0 0 0 1 0 -12.5 0 7.5 2 2.5
9 0 1 0 0 0 1 0 0 0 1 -12.5 0 0 2 7.5 2.5
9 0 1 0 0 0 1 0 0 0 1 13.5 0 0 2 4.5 3.5
9 0 1 0 0 0 1 0 0 0 1 0 0 0 3.5 2.5 3.5
9 0 1 0 0 0 1 0 0 0 1 11 -2 0 0.5 9.5 2.5
9 0 1 0 0 0 1 0 0 0 1 -9.5 9.5 0 2 2 2.5
9 0 1 0 0 0 1 0 0 0 1 -9.5 -9.5 0 2 2 2.5
9 0 1 0 0 0 1 0 0 0 1 9 -10 0 1.5 2.5 2.5
9 0 1 0 0 0 1 0 0 0 1 9.5 9.5 0.5 2 2 2
9 0 1 0 0 0 1 0 0 0 1 0 15 0 4.5 0.5 3.5
9 0 1 0 0 0 1 0 0 0 1 -15 0 0 0.5 4.5 3.5
9 0 1 0 0 0 1 0 0 0 1 12.5 -6.5 0 1 2 3.5
9 0 1 0 0 0 1 0 0 0 1 0 -15 0 5.5 0.5 2.5
9 0 1 0 0 0 1 0 0 0 1 12.5 6.5 1 1 2 2.5
9 0 1 0 0 0 1 0 0 0 1 0 13 -3 6.5 1.5 0.5
9 0 1 0 0 0 1 0 0 0 1 0 13 3 6.5 1.5 0.5
9 0 1 0 0 0 1 0 0 0 1 0 -13 -3 6.5 1.5 0.5
9 0 1 0 0 0 1 0 0 0 1 0 -13 3 6.5 1.5 0.5
9 0 1 0 0 0 1 0 0 0 1 -13 0 -3 1.5 6.5 0.5
9 0 1 0 0 0 1 0 0 0 1 -13 0 3 1.5 6.5 0.5
9 0 1 0 0 0 1 0 0 0 1 0 3 0 2.5 0.5 3.5
9 0 1 0 0 0 1 0 0 0 1 0 -3 0 2.5 0.5 3.5
9 0 1 0 0 0 1 0 0 0 1 10 9 -2.5 1.5 1.5 1
9 0 1 0 0 0 1 0 0 0 1 12.5 6.5 -2.5 1 2 1
9 0 1 0 0 0 1 0 0 0 1 16 0 0 0.5 2.5 1.5
9 0 1 0 0 0 1 0 0 0 1 14 6 0 0.5 1.5 2.5
9 0 1 0 0 0 1 0 0 0 1 14 -6 0 0.5 1.5 2.5
9 0 1 0 0 0 1 0 0 0 1 10 6 0 0.5 1.5 2.5
9 0 1 0 0 0 1 0 0 0 1 9 12 0 1.5 0.5 2.5
9 0 1 0 0 0 1 0 0 0 1 6 -10 0 1.5 0.5 2.5
9 0 1 0 0 0 1 0 0 0 1 0 16 0 2.5 0.5 1.5
9 0 1 0 0 0 1 0 0 0 1 0 -16 0 2.5 0.5 1.5
9 0 1 0 0 0 1 0 0 0 1 -6 10 0 1.5 0.5 2.5
9 0 1 0 0 0 1 0 0 0 1 -9 12 0 1.5 0.5 2.5
9 0 1 0 0 0 1 0 0 0 1 -10 -6 0 0.5 1.5 2.5
9 0 1 0 0 0 1 0 0 0 1 -9 -12 0 1.5 0.5 2.5
9 0 1 0 0 0 1 0 0 0 1 -12 9 0 0.5 1.5 2.5
9 0 1 0 0 0 1 0 0 0 1 -12 -9 0 0.5 1.5 2.5
9 0 1 0 0 0 1 0 0 0 1 -16 0 0 0.5 2.5 1.5
9 0 1 0 0 0 1 0 0 0 1 12 9.5 0 0.5 1 2.5
9 0 1 0 0 0 1 0 0 0 1 12 -9.5 0 0.5 1 2.5
9 0 1 0 0 0 1 0 0 0 1 9.5 -7 0 1 0.5 2.5
9 0 1 0 0 0 1 0 0 0 1 7 9.5 0 0.5 1 2.5
9 0 1 0 0 0 1 0 0 0 1 -9.5 7 0 1 0.5 2.5
9 0 1 0 0 0 1 0 0 0 1 10 9 3 1.5 1.5 0.5
9 0 1 0 0 0 1 0 0 0 1 10 -9 -3 1.5 1.5 0.5
9 0 1 0 0 0 1 0 0 0 1 10 -9 3 1.5 1.5 0.5
9 0 1 0 0 0 1 0 0 0 1 0 -15 -3 4.5 0.5 0.5
9 0 1 0 0 0 1 0 0 0 1 0 -15 3 4.5 0.5 0.5
9 0 1 0 0 0 1 0 0 0 1 -6 -10 0 1.5 0.5 1.5
9 0 1 0 0 0 1 0 0 0 1 -8 11 -3 1.5 1.5 0.5
9 0 1 0 0 0 1 0 0 0 1 -8 11 3 1.5 1.5 0.5
9 0 1 0 0 0 1 0 0 0 1 -9 -10 -3 1.5 1.5 0.5
9 0 1 0 0 0 1 0 0 0 1 -9 -10 3 1.5 1.5 0.5
9 0 1 0 0 0 1 0 0 0 1 -11 8 -3 1.5 1.5 0.5
9 0 1 0 0 0 1 0 0 0 1 -11 8 3 1.5 1.5 0.5
9 0 1 0 0 0 1 0 0 0 1 4 0 0 0.5 0.5 3.5
9 0 1 0 0 0 1 0 0 0 1 0 4 0 0.5 0.5 3.5
9 0 1 0 0 0 1 0 0 0 1 0 -4 0 0.5 0.5 3.5
9 0 1 0 0 0 1 0 0 0 1 -4 0 0 0.5 0.5 3.5
9 0 1 0 0 0 1 0 0 0 1 -8 13 0 0.5 0.5 3.5
9 0 1 0 0 0 1 0 0 0 1 -8 -13 0 0.5 0.5 3.5
9 0 1 0 0 0 1 0 0 0 1 -13 -8 0 0.5 0.5 3.5
9 0 1 0 0 0 1 0 0 0 1 10 -5.5 0 0.5 1 1.5
9 0 1 0 0 0 1 0 0 0 1 8.5 13 0 1 0.5 1.5
9 0 1 0 0 0 1 0 0 0 1 9 11 -2.5 1.5 0.5 1
9 0 1 0 0 0 1 0 0 0 1 8.5 -13 0 1 0.5 1.5
9 0 1 0 0 0 1 0 0 0 1 8 11.5 3 1.5 1 0.5
9 0 1 0 0 0 1 0 0 0 1 8 -11.5 -3 1.5 1 0.5
9 0 1 0 0 0 1 0 0 0 1 8 -11.5 3 1.5 1 0.5
9 0 1 0 0 0 1 0 0 0 1 5.5 10 0 1 0.5 1.5
9 0 1 0 0 0 1 0 0 0 1 -10 5.5 0 0.5 1 1.5
9 0 1 0 0 0 1 0 0 0 1 -11 -7.5 -3 0.5 3 0.5
9 0 1 0 0 0 1 0 0 0 1 -11 -7.5 3 0.5 3 0.5
9 0 1 0 0 0 1 0 0 0 1 -13 8.5 0 0.5 1 1.5
9 0 1 0 0 0 1 0 0 0 1 15 5 0 0.5 0.5 2.5
9 0 1 0 0 0 1 0 0 0 1 15 -5 0 0.5 0.5 2.5
9 0 1 0 0 0 1 0 0 0 1 9 7 0 0.5 0.5 2.5
9 0 1 0 0 0 1 0 0 0 1 7 -9 0 0.5 0.5 2.5
9 0 1 0 0 0 1 0 0 0 1 5 15 0 0.5 0.5 2.5
9 0 1 0 0 0 1 0 0 0 1 -5 15 0 0.5 0.5 2.5
9 0 1 0 0 0 1 0 0 0 1 -7 9 0 0.5 0.5 2.5
9 0 1 0 0 0 1 0 0 0 1 -7 -9 0 0.5 0.5 2.5
9 0 1 0 0 0 1 0 0 0 1 -9 -7 0 0.5 0.5 2.5
9 0 1 0 0 0 1 0 0 0 1 -15 5 0 0.5 0.5 2.5
9 0 1 0 0 0 1 0 0 0 1 -15 -5 0 0.5 0.5 2.5
9 0 1 0 0 0 1 0 0 0 1 8 9.5 -2.5 0.5 1 1
9 0 1 0 0 0 1 0 0 0 1 7.5 12.5 -3 1 1 0.5
9 0 1 0 0 0 1 0 0 0 1 16 0 -2 0.5 1.5 0.5
9 0 1 0 0 0 1 0 0 0 1 16 0 2 0.5 1.5 0.5
9 0 1 0 0 0 1 0 0 0 1 13 9 0 0.5 0.5 1.5
9 0 1 0 0 0 1 0 0 0 1 13 -9 0 0.5 0.5 1.5
9 0 1 0 0 0 1 0 0 0 1 11 6 -3 0.5 1.5 0.5
9 0 1 0 0 0 1 0 0 0 1 11 6 3 0.5 1.5 0.5
9 0 1 0 0 0 1 0 0 0 1 11 -6 -3 0.5 1.5 0.5
9 0 1 0 0 0 1 0 0 0 1 11 -6 3 0.5 1.5 0.5
9 0 1 0 0 0 1 0 0 0 1 6 11 -3 1.5 0.5 0.5
9 0 1 0 0 0 1 0 0 0 1 0 16 -2 1.5 0.5 0.5
9 0 1 0 0 0 1 0 0 0 1 0 16 2 1.5 0.5 0.5
9 0 1 0 0 0 1 0 0 0 1 0 -16 -2 1.5 0.5 0.5
9 0 1 0 0 0 1 0 0 0 1 0 -16 2 1.5 0.5 0.5
9 0 1 0 0 0 1 0 0 0 1 -6 -11 -3 1.5 0.5 0.5
9 0 1 0 0 0 1 0 0 0 1 -6 -11 3 1.5 0.5 0.5
9 0 1 0 0 0 1 0 0 0 1 -9 13 0 0.5 0.5 1.5
9 0 1 0 0 0 1 0 0 0 1 -8 -12 -3 1.5 0.5 0.5
9 0 1 0 0 0 1 0 0 0 1 -8 -12 3 1.5 0.5 0.5
9 0 1 0 0 0 1 0 0 0 1 -9 -13 0 0.5 0.5 1.5
9 0 1 0 0 0 1 0 0 0 1 -12 -8 -3 0.5 1.5 0.5
9 0 1 0 0 0 1 0 0 0 1 -12 -8 3 0.5 1.5 0.5
9 0 1 0 0 0 1 0 0 0 1 -13 -9 0 0.5 0.5 1.5
9 0 1 0 0 0 1 0 0 0 1 -16 0 -2 0.5 1.5 0.5
9 0 1 0 0 0 1 0 0 0 1 -16 0 2 0.5 1.5 0.5
