9 0 1 0 0 0 1 0 0 0 1 287.5 69.5 0 1 4 25.5
9 0 1 0 0 0 1 0 0 0 1 12.5 -2.5 0 1 4 25.5
9 0 1 0 0 0 1 0 0 0 1 300 74 0 8.5 0.5 18.5
9 0 1 0 0 0 1 0 0 0 1 0 2 0 8.5 0.5 18.5
9 0 1 0 0 0 1 0 0 0 1 150 30.5 2.5 1.5 2 13
9 0 1 0 0 0 1 0 0 0 1 245 60 0 1.5 1.5 15.5
9 0 1 0 0 0 1 0 0 0 1 196 48 0 1.5 1.5 15.5
9 0 1 0 0 0 1 0 0 0 1 56 0 0 1.5 1.5 15.5
9 0 1 0 0 0 1 0 0 0 1 104 12 1 1.5 1.5 14.5
9 0 1 0 0 0 1 0 0 0 1 270 64 -24 13.5 1.5 1.5
9 0 1 0 0 0 1 0 0 0 1 270 64 24 13.5 1.5 1.5
9 0 1 0 0 0 1 0 0 0 1 28.5 -3.5 -24 10 2 1.5
9 0 1 0 0 0 1 0 0 0 1 28.5 -3.5 24 10 2 1.5
9 0 1 0 0 0 1 0 0 0 1 296.5 58 -30 12 1.5 1.5
9 0 1 0 0 0 1 0 0 0 1 297 58 30 11.5 1.5 1.5
9 0 1 0 0 0 1 0 0 0 1 15.5 -12.5 30 15 1 1.5
9 0 1 0 0 0 1 0 0 0 1 16 -12.5 -30 14.5 1 1.5
9 0 1 0 0 0 1 0 0 0 1 253.5 61.5 -24.5 10 1 2
9 0 1 0 0 0 1 0 0 0 1 253.5 61.5 24.5 10 1 2
9 0 1 0 0 0 1 0 0 0 1 8 4.5 0 0.5 2 19.5
9 0 1 0 0 0 1 0 0 0 1 292 76.5 0.5 0.5 2 19
9 0 1 0 0 0 1 0 0 0 1 308 76.5 0 0.5 2 18.5
9 0 1 0 0 0 1 0 0 0 1 -8 4.5 0 0.5 2 18.5
9 0 1 0 0 0 1 0 0 0 1 52.5 0 -24 8 1.5 1.5
9 0 1 0 0 0 1 0 0 0 1 52.5 0 24 8 1.5 1.5
9 0 1 0 0 0 1 0 0 0 1 241.5 59.5 -24.5 8 1 2
9 0 1 0 0 0 1 0 0 0 1 241.5 59.5 24.5 8 1 2
9 0 1 0 0 0 1 0 0 0 1 225.5 57 -24 7 1.5 1.5
9 0 1 0 0 0 1 0 0 0 1 225.5 57 24 7 1.5 1.5
9 0 1 0 0 0 1 0 0 0 1 298.5 70.5 -25 10 3 0.5
9 0 1 0 0 0 1 0 0 0 1 298.5 70.5 25 10 3 0.5
9 0 1 0 0 0 1 0 0 0 1 1.5 -1.5 -25 10 3 0.5
9 0 1 0 0 0 1 0 0 0 1 1.5 -1.5 25 10 3 0.5
9 0 1 0 0 0 1 0 0 0 1 68 3 24 6.5 1.5 1.5
9 0 1 0 0 0 1 0 0 0 1 273.5 56.5 30 9 1 1.5
9 0 1 0 0 0 1 0 0 0 1 67.5 3 -24 6 1.5 1.5
9 0 1 0 0 0 1 0 0 0 1 267 55.5 -30 8.5 1 1.5
9 0 1 0 0 0 1 0 0 0 1 84 7 -24 5.5 1.5 1.5
9 0 1 0 0 0 1 0 0 0 1 84 7 24 5.5 1.5 1.5
9 0 1 0 0 0 1 0 0 0 1 276.5 57.5 -29 8 1 1.5
9 0 1 0 0 0 1 0 0 0 1 37.5 -10.5 -30 8 1 1.5
9 0 1 0 0 0 1 0 0 0 1 35 -10.5 29.5 11.5 1 1
9 0 1 0 0 0 1 0 0 0 1 259 54.5 30 7.5 1 1.5
9 0 1 0 0 0 1 0 0 0 1 213.5 54 24 5 1.5 1.5
9 0 1 0 0 0 1 0 0 0 1 209.5 53 -24 5 1.5 1.5
9 0 1 0 0 0 1 0 0 0 1 202.5 51 24 5 1.5 1.5
9 0 1 0 0 0 1 0 0 0 1 199.5 50 -24 5 1.5 1.5
9 0 1 0 0 0 1 0 0 0 1 192.5 48 24 5 1.5 1.5
9 0 1 0 0 0 1 0 0 0 1 94.5 10 -24 5 1.5 1.5
9 0 1 0 0 0 1 0 0 0 1 94.5 10 24 5 1.5 1.5
9 0 1 0 0 0 1 0 0 0 1 44 -2.5 -24.5 5.5 1 2
9 0 1 0 0 0 1 0 0 0 1 44 -2.5 24.5 5.5 1 2
9 0 1 0 0 0 1 0 0 0 1 6 -14 -30 14.5 0.5 1.5
9 0 1 0 0 0 1 0 0 0 1 6 -14 30 14.5 0.5 1.5
9 0 1 0 0 0 1 0 0 0 1 294.5 62 27 14 1.5 0.5
9 0 1 0 0 0 1 0 0 0 1 189 47 -24 4.5 1.5 1.5
9 0 1 0 0 0 1 0 0 0 1 295.5 62 -27 13 1.5 0.5
9 0 1 0 0 0 1 0 0 0 1 252 53.5 -30 6.5 1 1.5
9 0 1 0 0 0 1 0 0 0 1 290.5 65.5 -26 18 1 0.5
9 0 1 0 0 0 1 0 0 0 1 244.5 52.5 30 6 1 1.5
9 0 1 0 0 0 1 0 0 0 1 183.5 45 24 4 1.5 1.5
9 0 1 0 0 0 1 0 0 0 1 180.5 44 -24 4 1.5 1.5
9 0 1 0 0 0 1 0 0 0 1 175.5 42 24 4 1.5 1.5
9 0 1 0 0 0 1 0 0 0 1 165.5 38 -24 4 1.5 1.5
9 0 1 0 0 0 1 0 0 0 1 122.5 20 -24 4 1.5 1.5
9 0 1 0 0 0 1 0 0 0 1 122.5 20 24 4 1.5 1.5
9 0 1 0 0 0 1 0 0 0 1 114.5 17 -24 4 1.5 1.5
9 0 1 0 0 0 1 0 0 0 1 114.5 17 24 4 1.5 1.5
9 0 1 0 0 0 1 0 0 0 1 106.5 14 -24 4 1.5 1.5
9 0 1 0 0 0 1 0 0 0 1 106.5 14 24 4 1.5 1.5
9 0 1 0 0 0 1 0 0 0 1 50.5 -8.5 -30 6 1 1.5
9 0 1 0 0 0 1 0 0 0 1 297.5 66 26 11 1.5 0.5
9 0 1 0 0 0 1 0 0 0 1 297.5 59 -28 11 1.5 0.5
9 0 1 0 0 0 1 0 0 0 1 297.5 59 28 11 1.5 0.5
9 0 1 0 0 0 1 0 0 0 1 240 51.5 -30 5.5 1 1.5
9 0 1 0 0 0 1 0 0 0 1 62 -6.5 -30 5.5 1 1.5
9 0 1 0 0 0 1 0 0 0 1 62 -6.5 30 5.5 1 1.5
9 0 1 0 0 0 1 0 0 0 1 51 -8.5 30 5.5 1 1.5
9 0 1 0 0 0 1 0 0 0 1 2.5 -6 -26 11 1.5 0.5
9 0 1 0 0 0 1 0 0 0 1 2.5 -6 26 11 1.5 0.5
9 0 1 0 0 0 1 0 0 0 1 218.5 54.5 -24.5 4 1 2
9 0 1 0 0 0 1 0 0 0 1 77.5 4.5 -24.5 4 1 2
9 0 1 0 0 0 1 0 0 0 1 173 41 -24 3.5 1.5 1.5
9 0 1 0 0 0 1 0 0 0 1 168 39 24 3.5 1.5 1.5
9 0 1 0 0 0 1 0 0 0 1 160 36 24 3.5 1.5 1.5
9 0 1 0 0 0 1 0 0 0 1 158 35 -24 3.5 1.5 1.5
9 0 1 0 0 0 1 0 0 0 1 153 33 24 3.5 1.5 1.5
9 0 1 0 0 0 1 0 0 0 1 148 31 -24 3.5 1.5 1.5
9 0 1 0 0 0 1 0 0 0 1 146 30 24 3.5 1.5 1.5
9 0 1 0 0 0 1 0 0 0 1 139 27 -24 3.5 1.5 1.5
9 0 1 0 0 0 1 0 0 0 1 139 27 24 3.5 1.5 1.5
9 0 1 0 0 0 1 0 0 0 1 132 24 -24 3.5 1.5 1.5
9 0 1 0 0 0 1 0 0 0 1 132 24 24 3.5 1.5 1.5
9 0 1 0 0 0 1 0 0 0 1 272 63.5 -26 15.5 1 0.5
9 0 1 0 0 0 1 0 0 0 1 244.5 62 0 1 0.5 15.5
9 0 1 0 0 0 1 0 0 0 1 243 60.5 0 0.5 1 15.5
9 0 1 0 0 0 1 0 0 0 1 300 76.5 -18 7.5 2 0.5
9 0 1 0 0 0 1 0 0 0 1 300 76.5 18 7.5 2 0.5
9 0 1 0 0 0 1 0 0 0 1 278.5 66.5 -24 5 1 1.5
9 0 1 0 0 0 1 0 0 0 1 278.5 66.5 24 5 1 1.5
9 0 1 0 0 0 1 0 0 0 1 271.5 63.5 26 15 1 0.5
9 0 1 0 0 0 1 0 0 0 1 234.5 50.5 30 5 1 1.5
9 0 1 0 0 0 1 0 0 0 1 224.5 48.5 -30 5 1 1.5
9 0 1 0 0 0 1 0 0 0 1 150 30.5 -13 1.5 2 2.5
9 0 1 0 0 0 1 0 0 0 1 19.5 -11 -29 10 0.5 1.5
9 0 1 0 0 0 1 0 0 0 1 0 4.5 -18 7.5 2 0.5
9 0 1 0 0 0 1 0 0 0 1 0 4.5 18 7.5 2 0.5
9 0 1 0 0 0 1 0 0 0 1 -3.5 -12.5 -29 5 1 1.5
9 0 1 0 0 0 1 0 0 0 1 76 5 24 9.5 0.5 1.5
9 0 1 0 0 0 1 0 0 0 1 5.5 -12.5 28 14 1 0.5
9 0 1 0 0 0 1 0 0 0 1 224 48.5 30 4.5 1 1.5
9 0 1 0 0 0 1 0 0 0 1 5 -9.5 27 13.5 1 0.5
9 0 1 0 0 0 1 0 0 0 1 4.5 -9.5 -27 13 1 0.5
9 0 1 0 0 0 1 0 0 0 1 277 58 29 8.5 0.5 1.5
9 0 1 0 0 0 1 0 0 0 1 269.5 62 -24.5 6 0.5 2
9 0 1 0 0 0 1 0 0 0 1 269.5 62 24.5 6 0.5 2
9 0 1 0 0 0 1 0 0 0 1 152 30.5 1.5 0.5 1 12
9 0 1 0 0 0 1 0 0 0 1 148 30.5 -1.5 0.5 1 12
9 0 1 0 0 0 1 0 0 0 1 79.5 -2.5 -30 4 1 1.5
9 0 1 0 0 0 1 0 0 0 1 79.5 -2.5 30 4 1 1.5
9 0 1 0 0 0 1 0 0 0 1 71.5 -4.5 -30 4 1 1.5
9 0 1 0 0 0 1 0 0 0 1 36.5 -1 -24 8 0.5 1.5
9 0 1 0 0 0 1 0 0 0 1 36.5 -1 24 8 0.5 1.5
9 0 1 0 0 0 1 0 0 0 1 232 50 -30 7.5 0.5 1.5
9 0 1 0 0 0 1 0 0 0 1 102 12 -24.5 5.5 0.5 2
9 0 1 0 0 0 1 0 0 0 1 70 -4.5 29.5 5.5 1 1
9 0 1 0 0 0 1 0 0 0 1 253 63.5 -24 3.5 1 1.5
9 0 1 0 0 0 1 0 0 0 1 253 63.5 24 3.5 1 1.5
9 0 1 0 0 0 1 0 0 0 1 216 46.5 -30 3.5 1 1.5
9 0 1 0 0 0 1 0 0 0 1 216 46.5 30 3.5 1 1.5
9 0 1 0 0 0 1 0 0 0 1 199 41.5 -30 3.5 1 1.5
9 0 1 0 0 0 1 0 0 0 1 199 41.5 30 3.5 1 1.5
9 0 1 0 0 0 1 0 0 0 1 95 1.5 -30 3.5 1 1.5
9 0 1 0 0 0 1 0 0 0 1 95 1.5 30 3.5 1 1.5
9 0 1 0 0 0 1 0 0 0 1 87 -0.5 -30 3.5 1 1.5
9 0 1 0 0 0 1 0 0 0 1 87 -0.5 30 3.5 1 1.5
9 0 1 0 0 0 1 0 0 0 1 272.5 60.5 -27 10 1 0.5
9 0 1 0 0 0 1 0 0 0 1 237.5 58 -24.5 5 0.5 2
9 0 1 0 0 0 1 0 0 0 1 237.5 58 24.5 5 0.5 2
9 0 1 0 0 0 1 0 0 0 1 154 32.5 -24.5 2.5 1 2
9 0 1 0 0 0 1 0 0 0 1 102 11.5 24.5 2.5 1 2
9 0 1 0 0 0 1 0 0 0 1 65.5 1 -24.5 5 0.5 2
9 0 1 0 0 0 1 0 0 0 1 65.5 1 24.5 5 0.5 2
9 0 1 0 0 0 1 0 0 0 1 21.5 -6 -24.5 5 0.5 2
9 0 1 0 0 0 1 0 0 0 1 21.5 -6 24.5 5 0.5 2
9 0 1 0 0 0 1 0 0 0 1 196 46 0 0.5 0.5 19.5
9 0 1 0 0 0 1 0 0 0 1 104 10 0 0.5 0.5 19.5
9 0 1 0 0 0 1 0 0 0 1 56 -2 0 0.5 0.5 19.5
9 0 1 0 0 0 1 0 0 0 1 32 -4 26 6.5 1.5 0.5
9 0 1 0 0 0 1 0 0 0 1 17 -11 29 6.5 0.5 1.5
9 0 1 0 0 0 1 0 0 0 1 11 -12.5 -28 9.5 1 0.5
9 0 1 0 0 0 1 0 0 0 1 271.5 60.5 27 9 1 0.5
9 0 1 0 0 0 1 0 0 0 1 252.5 55 -29 6 0.5 1.5
9 0 1 0 0 0 1 0 0 0 1 223 55 24.5 4.5 0.5 2
9 0 1 0 0 0 1 0 0 0 1 209.5 44.5 -30 3 1 1.5
9 0 1 0 0 0 1 0 0 0 1 209.5 44.5 30 3 1 1.5
9 0 1 0 0 0 1 0 0 0 1 192.5 39.5 -30 3 1 1.5
9 0 1 0 0 0 1 0 0 0 1 192.5 39.5 30 3 1 1.5
9 0 1 0 0 0 1 0 0 0 1 129 22 24.5 4.5 0.5 2
9 0 1 0 0 0 1 0 0 0 1 127.5 22 -24 6 0.5 1.5
9 0 1 0 0 0 1 0 0 0 1 58.5 2.5 -24 3 1 1.5
9 0 1 0 0 0 1 0 0 0 1 58.5 2.5 24 3 1 1.5
9 0 1 0 0 0 1 0 0 0 1 39.5 -9 29 6 0.5 1.5
9 0 1 0 0 0 1 0 0 0 1 29.5 -4.5 -26 9 1 0.5
9 0 1 0 0 0 1 0 0 0 1 -4 -12.5 29.5 4.5 1 1
9 0 1 0 0 0 1 0 0 0 1 300 70 -10 3.5 0.5 2.5
9 0 1 0 0 0 1 0 0 0 1 300 70 10 3.5 0.5 2.5
9 0 1 0 0 0 1 0 0 0 1 0 -2 -10 3.5 0.5 2.5
9 0 1 0 0 0 1 0 0 0 1 0 -2 10 3.5 0.5 2.5
9 0 1 0 0 0 1 0 0 0 1 194 48.5 -7 0.5 1 8.5
9 0 1 0 0 0 1 0 0 0 1 292 56 -30 16.5 0.5 0.5
9 0 1 0 0 0 1 0 0 0 1 259 56 29 5.5 0.5 1.5
9 0 1 0 0 0 1 0 0 0 1 144 29 -24 5.5 0.5 1.5
9 0 1 0 0 0 1 0 0 0 1 39 -9 -29 5.5 0.5 1.5
9 0 1 0 0 0 1 0 0 0 1 195.5 47.5 -24.5 2 1 2
9 0 1 0 0 0 1 0 0 0 1 100.5 3.5 29.5 4 1 1
9 0 1 0 0 0 1 0 0 0 1 52.5 -0.5 -26 8 1 0.5
9 0 1 0 0 0 1 0 0 0 1 52.5 -0.5 26 8 1 0.5
9 0 1 0 0 0 1 0 0 0 1 30.5 -7.5 27 8 1 0.5
9 0 1 0 0 0 1 0 0 0 1 196 50 0 0.5 0.5 15.5
9 0 1 0 0 0 1 0 0 0 1 106 12 0 0.5 0.5 15.5
9 0 1 0 0 0 1 0 0 0 1 104 14 0 0.5 0.5 15.5
9 0 1 0 0 0 1 0 0 0 1 102 12 0 0.5 0.5 15.5
9 0 1 0 0 0 1 0 0 0 1 58 0 0 0.5 0.5 15.5
9 0 1 0 0 0 1 0 0 0 1 56 2 0 0.5 0.5 15.5
9 0 1 0 0 0 1 0 0 0 1 54 0 0 0.5 0.5 15.5
9 0 1 0 0 0 1 0 0 0 1 268.5 66 -24 5 0.5 1.5
9 0 1 0 0 0 1 0 0 0 1 268.5 66 24 5 0.5 1.5
9 0 1 0 0 0 1 0 0 0 1 249 54.5 29 2.5 1 1.5
9 0 1 0 0 0 1 0 0 0 1 241 61.5 -24 2.5 1 1.5
9 0 1 0 0 0 1 0 0 0 1 241 61.5 24 2.5 1 1.5
9 0 1 0 0 0 1 0 0 0 1 231 59.5 -24 2.5 1 1.5
9 0 1 0 0 0 1 0 0 0 1 231 59.5 24 2.5 1 1.5
9 0 1 0 0 0 1 0 0 0 1 203 43.5 -29 2.5 1 1.5
9 0 1 0 0 0 1 0 0 0 1 186 37.5 30 2.5 1 1.5
9 0 1 0 0 0 1 0 0 0 1 179 34.5 -30 2.5 1 1.5
9 0 1 0 0 0 1 0 0 0 1 179 34.5 30 2.5 1 1.5
9 0 1 0 0 0 1 0 0 0 1 171 31.5 30 2.5 1 1.5
9 0 1 0 0 0 1 0 0 0 1 169 30.5 -30 2.5 1 1.5
9 0 1 0 0 0 1 0 0 0 1 166 29.5 30 2.5 1 1.5
9 0 1 0 0 0 1 0 0 0 1 163 28.5 -30 2.5 1 1.5
9 0 1 0 0 0 1 0 0 0 1 161 27.5 30 2.5 1 1.5
9 0 1 0 0 0 1 0 0 0 1 151 23.5 -30 2.5 1 1.5
9 0 1 0 0 0 1 0 0 0 1 142 19.5 -30 2.5 1 1.5
9 0 1 0 0 0 1 0 0 0 1 135 16.5 30 2.5 1 1.5
9 0 1 0 0 0 1 0 0 0 1 126 12.5 -30 2.5 1 1.5
9 0 1 0 0 0 1 0 0 0 1 123 11.5 30 2.5 1 1.5
9 0 1 0 0 0 1 0 0 0 1 121 10.5 -30 2.5 1 1.5
9 0 1 0 0 0 1 0 0 0 1 118 9.5 30 2.5 1 1.5
9 0 1 0 0 0 1 0 0 0 1 115 8.5 -30 2.5 1 1.5
9 0 1 0 0 0 1 0 0 0 1 112 7.5 30 2.5 1 1.5
9 0 1 0 0 0 1 0 0 0 1 110 6.5 -30 2.5 1 1.5
9 0 1 0 0 0 1 0 0 0 1 107 5.5 30 2.5 1 1.5
9 0 1 0 0 0 1 0 0 0 1 104 4.5 -30 2.5 1 1.5
9 0 1 0 0 0 1 0 0 0 1 38 -10.5 31 7.5 1 0.5
9 0 1 0 0 0 1 0 0 0 1 31 -10.5 28 7.5 1 0.5
9 0 1 0 0 0 1 0 0 0 1 198 48 1 0.5 0.5 14.5
9 0 1 0 0 0 1 0 0 0 1 22 -8 -27 14.5 0.5 0.5
9 0 1 0 0 0 1 0 0 0 1 249.5 57.5 27 7 1 0.5
9 0 1 0 0 0 1 0 0 0 1 242 53 -29.5 3.5 0.5 2
9 0 1 0 0 0 1 0 0 0 1 225.5 56.5 -26 7 1 0.5
9 0 1 0 0 0 1 0 0 0 1 225.5 56.5 26 7 1 0.5
9 0 1 0 0 0 1 0 0 0 1 211 52 24.5 3.5 0.5 2
9 0 1 0 0 0 1 0 0 0 1 201 49 24.5 3.5 0.5 2
9 0 1 0 0 0 1 0 0 0 1 93 8 -24.5 3.5 0.5 2
9 0 1 0 0 0 1 0 0 0 1 93 8 24.5 3.5 0.5 2
9 0 1 0 0 0 1 0 0 0 1 78 4 24.5 3.5 0.5 2
9 0 1 0 0 0 1 0 0 0 1 280 57 -31 4.5 1.5 0.5
9 0 1 0 0 0 1 0 0 0 1 271 55 30 4.5 0.5 1.5
9 0 1 0 0 0 1 0 0 0 1 52 -7 29 4.5 0.5 1.5
9 0 1 0 0 0 1 0 0 0 1 35 -12 -30 4.5 0.5 1.5
9 0 1 0 0 0 1 0 0 0 1 35 -12 30 4.5 0.5 1.5
9 0 1 0 0 0 1 0 0 0 1 302 60 -29.5 6.5 0.5 1
9 0 1 0 0 0 1 0 0 0 1 295.5 56 30 13 0.5 0.5
9 0 1 0 0 0 1 0 0 0 1 256 58.5 -27 6.5 1 0.5
9 0 1 0 0 0 1 0 0 0 1 68 2.5 26 6.5 1 0.5
9 0 1 0 0 0 1 0 0 0 1 -2 -15 -29.5 6.5 0.5 1
9 0 1 0 0 0 1 0 0 0 1 -2 -15 30.5 6.5 0.5 1
9 0 1 0 0 0 1 0 0 0 1 33 -10 -28 12.5 0.5 0.5
9 0 1 0 0 0 1 0 0 0 1 264.5 57 -29 4 0.5 1.5
9 0 1 0 0 0 1 0 0 0 1 270.5 57 28 12 0.5 0.5
9 0 1 0 0 0 1 0 0 0 1 262.5 54 -30 4 0.5 1.5
9 0 1 0 0 0 1 0 0 0 1 254.5 53 30 4 0.5 1.5
9 0 1 0 0 0 1 0 0 0 1 252.5 60 -24.5 3 0.5 2
9 0 1 0 0 0 1 0 0 0 1 252.5 60 24.5 3 0.5 2
9 0 1 0 0 0 1 0 0 0 1 230.5 51 -29 4 0.5 1.5
9 0 1 0 0 0 1 0 0 0 1 225.5 50 29 4 0.5 1.5
9 0 1 0 0 0 1 0 0 0 1 216.5 56.5 -24 2 1 1.5
9 0 1 0 0 0 1 0 0 0 1 206.5 53.5 24 2 1 1.5
9 0 1 0 0 0 1 0 0 0 1 207.5 51 -24.5 3 0.5 2
9 0 1 0 0 0 1 0 0 0 1 204.5 43.5 30 2 1 1.5
9 0 1 0 0 0 1 0 0 0 1 190.5 46 24.5 3 0.5 2
9 0 1 0 0 0 1 0 0 0 1 187.5 45 -24.5 3 0.5 2
9 0 1 0 0 0 1 0 0 0 1 188.5 38 -30 4 0.5 1.5
9 0 1 0 0 0 1 0 0 0 1 183.5 36.5 -30 2 1 1.5
9 0 1 0 0 0 1 0 0 0 1 178 41.5 -24.5 1.5 1 2
9 0 1 0 0 0 1 0 0 0 1 173.5 32.5 -30 2 1 1.5
9 0 1 0 0 0 1 0 0 0 1 165 36.5 24.5 1.5 1 2
9 0 1 0 0 0 1 0 0 0 1 158.5 27.5 -29 2 1 1.5
9 0 1 0 0 0 1 0 0 0 1 156.5 26 29.5 2 1.5 1
9 0 1 0 0 0 1 0 0 0 1 155.5 25.5 -30 2 1 1.5
9 0 1 0 0 0 1 0 0 0 1 151.5 23.5 30 2 1 1.5
9 0 1 0 0 0 1 0 0 0 1 146.5 21.5 -30 2 1 1.5
9 0 1 0 0 0 1 0 0 0 1 146.5 21.5 30 2 1 1.5
9 0 1 0 0 0 1 0 0 0 1 142.5 20 29.5 2 1.5 1
9 0 1 0 0 0 1 0 0 0 1 137.5 17.5 -30 2 1 1.5
9 0 1 0 0 0 1 0 0 0 1 132.5 15.5 -30 2 1 1.5
9 0 1 0 0 0 1 0 0 0 1 130.5 14.5 30 2 1 1.5
9 0 1 0 0 0 1 0 0 0 1 120 17.5 -24.5 1.5 1 2
9 0 1 0 0 0 1 0 0 0 1 120 17.5 24.5 1.5 1 2
9 0 1 0 0 0 1 0 0 0 1 112 14.5 24.5 1.5 1 2
9 0 1 0 0 0 1 0 0 0 1 98.5 3.5 -29 2 1 1.5
9 0 1 0 0 0 1 0 0 0 1 67.5 2.5 -26 6 1 0.5
9 0 1 0 0 0 1 0 0 0 1 63.5 -5 -29 4 0.5 1.5
9 0 1 0 0 0 1 0 0 0 1 52.5 -2 -24.5 3 0.5 2
9 0 1 0 0 0 1 0 0 0 1 52.5 -2 24.5 3 0.5 2
9 0 1 0 0 0 1 0 0 0 1 55.5 -3.5 27 6 1 0.5
9 0 1 0 0 0 1 0 0 0 1 52.5 -7 -29 4 0.5 1.5
9 0 1 0 0 0 1 0 0 0 1 44.5 -5.5 27 6 1 0.5
9 0 1 0 0 0 1 0 0 0 1 38.5 -6.5 -27 6 1 0.5
9 0 1 0 0 0 1 0 0 0 1 263 56 -28 11.5 0.5 0.5
9 0 1 0 0 0 1 0 0 0 1 261 59 27 11.5 0.5 0.5
9 0 1 0 0 0 1 0 0 0 1 303 60 29.5 5.5 0.5 1
9 0 1 0 0 0 1 0 0 0 1 297.5 67 -26 11 0.5 0.5
9 0 1 0 0 0 1 0 0 0 1 297.5 58 32 11 0.5 0.5
9 0 1 0 0 0 1 0 0 0 1 243 56.5 -27 5.5 1 0.5
9 0 1 0 0 0 1 0 0 0 1 84 6.5 -26 5.5 1 0.5
9 0 1 0 0 0 1 0 0 0 1 84 6.5 26 5.5 1 0.5
9 0 1 0 0 0 1 0 0 0 1 55 -3.5 -27 5.5 1 0.5
9 0 1 0 0 0 1 0 0 0 1 282 59 29 3.5 0.5 1.5
9 0 1 0 0 0 1 0 0 0 1 235 52 29 3.5 0.5 1.5
9 0 1 0 0 0 1 0 0 0 1 215 56 24 3.5 0.5 1.5
9 0 1 0 0 0 1 0 0 0 1 215 54 26 3.5 1.5 0.5
9 0 1 0 0 0 1 0 0 0 1 201 52 -24 3.5 0.5 1.5
9 0 1 0 0 0 1 0 0 0 1 194 48 26 3.5 1.5 0.5
9 0 1 0 0 0 1 0 0 0 1 191 49 -24 3.5 0.5 1.5
9 0 1 0 0 0 1 0 0 0 1 86 9 -24 3.5 0.5 1.5
9 0 1 0 0 0 1 0 0 0 1 86 9 24 3.5 0.5 1.5
9 0 1 0 0 0 1 0 0 0 1 75 6 -24 3.5 0.5 1.5
9 0 1 0 0 0 1 0 0 0 1 75 6 24 3.5 0.5 1.5
9 0 1 0 0 0 1 0 0 0 1 70 5 -24 3.5 0.5 1.5
9 0 1 0 0 0 1 0 0 0 1 281.5 65.5 26 5 1 0.5
9 0 1 0 0 0 1 0 0 0 1 235 57 -24.5 2.5 0.5 2
9 0 1 0 0 0 1 0 0 0 1 235 57 24.5 2.5 0.5 2
9 0 1 0 0 0 1 0 0 0 1 228.5 53.5 27 5 1 0.5
9 0 1 0 0 0 1 0 0 0 1 225 55 -24.5 2.5 0.5 2
9 0 1 0 0 0 1 0 0 0 1 223.5 52.5 -27 5 1 0.5
9 0 1 0 0 0 1 0 0 0 1 202.5 50.5 26 5 1 0.5
9 0 1 0 0 0 1 0 0 0 1 182 43 24.5 2.5 0.5 2
9 0 1 0 0 0 1 0 0 0 1 174 40 24.5 2.5 0.5 2
9 0 1 0 0 0 1 0 0 0 1 164 36 -24.5 2.5 0.5 2
9 0 1 0 0 0 1 0 0 0 1 159 34 24.5 2.5 0.5 2
9 0 1 0 0 0 1 0 0 0 1 113 15 -24.5 2.5 0.5 2
9 0 1 0 0 0 1 0 0 0 1 102 11 -24.5 2.5 0.5 2
9 0 1 0 0 0 1 0 0 0 1 94.5 9.5 -26 5 1 0.5
9 0 1 0 0 0 1 0 0 0 1 94.5 9.5 26 5 1 0.5
9 0 1 0 0 0 1 0 0 0 1 63 0 -24.5 2.5 0.5 2
9 0 1 0 0 0 1 0 0 0 1 63 0 24.5 2.5 0.5 2
9 0 1 0 0 0 1 0 0 0 1 65.5 -1.5 27 5 1 0.5
9 0 1 0 0 0 1 0 0 0 1 41 -4 -24.5 2.5 0.5 2
9 0 1 0 0 0 1 0 0 0 1 41 -4 24.5 2.5 0.5 2
9 0 1 0 0 0 1 0 0 0 1 299.5 58 -32 9 0.5 0.5
9 0 1 0 0 0 1 0 0 0 1 248.5 52 -30 3 0.5 1.5
9 0 1 0 0 0 1 0 0 0 1 246.5 63 -24 3 0.5 1.5
9 0 1 0 0 0 1 0 0 0 1 246.5 63 24 3 0.5 1.5
9 0 1 0 0 0 1 0 0 0 1 242.5 51 30 3 0.5 1.5
9 0 1 0 0 0 1 0 0 0 1 233 54.5 -27 4.5 1 0.5
9 0 1 0 0 0 1 0 0 0 1 213 55.5 -24 1.5 1 1.5
9 0 1 0 0 0 1 0 0 0 1 196 50.5 24 1.5 1 1.5
9 0 1 0 0 0 1 0 0 0 1 186 47.5 24 1.5 1 1.5
9 0 1 0 0 0 1 0 0 0 1 189 46.5 -26 4.5 1 0.5
9 0 1 0 0 0 1 0 0 0 1 182.5 36 30 1 1.5 1.5
9 0 1 0 0 0 1 0 0 0 1 178 44.5 24 1.5 1 1.5
9 0 1 0 0 0 1 0 0 0 1 168 40.5 -24 1.5 1 1.5
9 0 1 0 0 0 1 0 0 0 1 163 38.5 24 1.5 1 1.5
9 0 1 0 0 0 1 0 0 0 1 153 34.5 -24 1.5 1 1.5
9 0 1 0 0 0 1 0 0 0 1 139 18.5 30 1.5 1 1.5
9 0 1 0 0 0 1 0 0 0 1 129 14.5 -29 1.5 1 1.5
9 0 1 0 0 0 1 0 0 0 1 127 13 29.5 1.5 1.5 1
9 0 1 0 0 0 1 0 0 0 1 104 12 -14.5 1.5 1.5 1
9 0 1 0 0 0 1 0 0 0 1 101 13.5 -24 1.5 1 1.5
9 0 1 0 0 0 1 0 0 0 1 101 13.5 24 1.5 1 1.5
9 0 1 0 0 0 1 0 0 0 1 98 12.5 24 1.5 1 1.5
9 0 1 0 0 0 1 0 0 0 1 88.5 1 -29 3 0.5 1.5
9 0 1 0 0 0 1 0 0 0 1 88.5 1 29 3 0.5 1.5
9 0 1 0 0 0 1 0 0 0 1 80.5 -1 -29 3 0.5 1.5
9 0 1 0 0 0 1 0 0 0 1 80.5 -1 29 3 0.5 1.5
9 0 1 0 0 0 1 0 0 0 1 72.5 -3 -29 3 0.5 1.5
9 0 1 0 0 0 1 0 0 0 1 65 -1.5 -27 4.5 1 0.5
9 0 1 0 0 0 1 0 0 0 1 61.5 -5 29 3 0.5 1.5
9 0 1 0 0 0 1 0 0 0 1 59.5 -8 -30 3 0.5 1.5
9 0 1 0 0 0 1 0 0 0 1 59.5 -8 30 3 0.5 1.5
9 0 1 0 0 0 1 0 0 0 1 17.5 -4 -24 1 1.5 1.5
9 0 1 0 0 0 1 0 0 0 1 17.5 -4 24 1 1.5 1.5
9 0 1 0 0 0 1 0 0 0 1 11 -13 -32 8.5 0.5 0.5
9 0 1 0 0 0 1 0 0 0 1 285.5 63.5 -24.5 2 1 1
9 0 1 0 0 0 1 0 0 0 1 285.5 63.5 24.5 2 1 1
9 0 1 0 0 0 1 0 0 0 1 237.5 55.5 27 4 1 0.5
9 0 1 0 0 0 1 0 0 0 1 220.5 54 24.5 2 0.5 2
9 0 1 0 0 0 1 0 0 0 1 220.5 48.5 -28 4 1 0.5
9 0 1 0 0 0 1 0 0 0 1 210.5 52.5 -26 4 1 0.5
9 0 1 0 0 0 1 0 0 0 1 200.5 49.5 -26 4 1 0.5
9 0 1 0 0 0 1 0 0 0 1 174.5 33.5 29.5 2 1 1
9 0 1 0 0 0 1 0 0 0 1 171.5 39 -24.5 2 0.5 2
9 0 1 0 0 0 1 0 0 0 1 151.5 31 24.5 2 0.5 2
9 0 1 0 0 0 1 0 0 0 1 144.5 28 -24.5 2 0.5 2
9 0 1 0 0 0 1 0 0 0 1 144.5 28 24.5 2 0.5 2
9 0 1 0 0 0 1 0 0 0 1 137.5 25 -24.5 2 0.5 2
9 0 1 0 0 0 1 0 0 0 1 137.5 25 24.5 2 0.5 2
9 0 1 0 0 0 1 0 0 0 1 128.5 21 -24.5 2 0.5 2
9 0 1 0 0 0 1 0 0 0 1 128.5 21 24.5 2 0.5 2
9 0 1 0 0 0 1 0 0 0 1 114.5 16.5 -26 4 1 0.5
9 0 1 0 0 0 1 0 0 0 1 106.5 13.5 -26 4 1 0.5
9 0 1 0 0 0 1 0 0 0 1 83.5 5 -24.5 2 0.5 2
9 0 1 0 0 0 1 0 0 0 1 78.5 1.5 27 4 1 0.5
9 0 1 0 0 0 1 0 0 0 1 75.5 3 -24.5 2 0.5 2
9 0 1 0 0 0 1 0 0 0 1 46.5 -5 -27 8 0.5 0.5
9 0 1 0 0 0 1 0 0 0 1 14.5 -8 27 8 0.5 0.5
9 0 1 0 0 0 1 0 0 0 1 282 59 -29 2.5 0.5 1.5
9 0 1 0 0 0 1 0 0 0 1 244 54 29 2.5 0.5 1.5
9 0 1 0 0 0 1 0 0 0 1 248 54 -28 7.5 0.5 0.5
9 0 1 0 0 0 1 0 0 0 1 243 53 28 7.5 0.5 0.5
9 0 1 0 0 0 1 0 0 0 1 236 61 -24 2.5 0.5 1.5
9 0 1 0 0 0 1 0 0 0 1 236 61 24 2.5 0.5 1.5
9 0 1 0 0 0 1 0 0 0 1 231 49 30 2.5 0.5 1.5
9 0 1 0 0 0 1 0 0 0 1 226 59 -24 2.5 0.5 1.5
9 0 1 0 0 0 1 0 0 0 1 226 59 24 2.5 0.5 1.5
9 0 1 0 0 0 1 0 0 0 1 222 47 -30 2.5 0.5 1.5
9 0 1 0 0 0 1 0 0 0 1 222 47 30 2.5 0.5 1.5
9 0 1 0 0 0 1 0 0 0 1 217 48 29 2.5 0.5 1.5
9 0 1 0 0 0 1 0 0 0 1 210 46 -29 2.5 0.5 1.5
9 0 1 0 0 0 1 0 0 0 1 210 46 29 2.5 0.5 1.5
9 0 1 0 0 0 1 0 0 0 1 200 43 29 2.5 0.5 1.5
9 0 1 0 0 0 1 0 0 0 1 193 41 -29 2.5 0.5 1.5
9 0 1 0 0 0 1 0 0 0 1 193 41 29 2.5 0.5 1.5
9 0 1 0 0 0 1 0 0 0 1 187 39 -29 2.5 0.5 1.5
9 0 1 0 0 0 1 0 0 0 1 187 39 29 2.5 0.5 1.5
9 0 1 0 0 0 1 0 0 0 1 182 46 -24 2.5 0.5 1.5
9 0 1 0 0 0 1 0 0 0 1 174 43 -24 2.5 0.5 1.5
9 0 1 0 0 0 1 0 0 0 1 169 41 24 2.5 0.5 1.5
9 0 1 0 0 0 1 0 0 0 1 159 37 -24 2.5 0.5 1.5
9 0 1 0 0 0 1 0 0 0 1 154 35 24 2.5 0.5 1.5
9 0 1 0 0 0 1 0 0 0 1 150 31 -19 1.5 2.5 0.5
9 0 1 0 0 0 1 0 0 0 1 150 31 19 1.5 2.5 0.5
9 0 1 0 0 0 1 0 0 0 1 147 32 24 2.5 0.5 1.5
9 0 1 0 0 0 1 0 0 0 1 116 19 -24 2.5 0.5 1.5
9 0 1 0 0 0 1 0 0 0 1 116 19 24 2.5 0.5 1.5
9 0 1 0 0 0 1 0 0 0 1 116 10 -29 2.5 0.5 1.5
9 0 1 0 0 0 1 0 0 0 1 113 9 29 2.5 0.5 1.5
9 0 1 0 0 0 1 0 0 0 1 108 16 -24 2.5 0.5 1.5
9 0 1 0 0 0 1 0 0 0 1 108 16 24 2.5 0.5 1.5
9 0 1 0 0 0 1 0 0 0 1 106 11 -6 0.5 0.5 7.5
9 0 1 0 0 0 1 0 0 0 1 105 6 -29 2.5 0.5 1.5
9 0 1 0 0 0 1 0 0 0 1 104 13 -19 2.5 1.5 0.5
9 0 1 0 0 0 1 0 0 0 1 104 13 19 2.5 1.5 0.5
9 0 1 0 0 0 1 0 0 0 1 73 -3 29 2.5 0.5 1.5
9 0 1 0 0 0 1 0 0 0 1 56 1 -19 2.5 1.5 0.5
9 0 1 0 0 0 1 0 0 0 1 56 1 19 2.5 1.5 0.5
9 0 1 0 0 0 1 0 0 0 1 53 2 -24 2.5 0.5 1.5
9 0 1 0 0 0 1 0 0 0 1 53 2 24 2.5 0.5 1.5
9 0 1 0 0 0 1 0 0 0 1 48 -10 -30 2.5 0.5 1.5
9 0 1 0 0 0 1 0 0 0 1 48 -8 -28 7.5 0.5 0.5
9 0 1 0 0 0 1 0 0 0 1 48 -8 28 7.5 0.5 0.5
9 0 1 0 0 0 1 0 0 0 1 42 0 -24 2.5 0.5 1.5
9 0 1 0 0 0 1 0 0 0 1 42 0 24 2.5 0.5 1.5
9 0 1 0 0 0 1 0 0 0 1 258.5 55 28 7 0.5 0.5
9 0 1 0 0 0 1 0 0 0 1 219 51.5 27 3.5 1 0.5
9 0 1 0 0 0 1 0 0 0 1 215 50.5 -27 3.5 1 0.5
9 0 1 0 0 0 1 0 0 0 1 212 49.5 27 3.5 1 0.5
9 0 1 0 0 0 1 0 0 0 1 208 48.5 -27 3.5 1 0.5
9 0 1 0 0 0 1 0 0 0 1 201 46.5 -27 3.5 1 0.5
9 0 1 0 0 0 1 0 0 0 1 198 45.5 27 3.5 1 0.5
9 0 1 0 0 0 1 0 0 0 1 194 48 8.5 0.5 0.5 7
9 0 1 0 0 0 1 0 0 0 1 195 44.5 -27 3.5 1 0.5
9 0 1 0 0 0 1 0 0 0 1 184 44.5 26 3.5 1 0.5
9 0 1 0 0 0 1 0 0 0 1 166 37.5 -26 3.5 1 0.5
9 0 1 0 0 0 1 0 0 0 1 160 35.5 26 3.5 1 0.5
9 0 1 0 0 0 1 0 0 0 1 123 19.5 -26 3.5 1 0.5
9 0 1 0 0 0 1 0 0 0 1 107 13.5 26 3.5 1 0.5
9 0 1 0 0 0 1 0 0 0 1 93 5.5 27 3.5 1 0.5
9 0 1 0 0 0 1 0 0 0 1 90 4.5 -27 3.5 1 0.5
9 0 1 0 0 0 1 0 0 0 1 86 3.5 27 3.5 1 0.5
9 0 1 0 0 0 1 0 0 0 1 78 1.5 -27 3.5 1 0.5
9 0 1 0 0 0 1 0 0 0 1 78.5 5 26 7 0.5 0.5
9 0 1 0 0 0 1 0 0 0 1 72 -4.5 31 3.5 1 0.5
9 0 1 0 0 0 1 0 0 0 1 68 -4.5 28 3.5 1 0.5
9 0 1 0 0 0 1 0 0 0 1 59.5 -6 -28 7 0.5 0.5
9 0 1 0 0 0 1 0 0 0 1 13.5 -13 32 7 0.5 0.5
9 0 1 0 0 0 1 0 0 0 1 245 58 -11 0.5 0.5 6.5
9 0 1 0 0 0 1 0 0 0 1 232 51 28 6.5 0.5 0.5
9 0 1 0 0 0 1 0 0 0 1 59 -6 28 6.5 0.5 0.5
9 0 1 0 0 0 1 0 0 0 1 -2 -11 27 6.5 0.5 0.5
9 0 1 0 0 0 1 0 0 0 1 292 75 -20.5 0.5 1.5 2
9 0 1 0 0 0 1 0 0 0 1 268.5 59 -27 6 0.5 0.5
9 0 1 0 0 0 1 0 0 0 1 245 60.5 -19 1.5 2 0.5
9 0 1 0 0 0 1 0 0 0 1 245 60.5 19 1.5 2 0.5
9 0 1 0 0 0 1 0 0 0 1 236.5 52 -28 6 0.5 0.5
9 0 1 0 0 0 1 0 0 0 1 231.5 49 -30 2 0.5 1.5
9 0 1 0 0 0 1 0 0 0 1 226.5 50 -28 6 0.5 0.5
9 0 1 0 0 0 1 0 0 0 1 222.5 49 28 6 0.5 0.5
9 0 1 0 0 0 1 0 0 0 1 216 53 -24.5 1.5 0.5 2
9 0 1 0 0 0 1 0 0 0 1 209 51 24.5 1.5 0.5 2
9 0 1 0 0 0 1 0 0 0 1 206 50 -24.5 1.5 0.5 2
9 0 1 0 0 0 1 0 0 0 1 204.5 47.5 27 3 1 0.5
9 0 1 0 0 0 1 0 0 0 1 199 48 -24.5 1.5 0.5 2
9 0 1 0 0 0 1 0 0 0 1 199 48 24.5 1.5 0.5 2
9 0 1 0 0 0 1 0 0 0 1 196 48.5 -19 1.5 2 0.5
9 0 1 0 0 0 1 0 0 0 1 196 48.5 19 1.5 2 0.5
9 0 1 0 0 0 1 0 0 0 1 190.5 38 30 2 0.5 1.5
9 0 1 0 0 0 1 0 0 0 1 189 45 24.5 1.5 0.5 2
9 0 1 0 0 0 1 0 0 0 1 188.5 42.5 27 3 1 0.5
9 0 1 0 0 0 1 0 0 0 1 186 44 -24.5 1.5 0.5 2
9 0 1 0 0 0 1 0 0 0 1 182.5 44 -26 2 1.5 0.5
9 0 1 0 0 0 1 0 0 0 1 180.5 36.5 -29 1 1 1.5
9 0 1 0 0 0 1 0 0 0 1 179.5 36 29 2 0.5 1.5
9 0 1 0 0 0 1 0 0 0 1 177.5 42 26 2 1.5 0.5
9 0 1 0 0 0 1 0 0 0 1 175 34 -29.5 1.5 0.5 2
9 0 1 0 0 0 1 0 0 0 1 173.5 40.5 -26 3 1 0.5
9 0 1 0 0 0 1 0 0 0 1 170.5 32.5 -29 1 1 1.5
9 0 1 0 0 0 1 0 0 0 1 168.5 38.5 26 3 1 0.5
9 0 1 0 0 0 1 0 0 0 1 166.5 31 29 2 0.5 1.5
9 0 1 0 0 0 1 0 0 0 1 165.5 30.5 -29 1 1 1.5
9 0 1 0 0 0 1 0 0 0 1 164.5 33.5 -27 3 1 0.5
9 0 1 0 0 0 1 0 0 0 1 162 29 29.5 1.5 0.5 2
9 0 1 0 0 0 1 0 0 0 1 159.5 35 -26 2 1.5 0.5
9 0 1 0 0 0 1 0 0 0 1 153.5 25.5 29 1 1 1.5
9 0 1 0 0 0 1 0 0 0 1 153.5 32.5 26 3 1 0.5
9 0 1 0 0 0 1 0 0 0 1 150.5 33.5 -24 1 1 1.5
9 0 1 0 0 0 1 0 0 0 1 148.5 23.5 29 1 1 1.5
9 0 1 0 0 0 1 0 0 0 1 147.5 30 26 2 1.5 0.5
9 0 1 0 0 0 1 0 0 0 1 146.5 29.5 -26 3 1 0.5
9 0 1 0 0 0 1 0 0 0 1 143.5 30.5 -24 1 1 1.5
9 0 1 0 0 0 1 0 0 0 1 141.5 29.5 24 1 1 1.5
9 0 1 0 0 0 1 0 0 0 1 142.5 21 -29 2 0.5 1.5
9 0 1 0 0 0 1 0 0 0 1 139.5 26.5 26 3 1 0.5
9 0 1 0 0 0 1 0 0 0 1 134.5 26.5 -24 1 1 1.5
9 0 1 0 0 0 1 0 0 0 1 134.5 26.5 24 1 1 1.5
9 0 1 0 0 0 1 0 0 0 1 133.5 17 -29 2 0.5 1.5
9 0 1 0 0 0 1 0 0 0 1 132.5 23.5 26 3 1 0.5
9 0 1 0 0 0 1 0 0 0 1 130.5 22.5 -26 3 1 0.5
9 0 1 0 0 0 1 0 0 0 1 127.5 23.5 -24 1 1 1.5
9 0 1 0 0 0 1 0 0 0 1 127.5 23.5 24 1 1 1.5
9 0 1 0 0 0 1 0 0 0 1 124.5 20 26 2 1.5 0.5
9 0 1 0 0 0 1 0 0 0 1 122 12 -29.5 1.5 0.5 2
9 0 1 0 0 0 1 0 0 0 1 118.5 11 29 2 0.5 1.5
9 0 1 0 0 0 1 0 0 0 1 116.5 13.5 27 3 1 0.5
9 0 1 0 0 0 1 0 0 0 1 115.5 16.5 26 3 1 0.5
9 0 1 0 0 0 1 0 0 0 1 111.5 8.5 -29 1 1 1.5
9 0 1 0 0 0 1 0 0 0 1 107.5 7 29 2 0.5 1.5
9 0 1 0 0 0 1 0 0 0 1 106 12 24.5 1.5 0.5 2
9 0 1 0 0 0 1 0 0 0 1 103.5 5.5 29 1 1 1.5
9 0 1 0 0 0 1 0 0 0 1 100.5 7.5 27 3 1 0.5
9 0 1 0 0 0 1 0 0 0 1 96.5 6.5 -27 3 1 0.5
9 0 1 0 0 0 1 0 0 0 1 94.5 3 -29 2 0.5 1.5
9 0 1 0 0 0 1 0 0 0 1 94.5 3 29 2 0.5 1.5
9 0 1 0 0 0 1 0 0 0 1 92.5 0 -30 2 0.5 1.5
9 0 1 0 0 0 1 0 0 0 1 92.5 0 30 2 0.5 1.5
9 0 1 0 0 0 1 0 0 0 1 91 7 -24.5 1.5 0.5 2
9 0 1 0 0 0 1 0 0 0 1 91 7 24.5 1.5 0.5 2
9 0 1 0 0 0 1 0 0 0 1 77.5 -4 -30 2 0.5 1.5
9 0 1 0 0 0 1 0 0 0 1 77.5 -4 30 2 0.5 1.5
9 0 1 0 0 0 1 0 0 0 1 76 3 24.5 1.5 0.5 2
9 0 1 0 0 0 1 0 0 0 1 72.5 0 -27 2 1.5 0.5
9 0 1 0 0 0 1 0 0 0 1 72.5 0 27 2 1.5 0.5
9 0 1 0 0 0 1 0 0 0 1 69.5 -6 -30 2 0.5 1.5
9 0 1 0 0 0 1 0 0 0 1 69.5 -6 30 2 0.5 1.5
9 0 1 0 0 0 1 0 0 0 1 69.5 -4 -28 6 0.5 0.5
9 0 1 0 0 0 1 0 0 0 1 48.5 -10 30 2 0.5 1.5
9 0 1 0 0 0 1 0 0 0 1 22.5 -4.5 26 3 1 0.5
9 0 1 0 0 0 1 0 0 0 1 7.5 -11 28.5 3 0.5 1
9 0 1 0 0 0 1 0 0 0 1 10.5 -15 -30 6 0.5 0.5
9 0 1 0 0 0 1 0 0 0 1 10.5 -15 30 6 0.5 0.5
9 0 1 0 0 0 1 0 0 0 1 -2.5 -15 -31 6 0.5 0.5
9 0 1 0 0 0 1 0 0 0 1 -2.5 -15 29 6 0.5 0.5
9 0 1 0 0 0 1 0 0 0 1 280 58 31 5.5 0.5 0.5
9 0 1 0 0 0 1 0 0 0 1 277 62 -27 5.5 0.5 0.5
9 0 1 0 0 0 1 0 0 0 1 106 13 4 0.5 0.5 5.5
9 0 1 0 0 0 1 0 0 0 1 33 -3 -26 5.5 0.5 0.5
9 0 1 0 0 0 1 0 0 0 1 25 -11 31 5.5 0.5 0.5
9 0 1 0 0 0 1 0 0 0 1 24 -9 27 5.5 0.5 0.5
9 0 1 0 0 0 1 0 0 0 1 24 -11 -31 5.5 0.5 0.5
9 0 1 0 0 0 1 0 0 0 1 -3 -11 -27 5.5 0.5 0.5
9 0 1 0 0 0 1 0 0 0 1 -3 -14 -32 5.5 0.5 0.5
9 0 1 0 0 0 1 0 0 0 1 -3 -14 28 5.5 0.5 0.5
9 0 1 0 0 0 1 0 0 0 1 292.5 60 29 5 0.5 0.5
9 0 1 0 0 0 1 0 0 0 1 280.5 56 -29 5 0.5 0.5
9 0 1 0 0 0 1 0 0 0 1 270.5 57 -31 5 0.5 0.5
9 0 1 0 0 0 1 0 0 0 1 269.5 56 28 5 0.5 0.5
9 0 1 0 0 0 1 0 0 0 1 256 56 -29.5 2.5 0.5 1
9 0 1 0 0 0 1 0 0 0 1 217 48 -29.5 2.5 0.5 1
9 0 1 0 0 0 1 0 0 0 1 206 44.5 28 2.5 1 0.5
9 0 1 0 0 0 1 0 0 0 1 188 42.5 -27 2.5 1 0.5
9 0 1 0 0 0 1 0 0 0 1 180 39.5 -27 2.5 1 0.5
9 0 1 0 0 0 1 0 0 0 1 177 38.5 27 2.5 1 0.5
9 0 1 0 0 0 1 0 0 0 1 175 37.5 -27 2.5 1 0.5
9 0 1 0 0 0 1 0 0 0 1 170 35.5 -27 2.5 1 0.5
9 0 1 0 0 0 1 0 0 0 1 170 35.5 27 2.5 1 0.5
9 0 1 0 0 0 1 0 0 0 1 165 33.5 27 2.5 1 0.5
9 0 1 0 0 0 1 0 0 0 1 157 30.5 -27 2.5 1 0.5
9 0 1 0 0 0 1 0 0 0 1 157 30.5 27 2.5 1 0.5
9 0 1 0 0 0 1 0 0 0 1 152 28.5 27 2.5 1 0.5
9 0 1 0 0 0 1 0 0 0 1 145 25.5 27 2.5 1 0.5
9 0 1 0 0 0 1 0 0 0 1 141 23.5 -27 2.5 1 0.5
9 0 1 0 0 0 1 0 0 0 1 141 23.5 27 2.5 1 0.5
9 0 1 0 0 0 1 0 0 0 1 140 26.5 -26 2.5 1 0.5
9 0 1 0 0 0 1 0 0 0 1 136 21.5 -27 2.5 1 0.5
9 0 1 0 0 0 1 0 0 0 1 134 20.5 27 2.5 1 0.5
9 0 1 0 0 0 1 0 0 0 1 127 17.5 -27 2.5 1 0.5
9 0 1 0 0 0 1 0 0 0 1 122 15.5 -27 2.5 1 0.5
9 0 1 0 0 0 1 0 0 0 1 122 15.5 27 2.5 1 0.5
9 0 1 0 0 0 1 0 0 0 1 117 13.5 -27 2.5 1 0.5
9 0 1 0 0 0 1 0 0 0 1 111 11.5 -27 2.5 1 0.5
9 0 1 0 0 0 1 0 0 0 1 111 11.5 27 2.5 1 0.5
9 0 1 0 0 0 1 0 0 0 1 105 9.5 -27 2.5 1 0.5
9 0 1 0 0 0 1 0 0 0 1 105 9.5 27 2.5 1 0.5
9 0 1 0 0 0 1 0 0 0 1 101 3.5 31 2.5 1 0.5
9 0 1 0 0 0 1 0 0 0 1 99.5 3 -31 5 0.5 0.5
9 0 1 0 0 0 1 0 0 0 1 92.5 2 -28 5 0.5 0.5
9 0 1 0 0 0 1 0 0 0 1 92.5 2 28 5 0.5 0.5
9 0 1 0 0 0 1 0 0 0 1 85.5 0 28 5 0.5 0.5
9 0 1 0 0 0 1 0 0 0 1 77.5 -2 -28 5 0.5 0.5
9 0 1 0 0 0 1 0 0 0 1 77.5 -2 28 5 0.5 0.5
9 0 1 0 0 0 1 0 0 0 1 58 1.5 -26 2.5 1 0.5
9 0 1 0 0 0 1 0 0 0 1 58 1.5 26 2.5 1 0.5
9 0 1 0 0 0 1 0 0 0 1 27 -10 -29.5 2.5 0.5 1
9 0 1 0 0 0 1 0 0 0 1 27.5 -7 -27 5 0.5 0.5
9 0 1 0 0 0 1 0 0 0 1 22.5 -9 -27 5 0.5 0.5
9 0 1 0 0 0 1 0 0 0 1 -3.5 -13 -31 5 0.5 0.5
9 0 1 0 0 0 1 0 0 0 1 300 78 0 1.5 0.5 1.5
9 0 1 0 0 0 1 0 0 0 1 292 75 21 0.5 1.5 1.5
9 0 1 0 0 0 1 0 0 0 1 291 64 26 4.5 0.5 0.5
9 0 1 0 0 0 1 0 0 0 1 284 57 30 1.5 0.5 1.5
9 0 1 0 0 0 1 0 0 0 1 272 65 26 4.5 0.5 0.5
9 0 1 0 0 0 1 0 0 0 1 270 56 32 4.5 0.5 0.5
9 0 1 0 0 0 1 0 0 0 1 268 65 -26 4.5 0.5 0.5
9 0 1 0 0 0 1 0 0 0 1 228 58 -26 4.5 0.5 0.5
9 0 1 0 0 0 1 0 0 0 1 228 58 26 4.5 0.5 0.5
9 0 1 0 0 0 1 0 0 0 1 217 57 24 1.5 0.5 1.5
9 0 1 0 0 0 1 0 0 0 1 214 45 -30 1.5 0.5 1.5
9 0 1 0 0 0 1 0 0 0 1 214 45 30 1.5 0.5 1.5
9 0 1 0 0 0 1 0 0 0 1 210 55 -24 1.5 0.5 1.5
9 0 1 0 0 0 1 0 0 0 1 207 43 -30 1.5 0.5 1.5
9 0 1 0 0 0 1 0 0 0 1 208 45 -28 4.5 0.5 0.5
9 0 1 0 0 0 1 0 0 0 1 204 43 -31 1.5 1.5 0.5
9 0 1 0 0 0 1 0 0 0 1 204 42 30 1.5 0.5 1.5
9 0 1 0 0 0 1 0 0 0 1 203 53 -24 1.5 0.5 1.5
9 0 1 0 0 0 1 0 0 0 1 203 53 24 1.5 0.5 1.5
9 0 1 0 0 0 1 0 0 0 1 199 43 -29 1.5 0.5 1.5
9 0 1 0 0 0 1 0 0 0 1 197 40 -30 1.5 0.5 1.5
9 0 1 0 0 0 1 0 0 0 1 197 40 30 1.5 0.5 1.5
9 0 1 0 0 0 1 0 0 0 1 193 50 -24 1.5 0.5 1.5
9 0 1 0 0 0 1 0 0 0 1 193 50 24 1.5 0.5 1.5
9 0 1 0 0 0 1 0 0 0 1 193 44 27 4.5 0.5 0.5
9 0 1 0 0 0 1 0 0 0 1 191 40 -28 4.5 0.5 0.5
9 0 1 0 0 0 1 0 0 0 1 187 37 -30 1.5 0.5 1.5
9 0 1 0 0 0 1 0 0 0 1 177 33 -30 1.5 0.5 1.5
9 0 1 0 0 0 1 0 0 0 1 171 33 29 1.5 0.5 1.5
9 0 1 0 0 0 1 0 0 0 1 170 30 30 1.5 0.5 1.5
9 0 1 0 0 0 1 0 0 0 1 167 29 -30 1.5 0.5 1.5
9 0 1 0 0 0 1 0 0 0 1 162 27 -30 1.5 0.5 1.5
9 0 1 0 0 0 1 0 0 0 1 152 25 -29 1.5 0.5 1.5
9 0 1 0 0 0 1 0 0 0 1 150 29 -17 1.5 0.5 1.5
9 0 1 0 0 0 1 0 0 0 1 150 29 17 1.5 0.5 1.5
9 0 1 0 0 0 1 0 0 0 1 150 22 -30 1.5 0.5 1.5
9 0 1 0 0 0 1 0 0 0 1 150 22 30 1.5 0.5 1.5
9 0 1 0 0 0 1 0 0 0 1 147 23 -29 1.5 0.5 1.5
9 0 1 0 0 0 1 0 0 0 1 138 19 -29 1.5 0.5 1.5
9 0 1 0 0 0 1 0 0 0 1 136 18 29 1.5 0.5 1.5
9 0 1 0 0 0 1 0 0 0 1 136 16 -30 1.5 0.5 1.5
9 0 1 0 0 0 1 0 0 0 1 131 16 29 1.5 0.5 1.5
9 0 1 0 0 0 1 0 0 0 1 124 13 29 1.5 0.5 1.5
9 0 1 0 0 0 1 0 0 0 1 123 22 24 1.5 0.5 1.5
9 0 1 0 0 0 1 0 0 0 1 122 10 30 1.5 0.5 1.5
9 0 1 0 0 0 1 0 0 0 1 119 9 -30 1.5 0.5 1.5
9 0 1 0 0 0 1 0 0 0 1 116 8 30 1.5 0.5 1.5
9 0 1 0 0 0 1 0 0 0 1 111 6 30 1.5 0.5 1.5
9 0 1 0 0 0 1 0 0 0 1 108 5 -30 1.5 0.5 1.5
9 0 1 0 0 0 1 0 0 0 1 98 13 -24 1.5 0.5 1.5
9 0 1 0 0 0 1 0 0 0 1 95 12 -24 1.5 0.5 1.5
9 0 1 0 0 0 1 0 0 0 1 95 12 24 1.5 0.5 1.5
9 0 1 0 0 0 1 0 0 0 1 88 10 -24 1.5 0.5 1.5
9 0 1 0 0 0 1 0 0 0 1 88 10 24 1.5 0.5 1.5
9 0 1 0 0 0 1 0 0 0 1 85 0 -28 4.5 0.5 0.5
9 0 1 0 0 0 1 0 0 0 1 77 7 -24 1.5 0.5 1.5
9 0 1 0 0 0 1 0 0 0 1 77 7 24 1.5 0.5 1.5
9 0 1 0 0 0 1 0 0 0 1 34 -11 -28 4.5 0.5 0.5
9 0 1 0 0 0 1 0 0 0 1 25 -12 -28 4.5 0.5 0.5
9 0 1 0 0 0 1 0 0 0 1 8 3 -21 0.5 1.5 1.5
9 0 1 0 0 0 1 0 0 0 1 8 3 21 0.5 1.5 1.5
9 0 1 0 0 0 1 0 0 0 1 0 6 0 1.5 0.5 1.5
9 0 1 0 0 0 1 0 0 0 1 -4 -13 31 4.5 0.5 0.5
9 0 1 0 0 0 1 0 0 0 1 291.5 60 -29 4 0.5 0.5
9 0 1 0 0 0 1 0 0 0 1 286.5 56 29 4 0.5 0.5
9 0 1 0 0 0 1 0 0 0 1 278.5 57 -32 4 0.5 0.5
9 0 1 0 0 0 1 0 0 0 1 276.5 62 27 4 0.5 0.5
9 0 1 0 0 0 1 0 0 0 1 270.5 56 -32 4 0.5 0.5
9 0 1 0 0 0 1 0 0 0 1 262.5 57 29.5 2 0.5 1
9 0 1 0 0 0 1 0 0 0 1 243.5 54 -29.5 2 0.5 1
9 0 1 0 0 0 1 0 0 0 1 214.5 47 28 4 0.5 0.5
9 0 1 0 0 0 1 0 0 0 1 204.5 42 -29.5 2 0.5 1
9 0 1 0 0 0 1 0 0 0 1 195 50 -11.5 0.5 0.5 4
9 0 1 0 0 0 1 0 0 0 1 197.5 42 -28 4 0.5 0.5
9 0 1 0 0 0 1 0 0 0 1 197.5 42 28 4 0.5 0.5
9 0 1 0 0 0 1 0 0 0 1 190.5 40 28 4 0.5 0.5
9 0 1 0 0 0 1 0 0 0 1 183.5 37.5 -28 2 1 0.5
9 0 1 0 0 0 1 0 0 0 1 183.5 37.5 28 2 1 0.5
9 0 1 0 0 0 1 0 0 0 1 182.5 40.5 27 2 1 0.5
9 0 1 0 0 0 1 0 0 0 1 180.5 42 -24.5 1 0.5 2
9 0 1 0 0 0 1 0 0 0 1 180.5 42 24.5 1 0.5 2
9 0 1 0 0 0 1 0 0 0 1 172.5 39 24.5 1 0.5 2
9 0 1 0 0 0 1 0 0 0 1 170.5 38 -24.5 1 0.5 2
9 0 1 0 0 0 1 0 0 0 1 167.5 37 24.5 1 0.5 2
9 0 1 0 0 0 1 0 0 0 1 162.5 35 -24.5 1 0.5 2
9 0 1 0 0 0 1 0 0 0 1 159.5 26 -29.5 2 0.5 1
9 0 1 0 0 0 1 0 0 0 1 157.5 33 -24.5 1 0.5 2
9 0 1 0 0 0 1 0 0 0 1 157.5 33 24.5 1 0.5 2
9 0 1 0 0 0 1 0 0 0 1 158.5 27.5 28 2 1 0.5
9 0 1 0 0 0 1 0 0 0 1 157.5 26 31 4 0.5 0.5
9 0 1 0 0 0 1 0 0 0 1 152.5 31 -24.5 1 0.5 2
9 0 1 0 0 0 1 0 0 0 1 152.5 28.5 -27 2 1 0.5
9 0 1 0 0 0 1 0 0 0 1 150.5 31.5 -26 1 2 0.5
9 0 1 0 0 0 1 0 0 0 1 150.5 30 24.5 1 0.5 2
9 0 1 0 0 0 1 0 0 0 1 147.5 26.5 -27 2 1 0.5
9 0 1 0 0 0 1 0 0 0 1 143.5 27 -24.5 1 0.5 2
9 0 1 0 0 0 1 0 0 0 1 143.5 27 24.5 1 0.5 2
9 0 1 0 0 0 1 0 0 0 1 144.5 21.5 28 2 1 0.5
9 0 1 0 0 0 1 0 0 0 1 142.5 19.5 31 2 1 0.5
9 0 1 0 0 0 1 0 0 0 1 136.5 24 -24.5 1 0.5 2
9 0 1 0 0 0 1 0 0 0 1 136.5 24 24.5 1 0.5 2
9 0 1 0 0 0 1 0 0 0 1 131.5 19.5 -27 2 1 0.5
9 0 1 0 0 0 1 0 0 0 1 129.5 18.5 27 2 1 0.5
9 0 1 0 0 0 1 0 0 0 1 127.5 20 -24.5 1 0.5 2
9 0 1 0 0 0 1 0 0 0 1 127.5 20 24.5 1 0.5 2
9 0 1 0 0 0 1 0 0 0 1 128.5 14.5 28 2 1 0.5
9 0 1 0 0 0 1 0 0 0 1 122.5 18 -24.5 1 0.5 2
9 0 1 0 0 0 1 0 0 0 1 122.5 18 24.5 1 0.5 2
9 0 1 0 0 0 1 0 0 0 1 114.5 15 24.5 1 0.5 2
9 0 1 0 0 0 1 0 0 0 1 111.5 14 -24.5 1 0.5 2
9 0 1 0 0 0 1 0 0 0 1 100.5 10 -24.5 1 0.5 2
9 0 1 0 0 0 1 0 0 0 1 100.5 10 24.5 1 0.5 2
9 0 1 0 0 0 1 0 0 0 1 98.5 3.5 28 2 1 0.5
9 0 1 0 0 0 1 0 0 0 1 87.5 8.5 -26 2 1 0.5
9 0 1 0 0 0 1 0 0 0 1 84.5 3.5 -27 2 1 0.5
9 0 1 0 0 0 1 0 0 0 1 70.5 4 26 4 0.5 0.5
9 0 1 0 0 0 1 0 0 0 1 34.5 -11 -32 4 0.5 0.5
9 0 1 0 0 0 1 0 0 0 1 23.5 -12 -32 4 0.5 0.5
9 0 1 0 0 0 1 0 0 0 1 23.5 -12 28 4 0.5 0.5
9 0 1 0 0 0 1 0 0 0 1 7.5 -11 -28.5 2 0.5 1
9 0 1 0 0 0 1 0 0 0 1 281 57 32 3.5 0.5 0.5
9 0 1 0 0 0 1 0 0 0 1 261 56 31 3.5 0.5 0.5
9 0 1 0 0 0 1 0 0 0 1 255 55 -31 3.5 0.5 0.5
9 0 1 0 0 0 1 0 0 0 1 252 57 -27 3.5 0.5 0.5
9 0 1 0 0 0 1 0 0 0 1 248 54 31 3.5 0.5 0.5
9 0 1 0 0 0 1 0 0 0 1 243 59 -12 0.5 0.5 3.5
9 0 1 0 0 0 1 0 0 0 1 246 58 -27 3.5 0.5 0.5
9 0 1 0 0 0 1 0 0 0 1 245 56 27 3.5 0.5 0.5
9 0 1 0 0 0 1 0 0 0 1 208 53 26 3.5 0.5 0.5
9 0 1 0 0 0 1 0 0 0 1 174 37 27 3.5 0.5 0.5
9 0 1 0 0 0 1 0 0 0 1 161 32 -27 3.5 0.5 0.5
9 0 1 0 0 0 1 0 0 0 1 161 32 27 3.5 0.5 0.5
9 0 1 0 0 0 1 0 0 0 1 149 27 27 3.5 0.5 0.5
9 0 1 0 0 0 1 0 0 0 1 130 14 -31 3.5 0.5 0.5
9 0 1 0 0 0 1 0 0 0 1 119 11 -28 3.5 0.5 0.5
9 0 1 0 0 0 1 0 0 0 1 117 10 28 3.5 0.5 0.5
9 0 1 0 0 0 1 0 0 0 1 111 8 28 3.5 0.5 0.5
9 0 1 0 0 0 1 0 0 0 1 101 8 -27 3.5 0.5 0.5
9 0 1 0 0 0 1 0 0 0 1 86 8 26 3.5 0.5 0.5
9 0 1 0 0 0 1 0 0 0 1 70 4 -26 3.5 0.5 0.5
9 0 1 0 0 0 1 0 0 0 1 42 -10 28 3.5 0.5 0.5
9 0 1 0 0 0 1 0 0 0 1 35 -6 27 3.5 0.5 0.5
9 0 1 0 0 0 1 0 0 0 1 26 -12 32 3.5 0.5 0.5
9 0 1 0 0 0 1 0 0 0 1 -5 -14 -28 3.5 0.5 0.5
9 0 1 0 0 0 1 0 0 0 1 -5 -14 32 3.5 0.5 0.5
9 0 1 0 0 0 1 0 0 0 1 290.5 64 -26 3 0.5 0.5
9 0 1 0 0 0 1 0 0 0 1 288 64.5 -24 0.5 1 1.5
9 0 1 0 0 0 1 0 0 0 1 288 64.5 24 0.5 1 1.5
9 0 1 0 0 0 1 0 0 0 1 287.5 56 -31 3 0.5 0.5
9 0 1 0 0 0 1 0 0 0 1 278.5 55 -30 3 0.5 0.5
9 0 1 0 0 0 1 0 0 0 1 278.5 55 30 3 0.5 0.5
9 0 1 0 0 0 1 0 0 0 1 262.5 55 -32 3 0.5 0.5
9 0 1 0 0 0 1 0 0 0 1 259.5 60 -27 3 0.5 0.5
9 0 1 0 0 0 1 0 0 0 1 259.5 60 27 3 0.5 0.5
9 0 1 0 0 0 1 0 0 0 1 259.5 58 27 3 0.5 0.5
9 0 1 0 0 0 1 0 0 0 1 254.5 54 28 3 0.5 0.5
9 0 1 0 0 0 1 0 0 0 1 253.5 63 -26 3 0.5 0.5
9 0 1 0 0 0 1 0 0 0 1 253.5 63 26 3 0.5 0.5
9 0 1 0 0 0 1 0 0 0 1 241.5 52 28 3 0.5 0.5
9 0 1 0 0 0 1 0 0 0 1 240.5 61 26 3 0.5 0.5
9 0 1 0 0 0 1 0 0 0 1 237.5 53 -29 1 0.5 1.5
9 0 1 0 0 0 1 0 0 0 1 233 52 -29.5 1.5 0.5 1
9 0 1 0 0 0 1 0 0 0 1 228 51 29.5 1.5 0.5 1
9 0 1 0 0 0 1 0 0 0 1 223 50 -29.5 1.5 0.5 1
9 0 1 0 0 0 1 0 0 0 1 215 47.5 -28 1.5 1 0.5
9 0 1 0 0 0 1 0 0 0 1 205 45 29.5 1.5 0.5 1
9 0 1 0 0 0 1 0 0 0 1 204.5 52 26 3 0.5 0.5
9 0 1 0 0 0 1 0 0 0 1 189 47.5 26 1.5 1 0.5
9 0 1 0 0 0 1 0 0 0 1 183.5 47 -24 1 0.5 1.5
9 0 1 0 0 0 1 0 0 0 1 183.5 47 24 1 0.5 1.5
9 0 1 0 0 0 1 0 0 0 1 184 41.5 -27 1.5 1 0.5
9 0 1 0 0 0 1 0 0 0 1 178.5 36 -29 1 0.5 1.5
9 0 1 0 0 0 1 0 0 0 1 175.5 44 -24 1 0.5 1.5
9 0 1 0 0 0 1 0 0 0 1 175.5 44 24 1 0.5 1.5
9 0 1 0 0 0 1 0 0 0 1 177.5 35 28 3 0.5 0.5
9 0 1 0 0 0 1 0 0 0 1 175 33.5 31 1.5 1 0.5
9 0 1 0 0 0 1 0 0 0 1 174.5 34 28 3 0.5 0.5
9 0 1 0 0 0 1 0 0 0 1 172.5 31 -30 1 0.5 1.5
9 0 1 0 0 0 1 0 0 0 1 170.5 42 24 1 0.5 1.5
9 0 1 0 0 0 1 0 0 0 1 168.5 32 -29 1 0.5 1.5
9 0 1 0 0 0 1 0 0 0 1 169.5 32 28 3 0.5 0.5
9 0 1 0 0 0 1 0 0 0 1 165.5 40 -24 1 0.5 1.5
9 0 1 0 0 0 1 0 0 0 1 163.5 30 -29 1 0.5 1.5
9 0 1 0 0 0 1 0 0 0 1 164.5 30 28 3 0.5 0.5
9 0 1 0 0 0 1 0 0 0 1 162 28.5 -28 1.5 1 0.5
9 0 1 0 0 0 1 0 0 0 1 160.5 38 -24 1 0.5 1.5
9 0 1 0 0 0 1 0 0 0 1 160.5 38 24 1 0.5 1.5
9 0 1 0 0 0 1 0 0 0 1 159 26.5 -31 1.5 1 0.5
9 0 1 0 0 0 1 0 0 0 1 155.5 36 24 1 0.5 1.5
9 0 1 0 0 0 1 0 0 0 1 155.5 27 -29 1 0.5 1.5
9 0 1 0 0 0 1 0 0 0 1 154.5 34 -26 3 0.5 0.5
9 0 1 0 0 0 1 0 0 0 1 154.5 26 -28 3 0.5 0.5
9 0 1 0 0 0 1 0 0 0 1 154.5 25 31 3 0.5 0.5
9 0 1 0 0 0 1 0 0 0 1 151.5 25 29 1 0.5 1.5
9 0 1 0 0 0 1 0 0 0 1 148.5 33 -24 1 0.5 1.5
9 0 1 0 0 0 1 0 0 0 1 148.5 33 24 1 0.5 1.5
9 0 1 0 0 0 1 0 0 0 1 146.5 23 29 1 0.5 1.5
9 0 1 0 0 0 1 0 0 0 1 144.5 25 -27 3 0.5 0.5
9 0 1 0 0 0 1 0 0 0 1 141.5 30 -24 1 0.5 1.5
9 0 1 0 0 0 1 0 0 0 1 141 18 -30.5 1.5 0.5 1
9 0 1 0 0 0 1 0 0 0 1 139.5 29 24 1 0.5 1.5
9 0 1 0 0 0 1 0 0 0 1 139.5 20 29 1 0.5 1.5
9 0 1 0 0 0 1 0 0 0 1 139 17 30.5 1.5 0.5 1
9 0 1 0 0 0 1 0 0 0 1 138.5 19 28 3 0.5 0.5
9 0 1 0 0 0 1 0 0 0 1 137.5 22 27 3 0.5 0.5
9 0 1 0 0 0 1 0 0 0 1 134.5 24 -26 1 1.5 0.5
9 0 1 0 0 0 1 0 0 0 1 136.5 18 -28 3 0.5 0.5
9 0 1 0 0 0 1 0 0 0 1 134 15 30.5 1.5 0.5 1
9 0 1 0 0 0 1 0 0 0 1 132.5 26 -24 1 0.5 1.5
9 0 1 0 0 0 1 0 0 0 1 132.5 26 24 1 0.5 1.5
9 0 1 0 0 0 1 0 0 0 1 131.5 16 -28 3 0.5 0.5
9 0 1 0 0 0 1 0 0 0 1 126.5 14 -29 1 0.5 1.5
9 0 1 0 0 0 1 0 0 0 1 127 12.5 31 1.5 1 0.5
9 0 1 0 0 0 1 0 0 0 1 125.5 23 -24 1 0.5 1.5
9 0 1 0 0 0 1 0 0 0 1 125.5 23 24 1 0.5 1.5
9 0 1 0 0 0 1 0 0 0 1 124.5 13 -28 3 0.5 0.5
9 0 1 0 0 0 1 0 0 0 1 121.5 12 28 3 0.5 0.5
9 0 1 0 0 0 1 0 0 0 1 117.5 20 -24 1 0.5 1.5
9 0 1 0 0 0 1 0 0 0 1 117.5 20 24 1 0.5 1.5
9 0 1 0 0 0 1 0 0 0 1 109.5 17 -24 1 0.5 1.5
9 0 1 0 0 0 1 0 0 0 1 109.5 17 24 1 0.5 1.5
9 0 1 0 0 0 1 0 0 0 1 109.5 8 -29 1 0.5 1.5
9 0 1 0 0 0 1 0 0 0 1 108 7 -28 3.5 0.5 0.5
9 0 1 0 0 0 1 0 0 0 1 101.5 5 29 1 0.5 1.5
9 0 1 0 0 0 1 0 0 0 1 102 4.5 -28 1.5 1 0.5
9 0 1 0 0 0 1 0 0 0 1 102 3 -29.5 1.5 0.5 1
9 0 1 0 0 0 1 0 0 0 1 100 2 -30.5 1.5 0.5 1
9 0 1 0 0 0 1 0 0 0 1 100 2 29.5 1.5 0.5 1
9 0 1 0 0 0 1 0 0 0 1 96.5 11 -26 3 0.5 0.5
9 0 1 0 0 0 1 0 0 0 1 96.5 11 26 3 0.5 0.5
9 0 1 0 0 0 1 0 0 0 1 86.5 -2 -30 3 0.5 0.5
9 0 1 0 0 0 1 0 0 0 1 86.5 -2 30 3 0.5 0.5
9 0 1 0 0 0 1 0 0 0 1 66 -4 -29.5 1.5 0.5 1
9 0 1 0 0 0 1 0 0 0 1 65.5 -5 31 3 0.5 0.5
9 0 1 0 0 0 1 0 0 0 1 55 -6 -29.5 1.5 0.5 1
9 0 1 0 0 0 1 0 0 0 1 55 -6 29.5 1.5 0.5 1
9 0 1 0 0 0 1 0 0 0 1 44 -8 29.5 1.5 0.5 1
9 0 1 0 0 0 1 0 0 0 1 41.5 -1 26 3 0.5 0.5
9 0 1 0 0 0 1 0 0 0 1 35.5 -2 26 3 0.5 0.5
9 0 1 0 0 0 1 0 0 0 1 35.5 -11 32 3 0.5 0.5
9 0 1 0 0 0 1 0 0 0 1 33.5 -13 -30 3 0.5 0.5
9 0 1 0 0 0 1 0 0 0 1 33.5 -13 30 3 0.5 0.5
9 0 1 0 0 0 1 0 0 0 1 23.5 -14 -30 3 0.5 0.5
9 0 1 0 0 0 1 0 0 0 1 23.5 -14 30 3 0.5 0.5
9 0 1 0 0 0 1 0 0 0 1 12.5 -7 -24 1 0.5 1.5
9 0 1 0 0 0 1 0 0 0 1 12.5 -7 24 1 0.5 1.5
9 0 1 0 0 0 1 0 0 0 1 300 70 -13 2.5 0.5 0.5
9 0 1 0 0 0 1 0 0 0 1 300 70 -7 2.5 0.5 0.5
9 0 1 0 0 0 1 0 0 0 1 300 70 7 2.5 0.5 0.5
9 0 1 0 0 0 1 0 0 0 1 300 70 13 2.5 0.5 0.5
9 0 1 0 0 0 1 0 0 0 1 269 54 -30 2.5 0.5 0.5
9 0 1 0 0 0 1 0 0 0 1 269 54 30 2.5 0.5 0.5
9 0 1 0 0 0 1 0 0 0 1 255 54 -32 2.5 0.5 0.5
9 0 1 0 0 0 1 0 0 0 1 248 53 -32 2.5 0.5 0.5
9 0 1 0 0 0 1 0 0 0 1 242 52 -32 2.5 0.5 0.5
9 0 1 0 0 0 1 0 0 0 1 241 61 -26 2.5 0.5 0.5
9 0 1 0 0 0 1 0 0 0 1 240 57 27 2.5 0.5 0.5
9 0 1 0 0 0 1 0 0 0 1 232 51 -31 2.5 0.5 0.5
9 0 1 0 0 0 1 0 0 0 1 231 59 -26 2.5 0.5 0.5
9 0 1 0 0 0 1 0 0 0 1 231 59 26 2.5 0.5 0.5
9 0 1 0 0 0 1 0 0 0 1 231 55 27 2.5 0.5 0.5
9 0 1 0 0 0 1 0 0 0 1 227 50 31 2.5 0.5 0.5
9 0 1 0 0 0 1 0 0 0 1 226 54 -27 2.5 0.5 0.5
9 0 1 0 0 0 1 0 0 0 1 221 53 27 2.5 0.5 0.5
9 0 1 0 0 0 1 0 0 0 1 212 54 -26 2.5 0.5 0.5
9 0 1 0 0 0 1 0 0 0 1 202 51 -26 2.5 0.5 0.5
9 0 1 0 0 0 1 0 0 0 1 195 50 13 0.5 0.5 2.5
9 0 1 0 0 0 1 0 0 0 1 178 43 -26 2.5 0.5 0.5
9 0 1 0 0 0 1 0 0 0 1 177 35 -28 2.5 0.5 0.5
9 0 1 0 0 0 1 0 0 0 1 173 41 26 2.5 0.5 0.5
9 0 1 0 0 0 1 0 0 0 1 152 30 -13 0.5 0.5 2.5
9 0 1 0 0 0 1 0 0 0 1 148 30 13 0.5 0.5 2.5
9 0 1 0 0 0 1 0 0 0 1 150 24 -28 2.5 0.5 0.5
9 0 1 0 0 0 1 0 0 0 1 145 22 -28 2.5 0.5 0.5
9 0 1 0 0 0 1 0 0 0 1 141 20 -28 2.5 0.5 0.5
9 0 1 0 0 0 1 0 0 0 1 134 17 28 2.5 0.5 0.5
9 0 1 0 0 0 1 0 0 0 1 125 17 27 2.5 0.5 0.5
9 0 1 0 0 0 1 0 0 0 1 120 19 26 2.5 0.5 0.5
9 0 1 0 0 0 1 0 0 0 1 116 18 -26 2.5 0.5 0.5
9 0 1 0 0 0 1 0 0 0 1 108 15 -26 2.5 0.5 0.5
9 0 1 0 0 0 1 0 0 0 1 105 10 -11 0.5 0.5 2.5
9 0 1 0 0 0 1 0 0 0 1 65 -5 -31 2.5 0.5 0.5
9 0 1 0 0 0 1 0 0 0 1 64 -3 27 2.5 0.5 0.5
9 0 1 0 0 0 1 0 0 0 1 63 -3 -27 2.5 0.5 0.5
9 0 1 0 0 0 1 0 0 0 1 59 -7 28 2.5 0.5 0.5
9 0 1 0 0 0 1 0 0 0 1 58 -2 -27 2.5 0.5 0.5
9 0 1 0 0 0 1 0 0 0 1 58 -2 27 2.5 0.5 0.5
9 0 1 0 0 0 1 0 0 0 1 54 -7 -31 2.5 0.5 0.5
9 0 1 0 0 0 1 0 0 0 1 54 -7 31 2.5 0.5 0.5
9 0 1 0 0 0 1 0 0 0 1 53 1 -26 2.5 0.5 0.5
9 0 1 0 0 0 1 0 0 0 1 53 1 26 2.5 0.5 0.5
9 0 1 0 0 0 1 0 0 0 1 53 -5 27 2.5 0.5 0.5
9 0 1 0 0 0 1 0 0 0 1 48 -9 -32 2.5 0.5 0.5
9 0 1 0 0 0 1 0 0 0 1 48 -9 28 2.5 0.5 0.5
9 0 1 0 0 0 1 0 0 0 1 47 -4 -27 2.5 0.5 0.5
9 0 1 0 0 0 1 0 0 0 1 47 -4 27 2.5 0.5 0.5
9 0 1 0 0 0 1 0 0 0 1 47 -9 -28 2.5 0.5 0.5
9 0 1 0 0 0 1 0 0 0 1 43 -9 31 2.5 0.5 0.5
9 0 1 0 0 0 1 0 0 0 1 42 -1 -26 2.5 0.5 0.5
9 0 1 0 0 0 1 0 0 0 1 0 -2 -13 2.5 0.5 0.5
9 0 1 0 0 0 1 0 0 0 1 0 -2 -7 2.5 0.5 0.5
9 0 1 0 0 0 1 0 0 0 1 0 -2 7 2.5 0.5 0.5
9 0 1 0 0 0 1 0 0 0 1 0 -2 13 2.5 0.5 0.5
9 0 1 0 0 0 1 0 0 0 1 285.5 58.5 -28 1 1 0.5
9 0 1 0 0 0 1 0 0 0 1 285.5 65 -25 2 0.5 0.5
9 0 1 0 0 0 1 0 0 0 1 285.5 63 -23 2 0.5 0.5
9 0 1 0 0 0 1 0 0 0 1 285.5 63 23 2 0.5 0.5
9 0 1 0 0 0 1 0 0 0 1 278.5 59 -28.5 1 0.5 1
9 0 1 0 0 0 1 0 0 0 1 277.5 59 28.5 1 0.5 1
9 0 1 0 0 0 1 0 0 0 1 267.5 58 -28.5 1 0.5 1
9 0 1 0 0 0 1 0 0 0 1 267.5 58 28.5 1 0.5 1
9 0 1 0 0 0 1 0 0 0 1 259.5 57 -28.5 1 0.5 1
9 0 1 0 0 0 1 0 0 0 1 260.5 55 -28 2 0.5 0.5
9 0 1 0 0 0 1 0 0 0 1 260.5 55 32 2 0.5 0.5
9 0 1 0 0 0 1 0 0 0 1 253.5 54 32 2 0.5 0.5
9 0 1 0 0 0 1 0 0 0 1 252.5 52 30 2 0.5 0.5
9 0 1 0 0 0 1 0 0 0 1 247.5 53 -28 2 0.5 0.5
9 0 1 0 0 0 1 0 0 0 1 247.5 53 32 2 0.5 0.5
9 0 1 0 0 0 1 0 0 0 1 239.5 55 -27 2 0.5 0.5
9 0 1 0 0 0 1 0 0 0 1 237.5 53 29.5 1 0.5 1
9 0 1 0 0 0 1 0 0 0 1 236.5 52 31 2 0.5 0.5
9 0 1 0 0 0 1 0 0 0 1 236.5 51 -28 2 0.5 0.5
9 0 1 0 0 0 1 0 0 0 1 235.5 56 -27 2 0.5 0.5
9 0 1 0 0 0 1 0 0 0 1 235.5 54 27 2 0.5 0.5
9 0 1 0 0 0 1 0 0 0 1 230.5 53 -27 2 0.5 0.5
9 0 1 0 0 0 1 0 0 0 1 224.5 52 27 2 0.5 0.5
9 0 1 0 0 0 1 0 0 0 1 222.5 48 32 2 0.5 0.5
9 0 1 0 0 0 1 0 0 0 1 221.5 48 28 2 0.5 0.5
9 0 1 0 0 0 1 0 0 0 1 220.5 51 -27 2 0.5 0.5
9 0 1 0 0 0 1 0 0 0 1 218.5 49 -29.5 1 0.5 1
9 0 1 0 0 0 1 0 0 0 1 218.5 49 29.5 1 0.5 1
9 0 1 0 0 0 1 0 0 0 1 216.5 52 -27 2 0.5 0.5
9 0 1 0 0 0 1 0 0 0 1 213.5 51 27 2 0.5 0.5
9 0 1 0 0 0 1 0 0 0 1 211.5 47 -28.5 1 0.5 1
9 0 1 0 0 0 1 0 0 0 1 210.5 45 28 2 0.5 0.5
9 0 1 0 0 0 1 0 0 0 1 209.5 48 27 2 0.5 0.5
9 0 1 0 0 0 1 0 0 0 1 208.5 43 30 2 0.5 0.5
9 0 1 0 0 0 1 0 0 0 1 206 44.5 -29.5 0.5 1 1
9 0 1 0 0 0 1 0 0 0 1 201.5 44 28.5 1 0.5 1
9 0 1 0 0 0 1 0 0 0 1 194.5 42 -29.5 1 0.5 1
9 0 1 0 0 0 1 0 0 0 1 194.5 42 29.5 1 0.5 1
9 0 1 0 0 0 1 0 0 0 1 194.5 49 -26 2 0.5 0.5
9 0 1 0 0 0 1 0 0 0 1 191.5 48 -26 2 0.5 0.5
9 0 1 0 0 0 1 0 0 0 1 189.5 44 -27 2 0.5 0.5
9 0 1 0 0 0 1 0 0 0 1 188.5 40 -29.5 1 0.5 1
9 0 1 0 0 0 1 0 0 0 1 188.5 40 29.5 1 0.5 1
9 0 1 0 0 0 1 0 0 0 1 186.5 46.5 26 1 1 0.5
9 0 1 0 0 0 1 0 0 0 1 185.5 36 30 2 0.5 0.5
9 0 1 0 0 0 1 0 0 0 1 183.5 38 -29.5 1 0.5 1
9 0 1 0 0 0 1 0 0 0 1 183.5 35 -30 2 0.5 0.5
9 0 1 0 0 0 1 0 0 0 1 180.5 37 28.5 1 0.5 1
9 0 1 0 0 0 1 0 0 0 1 178.5 33 30 2 0.5 0.5
9 0 1 0 0 0 1 0 0 0 1 175.5 35 29.5 1 0.5 1
9 0 1 0 0 0 1 0 0 0 1 175.5 32 30 2 0.5 0.5
9 0 1 0 0 0 1 0 0 0 1 172.5 34 -28.5 1 0.5 1
9 0 1 0 0 0 1 0 0 0 1 173.5 33 -28 2 0.5 0.5
9 0 1 0 0 0 1 0 0 0 1 167.5 39 -26 2 0.5 0.5
9 0 1 0 0 0 1 0 0 0 1 165.5 28 30 2 0.5 0.5
9 0 1 0 0 0 1 0 0 0 1 160.5 26 30 2 0.5 0.5
9 0 1 0 0 0 1 0 0 0 1 155.5 34.5 26 1 1 0.5
9 0 1 0 0 0 1 0 0 0 1 155.5 26.5 28 1 1 0.5
9 0 1 0 0 0 1 0 0 0 1 155.5 24 -30 2 0.5 0.5
9 0 1 0 0 0 1 0 0 0 1 155.5 24 30 2 0.5 0.5
9 0 1 0 0 0 1 0 0 0 1 150.5 23.5 28 1 1 0.5
9 0 1 0 0 0 1 0 0 0 1 146.5 20 -30 2 0.5 0.5
9 0 1 0 0 0 1 0 0 0 1 146.5 20 30 2 0.5 0.5
9 0 1 0 0 0 1 0 0 0 1 144.5 29.5 26 1 1 0.5
9 0 1 0 0 0 1 0 0 0 1 141.5 20.5 28 1 1 0.5
9 0 1 0 0 0 1 0 0 0 1 141.5 18 29.5 1 0.5 1
9 0 1 0 0 0 1 0 0 0 1 132.5 14 -30 2 0.5 0.5
9 0 1 0 0 0 1 0 0 0 1 130.5 13 -30 2 0.5 0.5
9 0 1 0 0 0 1 0 0 0 1 130.5 13 30 2 0.5 0.5
9 0 1 0 0 0 1 0 0 0 1 125.5 11 -30 2 0.5 0.5
9 0 1 0 0 0 1 0 0 0 1 119.5 12 -28.5 1 0.5 1
9 0 1 0 0 0 1 0 0 0 1 117.5 11 -29.5 1 0.5 1
9 0 1 0 0 0 1 0 0 0 1 114.5 10 29.5 1 0.5 1
9 0 1 0 0 0 1 0 0 0 1 114.5 9 -28 2 0.5 0.5
9 0 1 0 0 0 1 0 0 0 1 114.5 7 -30 2 0.5 0.5
9 0 1 0 0 0 1 0 0 0 1 108.5 15 26 2 0.5 0.5
9 0 1 0 0 0 1 0 0 0 1 106.5 7 -29.5 1 0.5 1
9 0 1 0 0 0 1 0 0 0 1 106.5 6 28 2 0.5 0.5
9 0 1 0 0 0 1 0 0 0 1 106.5 4 30 2 0.5 0.5
9 0 1 0 0 0 1 0 0 0 1 101 4.5 -29.5 0.5 1 1
9 0 1 0 0 0 1 0 0 0 1 96.5 3 31 2 0.5 0.5
9 0 1 0 0 0 1 0 0 0 1 95.5 7 27 2 0.5 0.5
9 0 1 0 0 0 1 0 0 0 1 91.5 4 27 2 0.5 0.5
9 0 1 0 0 0 1 0 0 0 1 90.5 2 -29.5 1 0.5 1
9 0 1 0 0 0 1 0 0 0 1 90.5 2 29.5 1 0.5 1
9 0 1 0 0 0 1 0 0 0 1 89.5 1 -31 2 0.5 0.5
9 0 1 0 0 0 1 0 0 0 1 89.5 1 31 2 0.5 0.5
9 0 1 0 0 0 1 0 0 0 1 82.5 0 -29.5 1 0.5 1
9 0 1 0 0 0 1 0 0 0 1 82.5 0 29.5 1 0.5 1
9 0 1 0 0 0 1 0 0 0 1 81.5 -1 -31 2 0.5 0.5
9 0 1 0 0 0 1 0 0 0 1 80.5 3 -27 2 0.5 0.5
9 0 1 0 0 0 1 0 0 0 1 80.5 3 27 2 0.5 0.5
9 0 1 0 0 0 1 0 0 0 1 76.5 6 -26 2 0.5 0.5
9 0 1 0 0 0 1 0 0 0 1 76.5 6 26 2 0.5 0.5
9 0 1 0 0 0 1 0 0 0 1 74.5 -2 -29.5 1 0.5 1
9 0 1 0 0 0 1 0 0 0 1 73.5 -4 28 2 0.5 0.5
9 0 1 0 0 0 1 0 0 0 1 69.5 -3 28.5 1 0.5 1
9 0 1 0 0 0 1 0 0 0 1 68.5 0 -27 2 0.5 0.5
9 0 1 0 0 0 1 0 0 0 1 68.5 0 27 2 0.5 0.5
9 0 1 0 0 0 1 0 0 0 1 59.5 -7 -32 2 0.5 0.5
9 0 1 0 0 0 1 0 0 0 1 58.5 -7 -28 2 0.5 0.5
9 0 1 0 0 0 1 0 0 0 1 52.5 -10 -30 2 0.5 0.5
9 0 1 0 0 0 1 0 0 0 1 52.5 -10 30 2 0.5 0.5
9 0 1 0 0 0 1 0 0 0 1 47.5 -7 -28.5 1 0.5 1
9 0 1 0 0 0 1 0 0 0 1 46.5 -6 -27 2 0.5 0.5
9 0 1 0 0 0 1 0 0 0 1 43.5 -8 -29.5 1 0.5 1
9 0 1 0 0 0 1 0 0 0 1 43.5 -10 -32 2 0.5 0.5
9 0 1 0 0 0 1 0 0 0 1 43.5 -10 32 2 0.5 0.5
9 0 1 0 0 0 1 0 0 0 1 42.5 -9 -31 2 0.5 0.5
9 0 1 0 0 0 1 0 0 0 1 41.5 -12 -30 2 0.5 0.5
9 0 1 0 0 0 1 0 0 0 1 41.5 -12 30 2 0.5 0.5
9 0 1 0 0 0 1 0 0 0 1 40.5 -7 27 2 0.5 0.5
9 0 1 0 0 0 1 0 0 0 1 36.5 -2 -26 2 0.5 0.5
9 0 1 0 0 0 1 0 0 0 1 32.5 -9 -28.5 1 0.5 1
9 0 1 0 0 0 1 0 0 0 1 32.5 -9 28.5 1 0.5 1
9 0 1 0 0 0 1 0 0 0 1 22.5 -10 28.5 1 0.5 1
9 0 1 0 0 0 1 0 0 0 1 18.5 -5 -26 2 0.5 0.5
9 0 1 0 0 0 1 0 0 0 1 292 74 -24 0.5 0.5 1.5
9 0 1 0 0 0 1 0 0 0 1 292 74 24 0.5 0.5 1.5
9 0 1 0 0 0 1 0 0 0 1 287 65 24 0.5 0.5 1.5
9 0 1 0 0 0 1 0 0 0 1 283 68 -24 0.5 0.5 1.5
9 0 1 0 0 0 1 0 0 0 1 283 68 24 0.5 0.5 1.5
9 0 1 0 0 0 1 0 0 0 1 284 56 31 1.5 0.5 0.5
9 0 1 0 0 0 1 0 0 0 1 260 53 -30 1.5 0.5 0.5
9 0 1 0 0 0 1 0 0 0 1 260 53 30 1.5 0.5 0.5
9 0 1 0 0 0 1 0 0 0 1 253 52 -30 1.5 0.5 0.5
9 0 1 0 0 0 1 0 0 0 1 247 51 -30 1.5 0.5 0.5
9 0 1 0 0 0 1 0 0 0 1 247 51 30 1.5 0.5 0.5
9 0 1 0 0 0 1 0 0 0 1 243 61 -19 0.5 1.5 0.5
9 0 1 0 0 0 1 0 0 0 1 243 61 19 0.5 1.5 0.5
9 0 1 0 0 0 1 0 0 0 1 237 51 -32 1.5 0.5 0.5
9 0 1 0 0 0 1 0 0 0 1 237 51 32 1.5 0.5 0.5
9 0 1 0 0 0 1 0 0 0 1 235 49 -30 1.5 0.5 0.5
9 0 1 0 0 0 1 0 0 0 1 235 49 30 1.5 0.5 0.5
9 0 1 0 0 0 1 0 0 0 1 231 50 28 1.5 0.5 0.5
9 0 1 0 0 0 1 0 0 0 1 230 48 30 1.5 0.5 0.5
9 0 1 0 0 0 1 0 0 0 1 227 49 -32 1.5 0.5 0.5
9 0 1 0 0 0 1 0 0 0 1 226 49 -28 1.5 0.5 0.5
9 0 1 0 0 0 1 0 0 0 1 226 47 -30 1.5 0.5 0.5
9 0 1 0 0 0 1 0 0 0 1 226 47 30 1.5 0.5 0.5
9 0 1 0 0 0 1 0 0 0 1 221 46 -30 1.5 0.5 0.5
9 0 1 0 0 0 1 0 0 0 1 221 46 30 1.5 0.5 0.5
9 0 1 0 0 0 1 0 0 0 1 218 48 -31 1.5 0.5 0.5
9 0 1 0 0 0 1 0 0 0 1 218 48 31 1.5 0.5 0.5
9 0 1 0 0 0 1 0 0 0 1 217 56 -26 1.5 0.5 0.5
9 0 1 0 0 0 1 0 0 0 1 217 56 26 1.5 0.5 0.5
9 0 1 0 0 0 1 0 0 0 1 217 50 27 1.5 0.5 0.5
9 0 1 0 0 0 1 0 0 0 1 214 46 -28 1.5 0.5 0.5
9 0 1 0 0 0 1 0 0 0 1 213 49 -27 1.5 0.5 0.5
9 0 1 0 0 0 1 0 0 0 1 211 46 -31 1.5 0.5 0.5
9 0 1 0 0 0 1 0 0 0 1 211 46 31 1.5 0.5 0.5
9 0 1 0 0 0 1 0 0 0 1 210 54 26 1.5 0.5 0.5
9 0 1 0 0 0 1 0 0 0 1 210 50 -27 1.5 0.5 0.5
9 0 1 0 0 0 1 0 0 0 1 207 49 27 1.5 0.5 0.5
9 0 1 0 0 0 1 0 0 0 1 207 44 -28 1.5 0.5 0.5
9 0 1 0 0 0 1 0 0 0 1 206 47 -27 1.5 0.5 0.5
9 0 1 0 0 0 1 0 0 0 1 205 52 -26 1.5 0.5 0.5
9 0 1 0 0 0 1 0 0 0 1 203 48 -27 1.5 0.5 0.5
9 0 1 0 0 0 1 0 0 0 1 203 46 27 1.5 0.5 0.5
9 0 1 0 0 0 1 0 0 0 1 201 43 -31 1.5 0.5 0.5
9 0 1 0 0 0 1 0 0 0 1 201 43 31 1.5 0.5 0.5
9 0 1 0 0 0 1 0 0 0 1 200 47 27 1.5 0.5 0.5
9 0 1 0 0 0 1 0 0 0 1 200 45 -27 1.5 0.5 0.5
9 0 1 0 0 0 1 0 0 0 1 197 41 28 1.5 0.5 0.5
9 0 1 0 0 0 1 0 0 0 1 196 50 26 1.5 0.5 0.5
9 0 1 0 0 0 1 0 0 0 1 196 46 -27 1.5 0.5 0.5
9 0 1 0 0 0 1 0 0 0 1 194 49 -19 0.5 1.5 0.5
9 0 1 0 0 0 1 0 0 0 1 194 49 19 0.5 1.5 0.5
9 0 1 0 0 0 1 0 0 0 1 194 47 0 0.5 0.5 1.5
9 0 1 0 0 0 1 0 0 0 1 194 41 -31 1.5 0.5 0.5
9 0 1 0 0 0 1 0 0 0 1 194 41 31 1.5 0.5 0.5
9 0 1 0 0 0 1 0 0 0 1 194 40 32 1.5 0.5 0.5
9 0 1 0 0 0 1 0 0 0 1 193 45 27 1.5 0.5 0.5
9 0 1 0 0 0 1 0 0 0 1 192 43 -27 1.5 0.5 0.5
9 0 1 0 0 0 1 0 0 0 1 188 39 -31 1.5 0.5 0.5
9 0 1 0 0 0 1 0 0 0 1 188 39 31 1.5 0.5 0.5
9 0 1 0 0 0 1 0 0 0 1 186 41 27 1.5 0.5 0.5
9 0 1 0 0 0 1 0 0 0 1 184 42 27 1.5 0.5 0.5
9 0 1 0 0 0 1 0 0 0 1 179 40 27 1.5 0.5 0.5
9 0 1 0 0 0 1 0 0 0 1 175 42 -26 1.5 0.5 0.5
9 0 1 0 0 0 1 0 0 0 1 171 37 -27 1.5 0.5 0.5
9 0 1 0 0 0 1 0 0 0 1 170 40 26 1.5 0.5 0.5
9 0 1 0 0 0 1 0 0 0 1 169 34 27 1.5 0.5 0.5
9 0 1 0 0 0 1 0 0 0 1 168 31 -28 1.5 0.5 0.5
9 0 1 0 0 0 1 0 0 0 1 166 35 -27 1.5 0.5 0.5
9 0 1 0 0 0 1 0 0 0 1 165 30 -31 1.5 0.5 0.5
9 0 1 0 0 0 1 0 0 0 1 162 37 26 1.5 0.5 0.5
9 0 1 0 0 0 1 0 0 0 1 160 29 -29 0.5 0.5 1.5
9 0 1 0 0 0 1 0 0 0 1 160 29 29 0.5 0.5 1.5
9 0 1 0 0 0 1 0 0 0 1 152 32 -19 0.5 1.5 0.5
9 0 1 0 0 0 1 0 0 0 1 152 32 19 0.5 1.5 0.5
9 0 1 0 0 0 1 0 0 0 1 148 32 -19 0.5 1.5 0.5
9 0 1 0 0 0 1 0 0 0 1 148 32 19 0.5 1.5 0.5
9 0 1 0 0 0 1 0 0 0 1 148 31 -26 1.5 0.5 0.5
9 0 1 0 0 0 1 0 0 0 1 141 28 -26 1.5 0.5 0.5
9 0 1 0 0 0 1 0 0 0 1 141 28 26 1.5 0.5 0.5
9 0 1 0 0 0 1 0 0 0 1 136 26 -26 1.5 0.5 0.5
9 0 1 0 0 0 1 0 0 0 1 134 25 26 1.5 0.5 0.5
9 0 1 0 0 0 1 0 0 0 1 132 24 -26 1.5 0.5 0.5
9 0 1 0 0 0 1 0 0 0 1 126 16 -27 1.5 0.5 0.5
9 0 1 0 0 0 1 0 0 0 1 125 14 29 0.5 0.5 1.5
9 0 1 0 0 0 1 0 0 0 1 125 21 -26 1.5 0.5 0.5
9 0 1 0 0 0 1 0 0 0 1 118 19 -26 1.5 0.5 0.5
9 0 1 0 0 0 1 0 0 0 1 118 15 -27 1.5 0.5 0.5
9 0 1 0 0 0 1 0 0 0 1 118 15 27 1.5 0.5 0.5
9 0 1 0 0 0 1 0 0 0 1 117 18 26 1.5 0.5 0.5
9 0 1 0 0 0 1 0 0 0 1 117 10 -31 1.5 0.5 0.5
9 0 1 0 0 0 1 0 0 0 1 115 12 -27 1.5 0.5 0.5
9 0 1 0 0 0 1 0 0 0 1 115 12 27 1.5 0.5 0.5
9 0 1 0 0 0 1 0 0 0 1 114 9 31 1.5 0.5 0.5
9 0 1 0 0 0 1 0 0 0 1 113 13 -27 1.5 0.5 0.5
9 0 1 0 0 0 1 0 0 0 1 111 16 26 1.5 0.5 0.5
9 0 1 0 0 0 1 0 0 0 1 109 10 -27 1.5 0.5 0.5
9 0 1 0 0 0 1 0 0 0 1 109 10 27 1.5 0.5 0.5
9 0 1 0 0 0 1 0 0 0 1 107 11 -27 1.5 0.5 0.5
9 0 1 0 0 0 1 0 0 0 1 107 11 27 1.5 0.5 0.5
9 0 1 0 0 0 1 0 0 0 1 105 14 9 0.5 0.5 1.5
9 0 1 0 0 0 1 0 0 0 1 106 6 -31 1.5 0.5 0.5
9 0 1 0 0 0 1 0 0 0 1 105 4 31 1.5 0.5 0.5
9 0 1 0 0 0 1 0 0 0 1 104 11 -19 1.5 0.5 0.5
9 0 1 0 0 0 1 0 0 0 1 104 11 19 1.5 0.5 0.5
9 0 1 0 0 0 1 0 0 0 1 103 5 31 1.5 0.5 0.5
9 0 1 0 0 0 1 0 0 0 1 102 4 28 1.5 0.5 0.5
9 0 1 0 0 0 1 0 0 0 1 101 13 -26 1.5 0.5 0.5
9 0 1 0 0 0 1 0 0 0 1 101 7 -27 1.5 0.5 0.5
9 0 1 0 0 0 1 0 0 0 1 100 5 -29 0.5 0.5 1.5
9 0 1 0 0 0 1 0 0 0 1 100 4 -31 1.5 0.5 0.5
9 0 1 0 0 0 1 0 0 0 1 98 6 27 1.5 0.5 0.5
9 0 1 0 0 0 1 0 0 0 1 95 5 -27 1.5 0.5 0.5
9 0 1 0 0 0 1 0 0 0 1 93 1 -28 1.5 0.5 0.5
9 0 1 0 0 0 1 0 0 0 1 93 1 32 1.5 0.5 0.5
9 0 1 0 0 0 1 0 0 0 1 92 6 -27 1.5 0.5 0.5
9 0 1 0 0 0 1 0 0 0 1 92 -1 -30 1.5 0.5 0.5
9 0 1 0 0 0 1 0 0 0 1 92 -1 30 1.5 0.5 0.5
9 0 1 0 0 0 1 0 0 0 1 88 9 26 1.5 0.5 0.5
9 0 1 0 0 0 1 0 0 0 1 88 5 27 1.5 0.5 0.5
9 0 1 0 0 0 1 0 0 0 1 88 3 -27 1.5 0.5 0.5
9 0 1 0 0 0 1 0 0 0 1 85 -1 -28 1.5 0.5 0.5
9 0 1 0 0 0 1 0 0 0 1 85 -1 32 1.5 0.5 0.5
9 0 1 0 0 0 1 0 0 0 1 85 -2 -31 1.5 0.5 0.5
9 0 1 0 0 0 1 0 0 0 1 85 -2 -29 1.5 0.5 0.5
9 0 1 0 0 0 1 0 0 0 1 85 -2 29 1.5 0.5 0.5
9 0 1 0 0 0 1 0 0 0 1 85 -2 31 1.5 0.5 0.5
9 0 1 0 0 0 1 0 0 0 1 84 8 -26 1.5 0.5 0.5
9 0 1 0 0 0 1 0 0 0 1 83 2 -27 1.5 0.5 0.5
9 0 1 0 0 0 1 0 0 0 1 82 -1 31 1.5 0.5 0.5
9 0 1 0 0 0 1 0 0 0 1 77 -3 -28 1.5 0.5 0.5
9 0 1 0 0 0 1 0 0 0 1 77 -3 28 1.5 0.5 0.5
9 0 1 0 0 0 1 0 0 0 1 76 0 -27 1.5 0.5 0.5
9 0 1 0 0 0 1 0 0 0 1 76 0 27 1.5 0.5 0.5
9 0 1 0 0 0 1 0 0 0 1 74 -3 -31 1.5 0.5 0.5
9 0 1 0 0 0 1 0 0 0 1 74 -3 31 1.5 0.5 0.5
9 0 1 0 0 0 1 0 0 0 1 74 -4 32 1.5 0.5 0.5
9 0 1 0 0 0 1 0 0 0 1 72 5 -26 1.5 0.5 0.5
9 0 1 0 0 0 1 0 0 0 1 70 -5 -32 1.5 0.5 0.5
9 0 1 0 0 0 1 0 0 0 1 69 -5 -28 1.5 0.5 0.5
9 0 1 0 0 0 1 0 0 0 1 69 -7 -30 1.5 0.5 0.5
9 0 1 0 0 0 1 0 0 0 1 69 -7 30 1.5 0.5 0.5
9 0 1 0 0 0 1 0 0 0 1 65 -6 32 1.5 0.5 0.5
9 0 1 0 0 0 1 0 0 0 1 64 -8 -30 1.5 0.5 0.5
9 0 1 0 0 0 1 0 0 0 1 64 -8 30 1.5 0.5 0.5
9 0 1 0 0 0 1 0 0 0 1 58 -9 -30 1.5 0.5 0.5
9 0 1 0 0 0 1 0 0 0 1 58 -9 30 1.5 0.5 0.5
9 0 1 0 0 0 1 0 0 0 1 56 -1 -19 1.5 0.5 0.5
9 0 1 0 0 0 1 0 0 0 1 56 -1 19 1.5 0.5 0.5
9 0 1 0 0 0 1 0 0 0 1 54 -8 32 1.5 0.5 0.5
9 0 1 0 0 0 1 0 0 0 1 48 -9 32 1.5 0.5 0.5
9 0 1 0 0 0 1 0 0 0 1 47 -11 -30 1.5 0.5 0.5
9 0 1 0 0 0 1 0 0 0 1 18 -5 26 1.5 0.5 0.5
9 0 1 0 0 0 1 0 0 0 1 15 -6 -26 1.5 0.5 0.5
9 0 1 0 0 0 1 0 0 0 1 15 -6 26 1.5 0.5 0.5
9 0 1 0 0 0 1 0 0 0 1 8 2 -24 0.5 0.5 1.5
9 0 1 0 0 0 1 0 0 0 1 8 2 24 0.5 0.5 1.5
9 0 1 0 0 0 1 0 0 0 1 -7 -16 -30 1.5 0.5 0.5
9 0 1 0 0 0 1 0 0 0 1 -7 -16 30 1.5 0.5 0.5
