9 0 1 0 0 0 1 0 0 0 1 0 12 -8 18.5 10.5 0.5
9 0 1 0 0 0 1 0 0 0 1 0 12 8 18.5 10.5 0.5
9 0 1 0 0 0 1 0 0 0 1 0 2 0 18.5 0.5 7.5
9 0 1 0 0 0 1 0 0 0 1 18 12.5 0 0.5 10 7.5
9 0 1 0 0 0 1 0 0 0 1 -18 12.5 0 0.5 10 7.5
9 0 1 0 0 0 1 0 0 0 1 0 14 0 1.5 8.5 1.5
9 0 1 0 0 0 1 0 0 0 1 30 12 0 1.5 2.5 1.5
9 0 1 0 0 0 1 0 0 0 1 10 -2 0 3.5 0.5 2.5
9 0 1 0 0 0 1 0 0 0 1 -10 -2 0 3.5 0.5 2.5
9 0 1 0 0 0 1 0 0 0 1 2 14 0 0.5 8.5 0.5
9 0 1 0 0 0 1 0 0 0 1 0 14 -2 0.5 8.5 0.5
9 0 1 0 0 0 1 0 0 0 1 0 14 2 0.5 8.5 0.5
9 0 1 0 0 0 1 0 0 0 1 -2 14 0 0.5 8.5 0.5
9 0 1 0 0 0 1 0 0 0 1 32 12 0 0.5 2.5 0.5
9 0 1 0 0 0 1 0 0 0 1 30 12 -2 0.5 2.5 0.5
9 0 1 0 0 0 1 0 0 0 1 30 12 2 0.5 2.5 0.5
9 0 1 0 0 0 1 0 0 0 1 28 12 0 0.5 2.5 0.5
9 0 1 0 0 0 1 0 0 0 1 10 -2 -3 2.5 0.5 0.5
9 0 1 0 0 0 1 0 0 0 1 10 -2 3 2.5 0.5 0.5
9 0 1 0 0 0 1 0 0 0 1 -10 -2 -3 2.5 0.5 0.5
9 0 1 0 0 0 1 0 0 0 1 -10 -2 3 2.5 0.5 0.5
