9 0 1 0 0 0 1 0 0 0 1 0 -21.5 0 6.5 1 3.5
9 0 1 0 0 0 1 0 0 0 1 -21.5 0 0 1 6.5 3.5
9 0 1 0 0 0 1 0 0 0 1 22 0 0 1.5 3.5 3.5
9 0 1 0 0 0 1 0 0 0 1 0 22 0 3.5 1.5 3.5
9 0 1 0 0 0 1 0 0 0 1 7 20.5 0 2.5 1 3.5
9 0 1 0 0 0 1 0 0 0 1 -7 20.5 0 2.5 1 3.5
9 0 1 0 0 0 1 0 0 0 1 0 -23 0 3.5 0.5 4.5
9 0 1 0 0 0 1 0 0 0 1 -23 0 0 0.5 3.5 4.5
9 0 1 0 0 0 1 0 0 0 1 20.5 7.5 0 1 2 3.5
9 0 1 0 0 0 1 0 0 0 1 20.5 -7.5 0 1 2 3.5
9 0 1 0 0 0 1 0 0 0 1 8 -20 0 3.5 0.5 3.5
9 0 1 0 0 0 1 0 0 0 1 -8 -20 0 3.5 0.5 3.5
9 0 1 0 0 0 1 0 0 0 1 -19.5 10 0 1 1.5 3.5
9 0 1 0 0 0 1 0 0 0 1 -19.5 -10 0 1 1.5 3.5
9 0 1 0 0 0 1 0 0 0 1 26.5 2 4.5 3 0.5 3
9 0 1 0 0 0 1 0 0 0 1 26.5 -2 -4.5 3 0.5 3
9 0 1 0 0 0 1 0 0 0 1 2 26.5 4.5 0.5 3 3
9 0 1 0 0 0 1 0 0 0 1 2 -26.5 -4.5 0.5 3 3
9 0 1 0 0 0 1 0 0 0 1 -2 26.5 -4.5 0.5 3 3
9 0 1 0 0 0 1 0 0 0 1 -2 -26.5 4.5 0.5 3 3
9 0 1 0 0 0 1 0 0 0 1 -26.5 2 -4.5 3 0.5 3
9 0 1 0 0 0 1 0 0 0 1 -26.5 -2 4.5 3 0.5 3
9 0 1 0 0 0 1 0 0 0 1 21.5 4.5 0 1 1 3.5
9 0 1 0 0 0 1 0 0 0 1 21.5 -4.5 0 1 1 3.5
9 0 1 0 0 0 1 0 0 0 1 19.5 10.5 0 1 1 3.5
9 0 1 0 0 0 1 0 0 0 1 19.5 -10.5 0 1 1 3.5
9 0 1 0 0 0 1 0 0 0 1 18 12.5 0 0.5 2 3.5
9 0 1 0 0 0 1 0 0 0 1 17.5 -13.5 0 1 1 3.5
9 0 1 0 0 0 1 0 0 0 1 16.5 14.5 0 1 1 3.5
9 0 1 0 0 0 1 0 0 0 1 15.5 -15.5 0 1 1 3.5
9 0 1 0 0 0 1 0 0 0 1 14.5 16.5 0 1 1 3.5
9 0 1 0 0 0 1 0 0 0 1 13.5 -17.5 0 1 1 3.5
9 0 1 0 0 0 1 0 0 0 1 12.5 18 0 2 0.5 3.5
9 0 1 0 0 0 1 0 0 0 1 11.5 -18.5 0 1 1 3.5
9 0 1 0 0 0 1 0 0 0 1 10.5 19.5 0 1 1 3.5
9 0 1 0 0 0 1 0 0 0 1 -10.5 19.5 0 1 1 3.5
9 0 1 0 0 0 1 0 0 0 1 -10.5 -19 0 2 0.5 3.5
9 0 1 0 0 0 1 0 0 0 1 -12.5 18 0 2 0.5 3.5
9 0 1 0 0 0 1 0 0 0 1 -12.5 -18 0 2 0.5 3.5
9 0 1 0 0 0 1 0 0 0 1 -14.5 16.5 0 1 1 3.5
9 0 1 0 0 0 1 0 0 0 1 -14.5 -16.5 0 1 1 3.5
9 0 1 0 0 0 1 0 0 0 1 -16.5 14.5 0 1 1 3.5
9 0 1 0 0 0 1 0 0 0 1 -16.5 -14.5 0 1 1 3.5
9 0 1 0 0 0 1 0 0 0 1 -18 -12.5 0 0.5 2 3.5
9 0 1 0 0 0 1 0 0 0 1 -20.5 7.5 0 1 1 3.5
9 0 1 0 0 0 1 0 0 0 1 -20.5 -7.5 0 1 1 3.5
9 0 1 0 0 0 1 0 0 0 1 5 22 0 1.5 0.5 4.5
9 0 1 0 0 0 1 0 0 0 1 -5 22 0 1.5 0.5 4.5
9 0 1 0 0 0 1 0 0 0 1 8 -21 0.5 1.5 0.5 4
9 0 1 0 0 0 1 0 0 0 1 -8 -21 0.5 1.5 0.5 4
9 0 1 0 0 0 1 0 0 0 1 -18 12 0 0.5 1.5 3.5
9 0 1 0 0 0 1 0 0 0 1 22.5 1 -4 1 4.5 0.5
9 0 1 0 0 0 1 0 0 0 1 22.5 -1 4 1 4.5 0.5
9 0 1 0 0 0 1 0 0 0 1 1 -22 -4 7.5 0.5 0.5
9 0 1 0 0 0 1 0 0 0 1 -1 -22 4 7.5 0.5 0.5
9 0 1 0 0 0 1 0 0 0 1 -22 1 -4 0.5 7.5 0.5
9 0 1 0 0 0 1 0 0 0 1 -22 -1 4 0.5 7.5 0.5
9 0 1 0 0 0 1 0 0 0 1 18.5 -12 0 1 0.5 3.5
9 0 1 0 0 0 1 0 0 0 1 9.5 -19 0 1 0.5 3.5
9 0 1 0 0 0 1 0 0 0 1 0 22.5 -4 3.5 1 0.5
9 0 1 0 0 0 1 0 0 0 1 0 22.5 4 3.5 1 0.5
9 0 1 0 0 0 1 0 0 0 1 27.5 6 -4.5 1 0.5 3
9 0 1 0 0 0 1 0 0 0 1 27.5 -6 4.5 1 0.5 3
9 0 1 0 0 0 1 0 0 0 1 16.5 16.5 -3 1 1 1.5
9 0 1 0 0 0 1 0 0 0 1 6 27.5 -4.5 0.5 1 3
9 0 1 0 0 0 1 0 0 0 1 6 -27.5 4.5 0.5 1 3
9 0 1 0 0 0 1 0 0 0 1 -6 27.5 4.5 0.5 1 3
9 0 1 0 0 0 1 0 0 0 1 -6 -27.5 -4.5 0.5 1 3
9 0 1 0 0 0 1 0 0 0 1 -16.5 16.5 3 1 1 1.5
9 0 1 0 0 0 1 0 0 0 1 -16.5 -16.5 -3 1 1 1.5
9 0 1 0 0 0 1 0 0 0 1 -21 10.5 3 0.5 2 1.5
9 0 1 0 0 0 1 0 0 0 1 -21 -10.5 -3 0.5 2 1.5
9 0 1 0 0 0 1 0 0 0 1 -27.5 6 4.5 1 0.5 3
9 0 1 0 0 0 1 0 0 0 1 -27.5 -6 -4.5 1 0.5 3
9 0 1 0 0 0 1 0 0 0 1 22 7 3 0.5 1.5 1.5
9 0 1 0 0 0 1 0 0 0 1 22 -6 0 0.5 0.5 4.5
9 0 1 0 0 0 1 0 0 0 1 21 11 -3 0.5 1.5 1.5
9 0 1 0 0 0 1 0 0 0 1 21 -11 3 0.5 1.5 1.5
9 0 1 0 0 0 1 0 0 0 1 19 13 3 0.5 1.5 1.5
9 0 1 0 0 0 1 0 0 0 1 17 -15 0 0.5 0.5 4.5
9 0 1 0 0 0 1 0 0 0 1 16 -17 3 1.5 0.5 1.5
9 0 1 0 0 0 1 0 0 0 1 12 20 -3 0.5 1.5 1.5
9 0 1 0 0 0 1 0 0 0 1 13 19 3 1.5 0.5 1.5
9 0 1 0 0 0 1 0 0 0 1 11 -21 3 1.5 0.5 1.5
9 0 1 0 0 0 1 0 0 0 1 -11 21 3 1.5 0.5 1.5
9 0 1 0 0 0 1 0 0 0 1 -12 19 0 0.5 0.5 4.5
9 0 1 0 0 0 1 0 0 0 1 -11 -21 -3 1.5 0.5 1.5
9 0 1 0 0 0 1 0 0 0 1 -18 14 0 0.5 0.5 4.5
9 0 1 0 0 0 1 0 0 0 1 -19 13 -3 0.5 1.5 1.5
9 0 1 0 0 0 1 0 0 0 1 -19 -12 0 0.5 0.5 4.5
9 0 1 0 0 0 1 0 0 0 1 19 9 0 0.5 0.5 3.5
9 0 1 0 0 0 1 0 0 0 1 19 -9 0 0.5 0.5 3.5
9 0 1 0 0 0 1 0 0 0 1 18 -11 0 0.5 0.5 3.5
9 0 1 0 0 0 1 0 0 0 1 17 13 0 0.5 0.5 3.5
9 0 1 0 0 0 1 0 0 0 1 16 -14 0 0.5 0.5 3.5
9 0 1 0 0 0 1 0 0 0 1 15 15 0 0.5 0.5 3.5
9 0 1 0 0 0 1 0 0 0 1 14 -16 0 0.5 0.5 3.5
9 0 1 0 0 0 1 0 0 0 1 13 17 0 0.5 0.5 3.5
9 0 1 0 0 0 1 0 0 0 1 9 19 0 0.5 0.5 3.5
9 0 1 0 0 0 1 0 0 0 1 4 21 0 0.5 0.5 3.5
9 0 1 0 0 0 1 0 0 0 1 -4 21 0 0.5 0.5 3.5
9 0 1 0 0 0 1 0 0 0 1 -9 19 0 0.5 0.5 3.5
9 0 1 0 0 0 1 0 0 0 1 -13 17 0 0.5 0.5 3.5
9 0 1 0 0 0 1 0 0 0 1 -13 -17 0 0.5 0.5 3.5
9 0 1 0 0 0 1 0 0 0 1 -15 15 0 0.5 0.5 3.5
9 0 1 0 0 0 1 0 0 0 1 -15 -15 0 0.5 0.5 3.5
9 0 1 0 0 0 1 0 0 0 1 -17 13 0 0.5 0.5 3.5
9 0 1 0 0 0 1 0 0 0 1 -17 -13 0 0.5 0.5 3.5
9 0 1 0 0 0 1 0 0 0 1 -20 6 0 0.5 0.5 3.5
9 0 1 0 0 0 1 0 0 0 1 -20 -6 0 0.5 0.5 3.5
9 0 1 0 0 0 1 0 0 0 1 27 10 4.5 0.5 0.5 3
9 0 1 0 0 0 1 0 0 0 1 27 -10 -4.5 0.5 0.5 3
9 0 1 0 0 0 1 0 0 0 1 22 6 -1.5 0.5 0.5 3
9 0 1 0 0 0 1 0 0 0 1 22 -7.5 -3 0.5 1 1.5
9 0 1 0 0 0 1 0 0 0 1 19.5 12 -3 1 0.5 1.5
9 0 1 0 0 0 1 0 0 0 1 19 -13.5 -3 0.5 1 1.5
9 0 1 0 0 0 1 0 0 0 1 16 16 1.5 0.5 0.5 3
9 0 1 0 0 0 1 0 0 0 1 15 -17 -1.5 0.5 0.5 3
9 0 1 0 0 0 1 0 0 0 1 13.5 -19 -3 1 0.5 1.5
9 0 1 0 0 0 1 0 0 0 1 10 27 4.5 0.5 0.5 3
9 0 1 0 0 0 1 0 0 0 1 10.5 21 -3 1 0.5 1.5
9 0 1 0 0 0 1 0 0 0 1 10 -27 -4.5 0.5 0.5 3
9 0 1 0 0 0 1 0 0 0 1 7.5 22 3 1 0.5 1.5
9 0 1 0 0 0 1 0 0 0 1 5 23 -4.5 0.5 0.5 3
9 0 1 0 0 0 1 0 0 0 1 5 -23 4.5 0.5 0.5 3
9 0 1 0 0 0 1 0 0 0 1 -4.5 23 3 1 0.5 1.5
9 0 1 0 0 0 1 0 0 0 1 -4.5 -23 -3 1 0.5 1.5
9 0 1 0 0 0 1 0 0 0 1 -7.5 22 -3 1 0.5 1.5
9 0 1 0 0 0 1 0 0 0 1 -10 27 -4.5 0.5 0.5 3
9 0 1 0 0 0 1 0 0 0 1 -10 -27 4.5 0.5 0.5 3
9 0 1 0 0 0 1 0 0 0 1 -13.5 19 -3 1 0.5 1.5
9 0 1 0 0 0 1 0 0 0 1 -13.5 -19 3 1 0.5 1.5
9 0 1 0 0 0 1 0 0 0 1 -16 16 -1.5 0.5 0.5 3
9 0 1 0 0 0 1 0 0 0 1 -16 -16 1.5 0.5 0.5 3
9 0 1 0 0 0 1 0 0 0 1 -19 12 1.5 0.5 0.5 3
9 0 1 0 0 0 1 0 0 0 1 -19 -13.5 3 0.5 1 1.5
9 0 1 0 0 0 1 0 0 0 1 -21 9 -1.5 0.5 0.5 3
9 0 1 0 0 0 1 0 0 0 1 -21 -9 1.5 0.5 0.5 3
9 0 1 0 0 0 1 0 0 0 1 -23 4.5 3 0.5 1 1.5
9 0 1 0 0 0 1 0 0 0 1 -23 -4.5 -3 0.5 1 1.5
9 0 1 0 0 0 1 0 0 0 1 -27 10 -4.5 0.5 0.5 3
9 0 1 0 0 0 1 0 0 0 1 -27 -10 4.5 0.5 0.5 3
9 0 1 0 0 0 1 0 0 0 1 23 4.5 -2.5 0.5 1 1
9 0 1 0 0 0 1 0 0 0 1 23 -4.5 2.5 0.5 1 1
9 0 1 0 0 0 1 0 0 0 1 21 7.5 4 0.5 2 0.5
9 0 1 0 0 0 1 0 0 0 1 20 -10.5 4 0.5 2 0.5
9 0 1 0 0 0 1 0 0 0 1 10.5 -20 4 2 0.5 0.5
9 0 1 0 0 0 1 0 0 0 1 7.5 -22 -2.5 1 0.5 1
9 0 1 0 0 0 1 0 0 0 1 7.5 21 4 2 0.5 0.5
9 0 1 0 0 0 1 0 0 0 1 -7 -22 1.5 0.5 0.5 2
9 0 1 0 0 0 1 0 0 0 1 -10.5 20 4 2 0.5 0.5
9 0 1 0 0 0 1 0 0 0 1 -20 10.5 4 0.5 2 0.5
9 0 1 0 0 0 1 0 0 0 1 -22 7.5 -2.5 0.5 1 1
9 0 1 0 0 0 1 0 0 0 1 -22 -7.5 2.5 0.5 1 1
9 0 1 0 0 0 1 0 0 0 1 21 12 -6 0.5 0.5 1.5
9 0 1 0 0 0 1 0 0 0 1 21 8 -4 0.5 1.5 0.5
9 0 1 0 0 0 1 0 0 0 1 21 -8 -4 0.5 1.5 0.5
9 0 1 0 0 0 1 0 0 0 1 21 -8 4 0.5 1.5 0.5
9 0 1 0 0 0 1 0 0 0 1 21 -12 6 0.5 0.5 1.5
9 0 1 0 0 0 1 0 0 0 1 19 12 0 0.5 0.5 1.5
9 0 1 0 0 0 1 0 0 0 1 17 17 -6 0.5 0.5 1.5
9 0 1 0 0 0 1 0 0 0 1 17 -16 3 0.5 0.5 1.5
9 0 1 0 0 0 1 0 0 0 1 17 -17 6 0.5 0.5 1.5
9 0 1 0 0 0 1 0 0 0 1 12 21 -6 0.5 0.5 1.5
9 0 1 0 0 0 1 0 0 0 1 12 19 0 0.5 0.5 1.5
9 0 1 0 0 0 1 0 0 0 1 12 -21 6 0.5 0.5 1.5
9 0 1 0 0 0 1 0 0 0 1 4 23 -3 0.5 0.5 1.5
9 0 1 0 0 0 1 0 0 0 1 4 -23 3 0.5 0.5 1.5
9 0 1 0 0 0 1 0 0 0 1 -5 23 6 0.5 0.5 1.5
9 0 1 0 0 0 1 0 0 0 1 -5 -23 -6 0.5 0.5 1.5
9 0 1 0 0 0 1 0 0 0 1 -8 21 4 1.5 0.5 0.5
9 0 1 0 0 0 1 0 0 0 1 -12 21 6 0.5 0.5 1.5
9 0 1 0 0 0 1 0 0 0 1 -11 -20 -4 1.5 0.5 0.5
9 0 1 0 0 0 1 0 0 0 1 -12 -21 -6 0.5 0.5 1.5
9 0 1 0 0 0 1 0 0 0 1 -17 17 6 0.5 0.5 1.5
9 0 1 0 0 0 1 0 0 0 1 -17 -17 -6 0.5 0.5 1.5
9 0 1 0 0 0 1 0 0 0 1 -20 -11 -4 0.5 1.5 0.5
9 0 1 0 0 0 1 0 0 0 1 -21 12 6 0.5 0.5 1.5
9 0 1 0 0 0 1 0 0 0 1 -21 -7 4 0.5 1.5 0.5
9 0 1 0 0 0 1 0 0 0 1 -21 -12 -6 0.5 0.5 1.5
