9 0 1 0 0 0 1 0 0 0 1 10 -9 6.744999 4.5 1.5 4.5
9 0 1 0 0 0 1 0 0 0 1 -10 -9 6.744999 4.5 1.5 4.5
9 0 1 0 0 0 1 0 0 0 1 0 -4.5 -1.255001 18.5 3 0.5
9 0 1 0 0 0 1 0 0 0 1 0 -4.5 14.745 18.5 3 0.5
9 0 1 0 0 0 1 0 0 0 1 0 -15 5.744999 6.5 1.5 2.5
9 0 1 0 0 0 1 0 0 0 1 0 -25.5 2.744999 1.5 7 1.5
9 0 1 0 0 0 1 0 0 0 1 18 -4.5 6.744999 0.5 3 7.5
9 0 1 0 0 0 1 0 0 0 1 -18 -4.5 6.744999 0.5 3 7.5
9 0 1 0 0 0 1 0 0 0 1 0 -17.5 4.244999 4.5 1 2
9 0 1 0 0 0 1 0 0 0 1 0 -6.5 -0.2550011 17.5 1 0.5
9 0 1 0 0 0 1 0 0 0 1 0 -7 13.245 17.5 0.5 1
9 0 1 0 0 0 1 0 0 0 1 0 -7.5 0.7449989 16.5 1 0.5
9 0 1 0 0 0 1 0 0 0 1 0 -8 12.245 16.5 0.5 1
9 0 1 0 0 0 1 0 0 0 1 0 -8.5 1.744999 15.5 1 0.5
9 0 1 0 0 0 1 0 0 0 1 0 -6 13.745 17.5 0.5 0.5
9 0 1 0 0 0 1 0 0 0 1 0 -9 2.744999 5.5 1.5 0.5
9 0 1 0 0 0 1 0 0 0 1 0 -9 10.745 5.5 1.5 0.5
9 0 1 0 0 0 1 0 0 0 1 0 -9 11.745 15.5 0.5 0.5
9 0 1 0 0 0 1 0 0 0 1 0 -21 5.244999 1.5 2.5 1
9 0 1 0 0 0 1 0 0 0 1 17 -6.5 6.244999 0.5 1 6
9 0 1 0 0 0 1 0 0 0 1 0 -21.5 -0.7550011 1.5 1 2
9 0 1 0 0 0 1 0 0 0 1 -17 -6.5 6.244999 0.5 1 6
9 0 1 0 0 0 1 0 0 0 1 16 -7.5 6.244999 0.5 1 5
9 0 1 0 0 0 1 0 0 0 1 -16 -7.5 6.244999 0.5 1 5
9 0 1 0 0 0 1 0 0 0 1 0 -14 8.744999 9.5 0.5 0.5
9 0 1 0 0 0 1 0 0 0 1 15 -8.5 6.744999 0.5 1 4.5
9 0 1 0 0 0 1 0 0 0 1 -15 -8.5 6.744999 0.5 1 4.5
9 0 1 0 0 0 1 0 0 0 1 8 -14 5.744999 1.5 0.5 2.5
9 0 1 0 0 0 1 0 0 0 1 0 -19 6.744999 1.5 2.5 0.5
9 0 1 0 0 0 1 0 0 0 1 -8 -14 5.744999 1.5 0.5 2.5
9 0 1 0 0 0 1 0 0 0 1 0 -19.5 0.7449989 3.5 1 0.5
9 0 1 0 0 0 1 0 0 0 1 0 -16 2.744999 6.5 0.5 0.5
9 0 1 0 0 0 1 0 0 0 1 0 -8.5 6.744999 1.5 2 0.5
9 0 1 0 0 0 1 0 0 0 1 0 -23 -4.755001 2.5 0.5 1
9 0 1 0 0 0 1 0 0 0 1 3 -19 2.744999 1.5 0.5 1.5
9 0 1 0 0 0 1 0 0 0 1 0 -25 4.744999 1.5 1.5 0.5
9 0 1 0 0 0 1 0 0 0 1 0 -18 1.744999 4.5 0.5 0.5
9 0 1 0 0 0 1 0 0 0 1 -2.5 -19 3.244999 1 0.5 2
9 0 1 0 0 0 1 0 0 0 1 0 -20 -0.2550011 3.5 0.5 0.5
9 0 1 0 0 0 1 0 0 0 1 13.5 -8 -0.2550011 3 0.5 0.5
9 0 1 0 0 0 1 0 0 0 1 0 -17.5 7.744999 1.5 1 0.5
9 0 1 0 0 0 1 0 0 0 1 0 -24 -6.755001 1.5 0.5 1
9 0 1 0 0 0 1 0 0 0 1 0 -31.5 0.7449989 1.5 1 0.5
9 0 1 0 0 0 1 0 0 0 1 -13.5 -8 13.745 3 0.5 0.5
9 0 1 0 0 0 1 0 0 0 1 7 -15 5.744999 0.5 0.5 2.5
9 0 1 0 0 0 1 0 0 0 1 5 -17 4.744999 0.5 0.5 2.5
9 0 1 0 0 0 1 0 0 0 1 0 -22 -3.255001 2.5 0.5 0.5
9 0 1 0 0 0 1 0 0 0 1 -5 -17 4.744999 0.5 0.5 2.5
9 0 1 0 0 0 1 0 0 0 1 -7 -15 5.744999 0.5 0.5 2.5
9 0 1 0 0 0 1 0 0 0 1 2.5 -20 2.244999 1 0.5 1
9 0 1 0 0 0 1 0 0 0 1 2 -21 -0.7550011 0.5 0.5 2
9 0 1 0 0 0 1 0 0 0 1 -0.5 -15 8.744999 2 0.5 0.5
9 0 1 0 0 0 1 0 0 0 1 -2 -21 -0.7550011 0.5 0.5 2
9 0 1 0 0 0 1 0 0 0 1 -2 -31 2.244999 0.5 0.5 2
9 0 1 0 0 0 1 0 0 0 1 -2.5 -20 2.244999 1 0.5 1
9 0 1 0 0 0 1 0 0 0 1 5 -9 3.744999 0.5 1.5 0.5
9 0 1 0 0 0 1 0 0 0 1 5 -9 9.744999 0.5 1.5 0.5
9 0 1 0 0 0 1 0 0 0 1 3 -17 6.744999 1.5 0.5 0.5
9 0 1 0 0 0 1 0 0 0 1 2 -31 2.744999 0.5 0.5 1.5
9 0 1 0 0 0 1 0 0 0 1 0 -25 -9.255001 1.5 0.5 0.5
9 0 1 0 0 0 1 0 0 0 1 0 -26 -11.255 1.5 0.5 0.5
9 0 1 0 0 0 1 0 0 0 1 0 -27 0.7449989 1.5 0.5 0.5
9 0 1 0 0 0 1 0 0 0 1 -3 -17 6.744999 1.5 0.5 0.5
9 0 1 0 0 0 1 0 0 0 1 -5 -9 3.744999 0.5 1.5 0.5
9 0 1 0 0 0 1 0 0 0 1 -5 -9 9.744999 0.5 1.5 0.5
