9 0 1 0 0 0 1 0 0 0 1 10 -1 0 4.5 1.5 4.5
9 0 1 0 0 0 1 0 0 0 1 -10 -1 0 4.5 1.5 4.5
9 0 1 0 0 0 1 0 0 0 1 0 3.5 -8 18.5 3 0.5
9 0 1 0 0 0 1 0 0 0 1 0 3.5 8 18.5 3 0.5
9 0 1 0 0 0 1 0 0 0 1 0 -7 -1 6.5 1.5 2.5
9 0 1 0 0 0 1 0 0 0 1 0 -17.5 -4 1.5 7 1.5
9 0 1 0 0 0 1 0 0 0 1 18 3.5 0 0.5 3 7.5
9 0 1 0 0 0 1 0 0 0 1 -18 3.5 0 0.5 3 7.5
9 0 1 0 0 0 1 0 0 0 1 0 -9.5 -2.5 4.5 1 2
9 0 1 0 0 0 1 0 0 0 1 0 1.5 -7 17.5 1 0.5
9 0 1 0 0 0 1 0 0 0 1 0 1 6.5 17.5 0.5 1
9 0 1 0 0 0 1 0 0 0 1 0 0.5 -6 16.5 1 0.5
9 0 1 0 0 0 1 0 0 0 1 0 0 5.5 16.5 0.5 1
9 0 1 0 0 0 1 0 0 0 1 0 -0.5 -5 15.5 1 0.5
9 0 1 0 0 0 1 0 0 0 1 0 2 7 17.5 0.5 0.5
9 0 1 0 0 0 1 0 0 0 1 0 -1 -4 5.5 1.5 0.5
9 0 1 0 0 0 1 0 0 0 1 0 -1 4 5.5 1.5 0.5
9 0 1 0 0 0 1 0 0 0 1 0 -1 5 15.5 0.5 0.5
9 0 1 0 0 0 1 0 0 0 1 0 -13 -1.5 1.5 2.5 1
9 0 1 0 0 0 1 0 0 0 1 17 1.5 -0.5 0.5 1 6
9 0 1 0 0 0 1 0 0 0 1 0 -13.5 -7.5 1.5 1 2
9 0 1 0 0 0 1 0 0 0 1 -17 1.5 -0.5 0.5 1 6
9 0 1 0 0 0 1 0 0 0 1 16 0.5 -0.5 0.5 1 5
9 0 1 0 0 0 1 0 0 0 1 -16 0.5 -0.5 0.5 1 5
9 0 1 0 0 0 1 0 0 0 1 0 -6 2 9.5 0.5 0.5
9 0 1 0 0 0 1 0 0 0 1 15 -0.5 0 0.5 1 4.5
9 0 1 0 0 0 1 0 0 0 1 -15 -0.5 0 0.5 1 4.5
9 0 1 0 0 0 1 0 0 0 1 8 -6 -1 1.5 0.5 2.5
9 0 1 0 0 0 1 0 0 0 1 0 -11 0 1.5 2.5 0.5
9 0 1 0 0 0 1 0 0 0 1 -8 -6 -1 1.5 0.5 2.5
9 0 1 0 0 0 1 0 0 0 1 0 -11.5 -6 3.5 1 0.5
9 0 1 0 0 0 1 0 0 0 1 0 -8 -4 6.5 0.5 0.5
9 0 1 0 0 0 1 0 0 0 1 0 -0.5 0 1.5 2 0.5
9 0 1 0 0 0 1 0 0 0 1 0 -15 -11.5 2.5 0.5 1
9 0 1 0 0 0 1 0 0 0 1 3 -11 -4 1.5 0.5 1.5
9 0 1 0 0 0 1 0 0 0 1 0 -17 -2 1.5 1.5 0.5
9 0 1 0 0 0 1 0 0 0 1 0 -10 -5 4.5 0.5 0.5
9 0 1 0 0 0 1 0 0 0 1 -2.5 -11 -3.5 1 0.5 2
9 0 1 0 0 0 1 0 0 0 1 0 -12 -7 3.5 0.5 0.5
9 0 1 0 0 0 1 0 0 0 1 13.5 0 -7 3 0.5 0.5
9 0 1 0 0 0 1 0 0 0 1 0 -9.5 1 1.5 1 0.5
9 0 1 0 0 0 1 0 0 0 1 0 -16 -13.5 1.5 0.5 1
9 0 1 0 0 0 1 0 0 0 1 0 -23.5 -6 1.5 1 0.5
9 0 1 0 0 0 1 0 0 0 1 -13.5 0 7 3 0.5 0.5
9 0 1 0 0 0 1 0 0 0 1 7 -7 -1 0.5 0.5 2.5
9 0 1 0 0 0 1 0 0 0 1 5 -9 -2 0.5 0.5 2.5
9 0 1 0 0 0 1 0 0 0 1 0 -14 -10 2.5 0.5 0.5
9 0 1 0 0 0 1 0 0 0 1 -5 -9 -2 0.5 0.5 2.5
9 0 1 0 0 0 1 0 0 0 1 -7 -7 -1 0.5 0.5 2.5
9 0 1 0 0 0 1 0 0 0 1 2.5 -12 -4.5 1 0.5 1
9 0 1 0 0 0 1 0 0 0 1 2 -13 -7.5 0.5 0.5 2
9 0 1 0 0 0 1 0 0 0 1 -0.5 -7 2 2 0.5 0.5
9 0 1 0 0 0 1 0 0 0 1 -2 -13 -7.5 0.5 0.5 2
9 0 1 0 0 0 1 0 0 0 1 -2 -23 -4.5 0.5 0.5 2
9 0 1 0 0 0 1 0 0 0 1 -2.5 -12 -4.5 1 0.5 1
9 0 1 0 0 0 1 0 0 0 1 5 -1 -3 0.5 1.5 0.5
9 0 1 0 0 0 1 0 0 0 1 5 -1 3 0.5 1.5 0.5
9 0 1 0 0 0 1 0 0 0 1 3 -9 0 1.5 0.5 0.5
9 0 1 0 0 0 1 0 0 0 1 2 -23 -4 0.5 0.5 1.5
9 0 1 0 0 0 1 0 0 0 1 0 -17 -16 1.5 0.5 0.5
9 0 1 0 0 0 1 0 0 0 1 0 -18 -18 1.5 0.5 0.5
9 0 1 0 0 0 1 0 0 0 1 0 -19 -6 1.5 0.5 0.5
9 0 1 0 0 0 1 0 0 0 1 -3 -9 0 1.5 0.5 0.5
9 0 1 0 0 0 1 0 0 0 1 -5 -1 -3 0.5 1.5 0.5
9 0 1 0 0 0 1 0 0 0 1 -5 -1 3 0.5 1.5 0.5
