9 0 1 0 0 0 1 0 0 0 1 0 2 0 28.5 0.5 22.5
9 0 1 0 0 0 1 0 0 0 1 -36 2 0 7.5 0.5 9.5
9 0 1 0 0 0 1 0 0 0 1 36.5 2 0 8 0.5 8.5
9 0 1 0 0 0 1 0 0 0 1 0 2 -25 4.5 0.5 2.5
9 0 1 0 0 0 1 0 0 0 1 0 2 25 4.5 0.5 2.5
9 0 1 0 0 0 1 0 0 0 1 -45 2 0 1.5 0.5 6.5
9 0 1 0 0 0 1 0 0 0 1 20 -2 0 3.5 0.5 2.5
9 0 1 0 0 0 1 0 0 0 1 0 -2 0 3.5 0.5 2.5
9 0 1 0 0 0 1 0 0 0 1 -20 -2 0 3.5 0.5 2.5
9 0 1 0 0 0 1 0 0 0 1 34 2 -10 5.5 0.5 1.5
9 0 1 0 0 0 1 0 0 0 1 34 2 10 5.5 0.5 1.5
9 0 1 0 0 0 1 0 0 0 1 20 2 24 5.5 0.5 1.5
9 0 1 0 0 0 1 0 0 0 1 -20 2 24 5.5 0.5 1.5
9 0 1 0 0 0 1 0 0 0 1 20 2 -24.5 3.5 0.5 2
9 0 1 0 0 0 1 0 0 0 1 -20 2 -24.5 3.5 0.5 2
9 0 1 0 0 0 1 0 0 0 1 -36 3.5 -11 3.5 2 0.5
9 0 1 0 0 0 1 0 0 0 1 46 2 0 1.5 0.5 4.5
9 0 1 0 0 0 1 0 0 0 1 -30 2 -13.5 1.5 0.5 4
9 0 1 0 0 0 1 0 0 0 1 -30 2 13.5 1.5 0.5 4
9 0 1 0 0 0 1 0 0 0 1 36 4 11 3.5 1.5 0.5
9 0 1 0 0 0 1 0 0 0 1 48 3.5 0 0.5 2 2.5
9 0 1 0 0 0 1 0 0 0 1 -37 3.5 11 2.5 2 0.5
9 0 1 0 0 0 1 0 0 0 1 -48 3.5 0 0.5 2 2.5
9 0 1 0 0 0 1 0 0 0 1 30 2 -14.5 1.5 0.5 3
9 0 1 0 0 0 1 0 0 0 1 30 2 14.5 1.5 0.5 3
9 0 1 0 0 0 1 0 0 0 1 37 4 -11 2.5 1.5 0.5
9 0 1 0 0 0 1 0 0 0 1 31 4 -15.5 0.5 1.5 2
9 0 1 0 0 0 1 0 0 0 1 31 4 15.5 0.5 1.5 2
9 0 1 0 0 0 1 0 0 0 1 0 3.5 -28 1.5 2 0.5
9 0 1 0 0 0 1 0 0 0 1 0 3.5 28 1.5 2 0.5
9 0 1 0 0 0 1 0 0 0 1 -31 4 -15.5 0.5 1.5 2
9 0 1 0 0 0 1 0 0 0 1 -31 4 15.5 0.5 1.5 2
9 0 1 0 0 0 1 0 0 0 1 -36.5 2 -10 5 0.5 0.5
9 0 1 0 0 0 1 0 0 0 1 -36.5 2 10 5 0.5 0.5
9 0 1 0 0 0 1 0 0 0 1 -47 2 0 0.5 0.5 4.5
9 0 1 0 0 0 1 0 0 0 1 20 2 26 3.5 0.5 0.5
9 0 1 0 0 0 1 0 0 0 1 -20 2 26 3.5 0.5 0.5
9 0 1 0 0 0 1 0 0 0 1 29.5 2 -19 1 0.5 1.5
9 0 1 0 0 0 1 0 0 0 1 29.5 2 19 1 0.5 1.5
9 0 1 0 0 0 1 0 0 0 1 25 2 -23.5 1.5 0.5 1
9 0 1 0 0 0 1 0 0 0 1 15.5 2 -24 1 0.5 1.5
9 0 1 0 0 0 1 0 0 0 1 6 2 -23.5 1.5 0.5 1
9 0 1 0 0 0 1 0 0 0 1 6 2 23.5 1.5 0.5 1
9 0 1 0 0 0 1 0 0 0 1 -5.5 2 -24 1 0.5 1.5
9 0 1 0 0 0 1 0 0 0 1 -5.5 2 24 1 0.5 1.5
9 0 1 0 0 0 1 0 0 0 1 -15.5 2 -24 1 0.5 1.5
9 0 1 0 0 0 1 0 0 0 1 -24.5 2 -24 1 0.5 1.5
9 0 1 0 0 0 1 0 0 0 1 -29.5 2 -19 1 0.5 1.5
9 0 1 0 0 0 1 0 0 0 1 -29.5 2 19 1 0.5 1.5
9 0 1 0 0 0 1 0 0 0 1 20 -2 -3 2.5 0.5 0.5
9 0 1 0 0 0 1 0 0 0 1 20 -2 3 2.5 0.5 0.5
9 0 1 0 0 0 1 0 0 0 1 0 -2 -3 2.5 0.5 0.5
9 0 1 0 0 0 1 0 0 0 1 0 -2 3 2.5 0.5 0.5
9 0 1 0 0 0 1 0 0 0 1 -20 -2 -3 2.5 0.5 0.5
9 0 1 0 0 0 1 0 0 0 1 -20 -2 3 2.5 0.5 0.5
9 0 1 0 0 0 1 0 0 0 1 45.5 2 -5.5 1 0.5 1
9 0 1 0 0 0 1 0 0 0 1 45.5 2 5.5 1 0.5 1
9 0 1 0 0 0 1 0 0 0 1 41.5 2 -9 2 0.5 0.5
9 0 1 0 0 0 1 0 0 0 1 41.5 2 9 2 0.5 0.5
9 0 1 0 0 0 1 0 0 0 1 30 4 -20 0.5 1.5 0.5
9 0 1 0 0 0 1 0 0 0 1 30 4 20 0.5 1.5 0.5
9 0 1 0 0 0 1 0 0 0 1 13 2 -23 1.5 0.5 0.5
9 0 1 0 0 0 1 0 0 0 1 13 2 23 1.5 0.5 0.5
9 0 1 0 0 0 1 0 0 0 1 4 4 -27 0.5 1.5 0.5
9 0 1 0 0 0 1 0 0 0 1 4 4 27 0.5 1.5 0.5
9 0 1 0 0 0 1 0 0 0 1 -4 4 -27 0.5 1.5 0.5
9 0 1 0 0 0 1 0 0 0 1 -4 4 27 0.5 1.5 0.5
9 0 1 0 0 0 1 0 0 0 1 -13 2 -23 1.5 0.5 0.5
9 0 1 0 0 0 1 0 0 0 1 -13 2 23 1.5 0.5 0.5
9 0 1 0 0 0 1 0 0 0 1 -30 4 -20 0.5 1.5 0.5
9 0 1 0 0 0 1 0 0 0 1 -30 4 20 0.5 1.5 0.5
9 0 1 0 0 0 1 0 0 0 1 -33 2 11 1.5 0.5 0.5
