9 0 1 0 0 0 1 0 0 0 1 -0.01749992 -43.67751 0.2750015 1.5 1.5 6
9 0 1 0 0 0 1 0 0 0 1 -0.01749992 -23.67751 20.275 0.5 5.5 1
9 0 1 0 0 0 1 0 0 0 1 -0.01749992 -41.67751 0.2750015 0.5 0.5 11
9 0 1 0 0 0 1 0 0 0 1 -0.01749992 -3.177505 -0.2249985 0.5 1 4.5
9 0 1 0 0 0 1 0 0 0 1 -0.01749992 -24.17751 -20.725 0.5 4 1
9 0 1 0 0 0 1 0 0 0 1 1.9825 -43.67751 0.2750015 0.5 0.5 6
9 0 1 0 0 0 1 0 0 0 1 -0.01749992 -45.67751 0.2750015 0.5 0.5 6
9 0 1 0 0 0 1 0 0 0 1 -0.01749992 -42.67751 -7.724998 1.5 0.5 2
9 0 1 0 0 0 1 0 0 0 1 -2.0175 -43.67751 0.2750015 0.5 0.5 6
9 0 1 0 0 0 1 0 0 0 1 -0.01749992 -34.67751 -17.225 1.5 1.5 0.5
9 0 1 0 0 0 1 0 0 0 1 -0.01749992 -39.67751 12.775 1.5 0.5 1.5
9 0 1 0 0 0 1 0 0 0 1 -0.01749992 -40.67751 -11.225 1.5 0.5 1.5
9 0 1 0 0 0 1 0 0 0 1 -0.01749992 -42.67751 7.775002 1.5 0.5 1.5
9 0 1 0 0 0 1 0 0 0 1 -0.01749992 -18.17751 -19.725 0.5 2 1
9 0 1 0 0 0 1 0 0 0 1 -0.01749992 -29.17751 -19.225 0.5 4 0.5
9 0 1 0 0 0 1 0 0 0 1 -0.01749992 -4.177505 -6.224998 0.5 1 1.5
9 0 1 0 0 0 1 0 0 0 1 -0.01749992 -4.177505 5.775002 0.5 1 1.5
9 0 1 0 0 0 1 0 0 0 1 -0.01749992 -16.67751 19.275 0.5 1.5 1
9 0 1 0 0 0 1 0 0 0 1 -0.01749992 -30.67751 19.275 0.5 1.5 1
9 0 1 0 0 0 1 0 0 0 1 0.4825001 -33.67751 17.775 1 1.5 0.5
9 0 1 0 0 0 1 0 0 0 1 -0.01749992 -35.17751 16.775 1.5 1 0.5
9 0 1 0 0 0 1 0 0 0 1 -0.01749992 -36.17751 -16.225 1.5 1 0.5
9 0 1 0 0 0 1 0 0 0 1 -0.01749992 -37.17751 -15.225 1.5 1 0.5
9 0 1 0 0 0 1 0 0 0 1 -0.01749992 -37.17751 15.775 1.5 1 0.5
9 0 1 0 0 0 1 0 0 0 1 -0.01749992 -38.17751 -14.225 1.5 1 0.5
9 0 1 0 0 0 1 0 0 0 1 -0.01749992 -38.17751 14.775 1.5 1 0.5
9 0 1 0 0 0 1 0 0 0 1 -0.01749992 -39.17751 -13.225 1.5 1 0.5
9 0 1 0 0 0 1 0 0 0 1 -0.01749992 -40.67751 11.275 1.5 0.5 1
9 0 1 0 0 0 1 0 0 0 1 -0.01749992 -5.177505 -8.724998 0.5 1 1
9 0 1 0 0 0 1 0 0 0 1 -0.01749992 -5.177505 9.275002 0.5 1 1
9 0 1 0 0 0 1 0 0 0 1 -0.01749992 -7.177505 12.275 0.5 1 1
9 0 1 0 0 0 1 0 0 0 1 -0.01749992 -9.177505 -14.725 0.5 1 1
9 0 1 0 0 0 1 0 0 0 1 -0.01749992 -11.17751 16.275 0.5 1 1
9 0 1 0 0 0 1 0 0 0 1 -0.01749992 -14.17751 18.275 0.5 1 1
9 0 1 0 0 0 1 0 0 0 1 -0.01749992 -15.17751 -18.725 0.5 1 1
9 0 1 0 0 0 1 0 0 0 1 0.4825001 -33.17751 -18.225 1 1 0.5
9 0 1 0 0 0 1 0 0 0 1 0.9825001 -41.67751 9.775002 0.5 0.5 1.5
9 0 1 0 0 0 1 0 0 0 1 -0.01749992 -6.677505 -11.225 0.5 0.5 1.5
9 0 1 0 0 0 1 0 0 0 1 -0.01749992 -12.67751 -17.225 0.5 1.5 0.5
9 0 1 0 0 0 1 0 0 0 1 -0.01749992 -29.67751 -20.225 0.5 1.5 0.5
9 0 1 0 0 0 1 0 0 0 1 -0.01749992 -32.67751 18.775 1.5 0.5 0.5
9 0 1 0 0 0 1 0 0 0 1 -0.01749992 -38.67751 13.775 1.5 0.5 0.5
9 0 1 0 0 0 1 0 0 0 1 -0.01749992 -39.67751 -12.225 1.5 0.5 0.5
9 0 1 0 0 0 1 0 0 0 1 -1.0175 -41.67751 -9.224998 0.5 0.5 1.5
9 0 1 0 0 0 1 0 0 0 1 -1.0175 -41.67751 9.775002 0.5 0.5 1.5
9 0 1 0 0 0 1 0 0 0 1 -0.01749992 -43.67751 -6.224998 1.5 0.5 0.5
9 0 1 0 0 0 1 0 0 0 1 -0.01749992 -43.67751 6.775002 1.5 0.5 0.5
