9 0 1 0 0 0 1 0 0 0 1 0.4080009 11.326 14.997 3.5 5 1
9 0 1 0 0 0 1 0 0 0 1 -14.592 15.826 2.497 0.5 2.5 4.5
9 0 1 0 0 0 1 0 0 0 1 0.9080009 13.326 16.497 3 3 0.5
9 0 1 0 0 0 1 0 0 0 1 0.9080009 3.826 14.497 3 2.5 0.5
9 0 1 0 0 0 1 0 0 0 1 -4.091999 12.826 14.997 1 3.5 1
9 0 1 0 0 0 1 0 0 0 1 5.408001 13.326 14.497 1.5 4 0.5
9 0 1 0 0 0 1 0 0 0 1 -6.091999 12.826 13.997 1 2.5 1
9 0 1 0 0 0 1 0 0 0 1 -8.091999 13.326 12.997 1 3 1
9 0 1 0 0 0 1 0 0 0 1 7.408001 13.326 13.497 1.5 3 0.5
9 0 1 0 0 0 1 0 0 0 1 -13.592 15.326 7.497 0.5 3 1.5
9 0 1 0 0 0 1 0 0 0 1 15.408 17.326 0.9969997 0.5 2 2
9 0 1 0 0 0 1 0 0 0 1 -10.092 14.326 11.997 1 2 1
9 0 1 0 0 0 1 0 0 0 1 -11.092 13.326 10.497 1 4 0.5
9 0 1 0 0 0 1 0 0 0 1 14.408 14.826 5.497 0.5 2.5 1.5
9 0 1 0 0 0 1 0 0 0 1 -12.592 15.826 9.497 0.5 2.5 1.5
9 0 1 0 0 0 1 0 0 0 1 9.908001 13.826 11.497 1 3.5 0.5
9 0 1 0 0 0 1 0 0 0 1 8.908001 14.826 12.497 1 3.5 0.5
9 0 1 0 0 0 1 0 0 0 1 13.408 15.826 7.997 0.5 1.5 2
9 0 1 0 0 0 1 0 0 0 1 12.408 14.326 8.997 0.5 3 1
9 0 1 0 0 0 1 0 0 0 1 -4.091999 6.326 14.497 1 3 0.5
9 0 1 0 0 0 1 0 0 0 1 10.908 13.826 10.497 1 2.5 0.5
9 0 1 0 0 0 1 0 0 0 1 1.408001 17.326 15.497 2.5 1 0.5
9 0 1 0 0 0 1 0 0 0 1 1.408001 5.326 15.497 2.5 1 0.5
9 0 1 0 0 0 1 0 0 0 1 14.408 9.326 2.997 0.5 2 1
9 0 1 0 0 0 1 0 0 0 1 4.908001 14.326 15.497 1 2 0.5
9 0 1 0 0 0 1 0 0 0 1 0.9080009 -2.674 12.497 2 1 0.5
9 0 1 0 0 0 1 0 0 0 1 -6.091999 8.326 13.497 1 2 0.5
9 0 1 0 0 0 1 0 0 0 1 -8.091999 8.326 12.497 1 2 0.5
9 0 1 0 0 0 1 0 0 0 1 -11.592 13.326 9.497 0.5 4 0.5
9 0 1 0 0 0 1 0 0 0 1 -14.592 12.826 2.497 0.5 0.5 3.5
9 0 1 0 0 0 1 0 0 0 1 15.408 13.826 1.997 0.5 1.5 1
9 0 1 0 0 0 1 0 0 0 1 13.408 12.826 6.997 0.5 1.5 1
9 0 1 0 0 0 1 0 0 0 1 7.408001 6.326 12.497 0.5 3 0.5
9 0 1 0 0 0 1 0 0 0 1 6.908001 8.826 13.497 1 1.5 0.5
9 0 1 0 0 0 1 0 0 0 1 1.408001 9.326 16.497 1.5 1 0.5
9 0 1 0 0 0 1 0 0 0 1 -3.091999 12.826 16.497 1 1.5 0.5
9 0 1 0 0 0 1 0 0 0 1 -12.592 12.326 8.497 0.5 1 1.5
9 0 1 0 0 0 1 0 0 0 1 -13.592 13.326 5.497 0.5 3 0.5
9 0 1 0 0 0 1 0 0 0 1 -14.092 18.826 8.497 1 0.5 1.5
9 0 1 0 0 0 1 0 0 0 1 7.408001 13.826 14.497 0.5 2.5 0.5
9 0 1 0 0 0 1 0 0 0 1 0.4080009 -4.174 11.497 2.5 0.5 0.5
9 0 1 0 0 0 1 0 0 0 1 15.408 16.326 3.497 0.5 2 0.5
9 0 1 0 0 0 1 0 0 0 1 11.408 13.326 9.497 0.5 2 0.5
9 0 1 0 0 0 1 0 0 0 1 8.408001 9.326 12.497 0.5 2 0.5
9 0 1 0 0 0 1 0 0 0 1 4.408001 7.326 14.497 0.5 2 0.5
9 0 1 0 0 0 1 0 0 0 1 1.908001 0.3260002 14.497 1 1 0.5
9 0 1 0 0 0 1 0 0 0 1 -1.091999 -8.174 0.9969997 1 0.5 1
9 0 1 0 0 0 1 0 0 0 1 -2.591999 4.326 14.497 0.5 2 0.5
9 0 1 0 0 0 1 0 0 0 1 -3.091999 -2.674 11.497 1 1 0.5
9 0 1 0 0 0 1 0 0 0 1 -5.091999 17.326 14.497 1 1 0.5
9 0 1 0 0 0 1 0 0 0 1 -6.591999 16.326 13.997 0.5 1 1
9 0 1 0 0 0 1 0 0 0 1 -9.091999 17.326 12.497 1 1 0.5
9 0 1 0 0 0 1 0 0 0 1 -9.591999 15.326 13.497 0.5 2 0.5
9 0 1 0 0 0 1 0 0 0 1 -9.591999 10.326 11.497 0.5 2 0.5
9 0 1 0 0 0 1 0 0 0 1 -10.592 -2.674 -6.003 0.5 1 1
9 0 1 0 0 0 1 0 0 0 1 -11.592 -1.174 -5.003 0.5 0.5 2
9 0 1 0 0 0 1 0 0 0 1 -13.592 16.326 9.497 0.5 2 0.5
9 0 1 0 0 0 1 0 0 0 1 15.408 17.826 -1.503 0.5 1.5 0.5
9 0 1 0 0 0 1 0 0 0 1 14.408 12.826 3.497 0.5 1.5 0.5
9 0 1 0 0 0 1 0 0 0 1 13.408 9.826 6.497 0.5 1.5 0.5
9 0 1 0 0 0 1 0 0 0 1 12.408 14.826 10.497 0.5 1.5 0.5
9 0 1 0 0 0 1 0 0 0 1 10.408 9.826 10.497 0.5 1.5 0.5
9 0 1 0 0 0 1 0 0 0 1 9.408001 13.826 13.497 0.5 1.5 0.5
9 0 1 0 0 0 1 0 0 0 1 7.408001 13.826 12.497 0.5 1.5 0.5
9 0 1 0 0 0 1 0 0 0 1 2.408001 16.826 14.497 1.5 0.5 0.5
9 0 1 0 0 0 1 0 0 0 1 1.408001 16.826 16.497 1.5 0.5 0.5
9 0 1 0 0 0 1 0 0 0 1 1.408001 3.826 15.497 1.5 0.5 0.5
9 0 1 0 0 0 1 0 0 0 1 -5.591999 13.826 15.497 0.5 1.5 0.5
9 0 1 0 0 0 1 0 0 0 1 -7.591999 13.826 14.497 0.5 1.5 0.5
9 0 1 0 0 0 1 0 0 0 1 -14.592 18.826 -0.5030003 0.5 0.5 1.5
9 0 1 0 0 0 1 0 0 0 1 -14.592 17.826 8.497 0.5 0.5 1.5
9 0 1 0 0 0 1 0 0 0 1 -14.592 16.826 -2.503 0.5 1.5 0.5
9 0 1 0 0 0 1 0 0 0 1 -15.592 17.826 0.4969997 0.5 1.5 0.5
