9 0 1 0 0 0 1 0 0 0 1 -0.003937721 -26.09409 9.536743E-07 1.5 17 1.5
9 0 1 0 0 0 1 0 0 0 1 -0.003937721 -26.09409 -1.999999 0.5 17 0.5
9 0 1 0 0 0 1 0 0 0 1 -0.003937721 -26.09409 2.000001 0.5 17 0.5
9 0 1 0 0 0 1 0 0 0 1 1.996062 -22.09409 9.536743E-07 0.5 13 0.5
9 0 1 0 0 0 1 0 0 0 1 -2.003938 -22.09409 9.536743E-07 0.5 13 0.5
9 0 1 0 0 0 1 0 0 0 1 9.996062 -45.59409 9.536743E-07 0.5 0.5 2.5
9 0 1 0 0 0 1 0 0 0 1 -0.003937721 -5.59409 9.536743E-07 0.5 0.5 2.5
9 0 1 0 0 0 1 0 0 0 1 -10.00394 -45.59409 9.536743E-07 0.5 0.5 2.5
