9 0 1 0 0 0 1 0 0 0 1 7.579002 -11.913 1.578999 1 4 3.5
9 0 1 0 0 0 1 0 0 0 1 0.5790024 -11.413 -5.921001 4 3.5 1
9 0 1 0 0 0 1 0 0 0 1 0.07900238 -7.413 0.07899857 5.5 0.5 5
9 0 1 0 0 0 1 0 0 0 1 1.079002 -10.413 9.078999 2.5 2.5 1
9 0 1 0 0 0 1 0 0 0 1 6.079002 -9.913 -3.921001 1.5 2 2
9 0 1 0 0 0 1 0 0 0 1 0.5790024 -9.413 -8.921001 2 1.5 2
9 0 1 0 0 0 1 0 0 0 1 9.079002 -10.913 2.078999 0.5 3 3
9 0 1 0 0 0 1 0 0 0 1 -3.420998 -12.413 -4.421001 2 4.5 0.5
9 0 1 0 0 0 1 0 0 0 1 -7.920998 -10.913 1.078999 0.5 3 3
9 0 1 0 0 0 1 0 0 0 1 13.079 -3.413 0.5789986 0.5 1.5 3.5
9 0 1 0 0 0 1 0 0 0 1 -5.920998 -11.413 -3.421001 1.5 3.5 0.5
9 0 1 0 0 0 1 0 0 0 1 6.079002 -8.913 3.078999 0.5 1 5
9 0 1 0 0 0 1 0 0 0 1 1.579002 -9.413 -4.421001 3 1.5 0.5
9 0 1 0 0 0 1 0 0 0 1 10.079 -9.913 1.078999 0.5 2 2
9 0 1 0 0 0 1 0 0 0 1 7.579002 -9.913 6.078999 1 2 1
9 0 1 0 0 0 1 0 0 0 1 -0.4209976 -15.913 -5.921001 2 1 1
9 0 1 0 0 0 1 0 0 0 1 -5.420998 4.087 15.079 2 1 1
9 0 1 0 0 0 1 0 0 0 1 -6.920998 -10.413 -2.421001 1.5 2.5 0.5
9 0 1 0 0 0 1 0 0 0 1 -0.9209976 -7.413 -5.921001 3.5 0.5 1
9 0 1 0 0 0 1 0 0 0 1 -0.9209976 -7.413 6.078999 3.5 0.5 1
9 0 1 0 0 0 1 0 0 0 1 8.579002 -9.413 -2.921001 1 1.5 1
9 0 1 0 0 0 1 0 0 0 1 7.579002 -16.913 1.578999 1 1 1.5
9 0 1 0 0 0 1 0 0 0 1 6.579002 -13.413 -2.921001 1 1.5 1
9 0 1 0 0 0 1 0 0 0 1 6.079002 -12.913 -0.9210014 0.5 3 1
9 0 1 0 0 0 1 0 0 0 1 4.579002 -10.913 8.578999 1 3 0.5
9 0 1 0 0 0 1 0 0 0 1 3.579002 -8.913 -8.421001 1 1 1.5
9 0 1 0 0 0 1 0 0 0 1 4.579002 -13.413 -4.421001 2 1.5 0.5
9 0 1 0 0 0 1 0 0 0 1 0.5790024 -12.413 -7.421001 2 1.5 0.5
9 0 1 0 0 0 1 0 0 0 1 -2.420998 -8.913 -8.421001 1 1 1.5
9 0 1 0 0 0 1 0 0 0 1 -2.920998 -9.913 8.578999 1.5 2 0.5
9 0 1 0 0 0 1 0 0 0 1 -4.420998 -9.413 -5.921001 1 1.5 1
9 0 1 0 0 0 1 0 0 0 1 -4.420998 5.587 18.079 3 0.5 1
9 0 1 0 0 0 1 0 0 0 1 -6.920998 -9.913 4.578999 0.5 2 1.5
9 0 1 0 0 0 1 0 0 0 1 -8.920998 -9.913 0.5789986 0.5 2 1.5
9 0 1 0 0 0 1 0 0 0 1 -4.420998 -10.413 7.578999 1 2.5 0.5
9 0 1 0 0 0 1 0 0 0 1 -5.420998 -10.413 6.578999 1 2.5 0.5
9 0 1 0 0 0 1 0 0 0 1 7.079002 -13.913 6.078999 0.5 2 1
9 0 1 0 0 0 1 0 0 0 1 6.079002 -7.413 0.07899857 0.5 0.5 4
9 0 1 0 0 0 1 0 0 0 1 1.579002 -14.913 9.578999 1 2 0.5
9 0 1 0 0 0 1 0 0 0 1 -2.420998 4.087 16.079 1 1 1
9 0 1 0 0 0 1 0 0 0 1 -5.920998 -7.413 0.07899857 0.5 0.5 4
9 0 1 0 0 0 1 0 0 0 1 -5.920998 -9.913 -4.921001 0.5 2 1
9 0 1 0 0 0 1 0 0 0 1 9.579002 -9.413 -1.421001 1 1.5 0.5
9 0 1 0 0 0 1 0 0 0 1 7.079002 -19.413 1.078999 0.5 1.5 1
9 0 1 0 0 0 1 0 0 0 1 6.079002 -11.413 7.078999 0.5 1.5 1
9 0 1 0 0 0 1 0 0 0 1 5.079002 -14.913 -3.421001 0.5 3 0.5
9 0 1 0 0 0 1 0 0 0 1 -0.9209976 -17.913 -5.421001 1.5 1 0.5
9 0 1 0 0 0 1 0 0 0 1 -4.420998 -12.413 -5.421001 1 1.5 0.5
9 0 1 0 0 0 1 0 0 0 1 -5.920998 -10.913 5.578999 0.5 3 0.5
9 0 1 0 0 0 1 0 0 0 1 9.079002 -14.413 1.578999 0.5 0.5 2.5
9 0 1 0 0 0 1 0 0 0 1 5.079002 -10.413 7.578999 0.5 2.5 0.5
9 0 1 0 0 0 1 0 0 0 1 4.079002 -10.413 -3.421001 0.5 2.5 0.5
9 0 1 0 0 0 1 0 0 0 1 -2.920998 -14.413 8.578999 0.5 2.5 0.5
9 0 1 0 0 0 1 0 0 0 1 -4.920998 6.587 19.579 2.5 0.5 0.5
9 0 1 0 0 0 1 0 0 0 1 -6.920998 -10.413 -1.421001 0.5 2.5 0.5
9 0 1 0 0 0 1 0 0 0 1 30.079 7.587 1.078999 0.5 0.5 2
9 0 1 0 0 0 1 0 0 0 1 8.079002 -8.913 -4.921001 0.5 1 1
9 0 1 0 0 0 1 0 0 0 1 8.079002 -11.913 -2.921001 0.5 1 1
9 0 1 0 0 0 1 0 0 0 1 8.079002 -16.913 4.078999 0.5 1 1
9 0 1 0 0 0 1 0 0 0 1 6.079002 -10.913 1.078999 0.5 1 1
9 0 1 0 0 0 1 0 0 0 1 6.079002 -16.913 -1.921001 0.5 1 1
9 0 1 0 0 0 1 0 0 0 1 5.079002 -8.413 -7.921001 0.5 0.5 2
9 0 1 0 0 0 1 0 0 0 1 5.079002 -8.913 -0.9210014 0.5 1 1
9 0 1 0 0 0 1 0 0 0 1 4.579002 -15.913 -4.421001 1 1 0.5
9 0 1 0 0 0 1 0 0 0 1 4.079002 -15.913 8.578999 0.5 2 0.5
9 0 1 0 0 0 1 0 0 0 1 2.579002 -13.913 8.578999 1 1 0.5
9 0 1 0 0 0 1 0 0 0 1 2.579002 -15.413 -5.921001 1 0.5 1
9 0 1 0 0 0 1 0 0 0 1 0.5790024 -4.913 -13.421 1 1 0.5
9 0 1 0 0 0 1 0 0 0 1 0.5790024 -8.413 -11.421 2 0.5 0.5
9 0 1 0 0 0 1 0 0 0 1 -0.4209976 -13.913 9.578999 1 1 0.5
9 0 1 0 0 0 1 0 0 0 1 -2.420998 3.087 14.579 1 1 0.5
9 0 1 0 0 0 1 0 0 0 1 -3.920998 -9.913 -3.421001 0.5 2 0.5
9 0 1 0 0 0 1 0 0 0 1 -5.420998 -15.913 -3.421001 1 1 0.5
9 0 1 0 0 0 1 0 0 0 1 -5.420998 4.587 16.579 2 0.5 0.5
9 0 1 0 0 0 1 0 0 0 1 -6.920998 -7.913 0.07899857 0.5 1 1
9 0 1 0 0 0 1 0 0 0 1 -6.920998 -13.913 4.578999 0.5 2 0.5
9 0 1 0 0 0 1 0 0 0 1 -6.420998 8.587 23.579 2 0.5 0.5
9 0 1 0 0 0 1 0 0 0 1 -7.920998 -9.913 4.578999 0.5 2 0.5
9 0 1 0 0 0 1 0 0 0 1 29.079 7.587 5.578999 0.5 0.5 1.5
9 0 1 0 0 0 1 0 0 0 1 17.079 3.587 -4.421001 0.5 0.5 1.5
9 0 1 0 0 0 1 0 0 0 1 17.079 3.587 1.578999 0.5 0.5 1.5
9 0 1 0 0 0 1 0 0 0 1 14.079 -1.413 0.5789986 0.5 0.5 1.5
9 0 1 0 0 0 1 0 0 0 1 13.079 -1.413 4.578999 0.5 0.5 1.5
9 0 1 0 0 0 1 0 0 0 1 11.079 -8.413 0.5789986 0.5 0.5 1.5
9 0 1 0 0 0 1 0 0 0 1 8.079002 -13.413 5.578999 0.5 1.5 0.5
9 0 1 0 0 0 1 0 0 0 1 7.079002 -17.413 -0.4210014 0.5 1.5 0.5
9 0 1 0 0 0 1 0 0 0 1 6.079002 -14.413 7.578999 0.5 1.5 0.5
9 0 1 0 0 0 1 0 0 0 1 5.079002 -10.413 -6.421001 0.5 1.5 0.5
9 0 1 0 0 0 1 0 0 0 1 5.079002 -13.413 -5.421001 0.5 1.5 0.5
9 0 1 0 0 0 1 0 0 0 1 -1.920998 -10.413 -8.421001 0.5 0.5 1.5
9 0 1 0 0 0 1 0 0 0 1 -1.920998 -9.413 9.578999 0.5 1.5 0.5
9 0 1 0 0 0 1 0 0 0 1 -2.920998 -16.413 -5.421001 0.5 1.5 0.5
9 0 1 0 0 0 1 0 0 0 1 -2.920998 -18.413 -4.421001 0.5 1.5 0.5
9 0 1 0 0 0 1 0 0 0 1 -3.920998 -8.413 -8.421001 0.5 0.5 1.5
9 0 1 0 0 0 1 0 0 0 1 -5.920998 -13.413 -4.421001 0.5 1.5 0.5
9 0 1 0 0 0 1 0 0 0 1 -6.920998 -9.413 -4.421001 0.5 1.5 0.5
9 0 1 0 0 0 1 0 0 0 1 -6.920998 -14.413 -2.421001 0.5 1.5 0.5
