9 0 1 0 0 0 1 0 0 0 1 0.8390007 33.594 19.555 2 5.5 0.5
9 0 1 0 0 0 1 0 0 0 1 -7.660999 33.594 17.555 1.5 3.5 0.5
9 0 1 0 0 0 1 0 0 0 1 -12.161 33.094 15.555 1 5 0.5
9 0 1 0 0 0 1 0 0 0 1 4.839001 35.594 18.555 1 4.5 0.5
9 0 1 0 0 0 1 0 0 0 1 0.8390007 22.594 17.555 3 1.5 0.5
9 0 1 0 0 0 1 0 0 0 1 -9.660999 34.594 16.555 0.5 8.5 0.5
9 0 1 0 0 0 1 0 0 0 1 0.8390007 25.094 18.555 2 2 0.5
9 0 1 0 0 0 1 0 0 0 1 0.3390007 12.594 15.555 1.5 2.5 0.5
9 0 1 0 0 0 1 0 0 0 1 2.339001 -7.406 2.055 1.5 0.5 2
9 0 1 0 0 0 1 0 0 0 1 -4.160999 36.094 18.555 1 3 0.5
9 0 1 0 0 0 1 0 0 0 1 -3.660999 10.094 14.555 1.5 2 0.5
9 0 1 0 0 0 1 0 0 0 1 8.339001 37.594 17.555 0.5 5.5 0.5
9 0 1 0 0 0 1 0 0 0 1 0.3390007 -4.406 7.555 5.5 0.5 0.5
9 0 1 0 0 0 1 0 0 0 1 15.339 14.594 1.055 0.5 2.5 1
9 0 1 0 0 0 1 0 0 0 1 10.839 34.594 16.555 1 2.5 0.5
9 0 1 0 0 0 1 0 0 0 1 1.839001 41.594 19.555 1 2.5 0.5
9 0 1 0 0 0 1 0 0 0 1 -8.660999 10.094 12.555 0.5 5 0.5
9 0 1 0 0 0 1 0 0 0 1 -13.661 31.594 15.055 0.5 2.5 1
9 0 1 0 0 0 1 0 0 0 1 14.339 32.594 14.555 0.5 4.5 0.5
9 0 1 0 0 0 1 0 0 0 1 4.339001 11.594 14.555 1.5 1.5 0.5
9 0 1 0 0 0 1 0 0 0 1 1.339001 17.594 16.555 1.5 1.5 0.5
9 0 1 0 0 0 1 0 0 0 1 -12.661 12.594 9.555 0.5 4.5 0.5
9 0 1 0 0 0 1 0 0 0 1 7.339001 10.094 13.555 0.5 4 0.5
9 0 1 0 0 0 1 0 0 0 1 -1.660999 34.094 19.555 0.5 4 0.5
9 0 1 0 0 0 1 0 0 0 1 -4.160999 24.094 17.555 2 1 0.5
9 0 1 0 0 0 1 0 0 0 1 -7.660999 12.094 13.555 0.5 4 0.5
9 0 1 0 0 0 1 0 0 0 1 -15.661 15.094 1.055 0.5 2 1
9 0 1 0 0 0 1 0 0 0 1 11.339 12.594 10.555 0.5 3.5 0.5
9 0 1 0 0 0 1 0 0 0 1 8.339001 8.594 12.555 0.5 3.5 0.5
9 0 1 0 0 0 1 0 0 0 1 -11.661 13.594 10.555 0.5 3.5 0.5
9 0 1 0 0 0 1 0 0 0 1 -13.661 10.594 7.555 0.5 3.5 0.5
9 0 1 0 0 0 1 0 0 0 1 -15.661 33.594 13.555 0.5 3.5 0.5
9 0 1 0 0 0 1 0 0 0 1 15.339 11.594 -0.9449997 0.5 1.5 1
9 0 1 0 0 0 1 0 0 0 1 6.339001 14.094 14.555 0.5 3 0.5
9 0 1 0 0 0 1 0 0 0 1 2.839001 6.594 14.555 1 1.5 0.5
9 0 1 0 0 0 1 0 0 0 1 -0.1609993 -7.406 0.5550003 1 0.5 1.5
9 0 1 0 0 0 1 0 0 0 1 -15.661 17.594 3.055 0.5 1.5 1
9 0 1 0 0 0 1 0 0 0 1 15.339 30.594 13.555 0.5 2.5 0.5
9 0 1 0 0 0 1 0 0 0 1 13.339 31.594 15.555 0.5 2.5 0.5
9 0 1 0 0 0 1 0 0 0 1 12.339 9.594 9.555 0.5 2.5 0.5
9 0 1 0 0 0 1 0 0 0 1 1.339001 -4.406 8.555 2.5 0.5 0.5
9 0 1 0 0 0 1 0 0 0 1 1.339001 -5.406 7.555 2.5 0.5 0.5
9 0 1 0 0 0 1 0 0 0 1 -9.660999 9.594 12.555 0.5 2.5 0.5
9 0 1 0 0 0 1 0 0 0 1 -10.661 14.594 11.555 0.5 2.5 0.5
9 0 1 0 0 0 1 0 0 0 1 -12.661 40.594 15.555 0.5 2.5 0.5
9 0 1 0 0 0 1 0 0 0 1 14.339 12.094 5.555 0.5 2 0.5
9 0 1 0 0 0 1 0 0 0 1 10.339 17.094 12.555 0.5 2 0.5
9 0 1 0 0 0 1 0 0 0 1 10.839 14.094 11.555 1 1 0.5
9 0 1 0 0 0 1 0 0 0 1 9.339001 35.094 17.555 0.5 2 0.5
9 0 1 0 0 0 1 0 0 0 1 7.839001 -4.406 4.055 1 0.5 1
9 0 1 0 0 0 1 0 0 0 1 3.839001 29.094 18.555 1 1 0.5
9 0 1 0 0 0 1 0 0 0 1 3.839001 24.594 17.555 2 0.5 0.5
9 0 1 0 0 0 1 0 0 0 1 2.839001 15.094 15.555 1 1 0.5
9 0 1 0 0 0 1 0 0 0 1 1.839001 22.094 18.555 1 1 0.5
9 0 1 0 0 0 1 0 0 0 1 1.839001 20.094 17.555 1 1 0.5
9 0 1 0 0 0 1 0 0 0 1 -0.1609993 -2.406 -8.945 1 0.5 1
9 0 1 0 0 0 1 0 0 0 1 -1.660999 14.094 15.555 0.5 2 0.5
9 0 1 0 0 0 1 0 0 0 1 -6.660999 8.094 13.555 0.5 2 0.5
9 0 1 0 0 0 1 0 0 0 1 -8.660999 17.094 13.555 0.5 2 0.5
9 0 1 0 0 0 1 0 0 0 1 -9.660999 6.094 11.555 0.5 2 0.5
9 0 1 0 0 0 1 0 0 0 1 -10.661 5.094 10.555 0.5 2 0.5
9 0 1 0 0 0 1 0 0 0 1 13.339 8.594 8.555 0.5 1.5 0.5
9 0 1 0 0 0 1 0 0 0 1 10.339 30.594 16.555 0.5 1.5 0.5
9 0 1 0 0 0 1 0 0 0 1 9.339001 20.594 14.555 1.5 0.5 0.5
9 0 1 0 0 0 1 0 0 0 1 6.339001 7.594 13.555 0.5 1.5 0.5
9 0 1 0 0 0 1 0 0 0 1 4.339001 20.594 16.555 1.5 0.5 0.5
9 0 1 0 0 0 1 0 0 0 1 3.339001 -4.406 -7.445 1.5 0.5 0.5
9 0 1 0 0 0 1 0 0 0 1 1.339001 26.594 19.555 0.5 1.5 0.5
9 0 1 0 0 0 1 0 0 0 1 0.3390007 -3.406 -8.445 1.5 0.5 0.5
9 0 1 0 0 0 1 0 0 0 1 -3.660999 31.594 18.555 0.5 1.5 0.5
9 0 1 0 0 0 1 0 0 0 1 -2.660999 19.594 16.555 1.5 0.5 0.5
9 0 1 0 0 0 1 0 0 0 1 -3.660999 -4.406 -7.445 1.5 0.5 0.5
9 0 1 0 0 0 1 0 0 0 1 -5.660999 35.594 18.555 0.5 1.5 0.5
9 0 1 0 0 0 1 0 0 0 1 -8.660999 9.594 13.555 0.5 1.5 0.5
9 0 1 0 0 0 1 0 0 0 1 -9.660999 33.594 17.555 0.5 1.5 0.5
9 0 1 0 0 0 1 0 0 0 1 -10.661 7.594 11.555 0.5 1.5 0.5
9 0 1 0 0 0 1 0 0 0 1 -13.661 35.594 14.555 0.5 1.5 0.5
9 0 1 0 0 0 1 0 0 0 1 -14.661 13.594 5.555 0.5 1.5 0.5
9 0 1 0 0 0 1 0 0 0 1 -14.661 11.594 4.555 0.5 1.5 0.5
9 0 1 0 0 0 1 0 0 0 1 -15.661 13.594 -0.4449997 0.5 1.5 0.5
