9 0 1 0 0 0 1 0 0 0 1 0.217001 -6.644 -3.607 5.5 1 9.5
9 0 1 0 0 0 1 0 0 0 1 0.717001 -3.644 -11.107 7 2 3
9 0 1 0 0 0 1 0 0 0 1 -9.282999 -3.644 -3.107 2 2 8
9 0 1 0 0 0 1 0 0 0 1 9.717001 -3.644 -3.107 2 2 7
9 0 1 0 0 0 1 0 0 0 1 -0.282999 -3.144 9.893 7 1.5 2
9 0 1 0 0 0 1 0 0 0 1 -0.282999 4.356 14.393 4 4 0.5
9 0 1 0 0 0 1 0 0 0 1 0.217001 -2.144 -14.607 4.5 3.5 0.5
9 0 1 0 0 0 1 0 0 0 1 8.717001 -3.144 6.393 2 1.5 2.5
9 0 1 0 0 0 1 0 0 0 1 0.717001 -8.644 -11.607 5 1 1.5
9 0 1 0 0 0 1 0 0 0 1 11.717 -1.144 -2.107 2 0.5 7
9 0 1 0 0 0 1 0 0 0 1 0.217001 -8.144 0.8929996 3.5 0.5 4
9 0 1 0 0 0 1 0 0 0 1 -0.282999 -1.144 -12.107 7 0.5 2
9 0 1 0 0 0 1 0 0 0 1 -7.282999 -6.144 -1.107 2 0.5 7
9 0 1 0 0 0 1 0 0 0 1 -11.783 -2.644 -3.107 0.5 2 7
9 0 1 0 0 0 1 0 0 0 1 7.717001 -6.144 -2.107 2 0.5 6
9 0 1 0 0 0 1 0 0 0 1 -0.282999 -6.644 7.393 4 1 1.5
9 0 1 0 0 0 1 0 0 0 1 0.217001 -1.144 11.393 7.5 0.5 1.5
9 0 1 0 0 0 1 0 0 0 1 -8.782999 -3.144 6.393 2.5 1.5 1.5
9 0 1 0 0 0 1 0 0 0 1 -14.783 10.356 0.3929996 0.5 4 2.5
9 0 1 0 0 0 1 0 0 0 1 0.217001 -5.144 9.393 6.5 0.5 1.5
9 0 1 0 0 0 1 0 0 0 1 -12.783 -1.144 -1.607 0.5 1.5 6.5
9 0 1 0 0 0 1 0 0 0 1 12.217 -3.144 -3.607 0.5 1.5 5.5
9 0 1 0 0 0 1 0 0 0 1 -6.282999 8.356 13.393 1 8 0.5
9 0 1 0 0 0 1 0 0 0 1 -6.782999 -3.644 -9.107 0.5 2 4
9 0 1 0 0 0 1 0 0 0 1 14.217 8.856 3.893 0.5 3.5 2
9 0 1 0 0 0 1 0 0 0 1 0.217001 -0.6440001 13.393 3.5 2 0.5
9 0 1 0 0 0 1 0 0 0 1 7.217001 -7.144 -10.607 1.5 1.5 1.5
9 0 1 0 0 0 1 0 0 0 1 0.217001 -3.144 12.393 4.5 1.5 0.5
9 0 1 0 0 0 1 0 0 0 1 9.217001 -2.644 -11.107 1.5 2 1
9 0 1 0 0 0 1 0 0 0 1 6.717001 -3.644 -6.607 1 2 1.5
9 0 1 0 0 0 1 0 0 0 1 6.217001 5.356 13.393 1.5 4 0.5
9 0 1 0 0 0 1 0 0 0 1 0.717001 -7.144 -13.607 4 1.5 0.5
9 0 1 0 0 0 1 0 0 0 1 -10.283 -1.144 4.893 1 0.5 6
9 0 1 0 0 0 1 0 0 0 1 -14.283 11.356 5.393 1 2 1.5
9 0 1 0 0 0 1 0 0 0 1 15.217 11.356 -0.6070004 0.5 2 2.5
9 0 1 0 0 0 1 0 0 0 1 9.717001 5.356 11.393 1 5 0.5
9 0 1 0 0 0 1 0 0 0 1 5.717001 -4.144 6.893 1 2.5 1
9 0 1 0 0 0 1 0 0 0 1 -2.782999 11.356 14.393 1.5 3 0.5
9 0 1 0 0 0 1 0 0 0 1 -6.782999 -6.644 -10.607 1.5 1 1.5
9 0 1 0 0 0 1 0 0 0 1 -6.782999 -7.144 -0.1070004 1.5 0.5 3
9 0 1 0 0 0 1 0 0 0 1 -8.282999 -2.144 9.393 1 1.5 1.5
9 0 1 0 0 0 1 0 0 0 1 -10.283 6.856 11.393 1 4.5 0.5
9 0 1 0 0 0 1 0 0 0 1 -10.783 7.856 10.393 0.5 8.5 0.5
9 0 1 0 0 0 1 0 0 0 1 9.717001 -1.144 7.893 2 0.5 2
9 0 1 0 0 0 1 0 0 0 1 3.717001 -3.644 -7.607 2 2 0.5
9 0 1 0 0 0 1 0 0 0 1 -0.282999 -1.644 -15.607 2 2 0.5
9 0 1 0 0 0 1 0 0 0 1 -4.282999 -3.644 -7.607 2 2 0.5
9 0 1 0 0 0 1 0 0 0 1 -8.782999 8.356 12.393 0.5 8 0.5
9 0 1 0 0 0 1 0 0 0 1 -11.783 10.356 9.393 0.5 8 0.5
9 0 1 0 0 0 1 0 0 0 1 11.217 9.856 10.393 0.5 7.5 0.5
9 0 1 0 0 0 1 0 0 0 1 7.217001 -7.144 -0.6070004 1.5 0.5 2.5
9 0 1 0 0 0 1 0 0 0 1 -8.782999 -2.144 -11.607 1.5 2.5 0.5
9 0 1 0 0 0 1 0 0 0 1 -13.783 5.856 4.393 0.5 2.5 1.5
9 0 1 0 0 0 1 0 0 0 1 2.717001 11.856 14.393 1 3.5 0.5
9 0 1 0 0 0 1 0 0 0 1 0.217001 -6.144 9.893 3.5 0.5 1
9 0 1 0 0 0 1 0 0 0 1 -0.282999 -0.1440001 -13.607 7 0.5 0.5
9 0 1 0 0 0 1 0 0 0 1 -14.783 17.856 -1.107 0.5 3.5 1
9 0 1 0 0 0 1 0 0 0 1 13.217 -0.1440001 -0.1070004 0.5 0.5 6
9 0 1 0 0 0 1 0 0 0 1 12.717 0.3559999 -7.607 1 1 1.5
9 0 1 0 0 0 1 0 0 0 1 10.217 3.356 10.393 0.5 6 0.5
9 0 1 0 0 0 1 0 0 0 1 10.217 -6.644 -9.107 1.5 1 1
9 0 1 0 0 0 1 0 0 0 1 8.217001 -2.644 9.893 1.5 1 1
9 0 1 0 0 0 1 0 0 0 1 8.217001 -5.144 5.893 1.5 0.5 2
9 0 1 0 0 0 1 0 0 0 1 0.217001 7.356 15.393 1.5 2 0.5
9 0 1 0 0 0 1 0 0 0 1 -4.782999 -3.644 7.393 1.5 2 0.5
9 0 1 0 0 0 1 0 0 0 1 -7.782999 -5.144 6.893 1.5 0.5 2
9 0 1 0 0 0 1 0 0 0 1 -8.282999 -1.144 -9.107 3 0.5 1
9 0 1 0 0 0 1 0 0 0 1 -11.783 -1.644 5.393 0.5 2 1.5
9 0 1 0 0 0 1 0 0 0 1 13.217 11.856 -7.607 0.5 5.5 0.5
9 0 1 0 0 0 1 0 0 0 1 13.217 7.856 6.393 0.5 5.5 0.5
9 0 1 0 0 0 1 0 0 0 1 12.217 -0.1440001 -9.607 0.5 5.5 0.5
9 0 1 0 0 0 1 0 0 0 1 0.217001 -10.144 -11.607 5.5 0.5 0.5
9 0 1 0 0 0 1 0 0 0 1 -13.783 10.856 -4.607 0.5 5.5 0.5
9 0 1 0 0 0 1 0 0 0 1 11.217 4.356 9.393 0.5 5 0.5
9 0 1 0 0 0 1 0 0 0 1 8.717001 4.856 12.393 1 2.5 0.5
9 0 1 0 0 0 1 0 0 0 1 4.717001 6.856 14.393 1 2.5 0.5
9 0 1 0 0 0 1 0 0 0 1 -12.783 7.856 -8.107 0.5 2.5 1
9 0 1 0 0 0 1 0 0 0 1 -13.783 17.856 -6.107 0.5 2.5 1
9 0 1 0 0 0 1 0 0 0 1 15.217 12.856 3.393 0.5 1.5 1.5
9 0 1 0 0 0 1 0 0 0 1 14.217 11.856 -3.607 0.5 4.5 0.5
9 0 1 0 0 0 1 0 0 0 1 11.217 -3.144 5.393 0.5 1.5 1.5
9 0 1 0 0 0 1 0 0 0 1 -5.782999 -6.144 7.393 1.5 0.5 1.5
9 0 1 0 0 0 1 0 0 0 1 -12.783 -4.144 -7.607 0.5 1.5 1.5
9 0 1 0 0 0 1 0 0 0 1 -13.783 -0.1440001 0.3929996 0.5 1.5 1.5
9 0 1 0 0 0 1 0 0 0 1 14.217 2.356 -0.1070004 0.5 1 2
9 0 1 0 0 0 1 0 0 0 1 11.217 -1.644 -10.607 0.5 4 0.5
9 0 1 0 0 0 1 0 0 0 1 8.717001 -1.144 -8.107 1 0.5 2
9 0 1 0 0 0 1 0 0 0 1 8.717001 -0.6440001 10.893 1 1 1
9 0 1 0 0 0 1 0 0 0 1 8.717001 -3.644 -12.607 1 2 0.5
9 0 1 0 0 0 1 0 0 0 1 7.217001 -3.644 -4.107 0.5 2 1
9 0 1 0 0 0 1 0 0 0 1 6.717001 0.3559999 12.393 2 1 0.5
9 0 1 0 0 0 1 0 0 0 1 3.717001 -3.644 7.393 1 2 0.5
9 0 1 0 0 0 1 0 0 0 1 -0.282999 -6.644 -14.607 2 1 0.5
9 0 1 0 0 0 1 0 0 0 1 -0.282999 -5.144 11.393 4 0.5 0.5
9 0 1 0 0 0 1 0 0 0 1 -4.782999 6.356 14.393 0.5 4 0.5
9 0 1 0 0 0 1 0 0 0 1 -6.282999 -8.644 -10.607 2 1 0.5
9 0 1 0 0 0 1 0 0 0 1 -8.282999 -0.6440001 11.393 1 2 0.5
9 0 1 0 0 0 1 0 0 0 1 -10.283 -6.644 -9.107 1 1 1
9 0 1 0 0 0 1 0 0 0 1 -10.283 -0.6440001 -10.607 2 1 0.5
9 0 1 0 0 0 1 0 0 0 1 -12.783 6.356 7.393 0.5 4 0.5
9 0 1 0 0 0 1 0 0 0 1 -12.283 0.3559999 -9.107 1 1 1
9 0 1 0 0 0 1 0 0 0 1 14.217 6.856 -2.607 0.5 3.5 0.5
9 0 1 0 0 0 1 0 0 0 1 13.217 3.856 -5.607 0.5 3.5 0.5
9 0 1 0 0 0 1 0 0 0 1 12.217 4.856 8.393 0.5 3.5 0.5
9 0 1 0 0 0 1 0 0 0 1 12.217 -0.1440001 4.393 0.5 0.5 3.5
9 0 1 0 0 0 1 0 0 0 1 10.217 13.856 11.393 0.5 3.5 0.5
9 0 1 0 0 0 1 0 0 0 1 -14.783 9.856 -2.607 0.5 3.5 0.5
9 0 1 0 0 0 1 0 0 0 1 14.217 4.356 2.393 0.5 1 1.5
9 0 1 0 0 0 1 0 0 0 1 13.217 3.356 5.393 0.5 3 0.5
9 0 1 0 0 0 1 0 0 0 1 13.217 -2.144 -0.1070004 0.5 0.5 3
9 0 1 0 0 0 1 0 0 0 1 13.217 -3.144 -8.107 0.5 1.5 1
9 0 1 0 0 0 1 0 0 0 1 12.217 -6.144 -8.107 0.5 1.5 1
9 0 1 0 0 0 1 0 0 0 1 9.217001 -5.144 -11.107 1.5 0.5 1
9 0 1 0 0 0 1 0 0 0 1 7.717001 -0.1440001 -12.607 1 1.5 0.5
9 0 1 0 0 0 1 0 0 0 1 7.717001 -6.144 5.393 1 0.5 1.5
9 0 1 0 0 0 1 0 0 0 1 6.717001 10.856 13.393 1 1.5 0.5
9 0 1 0 0 0 1 0 0 0 1 4.217001 -8.144 -0.1070004 0.5 0.5 3
9 0 1 0 0 0 1 0 0 0 1 -0.282999 -8.144 -3.607 3 0.5 0.5
9 0 1 0 0 0 1 0 0 0 1 -3.782999 -8.144 -0.1070004 0.5 0.5 3
9 0 1 0 0 0 1 0 0 0 1 -4.282999 0.8559999 13.393 1 1.5 0.5
9 0 1 0 0 0 1 0 0 0 1 -5.282999 -0.1440001 12.393 3 0.5 0.5
9 0 1 0 0 0 1 0 0 0 1 -7.782999 -2.644 -12.607 0.5 3 0.5
9 0 1 0 0 0 1 0 0 0 1 -9.782999 0.8559999 10.893 0.5 1.5 1
9 0 1 0 0 0 1 0 0 0 1 -9.782999 -6.144 -0.1070004 0.5 0.5 3
9 0 1 0 0 0 1 0 0 0 1 -12.783 1.856 -7.107 0.5 1.5 1
9 0 1 0 0 0 1 0 0 0 1 -14.783 11.356 3.393 0.5 3 0.5
9 0 1 0 0 0 1 0 0 0 1 14.217 14.856 3.393 0.5 2.5 0.5
9 0 1 0 0 0 1 0 0 0 1 13.217 9.856 7.393 0.5 2.5 0.5
9 0 1 0 0 0 1 0 0 0 1 12.217 -2.144 4.393 0.5 0.5 2.5
9 0 1 0 0 0 1 0 0 0 1 6.217001 -4.144 5.393 0.5 2.5 0.5
9 0 1 0 0 0 1 0 0 0 1 0.217001 1.856 -14.607 2.5 0.5 0.5
9 0 1 0 0 0 1 0 0 0 1 -9.782999 13.856 11.393 0.5 2.5 0.5
9 0 1 0 0 0 1 0 0 0 1 -11.783 -5.144 -0.6070004 0.5 0.5 2.5
9 0 1 0 0 0 1 0 0 0 1 -12.783 -3.144 -0.6070004 0.5 0.5 2.5
9 0 1 0 0 0 1 0 0 0 1 15.217 8.856 -0.1070004 0.5 0.5 2
9 0 1 0 0 0 1 0 0 0 1 14.217 19.356 4.393 0.5 2 0.5
9 0 1 0 0 0 1 0 0 0 1 14.217 18.356 -4.607 0.5 2 0.5
9 0 1 0 0 0 1 0 0 0 1 14.717 12.856 5.893 1 0.5 1
9 0 1 0 0 0 1 0 0 0 1 13.217 8.356 -6.607 0.5 2 0.5
9 0 1 0 0 0 1 0 0 0 1 13.217 0.8559999 2.893 0.5 0.5 2
9 0 1 0 0 0 1 0 0 0 1 10.717 -0.6440001 -9.607 1 1 0.5
9 0 1 0 0 0 1 0 0 0 1 10.717 -1.144 5.393 2 0.5 0.5
9 0 1 0 0 0 1 0 0 0 1 8.717001 0.3559999 -11.607 1 1 0.5
9 0 1 0 0 0 1 0 0 0 1 7.217001 -1.144 -10.107 0.5 0.5 2
9 0 1 0 0 0 1 0 0 0 1 7.717001 -2.644 11.393 1 1 0.5
9 0 1 0 0 0 1 0 0 0 1 6.717001 -1.144 8.893 1 0.5 1
9 0 1 0 0 0 1 0 0 0 1 6.717001 -6.644 -12.607 1 1 0.5
9 0 1 0 0 0 1 0 0 0 1 6.717001 -7.144 2.893 1 0.5 1
9 0 1 0 0 0 1 0 0 0 1 5.217001 -1.644 -14.607 0.5 2 0.5
9 0 1 0 0 0 1 0 0 0 1 5.217001 -3.644 -6.607 0.5 2 0.5
9 0 1 0 0 0 1 0 0 0 1 4.717001 0.3559999 13.393 1 1 0.5
9 0 1 0 0 0 1 0 0 0 1 5.717001 -6.144 8.393 2 0.5 0.5
9 0 1 0 0 0 1 0 0 0 1 4.217001 -6.644 6.893 0.5 1 1
9 0 1 0 0 0 1 0 0 0 1 0.717001 -0.1440001 14.393 2 0.5 0.5
9 0 1 0 0 0 1 0 0 0 1 -3.282999 15.356 14.393 1 1 0.5
9 0 1 0 0 0 1 0 0 0 1 -4.782999 -2.644 -14.607 0.5 2 0.5
9 0 1 0 0 0 1 0 0 0 1 -5.782999 -3.644 -6.607 0.5 2 0.5
9 0 1 0 0 0 1 0 0 0 1 -5.782999 -3.644 6.393 0.5 2 0.5
9 0 1 0 0 0 1 0 0 0 1 -7.782999 6.356 13.393 0.5 2 0.5
9 0 1 0 0 0 1 0 0 0 1 -8.282999 -4.144 8.893 1 0.5 1
9 0 1 0 0 0 1 0 0 0 1 -7.282999 -6.144 -8.607 2 0.5 0.5
9 0 1 0 0 0 1 0 0 0 1 -8.782999 -6.644 -10.107 0.5 1 1
9 0 1 0 0 0 1 0 0 0 1 -9.782999 -2.644 8.893 0.5 1 1
9 0 1 0 0 0 1 0 0 0 1 -10.283 0.3559999 9.393 1 1 0.5
9 0 1 0 0 0 1 0 0 0 1 -11.283 0.3559999 8.393 1 1 0.5
9 0 1 0 0 0 1 0 0 0 1 -11.783 -5.144 -8.107 0.5 0.5 2
9 0 1 0 0 0 1 0 0 0 1 -12.783 12.356 -8.607 0.5 2 0.5
9 0 1 0 0 0 1 0 0 0 1 -12.783 0.8559999 4.893 0.5 0.5 2
9 0 1 0 0 0 1 0 0 0 1 -11.283 -6.144 -7.607 2 0.5 0.5
9 0 1 0 0 0 1 0 0 0 1 -13.783 3.356 -3.607 0.5 2 0.5
9 0 1 0 0 0 1 0 0 0 1 -13.783 2.356 3.893 0.5 1 1
9 0 1 0 0 0 1 0 0 0 1 15.217 13.856 0.3929996 0.5 0.5 1.5
9 0 1 0 0 0 1 0 0 0 1 14.217 10.856 6.393 0.5 1.5 0.5
9 0 1 0 0 0 1 0 0 0 1 13.217 0.8559999 -3.607 0.5 0.5 1.5
9 0 1 0 0 0 1 0 0 0 1 12.217 0.8559999 6.393 0.5 0.5 1.5
9 0 1 0 0 0 1 0 0 0 1 12.217 -0.1440001 -4.607 0.5 0.5 1.5
9 0 1 0 0 0 1 0 0 0 1 11.217 -0.1440001 7.393 0.5 0.5 1.5
9 0 1 0 0 0 1 0 0 0 1 9.217001 8.856 12.393 0.5 1.5 0.5
9 0 1 0 0 0 1 0 0 0 1 9.217001 -7.144 -10.607 0.5 1.5 0.5
9 0 1 0 0 0 1 0 0 0 1 10.217 -8.144 -8.607 1.5 0.5 0.5
9 0 1 0 0 0 1 0 0 0 1 6.217001 13.856 13.393 0.5 1.5 0.5
9 0 1 0 0 0 1 0 0 0 1 7.217001 -6.144 -8.607 1.5 0.5 0.5
9 0 1 0 0 0 1 0 0 0 1 7.217001 -9.144 -10.607 1.5 0.5 0.5
9 0 1 0 0 0 1 0 0 0 1 4.217001 2.856 14.393 0.5 1.5 0.5
9 0 1 0 0 0 1 0 0 0 1 5.217001 -0.1440001 -12.607 1.5 0.5 0.5
9 0 1 0 0 0 1 0 0 0 1 5.217001 -1.144 -9.607 1.5 0.5 0.5
9 0 1 0 0 0 1 0 0 0 1 5.217001 -10.144 -10.607 1.5 0.5 0.5
9 0 1 0 0 0 1 0 0 0 1 3.217001 -6.144 -14.607 1.5 0.5 0.5
9 0 1 0 0 0 1 0 0 0 1 0.217001 15.856 15.393 1.5 0.5 0.5
9 0 1 0 0 0 1 0 0 0 1 0.217001 -9.144 -13.607 1.5 0.5 0.5
9 0 1 0 0 0 1 0 0 0 1 -4.782999 3.856 13.393 0.5 1.5 0.5
9 0 1 0 0 0 1 0 0 0 1 -5.782999 -7.144 4.393 0.5 0.5 1.5
9 0 1 0 0 0 1 0 0 0 1 -5.782999 0.8559999 -13.607 1.5 0.5 0.5
9 0 1 0 0 0 1 0 0 0 1 -5.782999 -0.1440001 -12.607 1.5 0.5 0.5
9 0 1 0 0 0 1 0 0 0 1 -5.782999 -2.144 12.393 1.5 0.5 0.5
9 0 1 0 0 0 1 0 0 0 1 -6.782999 0.8559999 12.393 1.5 0.5 0.5
9 0 1 0 0 0 1 0 0 0 1 -8.782999 -8.144 -9.607 1.5 0.5 0.5
9 0 1 0 0 0 1 0 0 0 1 -11.783 -0.1440001 7.393 0.5 1.5 0.5
9 0 1 0 0 0 1 0 0 0 1 -13.783 14.856 5.393 0.5 1.5 0.5
9 0 1 0 0 0 1 0 0 0 1 -13.783 8.856 5.393 0.5 0.5 1.5
9 0 1 0 0 0 1 0 0 0 1 -14.783 19.856 -2.607 0.5 1.5 0.5
9 0 1 0 0 0 1 0 0 0 1 -14.783 5.856 0.3929996 0.5 0.5 1.5
9 0 1 0 0 0 1 0 0 0 1 -15.783 13.856 0.3929996 0.5 0.5 1.5
