9 0 1 0 0 0 1 0 0 0 1 -10 -2 0 3.35 0.5 3.35
9 0 1 0 0 0 1 0 0 0 1 10 -2 0 3.35 0.5 3.35
9 0 1 0 0 0 1 0 0 0 1 0 24 -8 18.5 22.5 0.5
9 0 1 0 0 0 1 0 0 0 1 0 24 8 18.5 22.5 0.5
9 0 1 0 0 0 1 0 0 0 1 0 20 -16 15.5 14.5 0.5
9 0 1 0 0 0 1 0 0 0 1 18 24 0 0.5 22.5 7.5
9 0 1 0 0 0 1 0 0 0 1 -18 24 0 0.5 22.5 7.5
9 0 1 0 0 0 1 0 0 0 1 0 2 0 17.5 0.5 7.5
9 0 1 0 0 0 1 0 0 0 1 17 20 -16 1.5 9.5 0.5
9 0 1 0 0 0 1 0 0 0 1 -17 20 -16 1.5 9.5 0.5
9 0 1 0 0 0 1 0 0 0 1 5 26 -7 0.5 20.5 0.5
9 0 1 0 0 0 1 0 0 0 1 5 26 7 0.5 20.5 0.5
9 0 1 0 0 0 1 0 0 0 1 -5 26 -7 0.5 20.5 0.5
9 0 1 0 0 0 1 0 0 0 1 -5 26 7 0.5 20.5 0.5
9 0 1 0 0 0 1 0 0 0 1 0 35 -16 13.5 0.5 0.5
9 0 1 0 0 0 1 0 0 0 1 0 5 -16 13.5 0.5 0.5
9 0 1 0 0 0 1 0 0 0 1 16.5 30.5 -16 1 1 0.5
9 0 1 0 0 0 1 0 0 0 1 16.5 9.5 -16 1 1 0.5
9 0 1 0 0 0 1 0 0 0 1 -16 31.5 -16 0.5 2 0.5
9 0 1 0 0 0 1 0 0 0 1 -16 8.5 -16 0.5 2 0.5
