9 0 1 0 0 0 1 0 0 0 1 15.554 11.605 0.2530003 1 3 4.5
9 0 1 0 0 0 1 0 0 0 1 -15.446 11.105 -0.2469997 1 3.5 3
9 0 1 0 0 0 1 0 0 0 1 -3.945999 25.105 15.253 4.5 4.5 0.5
9 0 1 0 0 0 1 0 0 0 1 7.054001 23.605 14.253 2.5 6 0.5
9 0 1 0 0 0 1 0 0 0 1 0.05400085 -6.895 1.253 5.5 0.5 2.5
9 0 1 0 0 0 1 0 0 0 1 -6.445999 23.105 14.253 2 6.5 0.5
9 0 1 0 0 0 1 0 0 0 1 -16.446 16.605 3.253 1 1 6.5
9 0 1 0 0 0 1 0 0 0 1 -0.4459991 17.605 15.253 3 3 0.5
9 0 1 0 0 0 1 0 0 0 1 -17.446 18.605 2.253 1 1 4.5
9 0 1 0 0 0 1 0 0 0 1 17.054 13.105 -1.247 0.5 3.5 2
9 0 1 0 0 0 1 0 0 0 1 -14.946 12.105 -5.247 0.5 3.5 2
9 0 1 0 0 0 1 0 0 0 1 6.054001 23.105 15.253 2.5 2.5 0.5
9 0 1 0 0 0 1 0 0 0 1 -16.946 13.105 0.2530003 0.5 2.5 2.5
9 0 1 0 0 0 1 0 0 0 1 -15.446 14.605 5.753 1 1 3
9 0 1 0 0 0 1 0 0 0 1 16.054 15.605 0.2530003 0.5 1 5.5
9 0 1 0 0 0 1 0 0 0 1 -3.945999 27.105 16.253 3.5 1.5 0.5
9 0 1 0 0 0 1 0 0 0 1 17.554 17.605 0.2530003 1 1 2.5
9 0 1 0 0 0 1 0 0 0 1 15.554 7.605 0.2530003 1 1 2.5
9 0 1 0 0 0 1 0 0 0 1 14.554 11.105 -6.247 1 2.5 1
9 0 1 0 0 0 1 0 0 0 1 -14.946 5.605 -0.7469997 0.5 2 2.5
9 0 1 0 0 0 1 0 0 0 1 -16.446 19.105 8.253 1 1.5 1.5
9 0 1 0 0 0 1 0 0 0 1 2.554001 27.605 15.253 2 2 0.5
9 0 1 0 0 0 1 0 0 0 1 -11.946 18.105 12.253 1.5 2.5 0.5
9 0 1 0 0 0 1 0 0 0 1 -11.946 14.105 11.253 1.5 2.5 0.5
9 0 1 0 0 0 1 0 0 0 1 -13.946 9.105 -5.747 0.5 2.5 1.5
9 0 1 0 0 0 1 0 0 0 1 -17.946 16.105 0.2530003 0.5 1.5 2.5
9 0 1 0 0 0 1 0 0 0 1 19.054 20.605 0.7530003 0.5 1 3
9 0 1 0 0 0 1 0 0 0 1 18.054 19.605 1.253 0.5 1 3.5
9 0 1 0 0 0 1 0 0 0 1 13.054 11.605 8.753 0.5 3 1
9 0 1 0 0 0 1 0 0 0 1 -8.445999 -4.895 0.7530003 1 0.5 3
9 0 1 0 0 0 1 0 0 0 1 -12.946 12.605 9.253 0.5 2 1.5
9 0 1 0 0 0 1 0 0 0 1 -13.946 13.605 8.253 0.5 2 1.5
9 0 1 0 0 0 1 0 0 0 1 -15.946 15.605 -4.247 0.5 3 1
9 0 1 0 0 0 1 0 0 0 1 -0.9459991 20.105 16.253 0.5 5.5 0.5
9 0 1 0 0 0 1 0 0 0 1 13.554 12.105 -7.747 1 2.5 0.5
9 0 1 0 0 0 1 0 0 0 1 -14.946 12.605 5.253 0.5 1 2.5
9 0 1 0 0 0 1 0 0 0 1 -17.946 20.605 3.253 0.5 1 2.5
9 0 1 0 0 0 1 0 0 0 1 15.054 5.105 1.253 0.5 1.5 1.5
9 0 1 0 0 0 1 0 0 0 1 -3.945999 30.105 15.253 4.5 0.5 0.5
9 0 1 0 0 0 1 0 0 0 1 -8.945999 28.105 -12.747 1.5 1.5 0.5
9 0 1 0 0 0 1 0 0 0 1 -13.946 5.105 -3.747 0.5 1.5 1.5
9 0 1 0 0 0 1 0 0 0 1 -14.946 17.105 8.253 0.5 1.5 1.5
9 0 1 0 0 0 1 0 0 0 1 -15.946 6.105 -1.747 0.5 1.5 1.5
9 0 1 0 0 0 1 0 0 0 1 18.054 14.605 -1.247 0.5 2 1
9 0 1 0 0 0 1 0 0 0 1 14.054 7.605 -5.247 0.5 1 2
9 0 1 0 0 0 1 0 0 0 1 12.554 13.605 10.253 1 2 0.5
9 0 1 0 0 0 1 0 0 0 1 11.554 27.605 13.253 1 2 0.5
9 0 1 0 0 0 1 0 0 0 1 10.554 27.605 14.253 1 2 0.5
9 0 1 0 0 0 1 0 0 0 1 8.554001 -4.895 1.753 1 0.5 2
9 0 1 0 0 0 1 0 0 0 1 0.5540009 13.605 15.253 2 1 0.5
9 0 1 0 0 0 1 0 0 0 1 -13.946 13.605 -7.247 0.5 2 1
9 0 1 0 0 0 1 0 0 0 1 -13.946 1.605 -1.247 0.5 1 2
9 0 1 0 0 0 1 0 0 0 1 -18.946 18.605 0.7530003 0.5 1 2
9 0 1 0 0 0 1 0 0 0 1 12.054 8.105 9.253 0.5 3.5 0.5
9 0 1 0 0 0 1 0 0 0 1 4.054001 18.105 14.253 0.5 3.5 0.5
9 0 1 0 0 0 1 0 0 0 1 0.05400085 -6.895 4.253 3.5 0.5 0.5
9 0 1 0 0 0 1 0 0 0 1 17.054 17.105 3.753 0.5 1.5 1
9 0 1 0 0 0 1 0 0 0 1 15.554 13.105 -4.747 1 1.5 0.5
9 0 1 0 0 0 1 0 0 0 1 15.054 7.105 3.753 0.5 1.5 1
9 0 1 0 0 0 1 0 0 0 1 14.054 6.105 4.253 0.5 3.5 0.5
9 0 1 0 0 0 1 0 0 0 1 14.054 13.105 6.753 0.5 1.5 1
9 0 1 0 0 0 1 0 0 0 1 8.554001 17.105 13.253 1 1.5 0.5
9 0 1 0 0 0 1 0 0 0 1 7.554001 -4.895 5.253 1 0.5 1.5
9 0 1 0 0 0 1 0 0 0 1 3.554001 19.105 15.253 1 1.5 0.5
9 0 1 0 0 0 1 0 0 0 1 1.054001 16.605 16.253 1.5 1 0.5
9 0 1 0 0 0 1 0 0 0 1 -6.945999 30.605 14.253 1.5 1 0.5
9 0 1 0 0 0 1 0 0 0 1 -8.945999 20.105 13.753 0.5 1.5 1
9 0 1 0 0 0 1 0 0 0 1 -10.946 26.605 -11.747 0.5 3 0.5
9 0 1 0 0 0 1 0 0 0 1 -12.946 11.605 -7.747 0.5 3 0.5
9 0 1 0 0 0 1 0 0 0 1 -12.946 21.605 12.253 1.5 1 0.5
9 0 1 0 0 0 1 0 0 0 1 -13.946 19.105 11.753 0.5 1.5 1
9 0 1 0 0 0 1 0 0 0 1 -13.946 17.105 9.753 0.5 1.5 1
9 0 1 0 0 0 1 0 0 0 1 -13.946 3.105 2.753 0.5 1.5 1
9 0 1 0 0 0 1 0 0 0 1 -14.946 20.105 10.753 0.5 1.5 1
9 0 1 0 0 0 1 0 0 0 1 -14.946 8.605 3.253 0.5 3 0.5
9 0 1 0 0 0 1 0 0 0 1 -15.946 22.105 10.753 0.5 1.5 1
9 0 1 0 0 0 1 0 0 0 1 -15.946 15.105 -0.2469997 0.5 0.5 3
9 0 1 0 0 0 1 0 0 0 1 -16.946 24.105 9.753 0.5 1.5 1
9 0 1 0 0 0 1 0 0 0 1 -16.946 21.605 8.253 0.5 1 1.5
9 0 1 0 0 0 1 0 0 0 1 -16.946 9.605 -0.7469997 0.5 1 1.5
9 0 1 0 0 0 1 0 0 0 1 17.054 14.105 -3.747 0.5 2.5 0.5
9 0 1 0 0 0 1 0 0 0 1 16.054 17.105 5.253 0.5 0.5 2.5
9 0 1 0 0 0 1 0 0 0 1 15.054 15.105 5.253 0.5 0.5 2.5
9 0 1 0 0 0 1 0 0 0 1 13.054 16.105 -9.747 0.5 2.5 0.5
9 0 1 0 0 0 1 0 0 0 1 13.054 9.105 7.253 0.5 2.5 0.5
9 0 1 0 0 0 1 0 0 0 1 2.054001 -4.895 8.253 2.5 0.5 0.5
9 0 1 0 0 0 1 0 0 0 1 -1.945999 17.105 16.253 0.5 2.5 0.5
9 0 1 0 0 0 1 0 0 0 1 -8.945999 28.105 14.253 0.5 2.5 0.5
9 0 1 0 0 0 1 0 0 0 1 -11.946 13.105 10.253 0.5 2.5 0.5
9 0 1 0 0 0 1 0 0 0 1 -13.946 12.105 6.253 0.5 2.5 0.5
9 0 1 0 0 0 1 0 0 0 1 20.054 22.105 -0.2469997 0.5 0.5 2
9 0 1 0 0 0 1 0 0 0 1 17.054 15.605 1.753 0.5 1 1
9 0 1 0 0 0 1 0 0 0 1 17.054 8.605 0.7530003 0.5 1 1
9 0 1 0 0 0 1 0 0 0 1 16.054 5.605 0.7530003 0.5 1 1
9 0 1 0 0 0 1 0 0 0 1 15.054 7.605 -3.247 0.5 1 1
9 0 1 0 0 0 1 0 0 0 1 15.054 5.605 -1.247 0.5 1 1
9 0 1 0 0 0 1 0 0 0 1 14.054 12.605 -8.747 0.5 2 0.5
9 0 1 0 0 0 1 0 0 0 1 14.554 9.605 -4.747 1 1 0.5
9 0 1 0 0 0 1 0 0 0 1 14.054 8.605 5.253 0.5 2 0.5
9 0 1 0 0 0 1 0 0 0 1 11.554 17.605 12.253 1 1 0.5
9 0 1 0 0 0 1 0 0 0 1 3.554001 -5.395 7.253 1 1 0.5
9 0 1 0 0 0 1 0 0 0 1 -3.945999 18.605 15.253 0.5 2 0.5
9 0 1 0 0 0 1 0 0 0 1 -6.445999 -6.895 0.7530003 1 0.5 1
9 0 1 0 0 0 1 0 0 0 1 -7.945999 -5.895 0.7530003 0.5 0.5 2
9 0 1 0 0 0 1 0 0 0 1 -8.945999 24.605 -12.747 0.5 2 0.5
9 0 1 0 0 0 1 0 0 0 1 -11.446 26.605 13.253 1 1 0.5
9 0 1 0 0 0 1 0 0 0 1 -11.446 14.605 12.253 1 1 0.5
9 0 1 0 0 0 1 0 0 0 1 -13.946 5.605 4.253 0.5 2 0.5
9 0 1 0 0 0 1 0 0 0 1 -14.446 7.605 -3.747 1 1 0.5
9 0 1 0 0 0 1 0 0 0 1 -14.446 3.105 -2.247 1 0.5 1
9 0 1 0 0 0 1 0 0 0 1 -16.946 14.605 3.753 0.5 1 1
9 0 1 0 0 0 1 0 0 0 1 -17.946 12.605 -0.7469997 0.5 2 0.5
9 0 1 0 0 0 1 0 0 0 1 19.054 18.105 -0.7469997 0.5 1.5 0.5
9 0 1 0 0 0 1 0 0 0 1 17.054 18.105 -2.747 0.5 1.5 0.5
9 0 1 0 0 0 1 0 0 0 1 16.054 17.105 -3.747 0.5 0.5 1.5
9 0 1 0 0 0 1 0 0 0 1 15.054 15.105 -4.747 0.5 0.5 1.5
9 0 1 0 0 0 1 0 0 0 1 15.054 13.105 5.253 0.5 1.5 0.5
9 0 1 0 0 0 1 0 0 0 1 14.054 5.105 -2.747 0.5 1.5 0.5
9 0 1 0 0 0 1 0 0 0 1 14.054 4.105 3.253 0.5 1.5 0.5
9 0 1 0 0 0 1 0 0 0 1 13.054 24.105 -11.747 0.5 1.5 0.5
9 0 1 0 0 0 1 0 0 0 1 13.054 14.105 -8.747 0.5 1.5 0.5
9 0 1 0 0 0 1 0 0 0 1 10.054 26.105 15.253 0.5 1.5 0.5
9 0 1 0 0 0 1 0 0 0 1 9.054001 24.105 15.253 0.5 1.5 0.5
9 0 1 0 0 0 1 0 0 0 1 9.054001 14.105 12.253 0.5 1.5 0.5
9 0 1 0 0 0 1 0 0 0 1 5.054001 27.105 15.253 0.5 1.5 0.5
9 0 1 0 0 0 1 0 0 0 1 3.054001 -6.895 -1.747 1.5 0.5 0.5
9 0 1 0 0 0 1 0 0 0 1 1.054001 5.105 14.253 0.5 1.5 0.5
9 0 1 0 0 0 1 0 0 0 1 -1.945999 24.105 16.253 0.5 1.5 0.5
9 0 1 0 0 0 1 0 0 0 1 -4.945999 16.105 14.253 1.5 0.5 0.5
9 0 1 0 0 0 1 0 0 0 1 -7.945999 19.105 15.253 0.5 1.5 0.5
9 0 1 0 0 0 1 0 0 0 1 -9.945999 16.105 12.253 0.5 1.5 0.5
9 0 1 0 0 0 1 0 0 0 1 -9.945999 -4.895 0.2530003 0.5 0.5 1.5
9 0 1 0 0 0 1 0 0 0 1 -12.946 9.105 7.253 0.5 1.5 0.5
9 0 1 0 0 0 1 0 0 0 1 -12.946 3.105 6.253 0.5 1.5 0.5
9 0 1 0 0 0 1 0 0 0 1 -12.946 17.105 11.253 1.5 0.5 0.5
9 0 1 0 0 0 1 0 0 0 1 -14.946 16.105 -4.747 0.5 0.5 1.5
9 0 1 0 0 0 1 0 0 0 1 -14.946 14.105 9.253 0.5 1.5 0.5
9 0 1 0 0 0 1 0 0 0 1 -14.946 6.105 2.253 0.5 1.5 0.5
9 0 1 0 0 0 1 0 0 0 1 -15.946 12.105 3.253 0.5 1.5 0.5
