9 0 1 0 0 0 1 0 0 0 1 0.25 -11 4.25 3 9.5 0.5
9 0 1 0 0 0 1 0 0 0 1 -4.25 -11 -0.25 0.5 9.5 3
9 0 1 0 0 0 1 0 0 0 1 0.25 -2.5 0.25 4 1 3.5
9 0 1 0 0 0 1 0 0 0 1 4.75 -11 -0.25 0.5 9.5 2
9 0 1 0 0 0 1 0 0 0 1 0.25 -11 -4.75 2 9.5 0.5
9 0 1 0 0 0 1 0 0 0 1 0.25 -11 5.25 1 9.5 0.5
9 0 1 0 0 0 1 0 0 0 1 -5.25 -11 -0.25 0.5 9.5 1
9 0 1 0 0 0 1 0 0 0 1 -0.25 3.5 0.25 1.5 2 1.5
9 0 1 0 0 0 1 0 0 0 1 2.75 -11 -3.75 0.5 9.5 0.5
9 0 1 0 0 0 1 0 0 0 1 -3.25 -11 -3.75 0.5 9.5 0.5
9 0 1 0 0 0 1 0 0 0 1 3.75 -12 -2.75 0.5 8.5 0.5
9 0 1 0 0 0 1 0 0 0 1 3.75 -12 3.25 0.5 8.5 0.5
9 0 1 0 0 0 1 0 0 0 1 -3.25 -13 3.25 0.5 6.5 0.5
9 0 1 0 0 0 1 0 0 0 1 4.75 -12 2.25 0.5 5.5 0.5
9 0 1 0 0 0 1 0 0 0 1 -0.25 -2.5 -3.75 2.5 1 0.5
9 0 1 0 0 0 1 0 0 0 1 -5.25 -11.5 1.25 0.5 5 0.5
9 0 1 0 0 0 1 0 0 0 1 1.75 3.5 -0.25 0.5 2 1
9 0 1 0 0 0 1 0 0 0 1 0.25 3.5 -1.75 1 2 0.5
9 0 1 0 0 0 1 0 0 0 1 -2.25 -5.5 -4.75 0.5 4 0.5
9 0 1 0 0 0 1 0 0 0 1 -1.25 -5 5.25 0.5 3.5 0.5
9 0 1 0 0 0 1 0 0 0 1 -2.25 -17.5 -4.75 0.5 3 0.5
9 0 1 0 0 0 1 0 0 0 1 -1.25 -18 5.25 0.5 2.5 0.5
