9 0 1 0 0 0 1 0 0 0 1 1.576 11.57 19.652 5.5 5.5 1.5
9 0 1 0 0 0 1 0 0 0 1 7.076 13.57 17.152 2 10.5 1
9 0 1 0 0 0 1 0 0 0 1 -9.424 13.57 15.152 1.5 5.5 2
9 0 1 0 0 0 1 0 0 0 1 -5.424 14.07 18.652 1.5 7 1.5
9 0 1 0 0 0 1 0 0 0 1 11.076 14.07 17.652 2 3 1.5
9 0 1 0 0 0 1 0 0 0 1 3.576 13.57 17.652 1.5 10.5 0.5
9 0 1 0 0 0 1 0 0 0 1 9.076 13.07 14.652 1 5 1.5
9 0 1 0 0 0 1 0 0 0 1 1.076 10.57 21.652 6 2.5 0.5
9 0 1 0 0 0 1 0 0 0 1 -6.424 13.57 16.652 1.5 9.5 0.5
9 0 1 0 0 0 1 0 0 0 1 1.076 5.070001 19.152 7 1 1
9 0 1 0 0 0 1 0 0 0 1 -0.9239998 18.57 19.652 3 1.5 1.5
9 0 1 0 0 0 1 0 0 0 1 -2.924 13.07 17.652 1 10 0.5
9 0 1 0 0 0 1 0 0 0 1 8.076 12.07 19.652 1 3 1.5
9 0 1 0 0 0 1 0 0 0 1 10.076 8.570001 17.652 1 2.5 1.5
9 0 1 0 0 0 1 0 0 0 1 -11.924 11.57 14.652 1 2.5 1.5
9 0 1 0 0 0 1 0 0 0 1 -7.924 14.57 17.652 1 6.5 0.5
9 0 1 0 0 0 1 0 0 0 1 10.576 15.57 13.652 0.5 2.5 2.5
9 0 1 0 0 0 1 0 0 0 1 0.5760002 22.07 19.152 1.5 2 1
9 0 1 0 0 0 1 0 0 0 1 -5.424 11.07 20.652 1.5 4 0.5
9 0 1 0 0 0 1 0 0 0 1 7.576 12.07 15.652 0.5 11 0.5
9 0 1 0 0 0 1 0 0 0 1 4.076 0.5700006 18.152 1 2.5 1
9 0 1 0 0 0 1 0 0 0 1 10.576 19.07 12.652 1.5 1 1.5
9 0 1 0 0 0 1 0 0 0 1 1.576 5.070001 20.652 4.5 1 0.5
9 0 1 0 0 0 1 0 0 0 1 -7.424 12.07 15.652 0.5 9 0.5
9 0 1 0 0 0 1 0 0 0 1 -8.924 6.570001 14.652 1 1.5 1.5
9 0 1 0 0 0 1 0 0 0 1 -11.424 17.07 15.652 0.5 3 1.5
9 0 1 0 0 0 1 0 0 0 1 11.076 13.07 19.652 2 2 0.5
9 0 1 0 0 0 1 0 0 0 1 0.07600021 6.070001 22.152 1 2 1
9 0 1 0 0 0 1 0 0 0 1 -0.9239998 15.07 21.652 2 2 0.5
9 0 1 0 0 0 1 0 0 0 1 -9.924 12.07 12.652 1 4 0.5
9 0 1 0 0 0 1 0 0 0 1 8.576 5.570001 14.652 0.5 2.5 1.5
9 0 1 0 0 0 1 0 0 0 1 3.576 3.570001 19.652 2.5 0.5 1.5
9 0 1 0 0 0 1 0 0 0 1 -7.424 11.57 19.152 0.5 3.5 1
9 0 1 0 0 0 1 0 0 0 1 9.576 19.57 16.152 0.5 1.5 2
9 0 1 0 0 0 1 0 0 0 1 -8.924 20.07 15.652 1 1 1.5
9 0 1 0 0 0 1 0 0 0 1 13.576 12.57 18.152 0.5 2.5 1
9 0 1 0 0 0 1 0 0 0 1 9.576 13.07 12.652 0.5 5 0.5
9 0 1 0 0 0 1 0 0 0 1 -4.924 4.570001 17.652 1 2.5 0.5
9 0 1 0 0 0 1 0 0 0 1 11.576 15.57 14.652 0.5 1.5 1.5
9 0 1 0 0 0 1 0 0 0 1 0.5760002 18.57 21.652 1.5 1.5 0.5
9 0 1 0 0 0 1 0 0 0 1 11.576 9.070001 18.152 0.5 2 1
9 0 1 0 0 0 1 0 0 0 1 7.576 19.07 18.652 0.5 4 0.5
9 0 1 0 0 0 1 0 0 0 1 8.076 13.07 21.652 1 2 0.5
9 0 1 0 0 0 1 0 0 0 1 8.076 8.070001 19.152 1 1 1
9 0 1 0 0 0 1 0 0 0 1 6.076 2.570001 18.152 1 0.5 2
9 0 1 0 0 0 1 0 0 0 1 4.076 2.070001 20.152 1 1 1
9 0 1 0 0 0 1 0 0 0 1 -5.924 21.57 18.152 2 0.5 1
9 0 1 0 0 0 1 0 0 0 1 -9.924 17.07 17.652 1 2 0.5
9 0 1 0 0 0 1 0 0 0 1 -13.424 12.07 14.152 0.5 2 1
9 0 1 0 0 0 1 0 0 0 1 7.576 4.570001 14.652 0.5 3.5 0.5
9 0 1 0 0 0 1 0 0 0 1 2.576 20.57 18.652 0.5 3.5 0.5
9 0 1 0 0 0 1 0 0 0 1 -7.424 17.57 14.652 0.5 3.5 0.5
9 0 1 0 0 0 1 0 0 0 1 -10.424 11.57 11.652 0.5 3.5 0.5
9 0 1 0 0 0 1 0 0 0 1 12.076 17.57 13.652 1 0.5 1.5
9 0 1 0 0 0 1 0 0 0 1 10.576 17.57 17.152 1.5 0.5 1
9 0 1 0 0 0 1 0 0 0 1 10.576 13.07 20.652 1.5 1 0.5
9 0 1 0 0 0 1 0 0 0 1 8.576 19.07 14.652 0.5 1 1.5
9 0 1 0 0 0 1 0 0 0 1 7.076 1.570001 -13.348 1 1.5 0.5
9 0 1 0 0 0 1 0 0 0 1 4.576 1.070001 -14.348 1.5 1 0.5
9 0 1 0 0 0 1 0 0 0 1 1.076 9.570001 22.652 1 1.5 0.5
9 0 1 0 0 0 1 0 0 0 1 0.5760002 21.07 20.652 1.5 1 0.5
9 0 1 0 0 0 1 0 0 0 1 -2.424 21.07 18.652 1.5 1 0.5
9 0 1 0 0 0 1 0 0 0 1 -3.424 1.570001 18.152 0.5 1.5 1
9 0 1 0 0 0 1 0 0 0 1 -3.424 3.570001 19.152 1.5 0.5 1
9 0 1 0 0 0 1 0 0 0 1 -4.924 6.570001 19.652 1 0.5 1.5
9 0 1 0 0 0 1 0 0 0 1 -11.424 12.57 12.152 0.5 1.5 1
9 0 1 0 0 0 1 0 0 0 1 3.576 7.570001 21.652 2.5 0.5 0.5
9 0 1 0 0 0 1 0 0 0 1 -5.424 11.57 21.652 0.5 2.5 0.5
9 0 1 0 0 0 1 0 0 0 1 12.576 16.07 15.152 0.5 1 1
9 0 1 0 0 0 1 0 0 0 1 10.576 12.07 15.152 0.5 1 1
9 0 1 0 0 0 1 0 0 0 1 9.576 9.070001 19.652 0.5 2 0.5
9 0 1 0 0 0 1 0 0 0 1 10.076 5.570001 17.152 1 0.5 1
9 0 1 0 0 0 1 0 0 0 1 8.576 16.07 19.152 0.5 1 1
9 0 1 0 0 0 1 0 0 0 1 7.576 16.07 20.152 0.5 1 1
9 0 1 0 0 0 1 0 0 0 1 5.576 1.570001 18.152 0.5 0.5 2
9 0 1 0 0 0 1 0 0 0 1 5.076 17.57 18.652 2 0.5 0.5
9 0 1 0 0 0 1 0 0 0 1 2.576 18.07 20.152 0.5 1 1
9 0 1 0 0 0 1 0 0 0 1 -0.4239998 15.07 22.652 0.5 2 0.5
9 0 1 0 0 0 1 0 0 0 1 -1.424 6.070001 21.652 0.5 2 0.5
9 0 1 0 0 0 1 0 0 0 1 -3.924 0.07000065 -14.348 1 1 0.5
9 0 1 0 0 0 1 0 0 0 1 -5.424 1.070001 -13.848 0.5 1 1
9 0 1 0 0 0 1 0 0 0 1 -6.424 6.070001 18.152 0.5 1 1
9 0 1 0 0 0 1 0 0 0 1 -7.424 7.070001 18.152 0.5 1 1
9 0 1 0 0 0 1 0 0 0 1 -6.924 2.070001 -13.348 1 1 0.5
9 0 1 0 0 0 1 0 0 0 1 -7.924 22.07 15.652 1 1 0.5
9 0 1 0 0 0 1 0 0 0 1 -10.424 20.07 15.152 0.5 1 1
9 0 1 0 0 0 1 0 0 0 1 -10.424 7.070001 15.152 0.5 1 1
9 0 1 0 0 0 1 0 0 0 1 -12.924 13.07 12.652 1 1 0.5
9 0 1 0 0 0 1 0 0 0 1 13.576 12.57 19.652 0.5 1.5 0.5
9 0 1 0 0 0 1 0 0 0 1 10.576 18.57 15.652 0.5 0.5 1.5
9 0 1 0 0 0 1 0 0 0 1 9.576 6.570001 15.652 0.5 1.5 0.5
9 0 1 0 0 0 1 0 0 0 1 8.576 21.57 15.652 0.5 1.5 0.5
9 0 1 0 0 0 1 0 0 0 1 7.576 -3.429999 -3.348001 0.5 0.5 1.5
9 0 1 0 0 0 1 0 0 0 1 7.576 24.57 16.652 1.5 0.5 0.5
9 0 1 0 0 0 1 0 0 0 1 6.576 14.57 21.652 0.5 1.5 0.5
9 0 1 0 0 0 1 0 0 0 1 5.576 0.5700006 -13.348 0.5 1.5 0.5
9 0 1 0 0 0 1 0 0 0 1 1.576 5.570001 21.652 0.5 1.5 0.5
9 0 1 0 0 0 1 0 0 0 1 -2.424 20.57 19.652 1.5 0.5 0.5
9 0 1 0 0 0 1 0 0 0 1 -3.424 -5.429999 7.651999 1.5 0.5 0.5
9 0 1 0 0 0 1 0 0 0 1 -5.424 22.57 17.652 1.5 0.5 0.5
9 0 1 0 0 0 1 0 0 0 1 -5.424 19.57 20.652 1.5 0.5 0.5
9 0 1 0 0 0 1 0 0 0 1 -7.424 19.57 18.652 0.5 1.5 0.5
9 0 1 0 0 0 1 0 0 0 1 -8.424 6.570001 16.652 0.5 1.5 0.5
9 0 1 0 0 0 1 0 0 0 1 -8.424 4.570001 14.652 0.5 0.5 1.5
9 0 1 0 0 0 1 0 0 0 1 -9.424 6.570001 12.652 0.5 1.5 0.5
9 0 1 0 0 0 1 0 0 0 1 -11.424 7.570001 15.652 0.5 1.5 0.5
