9 0 1 0 0 0 1 0 0 0 1 -9.595999 -19.797 -0.8390007 1.5 7 5.5
9 0 1 0 0 0 1 0 0 0 1 -0.09599876 -23.297 9.660999 5 5.5 2
9 0 1 0 0 0 1 0 0 0 1 8.904001 -22.297 -1.339001 1 6.5 7
9 0 1 0 0 0 1 0 0 0 1 -7.095999 -18.297 -8.839001 1 9.5 3.5
9 0 1 0 0 0 1 0 0 0 1 6.904001 -21.297 -8.839001 1 7.5 3.5
9 0 1 0 0 0 1 0 0 0 1 10.904 -20.297 -1.339001 1 4.5 5
9 0 1 0 0 0 1 0 0 0 1 -9.095999 -18.297 -8.339001 1 7.5 2
9 0 1 0 0 0 1 0 0 0 1 0.4040012 -22.797 12.661 3.5 4 1
9 0 1 0 0 0 1 0 0 0 1 -0.09599876 -14.297 8.660999 4 3.5 1
9 0 1 0 0 0 1 0 0 0 1 0.4040012 -11.297 -16.839 3.5 7.5 0.5
9 0 1 0 0 0 1 0 0 0 1 -11.596 -18.797 -1.339001 0.5 5 5
9 0 1 0 0 0 1 0 0 0 1 -6.595999 -23.797 7.160999 1.5 5 1.5
9 0 1 0 0 0 1 0 0 0 1 9.904001 -13.297 -1.839001 2 1.5 3.5
9 0 1 0 0 0 1 0 0 0 1 -7.595999 -19.797 -3.839001 0.5 13 1.5
9 0 1 0 0 0 1 0 0 0 1 -6.095999 -18.297 -13.339 1 9.5 1
9 0 1 0 0 0 1 0 0 0 1 -13.596 -16.297 0.1609993 1.5 2.5 2.5
9 0 1 0 0 0 1 0 0 0 1 13.904 -16.297 0.6609993 2 1.5 3
9 0 1 0 0 0 1 0 0 0 1 6.404001 -23.797 8.160999 1.5 4 1.5
9 0 1 0 0 0 1 0 0 0 1 8.904001 -18.297 -9.839001 1 5.5 1.5
9 0 1 0 0 0 1 0 0 0 1 5.904001 -18.297 -13.839 1 5.5 1.5
9 0 1 0 0 0 1 0 0 0 1 -9.095999 -28.297 -1.839001 1 1.5 5.5
9 0 1 0 0 0 1 0 0 0 1 6.904001 -11.297 -8.339001 1 2.5 3
9 0 1 0 0 0 1 0 0 0 1 -0.09599876 -29.797 9.160999 5 1 1.5
9 0 1 0 0 0 1 0 0 0 1 -7.595999 -21.297 4.160999 0.5 9.5 1.5
9 0 1 0 0 0 1 0 0 0 1 7.404001 -20.297 -4.339001 0.5 12.5 1
9 0 1 0 0 0 1 0 0 0 1 7.404001 -22.797 5.160999 0.5 8 1.5
9 0 1 0 0 0 1 0 0 0 1 -6.595999 -30.297 -8.839001 0.5 2.5 4.5
9 0 1 0 0 0 1 0 0 0 1 -9.595999 -11.797 -2.839001 1.5 1 3.5
9 0 1 0 0 0 1 0 0 0 1 8.904001 -9.797001 -4.839001 1 2 2.5
9 0 1 0 0 0 1 0 0 0 1 9.904001 -15.297 -0.3390007 2 0.5 5
9 0 1 0 0 0 1 0 0 0 1 4.404001 -15.797 -15.339 0.5 10 1
9 0 1 0 0 0 1 0 0 0 1 -4.095999 -16.797 -15.839 1 10 0.5
9 0 1 0 0 0 1 0 0 0 1 -5.095999 -19.797 -14.839 1 12 0.5
9 0 1 0 0 0 1 0 0 0 1 10.404 -17.797 -7.839001 0.5 6 1.5
9 0 1 0 0 0 1 0 0 0 1 8.904001 -29.797 -1.839001 1 1 4.5
9 0 1 0 0 0 1 0 0 0 1 -9.095999 -20.297 5.660999 1 4.5 1
9 0 1 0 0 0 1 0 0 0 1 0.4040012 -21.797 14.161 2.5 3 0.5
9 0 1 0 0 0 1 0 0 0 1 -6.095999 -22.297 10.161 1 2.5 1.5
9 0 1 0 0 0 1 0 0 0 1 -16.596 -15.797 1.160999 1.5 1 2.5
9 0 1 0 0 0 1 0 0 0 1 -0.09599876 -14.297 10.161 2 3.5 0.5
9 0 1 0 0 0 1 0 0 0 1 -4.595999 -14.297 7.160999 1.5 4.5 0.5
9 0 1 0 0 0 1 0 0 0 1 -10.596 -17.297 -7.339001 0.5 6.5 1
9 0 1 0 0 0 1 0 0 0 1 3.404001 -14.297 -15.839 0.5 12.5 0.5
9 0 1 0 0 0 1 0 0 0 1 0.4040012 -13.297 -17.839 2.5 2.5 0.5
9 0 1 0 0 0 1 0 0 0 1 10.904 -18.797 4.660999 1 3 1
9 0 1 0 0 0 1 0 0 0 1 10.904 -25.797 -1.339001 1 1 3
9 0 1 0 0 0 1 0 0 0 1 8.904001 -13.797 -6.839001 1 2 1.5
9 0 1 0 0 0 1 0 0 0 1 6.904001 -6.797001 -6.839001 1 2 1.5
9 0 1 0 0 0 1 0 0 0 1 6.904001 -30.297 -7.339001 1 1.5 2
9 0 1 0 0 0 1 0 0 0 1 4.904001 -14.797 7.660999 1 3 1
9 0 1 0 0 0 1 0 0 0 1 -0.09599876 -31.797 8.660999 3 1 1
9 0 1 0 0 0 1 0 0 0 1 -8.595999 -19.797 -11.839 0.5 4 1.5
9 0 1 0 0 0 1 0 0 0 1 -9.095999 -9.297001 -4.339001 1 1.5 2
9 0 1 0 0 0 1 0 0 0 1 8.904001 -21.297 6.160999 1 5.5 0.5
9 0 1 0 0 0 1 0 0 0 1 7.404001 -19.297 -13.339 0.5 5.5 1
9 0 1 0 0 0 1 0 0 0 1 6.404001 -20.797 6.160999 0.5 11 0.5
9 0 1 0 0 0 1 0 0 0 1 -6.595999 -20.797 5.160999 0.5 11 0.5
9 0 1 0 0 0 1 0 0 0 1 0.4040012 -22.297 -16.839 1.5 3.5 0.5
9 0 1 0 0 0 1 0 0 0 1 14.404 -14.297 0.6609993 2.5 0.5 2
9 0 1 0 0 0 1 0 0 0 1 12.404 -20.297 -2.339001 0.5 2.5 2
9 0 1 0 0 0 1 0 0 0 1 8.404001 -18.797 -12.339 0.5 5 1
9 0 1 0 0 0 1 0 0 0 1 5.904001 -22.297 10.661 1 2.5 1
9 0 1 0 0 0 1 0 0 0 1 -5.595999 -24.797 -6.839001 0.5 10 0.5
9 0 1 0 0 0 1 0 0 0 1 -7.095999 -7.797001 -7.839001 1 1 2.5
9 0 1 0 0 0 1 0 0 0 1 -8.595999 -30.797 -2.339001 0.5 1 5
9 0 1 0 0 0 1 0 0 0 1 17.404 -15.797 2.160999 1.5 1 1.5
9 0 1 0 0 0 1 0 0 0 1 9.404001 -13.297 2.660999 1.5 1.5 1
9 0 1 0 0 0 1 0 0 0 1 5.404001 -9.797001 -13.839 0.5 3 1.5
9 0 1 0 0 0 1 0 0 0 1 -4.595999 -23.797 -13.839 0.5 9 0.5
9 0 1 0 0 0 1 0 0 0 1 -6.095999 -14.297 6.160999 1 4.5 0.5
9 0 1 0 0 0 1 0 0 0 1 -7.595999 -19.297 -13.339 0.5 4.5 1
9 0 1 0 0 0 1 0 0 0 1 -13.096 -15.797 -3.339001 1 2 1
9 0 1 0 0 0 1 0 0 0 1 8.404001 -22.297 8.160999 0.5 2.5 1.5
9 0 1 0 0 0 1 0 0 0 1 4.404001 -25.297 7.160999 0.5 7.5 0.5
9 0 1 0 0 0 1 0 0 0 1 -7.595999 -29.297 -7.839001 0.5 1.5 2.5
9 0 1 0 0 0 1 0 0 0 1 0.4040012 -27.797 12.161 3.5 1 0.5
9 0 1 0 0 0 1 0 0 0 1 -3.595999 -22.297 12.661 0.5 3.5 1
9 0 1 0 0 0 1 0 0 0 1 -4.595999 -25.797 7.160999 0.5 7 0.5
9 0 1 0 0 0 1 0 0 0 1 -8.595999 -23.297 7.660999 0.5 3.5 1
9 0 1 0 0 0 1 0 0 0 1 -11.596 -12.797 -2.839001 0.5 1 3.5
9 0 1 0 0 0 1 0 0 0 1 -11.596 -24.797 -0.8390007 0.5 1 3.5
9 0 1 0 0 0 1 0 0 0 1 -3.595999 -12.297 -16.839 0.5 6.5 0.5
9 0 1 0 0 0 1 0 0 0 1 13.404 -15.797 -3.339001 1.5 1 1
9 0 1 0 0 0 1 0 0 0 1 10.404 -27.797 -1.339001 0.5 1 3
9 0 1 0 0 0 1 0 0 0 1 8.404001 -10.297 -0.3390007 0.5 1.5 2
9 0 1 0 0 0 1 0 0 0 1 8.404001 -25.797 -9.839001 0.5 2 1.5
9 0 1 0 0 0 1 0 0 0 1 6.404001 -7.297001 -10.339 0.5 1.5 2
9 0 1 0 0 0 1 0 0 0 1 6.904001 -11.297 -12.339 1 1.5 1
9 0 1 0 0 0 1 0 0 0 1 5.904001 -18.797 8.160999 1 1 1.5
9 0 1 0 0 0 1 0 0 0 1 5.904001 -29.297 7.660999 1 1.5 1
9 0 1 0 0 0 1 0 0 0 1 -0.09599876 -12.297 -18.839 2 1.5 0.5
9 0 1 0 0 0 1 0 0 0 1 -0.09599876 -29.797 11.161 3 1 0.5
9 0 1 0 0 0 1 0 0 0 1 -5.595999 -30.797 -13.339 0.5 3 1
9 0 1 0 0 0 1 0 0 0 1 -10.596 -20.297 5.160999 0.5 5.5 0.5
9 0 1 0 0 0 1 0 0 0 1 8.404001 -31.797 -1.839001 0.5 1 2.5
9 0 1 0 0 0 1 0 0 0 1 5.904001 -26.297 -12.839 1 2.5 0.5
9 0 1 0 0 0 1 0 0 0 1 4.904001 -26.297 -13.839 1 2.5 0.5
9 0 1 0 0 0 1 0 0 0 1 -0.5959988 -10.297 8.660999 2.5 0.5 1
9 0 1 0 0 0 1 0 0 0 1 -5.095999 -15.297 8.160999 1 2.5 0.5
9 0 1 0 0 0 1 0 0 0 1 -6.595999 -18.797 -14.839 0.5 5 0.5
9 0 1 0 0 0 1 0 0 0 1 -7.595999 -22.297 9.660999 0.5 2.5 1
9 0 1 0 0 0 1 0 0 0 1 -9.595999 -18.797 -10.839 0.5 5 0.5
9 0 1 0 0 0 1 0 0 0 1 -10.596 -27.797 -0.8390007 0.5 1 2.5
9 0 1 0 0 0 1 0 0 0 1 14.404 -18.297 0.1609993 1.5 0.5 1.5
9 0 1 0 0 0 1 0 0 0 1 8.404001 -11.297 -9.839001 0.5 1.5 1.5
9 0 1 0 0 0 1 0 0 0 1 0.4040012 -35.297 -8.839001 1.5 0.5 1.5
9 0 1 0 0 0 1 0 0 0 1 -5.595999 -30.297 7.160999 0.5 1.5 1.5
9 0 1 0 0 0 1 0 0 0 1 -6.595999 -5.297001 -7.839001 0.5 1.5 1.5
9 0 1 0 0 0 1 0 0 0 1 -8.595999 -27.297 -8.839001 0.5 1.5 1.5
9 0 1 0 0 0 1 0 0 0 1 -9.595999 -12.297 2.160999 1.5 0.5 1.5
9 0 1 0 0 0 1 0 0 0 1 -11.596 -18.297 4.160999 0.5 4.5 0.5
9 0 1 0 0 0 1 0 0 0 1 -13.596 -16.297 3.160999 1.5 1.5 0.5
9 0 1 0 0 0 1 0 0 0 1 16.904 -15.797 -0.3390007 1 1 1
9 0 1 0 0 0 1 0 0 0 1 10.904 -11.297 -3.339001 1 0.5 2
9 0 1 0 0 0 1 0 0 0 1 10.904 -13.797 -5.839001 1 2 0.5
9 0 1 0 0 0 1 0 0 0 1 10.404 -23.797 4.660999 0.5 2 1
9 0 1 0 0 0 1 0 0 0 1 8.404001 -6.797001 -5.339001 0.5 1 2
9 0 1 0 0 0 1 0 0 0 1 8.904001 -13.797 4.160999 2 1 0.5
9 0 1 0 0 0 1 0 0 0 1 5.404001 -15.797 -15.839 0.5 4 0.5
9 0 1 0 0 0 1 0 0 0 1 4.904001 -21.797 12.161 1 2 0.5
9 0 1 0 0 0 1 0 0 0 1 -0.09599876 -16.797 11.161 2 1 0.5
9 0 1 0 0 0 1 0 0 0 1 -0.09599876 -18.297 12.661 2 0.5 1
9 0 1 0 0 0 1 0 0 0 1 -5.595999 -6.797001 -13.339 0.5 2 1
9 0 1 0 0 0 1 0 0 0 1 -5.095999 -21.797 12.161 1 2 0.5
9 0 1 0 0 0 1 0 0 0 1 -5.595999 -26.797 9.660999 0.5 2 1
9 0 1 0 0 0 1 0 0 0 1 -8.595999 -9.797001 -0.3390007 0.5 1 2
9 0 1 0 0 0 1 0 0 0 1 -8.595999 -26.797 5.660999 0.5 2 1
9 0 1 0 0 0 1 0 0 0 1 -9.595999 -30.297 -2.339001 0.5 0.5 4
9 0 1 0 0 0 1 0 0 0 1 -10.596 -18.797 -8.839001 0.5 4 0.5
9 0 1 0 0 0 1 0 0 0 1 -12.596 -19.797 -1.339001 0.5 1 2
9 0 1 0 0 0 1 0 0 0 1 -13.096 -13.297 -0.3390007 1 0.5 2
9 0 1 0 0 0 1 0 0 0 1 -16.096 -14.297 0.6609993 1 0.5 2
9 0 1 0 0 0 1 0 0 0 1 -19.096 -15.797 2.660999 1 1 1
9 0 1 0 0 0 1 0 0 0 1 -5.595999 -16.297 -15.839 0.5 3.5 0.5
9 0 1 0 0 0 1 0 0 0 1 13.404 -13.297 -0.3390007 1.5 0.5 1
9 0 1 0 0 0 1 0 0 0 1 13.404 -14.297 -2.339001 1.5 0.5 1
9 0 1 0 0 0 1 0 0 0 1 12.404 -17.297 -5.339001 0.5 1.5 1
9 0 1 0 0 0 1 0 0 0 1 10.404 -26.297 2.660999 0.5 1.5 1
9 0 1 0 0 0 1 0 0 0 1 8.404001 -29.797 4.160999 0.5 1 1.5
9 0 1 0 0 0 1 0 0 0 1 6.404001 -14.797 7.160999 0.5 3 0.5
9 0 1 0 0 0 1 0 0 0 1 6.404001 -29.797 -10.839 0.5 1 1.5
9 0 1 0 0 0 1 0 0 0 1 6.904001 -32.297 -6.839001 1 0.5 1.5
9 0 1 0 0 0 1 0 0 0 1 5.404001 -26.297 10.661 0.5 1.5 1
9 0 1 0 0 0 1 0 0 0 1 4.404001 -13.797 -16.839 0.5 3 0.5
9 0 1 0 0 0 1 0 0 0 1 0.4040012 -19.797 15.161 1.5 1 0.5
9 0 1 0 0 0 1 0 0 0 1 -0.09599876 -3.297001 -16.839 3 0.5 0.5
9 0 1 0 0 0 1 0 0 0 1 -0.09599876 -10.297 -17.839 3 0.5 0.5
9 0 1 0 0 0 1 0 0 0 1 -0.09599876 -31.297 10.161 3 0.5 0.5
9 0 1 0 0 0 1 0 0 0 1 -6.595999 -7.797001 -11.839 0.5 1 1.5
9 0 1 0 0 0 1 0 0 0 1 -6.595999 -17.297 7.660999 0.5 1.5 1
9 0 1 0 0 0 1 0 0 0 1 -7.595999 -17.297 6.660999 0.5 1.5 1
9 0 1 0 0 0 1 0 0 0 1 -7.595999 -5.797001 -5.839001 1.5 1 0.5
9 0 1 0 0 0 1 0 0 0 1 -8.595999 -12.797 -10.839 0.5 3 0.5
9 0 1 0 0 0 1 0 0 0 1 -8.595999 -9.797001 -7.839001 0.5 1 1.5
9 0 1 0 0 0 1 0 0 0 1 -12.596 -16.297 -5.339001 0.5 1.5 1
9 0 1 0 0 0 1 0 0 0 1 -15.596 -17.297 0.6609993 0.5 0.5 3
9 0 1 0 0 0 1 0 0 0 1 11.404 -16.297 -6.839001 0.5 2.5 0.5
9 0 1 0 0 0 1 0 0 0 1 7.404001 -22.297 10.161 0.5 2.5 0.5
9 0 1 0 0 0 1 0 0 0 1 6.404001 -21.297 5.160999 0.5 2.5 0.5
9 0 1 0 0 0 1 0 0 0 1 0.4040012 -33.297 8.160999 2.5 0.5 0.5
9 0 1 0 0 0 1 0 0 0 1 -2.595999 -21.297 14.161 0.5 2.5 0.5
9 0 1 0 0 0 1 0 0 0 1 -0.5959988 -27.297 13.161 2.5 0.5 0.5
9 0 1 0 0 0 1 0 0 0 1 -3.595999 -4.297001 -15.839 0.5 2.5 0.5
9 0 1 0 0 0 1 0 0 0 1 -4.595999 -5.297001 -14.839 0.5 2.5 0.5
9 0 1 0 0 0 1 0 0 0 1 -11.596 -17.297 -6.839001 0.5 2.5 0.5
9 0 1 0 0 0 1 0 0 0 1 19.904 -15.297 2.660999 1 0.5 1
9 0 1 0 0 0 1 0 0 0 1 17.904 -14.297 1.660999 1 0.5 1
9 0 1 0 0 0 1 0 0 0 1 16.904 -17.297 1.660999 1 0.5 1
9 0 1 0 0 0 1 0 0 0 1 13.404 -19.297 -0.3390007 0.5 0.5 2
9 0 1 0 0 0 1 0 0 0 1 12.404 -18.797 1.660999 0.5 1 2
9 0 1 0 0 0 1 0 0 0 1 13.904 -16.297 4.160999 2 0.5 0.5
9 0 1 0 0 0 1 0 0 0 1 12.904 -17.297 -3.339001 1 0.5 1
9 0 1 0 0 0 1 0 0 0 1 11.404 -13.797 2.660999 0.5 1 1
9 0 1 0 0 0 1 0 0 0 1 11.404 -27.297 -1.339001 0.5 0.5 2
9 0 1 0 0 0 1 0 0 0 1 10.404 -25.797 -5.339001 0.5 1 1
9 0 1 0 0 0 1 0 0 0 1 9.404001 -10.797 -1.339001 0.5 1 1
9 0 1 0 0 0 1 0 0 0 1 9.404001 -11.797 -9.339001 0.5 1 1
9 0 1 0 0 0 1 0 0 0 1 9.404001 -24.797 -9.339001 0.5 1 1
9 0 1 0 0 0 1 0 0 0 1 9.404001 -31.297 -1.339001 0.5 0.5 2
9 0 1 0 0 0 1 0 0 0 1 8.404001 -8.797001 -8.339001 0.5 1 1
9 0 1 0 0 0 1 0 0 0 1 8.904001 -10.797 -7.839001 1 1 0.5
9 0 1 0 0 0 1 0 0 0 1 8.904001 -14.797 5.160999 1 1 0.5
9 0 1 0 0 0 1 0 0 0 1 8.404001 -25.797 7.660999 0.5 1 1
9 0 1 0 0 0 1 0 0 0 1 8.404001 -27.797 6.660999 0.5 1 1
9 0 1 0 0 0 1 0 0 0 1 8.404001 -28.797 -9.339001 0.5 1 1
9 0 1 0 0 0 1 0 0 0 1 8.404001 -29.797 -7.339001 0.5 1 1
9 0 1 0 0 0 1 0 0 0 1 7.404001 -6.797001 -4.339001 0.5 1 1
9 0 1 0 0 0 1 0 0 0 1 7.404001 -7.797001 -9.339001 0.5 1 1
9 0 1 0 0 0 1 0 0 0 1 7.404001 -17.797 7.160999 0.5 2 0.5
9 0 1 0 0 0 1 0 0 0 1 6.404001 -3.797001 -8.339001 0.5 1 1
9 0 1 0 0 0 1 0 0 0 1 6.404001 -10.797 -13.839 0.5 2 0.5
9 0 1 0 0 0 1 0 0 0 1 5.404001 -5.797001 -13.339 0.5 1 1
9 0 1 0 0 0 1 0 0 0 1 5.404001 -28.797 9.660999 0.5 1 1
9 0 1 0 0 0 1 0 0 0 1 4.904001 -10.797 7.160999 1 1 0.5
9 0 1 0 0 0 1 0 0 0 1 4.404001 -25.797 12.161 0.5 2 0.5
9 0 1 0 0 0 1 0 0 0 1 3.904001 -31.297 8.660999 1 0.5 1
9 0 1 0 0 0 1 0 0 0 1 -0.09599876 -16.797 -17.839 1 1 0.5
9 0 1 0 0 0 1 0 0 0 1 -0.09599876 -29.297 12.161 2 0.5 0.5
9 0 1 0 0 0 1 0 0 0 1 -2.595999 -12.797 -17.839 0.5 2 0.5
9 0 1 0 0 0 1 0 0 0 1 -4.595999 -14.797 -16.839 0.5 2 0.5
9 0 1 0 0 0 1 0 0 0 1 -4.095999 -31.297 8.660999 1 0.5 1
9 0 1 0 0 0 1 0 0 0 1 -5.595999 -18.797 9.660999 0.5 1 1
9 0 1 0 0 0 1 0 0 0 1 -6.595999 -25.797 9.660999 0.5 1 1
9 0 1 0 0 0 1 0 0 0 1 -6.595999 -29.797 6.660999 0.5 1 1
9 0 1 0 0 0 1 0 0 0 1 -6.095999 -32.297 -15.339 1 0.5 1
9 0 1 0 0 0 1 0 0 0 1 -7.595999 -10.797 3.660999 0.5 1 1
9 0 1 0 0 0 1 0 0 0 1 -7.595999 -12.797 -12.839 0.5 2 0.5
9 0 1 0 0 0 1 0 0 0 1 -7.595999 -31.797 -6.339001 0.5 1 1
9 0 1 0 0 0 1 0 0 0 1 -8.595999 -7.297001 -5.339001 0.5 0.5 2
9 0 1 0 0 0 1 0 0 0 1 -8.595999 -21.797 9.160999 0.5 2 0.5
9 0 1 0 0 0 1 0 0 0 1 -8.595999 -28.797 4.160999 0.5 2 0.5
9 0 1 0 0 0 1 0 0 0 1 -9.095999 -14.797 5.160999 1 1 0.5
9 0 1 0 0 0 1 0 0 0 1 -9.595999 -26.797 -8.339001 0.5 1 1
9 0 1 0 0 0 1 0 0 0 1 -11.596 -26.297 -1.339001 0.5 0.5 2
9 0 1 0 0 0 1 0 0 0 1 -13.096 -15.797 4.160999 1 1 0.5
9 0 1 0 0 0 1 0 0 0 1 -14.596 -15.797 -2.839001 0.5 2 0.5
9 0 1 0 0 0 1 0 0 0 1 -16.096 -15.797 -1.839001 1 1 0.5
9 0 1 0 0 0 1 0 0 0 1 -17.096 -17.297 1.660999 1 0.5 1
9 0 1 0 0 0 1 0 0 0 1 12.404 -13.297 -2.839001 0.5 0.5 1.5
9 0 1 0 0 0 1 0 0 0 1 12.404 -23.297 -1.839001 0.5 0.5 1.5
9 0 1 0 0 0 1 0 0 0 1 10.404 -11.297 -6.839001 0.5 0.5 1.5
9 0 1 0 0 0 1 0 0 0 1 10.404 -22.297 6.160999 0.5 1.5 0.5
9 0 1 0 0 0 1 0 0 0 1 9.404001 -7.297001 -4.839001 0.5 0.5 1.5
9 0 1 0 0 0 1 0 0 0 1 9.404001 -18.297 -11.839 0.5 1.5 0.5
9 0 1 0 0 0 1 0 0 0 1 9.404001 -22.297 7.160999 0.5 1.5 0.5
9 0 1 0 0 0 1 0 0 0 1 8.404001 -12.297 -11.839 0.5 1.5 0.5
9 0 1 0 0 0 1 0 0 0 1 8.404001 -31.297 -5.839001 0.5 0.5 1.5
9 0 1 0 0 0 1 0 0 0 1 8.404001 -31.297 2.160999 0.5 0.5 1.5
9 0 1 0 0 0 1 0 0 0 1 7.404001 -11.297 4.160999 0.5 1.5 0.5
9 0 1 0 0 0 1 0 0 0 1 7.404001 -31.297 4.160999 0.5 0.5 1.5
9 0 1 0 0 0 1 0 0 0 1 6.404001 -8.297001 -12.839 0.5 1.5 0.5
9 0 1 0 0 0 1 0 0 0 1 6.404001 -11.297 5.160999 0.5 1.5 0.5
9 0 1 0 0 0 1 0 0 0 1 6.404001 -16.297 8.160999 0.5 1.5 0.5
9 0 1 0 0 0 1 0 0 0 1 6.404001 -31.297 5.160999 0.5 1.5 0.5
9 0 1 0 0 0 1 0 0 0 1 5.404001 -16.297 6.160999 0.5 1.5 0.5
9 0 1 0 0 0 1 0 0 0 1 5.404001 -27.297 6.160999 0.5 1.5 0.5
9 0 1 0 0 0 1 0 0 0 1 4.404001 -4.297001 -14.839 0.5 1.5 0.5
9 0 1 0 0 0 1 0 0 0 1 4.404001 -21.297 13.161 0.5 1.5 0.5
9 0 1 0 0 0 1 0 0 0 1 3.404001 -10.297 8.160999 1.5 0.5 0.5
9 0 1 0 0 0 1 0 0 0 1 2.404001 -16.297 10.161 0.5 1.5 0.5
9 0 1 0 0 0 1 0 0 0 1 0.4040012 -25.297 14.161 1.5 0.5 0.5
9 0 1 0 0 0 1 0 0 0 1 -2.595999 -24.297 -16.839 1.5 0.5 0.5
9 0 1 0 0 0 1 0 0 0 1 -4.595999 -11.297 8.160999 0.5 1.5 0.5
9 0 1 0 0 0 1 0 0 0 1 -4.595999 -21.297 13.161 0.5 1.5 0.5
9 0 1 0 0 0 1 0 0 0 1 -4.595999 -25.297 12.161 0.5 1.5 0.5
9 0 1 0 0 0 1 0 0 0 1 -5.595999 -32.297 -11.839 0.5 1.5 0.5
9 0 1 0 0 0 1 0 0 0 1 -7.595999 -5.297001 -6.839001 0.5 1.5 0.5
9 0 1 0 0 0 1 0 0 0 1 -8.595999 -14.297 -11.839 0.5 1.5 0.5
9 0 1 0 0 0 1 0 0 0 1 -8.595999 -25.297 -10.839 0.5 1.5 0.5
9 0 1 0 0 0 1 0 0 0 1 -8.595999 -32.297 -1.839001 0.5 0.5 1.5
9 0 1 0 0 0 1 0 0 0 1 -9.595999 -22.297 7.160999 0.5 1.5 0.5
9 0 1 0 0 0 1 0 0 0 1 -10.596 -22.297 6.160999 0.5 1.5 0.5
9 0 1 0 0 0 1 0 0 0 1 -12.596 -18.297 -3.839001 0.5 0.5 1.5
