9 0 1 0 0 0 1 0 0 0 1 0.1513672 2 -14.45224 21.5 0.5 8.5
9 0 1 0 0 0 1 0 0 0 1 -0.3486328 2 11.04776 23 0.5 5
9 0 1 0 0 0 1 0 0 0 1 14.15137 2 0.04776001 8.5 0.5 6
9 0 1 0 0 0 1 0 0 0 1 -14.34863 2 0.04776001 8 0.5 6
9 0 1 0 0 0 1 0 0 0 1 0.1513672 2 21.54776 7.5 0.5 5.5
9 0 1 0 0 0 1 0 0 0 1 26.15137 2 8.54776 3.5 0.5 5.5
9 0 1 0 0 0 1 0 0 0 1 -26.34863 2 8.54776 3 0.5 5.5
9 0 1 0 0 0 1 0 0 0 1 16.65137 2 -24.95224 6 0.5 2
9 0 1 0 0 0 1 0 0 0 1 -17.84863 2 -25.45224 4.5 0.5 2.5
9 0 1 0 0 0 1 0 0 0 1 0.1513672 2 30.04776 3.5 0.5 3
9 0 1 0 0 0 1 0 0 0 1 -8.848633 2 19.54776 1.5 0.5 3.5
9 0 1 0 0 0 1 0 0 0 1 -30.84863 2 9.54776 1.5 0.5 3.5
9 0 1 0 0 0 1 0 0 0 1 31.65137 2 10.54776 2 0.5 2.5
9 0 1 0 0 0 1 0 0 0 1 9.651367 2 18.54776 2 0.5 2.5
9 0 1 0 0 0 1 0 0 0 1 -21.84863 10 0.04776001 0.5 4.5 1
9 0 1 0 0 0 1 0 0 0 1 -23.84863 2 0.04776001 1.5 0.5 3
9 0 1 0 0 0 1 0 0 0 1 24.65137 2 1.04776 2 0.5 2
9 0 1 0 0 0 1 0 0 0 1 -9.348633 2 -23.95224 4 0.5 1
9 0 1 0 0 0 1 0 0 0 1 -21.84863 2 -16.45224 0.5 0.5 6.5
9 0 1 0 0 0 1 0 0 0 1 19.65137 2 -27.95224 3 0.5 1
9 0 1 0 0 0 1 0 0 0 1 8.151367 2 -23.95224 2.5 0.5 1
9 0 1 0 0 0 1 0 0 0 1 -12.84863 2 17.04776 2.5 0.5 1
9 0 1 0 0 0 1 0 0 0 1 0.1513672 2 34.54776 1.5 0.5 1.5
9 0 1 0 0 0 1 0 0 0 1 13.65137 2 17.04776 2 0.5 1
9 0 1 0 0 0 1 0 0 0 1 8.651367 2 22.54776 1 0.5 1.5
9 0 1 0 0 0 1 0 0 0 1 4.651367 2 28.54776 1 0.5 1.5
9 0 1 0 0 0 1 0 0 0 1 -4.348633 2 28.54776 1 0.5 1.5
9 0 1 0 0 0 1 0 0 0 1 -19.34863 2 -28.45224 3 0.5 0.5
9 0 1 0 0 0 1 0 0 0 1 -26.34863 2 1.54776 1 0.5 1.5
9 0 1 0 0 0 1 0 0 0 1 -33.34863 2 10.54776 1 0.5 1.5
9 0 1 0 0 0 1 0 0 0 1 -10.84863 2 -25.45224 2.5 0.5 0.5
9 0 1 0 0 0 1 0 0 0 1 30.65137 2 7.04776 1 0.5 1
9 0 1 0 0 0 1 0 0 0 1 23.65137 2 -1.95224 1 0.5 1
9 0 1 0 0 0 1 0 0 0 1 24.65137 2 14.54776 2 0.5 0.5
9 0 1 0 0 0 1 0 0 0 1 22.15137 2 -20.95224 0.5 0.5 2
9 0 1 0 0 0 1 0 0 0 1 -5.348633 2 5.04776 1 0.5 1
9 0 1 0 0 0 1 0 0 0 1 -11.34863 2 19.04776 1 0.5 1
9 0 1 0 0 0 1 0 0 0 1 -17.34863 2 16.54776 2 0.5 0.5
9 0 1 0 0 0 1 0 0 0 1 21.15137 2 -29.45224 1.5 0.5 0.5
9 0 1 0 0 0 1 0 0 0 1 17.15137 2 16.54776 1.5 0.5 0.5
9 0 1 0 0 0 1 0 0 0 1 15.15137 2 -27.45224 1.5 0.5 0.5
9 0 1 0 0 0 1 0 0 0 1 4.151367 2 -23.45224 1.5 0.5 0.5
9 0 1 0 0 0 1 0 0 0 1 -3.848633 2 -23.45224 1.5 0.5 0.5
9 0 1 0 0 0 1 0 0 0 1 -4.848633 2 -5.45224 1.5 0.5 0.5
9 0 1 0 0 0 1 0 0 0 1 -7.848633 2 24.54776 0.5 0.5 1.5
9 0 1 0 0 0 1 0 0 0 1 -20.84863 2 -29.45224 1.5 0.5 0.5
9 0 1 0 0 0 1 0 0 0 1 -22.84863 2 4.54776 0.5 0.5 1.5
9 0 1 0 0 0 1 0 0 0 1 -24.84863 2 14.54776 1.5 0.5 0.5
