9 0 1 0 0 0 1 0 0 0 1 0.3180008 -8.718 0.9239998 5 2.5 4
9 0 1 0 0 0 1 0 0 0 1 0.3180008 3.782 15.924 6 7 1
9 0 1 0 0 0 1 0 0 0 1 16.818 -4.218 6.924 2.5 4 4
9 0 1 0 0 0 1 0 0 0 1 -15.682 -3.718 5.924 2 6.5 3
9 0 1 0 0 0 1 0 0 0 1 8.318001 -11.718 2.924 3 1.5 6
9 0 1 0 0 0 1 0 0 0 1 12.318 -1.718 11.924 2 6.5 2
9 0 1 0 0 0 1 0 0 0 1 -8.681999 -3.218 14.424 3 5 1.5
9 0 1 0 0 0 1 0 0 0 1 8.318001 -1.218 14.424 2 7 1.5
9 0 1 0 0 0 1 0 0 0 1 -8.181999 -11.718 -1.576 3.5 1.5 3.5
9 0 1 0 0 0 1 0 0 0 1 15.818 -3.718 1.424 1.5 7.5 1.5
9 0 1 0 0 0 1 0 0 0 1 -12.682 -2.718 10.924 1 5.5 3
9 0 1 0 0 0 1 0 0 0 1 3.318001 3.782 14.424 3 10 0.5
9 0 1 0 0 0 1 0 0 0 1 16.318 2.282 5.424 2 2.5 2.5
9 0 1 0 0 0 1 0 0 0 1 13.318 -3.218 8.424 1 9 1.5
9 0 1 0 0 0 1 0 0 0 1 0.3180008 4.782 17.424 5 5 0.5
9 0 1 0 0 0 1 0 0 0 1 -6.181999 -12.218 5.424 3.5 1 3.5
9 0 1 0 0 0 1 0 0 0 1 -0.1819992 -8.218 -4.576 3.5 2 1.5
9 0 1 0 0 0 1 0 0 0 1 -16.182 -3.218 1.924 1.5 7 1
9 0 1 0 0 0 1 0 0 0 1 -4.181999 3.282 14.424 1.5 12.5 0.5
9 0 1 0 0 0 1 0 0 0 1 -15.182 -4.718 11.424 1.5 2.5 2.5
9 0 1 0 0 0 1 0 0 0 1 16.318 -9.718 5.924 2 1.5 3
9 0 1 0 0 0 1 0 0 0 1 -10.682 -1.218 11.924 1 8 1
9 0 1 0 0 0 1 0 0 0 1 -18.182 -4.218 5.924 0.5 4 4
9 0 1 0 0 0 1 0 0 0 1 3.818001 -12.218 1.924 1.5 1 5
9 0 1 0 0 0 1 0 0 0 1 -6.681999 6.782 14.424 1 5 1.5
9 0 1 0 0 0 1 0 0 0 1 6.318001 -13.718 2.424 3 0.5 4.5
9 0 1 0 0 0 1 0 0 0 1 12.318 -5.218 14.924 2 3 1
9 0 1 0 0 0 1 0 0 0 1 9.818001 0.7819996 11.924 0.5 12 1
9 0 1 0 0 0 1 0 0 0 1 0.3180008 -9.218 5.924 2 3 1
9 0 1 0 0 0 1 0 0 0 1 -7.681999 -2.218 16.924 2 3 1
9 0 1 0 0 0 1 0 0 0 1 -14.182 -7.718 0.4239998 0.5 4.5 2.5
9 0 1 0 0 0 1 0 0 0 1 8.318001 -2.718 16.924 2 2.5 1
9 0 1 0 0 0 1 0 0 0 1 6.818001 -11.218 -4.076 4.5 1 1
9 0 1 0 0 0 1 0 0 0 1 -13.182 -4.218 14.924 1.5 3 1
9 0 1 0 0 0 1 0 0 0 1 -9.181999 -13.718 -0.5760002 2.5 0.5 3.5
9 0 1 0 0 0 1 0 0 0 1 15.318 -2.718 -0.5760002 1 8.5 0.5
9 0 1 0 0 0 1 0 0 0 1 15.818 -3.718 11.424 1.5 5.5 0.5
9 0 1 0 0 0 1 0 0 0 1 -0.1819992 12.282 15.424 5.5 1.5 0.5
9 0 1 0 0 0 1 0 0 0 1 12.318 6.782 10.924 2 2 1
9 0 1 0 0 0 1 0 0 0 1 -5.181999 -8.218 -0.07600021 0.5 2 4
9 0 1 0 0 0 1 0 0 0 1 -11.682 -11.718 5.924 2 0.5 4
9 0 1 0 0 0 1 0 0 0 1 -19.182 -4.218 4.924 0.5 4 2
9 0 1 0 0 0 1 0 0 0 1 19.818 -4.218 5.424 0.5 3 2.5
9 0 1 0 0 0 1 0 0 0 1 12.818 -10.718 1.924 1.5 0.5 5
9 0 1 0 0 0 1 0 0 0 1 -0.1819992 -12.218 3.424 2.5 1 1.5
9 0 1 0 0 0 1 0 0 0 1 -8.681999 4.282 14.424 1 2.5 1.5
9 0 1 0 0 0 1 0 0 0 1 -15.182 3.782 6.424 1.5 1 2.5
9 0 1 0 0 0 1 0 0 0 1 17.818 -3.218 1.924 0.5 7 1
9 0 1 0 0 0 1 0 0 0 1 8.318001 -4.218 12.424 1 7 0.5
9 0 1 0 0 0 1 0 0 0 1 -13.182 6.282 8.924 0.5 3.5 2
9 0 1 0 0 0 1 0 0 0 1 11.818 0.2819996 9.424 0.5 13.5 0.5
9 0 1 0 0 0 1 0 0 0 1 -1.181999 -1.718 14.424 1.5 4.5 0.5
9 0 1 0 0 0 1 0 0 0 1 13.818 -3.718 5.924 0.5 6.5 1
9 0 1 0 0 0 1 0 0 0 1 -9.181999 2.282 12.424 0.5 12.5 0.5
9 0 1 0 0 0 1 0 0 0 1 -15.182 -10.718 6.424 2.5 0.5 2.5
9 0 1 0 0 0 1 0 0 0 1 16.318 0.7819996 9.424 2 1 1.5
9 0 1 0 0 0 1 0 0 0 1 7.818001 7.782 13.924 1.5 2 1
9 0 1 0 0 0 1 0 0 0 1 5.818001 -8.218 -0.07600021 0.5 2 3
9 0 1 0 0 0 1 0 0 0 1 0.3180008 -4.218 15.424 6 1 0.5
9 0 1 0 0 0 1 0 0 0 1 -11.182 0.7819996 10.424 0.5 12 0.5
9 0 1 0 0 0 1 0 0 0 1 -15.182 1.782 -1.076 0.5 3 2
9 0 1 0 0 0 1 0 0 0 1 -13.182 -4.718 6.924 0.5 5.5 1
9 0 1 0 0 0 1 0 0 0 1 15.818 5.282 3.424 1.5 0.5 3.5
9 0 1 0 0 0 1 0 0 0 1 -12.182 6.282 10.424 0.5 3.5 1.5
9 0 1 0 0 0 1 0 0 0 1 15.318 -4.718 12.924 1 2.5 1
9 0 1 0 0 0 1 0 0 0 1 0.3180008 -10.718 7.924 5 0.5 1
9 0 1 0 0 0 1 0 0 0 1 -8.181999 -9.218 13.924 2.5 1 1
9 0 1 0 0 0 1 0 0 0 1 -11.682 -3.718 16.424 2 2.5 0.5
9 0 1 0 0 0 1 0 0 0 1 -14.182 -9.218 9.924 2.5 1 1
9 0 1 0 0 0 1 0 0 0 1 14.818 4.782 9.424 0.5 3 1.5
9 0 1 0 0 0 1 0 0 0 1 11.818 -8.718 12.924 1.5 0.5 3
9 0 1 0 0 0 1 0 0 0 1 7.818001 2.782 16.424 1.5 3 0.5
9 0 1 0 0 0 1 0 0 0 1 7.818001 -11.218 10.424 1.5 1 1.5
9 0 1 0 0 0 1 0 0 0 1 -5.181999 -13.718 1.924 1.5 0.5 3
9 0 1 0 0 0 1 0 0 0 1 -7.181999 3.782 16.424 1.5 3 0.5
9 0 1 0 0 0 1 0 0 0 1 -12.182 -11.718 -1.076 0.5 1.5 3
9 0 1 0 0 0 1 0 0 0 1 -14.682 -0.7180004 10.424 1 1.5 1.5
9 0 1 0 0 0 1 0 0 0 1 14.818 -2.718 -1.576 0.5 8.5 0.5
9 0 1 0 0 0 1 0 0 0 1 13.318 7.782 8.924 1 2 1
9 0 1 0 0 0 1 0 0 0 1 11.318 1.782 14.424 1 4 0.5
9 0 1 0 0 0 1 0 0 0 1 5.318001 -5.218 13.424 1 4 0.5
9 0 1 0 0 0 1 0 0 0 1 4.318001 2.782 18.424 2 2 0.5
9 0 1 0 0 0 1 0 0 0 1 -2.681999 3.782 18.424 2 2 0.5
9 0 1 0 0 0 1 0 0 0 1 -3.681999 -12.218 -0.07600021 1 1 2
9 0 1 0 0 0 1 0 0 0 1 -6.181999 -8.218 -0.07600021 0.5 2 2
9 0 1 0 0 0 1 0 0 0 1 -17.182 -5.218 9.924 0.5 4 1
9 0 1 0 0 0 1 0 0 0 1 18.818 2.282 4.424 0.5 2.5 1.5
9 0 1 0 0 0 1 0 0 0 1 13.818 -11.718 1.424 2.5 0.5 1.5
9 0 1 0 0 0 1 0 0 0 1 -4.181999 -2.718 17.424 1.5 2.5 0.5
9 0 1 0 0 0 1 0 0 0 1 -15.182 -8.718 -0.07600021 0.5 3.5 1
9 0 1 0 0 0 1 0 0 0 1 18.818 -3.718 2.424 0.5 6.5 0.5
9 0 1 0 0 0 1 0 0 0 1 11.818 -6.718 8.424 0.5 6.5 0.5
9 0 1 0 0 0 1 0 0 0 1 8.818001 9.282 12.424 0.5 6.5 0.5
9 0 1 0 0 0 1 0 0 0 1 -8.181999 -4.718 12.424 0.5 6.5 0.5
9 0 1 0 0 0 1 0 0 0 1 20.818 -5.218 4.424 0.5 2 1.5
9 0 1 0 0 0 1 0 0 0 1 15.818 -9.218 9.924 1.5 1 1
9 0 1 0 0 0 1 0 0 0 1 10.818 10.782 11.424 0.5 2 1.5
9 0 1 0 0 0 1 0 0 0 1 7.318001 -14.718 3.924 1 0.5 3
9 0 1 0 0 0 1 0 0 0 1 6.818001 1.782 17.424 1.5 2 0.5
9 0 1 0 0 0 1 0 0 0 1 4.818001 -2.218 17.424 1.5 2 0.5
9 0 1 0 0 0 1 0 0 0 1 0.3180008 -7.718 -6.576 2 1.5 0.5
9 0 1 0 0 0 1 0 0 0 1 -4.181999 -9.218 -4.076 0.5 3 1
9 0 1 0 0 0 1 0 0 0 1 -3.681999 -4.718 16.424 2 1.5 0.5
9 0 1 0 0 0 1 0 0 0 1 -3.681999 -6.718 15.424 2 1.5 0.5
9 0 1 0 0 0 1 0 0 0 1 -4.681999 -7.218 13.424 1 3 0.5
9 0 1 0 0 0 1 0 0 0 1 -5.681999 3.782 17.424 1 3 0.5
9 0 1 0 0 0 1 0 0 0 1 -8.681999 9.782 13.424 1 3 0.5
9 0 1 0 0 0 1 0 0 0 1 -14.182 6.782 7.424 0.5 2 1.5
9 0 1 0 0 0 1 0 0 0 1 -16.182 1.782 -0.07600021 0.5 3 1
9 0 1 0 0 0 1 0 0 0 1 -15.182 -7.718 10.924 1.5 0.5 2
9 0 1 0 0 0 1 0 0 0 1 -11.182 -5.718 9.424 0.5 5.5 0.5
9 0 1 0 0 0 1 0 0 0 1 16.318 -11.718 5.424 1 0.5 2.5
9 0 1 0 0 0 1 0 0 0 1 13.818 -7.718 -4.076 0.5 2.5 1
9 0 1 0 0 0 1 0 0 0 1 13.818 -7.718 3.924 0.5 2.5 1
9 0 1 0 0 0 1 0 0 0 1 -0.1819992 -11.718 0.9239998 2.5 0.5 1
9 0 1 0 0 0 1 0 0 0 1 -2.681999 -8.718 5.424 1 2.5 0.5
9 0 1 0 0 0 1 0 0 0 1 -5.681999 -10.718 4.424 1 0.5 2.5
9 0 1 0 0 0 1 0 0 0 1 -5.181999 -11.718 9.924 2.5 0.5 1
9 0 1 0 0 0 1 0 0 0 1 -10.182 9.282 11.924 0.5 2.5 1
9 0 1 0 0 0 1 0 0 0 1 -12.182 -12.718 2.924 2.5 0.5 1
9 0 1 0 0 0 1 0 0 0 1 -15.182 5.282 2.924 0.5 0.5 5
9 0 1 0 0 0 1 0 0 0 1 15.818 4.282 1.424 1.5 0.5 1.5
9 0 1 0 0 0 1 0 0 0 1 8.818001 -5.718 11.424 0.5 4.5 0.5
9 0 1 0 0 0 1 0 0 0 1 7.818001 11.282 13.424 1.5 1.5 0.5
9 0 1 0 0 0 1 0 0 0 1 -3.181999 -10.718 10.424 1.5 0.5 1.5
9 0 1 0 0 0 1 0 0 0 1 -1.181999 11.282 16.424 4.5 0.5 0.5
9 0 1 0 0 0 1 0 0 0 1 -5.181999 -2.718 18.424 1.5 1.5 0.5
9 0 1 0 0 0 1 0 0 0 1 -9.181999 -6.718 11.424 0.5 4.5 0.5
9 0 1 0 0 0 1 0 0 0 1 -13.182 -11.718 0.4239998 0.5 1.5 1.5
9 0 1 0 0 0 1 0 0 0 1 -14.182 -0.7180004 -2.576 0.5 1.5 1.5
9 0 1 0 0 0 1 0 0 0 1 -15.182 2.282 9.424 1.5 1.5 0.5
9 0 1 0 0 0 1 0 0 0 1 -18.182 1.282 3.424 0.5 1.5 1.5
9 0 1 0 0 0 1 0 0 0 1 19.818 0.7819996 3.924 0.5 2 1
9 0 1 0 0 0 1 0 0 0 1 18.818 -9.218 4.924 0.5 1 2
9 0 1 0 0 0 1 0 0 0 1 17.818 -4.218 11.924 0.5 2 1
9 0 1 0 0 0 1 0 0 0 1 16.818 -8.218 -1.076 0.5 2 1
9 0 1 0 0 0 1 0 0 0 1 15.818 2.782 9.924 0.5 1 2
9 0 1 0 0 0 1 0 0 0 1 14.318 6.782 6.924 1 1 1
9 0 1 0 0 0 1 0 0 0 1 10.818 6.782 12.924 0.5 2 1
9 0 1 0 0 0 1 0 0 0 1 11.318 -0.2180004 15.424 1 2 0.5
9 0 1 0 0 0 1 0 0 0 1 11.318 -4.218 16.424 1 2 0.5
9 0 1 0 0 0 1 0 0 0 1 9.318001 -9.218 13.924 1 1 1
9 0 1 0 0 0 1 0 0 0 1 7.318001 7.782 15.424 1 2 0.5
9 0 1 0 0 0 1 0 0 0 1 4.318001 -8.218 -3.576 1 2 0.5
9 0 1 0 0 0 1 0 0 0 1 4.318001 -12.218 7.924 1 1 1
9 0 1 0 0 0 1 0 0 0 1 4.318001 -4.218 16.424 2 1 0.5
9 0 1 0 0 0 1 0 0 0 1 3.318001 -9.218 5.424 1 2 0.5
9 0 1 0 0 0 1 0 0 0 1 3.318001 14.782 14.424 2 1 0.5
9 0 1 0 0 0 1 0 0 0 1 -10.182 3.782 13.924 0.5 2 1
9 0 1 0 0 0 1 0 0 0 1 -15.182 -4.218 14.924 0.5 2 1
9 0 1 0 0 0 1 0 0 0 1 -13.682 -8.718 11.924 2 0.5 1
9 0 1 0 0 0 1 0 0 0 1 -15.682 3.782 3.424 2 1 0.5
9 0 1 0 0 0 1 0 0 0 1 15.818 2.282 -1.576 0.5 3.5 0.5
9 0 1 0 0 0 1 0 0 0 1 10.818 -9.718 9.424 0.5 3.5 0.5
9 0 1 0 0 0 1 0 0 0 1 7.818001 -13.718 7.424 3.5 0.5 0.5
9 0 1 0 0 0 1 0 0 0 1 17.818 -7.718 -0.07600021 0.5 1.5 1
9 0 1 0 0 0 1 0 0 0 1 14.818 2.782 12.424 0.5 1 1.5
9 0 1 0 0 0 1 0 0 0 1 14.818 1.782 -2.576 0.5 3 0.5
9 0 1 0 0 0 1 0 0 0 1 14.318 -8.718 -2.576 1 1.5 0.5
9 0 1 0 0 0 1 0 0 0 1 12.818 -9.218 -5.576 1.5 1 0.5
9 0 1 0 0 0 1 0 0 0 1 12.318 -12.718 0.4239998 1 0.5 1.5
9 0 1 0 0 0 1 0 0 0 1 11.318 -9.718 11.424 1 0.5 1.5
9 0 1 0 0 0 1 0 0 0 1 7.818001 -12.718 -4.076 1.5 0.5 1
9 0 1 0 0 0 1 0 0 0 1 4.818001 -7.218 14.424 1.5 1 0.5
9 0 1 0 0 0 1 0 0 0 1 -7.181999 -8.218 12.424 0.5 3 0.5
9 0 1 0 0 0 1 0 0 0 1 -10.182 -8.218 10.424 0.5 3 0.5
9 0 1 0 0 0 1 0 0 0 1 -12.182 -9.718 7.924 0.5 1.5 1
9 0 1 0 0 0 1 0 0 0 1 -13.182 -7.218 5.424 0.5 3 0.5
9 0 1 0 0 0 1 0 0 0 1 -15.182 -11.218 2.424 0.5 1 1.5
9 0 1 0 0 0 1 0 0 0 1 -16.182 -0.7180004 9.924 0.5 1.5 1
9 0 1 0 0 0 1 0 0 0 1 -16.182 -8.218 0.4239998 0.5 3 0.5
9 0 1 0 0 0 1 0 0 0 1 -17.182 3.782 5.424 0.5 1 1.5
9 0 1 0 0 0 1 0 0 0 1 -17.182 -4.718 11.924 0.5 1.5 1
9 0 1 0 0 0 1 0 0 0 1 -18.182 -4.218 10.424 0.5 3 0.5
9 0 1 0 0 0 1 0 0 0 1 -18.182 -8.718 3.924 0.5 0.5 3
9 0 1 0 0 0 1 0 0 0 1 -19.182 -4.218 7.424 0.5 3 0.5
9 0 1 0 0 0 1 0 0 0 1 -20.182 -2.718 5.924 0.5 1.5 1
9 0 1 0 0 0 1 0 0 0 1 19.818 -7.718 4.424 0.5 0.5 2.5
9 0 1 0 0 0 1 0 0 0 1 16.818 -4.718 12.424 0.5 2.5 0.5
9 0 1 0 0 0 1 0 0 0 1 15.818 -7.718 -1.576 0.5 2.5 0.5
9 0 1 0 0 0 1 0 0 0 1 14.818 -4.718 14.424 0.5 2.5 0.5
9 0 1 0 0 0 1 0 0 0 1 13.818 -9.718 0.4239998 0.5 0.5 2.5
9 0 1 0 0 0 1 0 0 0 1 12.818 0.2819996 14.424 0.5 2.5 0.5
9 0 1 0 0 0 1 0 0 0 1 11.818 11.282 10.424 0.5 2.5 0.5
9 0 1 0 0 0 1 0 0 0 1 5.818001 1.282 13.424 0.5 2.5 0.5
9 0 1 0 0 0 1 0 0 0 1 7.818001 -5.718 16.424 2.5 0.5 0.5
9 0 1 0 0 0 1 0 0 0 1 3.818001 -6.718 13.424 0.5 2.5 0.5
9 0 1 0 0 0 1 0 0 0 1 3.818001 -10.718 -5.576 2.5 0.5 0.5
9 0 1 0 0 0 1 0 0 0 1 -5.181999 -1.718 13.424 0.5 2.5 0.5
9 0 1 0 0 0 1 0 0 0 1 -8.181999 9.282 14.424 0.5 2.5 0.5
9 0 1 0 0 0 1 0 0 0 1 -11.182 9.282 11.424 0.5 2.5 0.5
9 0 1 0 0 0 1 0 0 0 1 20.818 -5.218 6.924 0.5 1 1
9 0 1 0 0 0 1 0 0 0 1 18.818 0.2819996 7.924 0.5 0.5 2
9 0 1 0 0 0 1 0 0 0 1 18.818 -7.218 0.9239998 0.5 1 1
9 0 1 0 0 0 1 0 0 0 1 17.318 2.782 8.424 1 1 0.5
9 0 1 0 0 0 1 0 0 0 1 14.818 6.282 3.924 0.5 0.5 2
9 0 1 0 0 0 1 0 0 0 1 14.818 -0.2180004 12.424 0.5 2 0.5
9 0 1 0 0 0 1 0 0 0 1 14.818 -11.718 7.924 0.5 0.5 2
9 0 1 0 0 0 1 0 0 0 1 11.818 -11.718 5.424 0.5 0.5 2.5
9 0 1 0 0 0 1 0 0 0 1 12.818 10.782 8.924 0.5 1 1
9 0 1 0 0 0 1 0 0 0 1 12.818 -9.718 -3.076 0.5 0.5 2
9 0 1 0 0 0 1 0 0 0 1 12.318 5.282 12.924 1 0.5 1
9 0 1 0 0 0 1 0 0 0 1 12.318 -7.218 16.424 1 1 0.5
9 0 1 0 0 0 1 0 0 0 1 11.818 -10.218 -4.076 0.5 1 1
9 0 1 0 0 0 1 0 0 0 1 11.818 -11.718 -2.076 0.5 0.5 2
9 0 1 0 0 0 1 0 0 0 1 10.818 -0.2180004 16.424 0.5 2 0.5
9 0 1 0 0 0 1 0 0 0 1 9.818001 7.782 13.424 0.5 2 0.5
9 0 1 0 0 0 1 0 0 0 1 11.318 -13.718 0.4239998 2 0.5 0.5
9 0 1 0 0 0 1 0 0 0 1 10.318 -14.218 1.424 1 1 0.5
9 0 1 0 0 0 1 0 0 0 1 8.318001 -3.218 18.424 1 1 0.5
9 0 1 0 0 0 1 0 0 0 1 6.818001 11.782 14.424 0.5 2 0.5
9 0 1 0 0 0 1 0 0 0 1 6.818001 -9.218 12.424 0.5 2 0.5
9 0 1 0 0 0 1 0 0 0 1 6.318001 4.782 17.424 1 1 0.5
9 0 1 0 0 0 1 0 0 0 1 5.818001 -11.218 9.924 0.5 1 1
9 0 1 0 0 0 1 0 0 0 1 5.318001 -6.218 15.424 1 1 0.5
9 0 1 0 0 0 1 0 0 0 1 5.318001 -14.718 3.924 1 0.5 1
9 0 1 0 0 0 1 0 0 0 1 4.318001 -0.2180004 18.424 1 1 0.5
9 0 1 0 0 0 1 0 0 0 1 3.818001 -8.218 -4.576 0.5 2 0.5
9 0 1 0 0 0 1 0 0 0 1 1.818001 -11.718 -2.076 0.5 0.5 2
9 0 1 0 0 0 1 0 0 0 1 -2.181999 -12.218 5.924 0.5 1 1
9 0 1 0 0 0 1 0 0 0 1 -2.681999 0.7819996 18.424 1 1 0.5
9 0 1 0 0 0 1 0 0 0 1 -2.681999 10.282 17.424 2 0.5 0.5
9 0 1 0 0 0 1 0 0 0 1 -3.681999 14.282 15.424 2 0.5 0.5
9 0 1 0 0 0 1 0 0 0 1 -4.681999 -7.218 16.424 1 1 0.5
9 0 1 0 0 0 1 0 0 0 1 -6.181999 12.782 13.924 0.5 1 1
9 0 1 0 0 0 1 0 0 0 1 -4.681999 -10.718 12.424 2 0.5 0.5
9 0 1 0 0 0 1 0 0 0 1 -5.681999 -11.718 11.924 1 0.5 1
9 0 1 0 0 0 1 0 0 0 1 -5.681999 -5.718 17.424 2 0.5 0.5
9 0 1 0 0 0 1 0 0 0 1 -7.681999 -10.718 2.924 1 0.5 1
9 0 1 0 0 0 1 0 0 0 1 -6.681999 -10.718 13.424 2 0.5 0.5
9 0 1 0 0 0 1 0 0 0 1 -7.681999 -5.718 16.424 2 0.5 0.5
9 0 1 0 0 0 1 0 0 0 1 -11.182 3.782 13.424 0.5 2 0.5
9 0 1 0 0 0 1 0 0 0 1 -9.681999 -8.718 15.424 2 0.5 0.5
9 0 1 0 0 0 1 0 0 0 1 -10.682 -12.718 8.924 1 0.5 1
9 0 1 0 0 0 1 0 0 0 1 -12.182 4.782 8.424 0.5 2 0.5
9 0 1 0 0 0 1 0 0 0 1 -12.182 0.7819996 14.424 0.5 2 0.5
9 0 1 0 0 0 1 0 0 0 1 -11.682 -8.718 13.924 1 0.5 1
9 0 1 0 0 0 1 0 0 0 1 -12.682 -7.718 14.924 1 0.5 1
9 0 1 0 0 0 1 0 0 0 1 -12.682 -10.718 9.924 1 0.5 1
9 0 1 0 0 0 1 0 0 0 1 -14.182 5.782 4.924 0.5 1 1
9 0 1 0 0 0 1 0 0 0 1 -14.182 1.782 10.924 0.5 1 1
9 0 1 0 0 0 1 0 0 0 1 -14.182 -0.2180004 12.424 0.5 2 0.5
9 0 1 0 0 0 1 0 0 0 1 -14.682 1.782 -3.576 1 1 0.5
9 0 1 0 0 0 1 0 0 0 1 -15.182 -3.218 0.4239998 0.5 2 0.5
9 0 1 0 0 0 1 0 0 0 1 -15.682 4.282 1.924 1 0.5 1
9 0 1 0 0 0 1 0 0 0 1 17.818 -7.718 11.424 0.5 1.5 0.5
9 0 1 0 0 0 1 0 0 0 1 15.818 -10.718 9.424 1.5 0.5 0.5
9 0 1 0 0 0 1 0 0 0 1 13.818 9.282 7.424 0.5 1.5 0.5
9 0 1 0 0 0 1 0 0 0 1 13.818 4.282 6.424 0.5 1.5 0.5
9 0 1 0 0 0 1 0 0 0 1 13.818 -3.718 4.424 0.5 1.5 0.5
9 0 1 0 0 0 1 0 0 0 1 13.818 -9.718 10.424 0.5 1.5 0.5
9 0 1 0 0 0 1 0 0 0 1 10.818 -9.718 -5.576 0.5 0.5 1.5
9 0 1 0 0 0 1 0 0 0 1 9.818001 14.282 11.424 0.5 1.5 0.5
9 0 1 0 0 0 1 0 0 0 1 6.818001 14.282 13.424 0.5 1.5 0.5
9 0 1 0 0 0 1 0 0 0 1 3.818001 -10.718 6.424 1.5 0.5 0.5
9 0 1 0 0 0 1 0 0 0 1 3.818001 -10.718 9.424 1.5 0.5 0.5
9 0 1 0 0 0 1 0 0 0 1 2.818001 -13.718 3.424 0.5 0.5 1.5
9 0 1 0 0 0 1 0 0 0 1 -1.181999 13.282 14.424 1.5 0.5 0.5
9 0 1 0 0 0 1 0 0 0 1 -2.181999 -1.718 17.424 0.5 1.5 0.5
9 0 1 0 0 0 1 0 0 0 1 -2.181999 -7.718 14.424 0.5 1.5 0.5
9 0 1 0 0 0 1 0 0 0 1 -3.181999 -10.718 -4.576 0.5 0.5 1.5
9 0 1 0 0 0 1 0 0 0 1 -3.181999 6.282 18.424 1.5 0.5 0.5
9 0 1 0 0 0 1 0 0 0 1 -3.181999 -10.718 6.424 1.5 0.5 0.5
9 0 1 0 0 0 1 0 0 0 1 -5.181999 4.282 18.424 0.5 1.5 0.5
9 0 1 0 0 0 1 0 0 0 1 -7.181999 13.282 13.424 0.5 1.5 0.5
9 0 1 0 0 0 1 0 0 0 1 -6.181999 -13.718 5.424 1.5 0.5 0.5
9 0 1 0 0 0 1 0 0 0 1 -8.181999 -9.718 11.424 0.5 1.5 0.5
9 0 1 0 0 0 1 0 0 0 1 -7.181999 -14.718 1.424 1.5 0.5 0.5
9 0 1 0 0 0 1 0 0 0 1 -8.181999 -13.718 3.424 1.5 0.5 0.5
9 0 1 0 0 0 1 0 0 0 1 -10.182 0.2819996 16.424 0.5 1.5 0.5
9 0 1 0 0 0 1 0 0 0 1 -12.182 4.282 12.424 0.5 1.5 0.5
9 0 1 0 0 0 1 0 0 0 1 -11.182 -6.718 16.424 1.5 0.5 0.5
9 0 1 0 0 0 1 0 0 0 1 -12.182 -13.718 1.424 0.5 0.5 1.5
9 0 1 0 0 0 1 0 0 0 1 -13.182 10.282 8.424 0.5 0.5 1.5
9 0 1 0 0 0 1 0 0 0 1 -14.182 -12.718 0.4239998 0.5 0.5 1.5
9 0 1 0 0 0 1 0 0 0 1 -15.182 6.282 6.424 0.5 0.5 1.5
9 0 1 0 0 0 1 0 0 0 1 -16.182 5.282 6.424 0.5 0.5 1.5
9 0 1 0 0 0 1 0 0 0 1 -16.182 -10.718 2.424 0.5 0.5 1.5
9 0 1 0 0 0 1 0 0 0 1 -17.182 0.2819996 0.4239998 0.5 1.5 0.5
9 0 1 0 0 0 1 0 0 0 1 -17.182 -8.718 0.4239998 0.5 1.5 0.5
9 0 1 0 0 0 1 0 0 0 1 -18.182 0.2819996 6.424 0.5 0.5 1.5
9 0 1 0 0 0 1 0 0 0 1 -18.182 -9.718 5.424 0.5 0.5 1.5
9 0 1 0 0 0 1 0 0 0 1 -19.182 1.282 4.424 0.5 1.5 0.5
9 0 1 0 0 0 1 0 0 0 1 -19.182 -8.718 5.424 0.5 0.5 1.5
