9 0 -1.192093E-07 0 1 0 1 0 -1 0 -1.192093E-07 0 -2 0 3.35 0.5 3.35
9 0 1 0 0 0 1 0 0 0 1 -8 31 72.5 0.5 15.5 36
9 0 1 0 0 0 1 0 0 0 1 -8 16.5 21.5 0.5 10 14
9 0 1 0 0 0 1 0 0 0 1 -3 14 8 4.5 12.5 0.5
9 0 1 0 0 0 1 0 0 0 1 -8 14 3 0.5 12.5 4.5
9 0 1 0 0 0 1 0 0 0 1 -0.5 2 0.5 6 0.5 6
9 0 1 0 0 0 1 0 0 0 1 8 24 0 0.5 22.5 1.5
9 0 1 0 0 0 1 0 0 0 1 0 24 -8 1.5 22.5 0.5
9 0 1 0 0 0 1 0 0 0 1 -8 10 102.5 0.5 5.5 6
9 0 1 0 0 0 1 0 0 0 1 -5.5 14 7 2 12.5 0.5
9 0 1 0 0 0 1 0 0 0 1 -8 4 17 0.5 2.5 9.5
9 0 1 0 0 0 1 0 0 0 1 -7 14 5 0.5 12.5 1.5
9 0 1 0 0 0 1 0 0 0 1 0 36.5 8 1.5 10 0.5
9 0 1 0 0 0 1 0 0 0 1 -8 36.5 0 0.5 10 1.5
9 0 1 0 0 0 1 0 0 0 1 -8 31.5 34.5 0.5 5 2
9 0 1 0 0 0 1 0 0 0 1 -8 12 94 0.5 3.5 2.5
9 0 1 0 0 0 1 0 0 0 1 -8 13.5 39.5 0.5 2 4
9 0 1 0 0 0 1 0 0 0 1 -6 13.5 6 0.5 11 0.5
9 0 1 0 0 0 1 0 0 0 1 6.5 2 0.5 1 0.5 4
9 0 1 0 0 0 1 0 0 0 1 0.5 2 -6.5 4 0.5 1
9 0 1 0 0 0 1 0 0 0 1 -8 3.5 105 0.5 1 3.5
9 0 1 0 0 0 1 0 0 0 1 -8 39.5 35.5 0.5 3 1
9 0 1 0 0 0 1 0 0 0 1 -8 5 28.5 0.5 1.5 2
9 0 1 0 0 0 1 0 0 0 1 -8 21 36 0.5 5.5 0.5
9 0 1 0 0 0 1 0 0 0 1 -8 10.5 38 0.5 1 2.5
9 0 1 0 0 0 1 0 0 0 1 -7 2 -0.5 0.5 0.5 4
9 0 1 0 0 0 1 0 0 0 1 -8 28.5 31.5 0.5 2 1
9 0 1 0 0 0 1 0 0 0 1 -8 14.5 45.5 0.5 1 2
9 0 1 0 0 0 1 0 0 0 1 0 2 7 3.5 0.5 0.5
9 0 1 0 0 0 1 0 0 0 1 -8 14 90.5 0.5 1.5 1
9 0 1 0 0 0 1 0 0 0 1 6 29.5 5 0.5 2 0.5
9 0 1 0 0 0 1 0 0 0 1 6 22.5 -5 0.5 2 0.5
9 0 1 0 0 0 1 0 0 0 1 5 29.5 -6 0.5 2 0.5
9 0 1 0 0 0 1 0 0 0 1 5 22.5 6 0.5 2 0.5
9 0 1 0 0 0 1 0 0 0 1 -5 29.5 6 0.5 2 0.5
9 0 1 0 0 0 1 0 0 0 1 -5 22.5 -6 0.5 2 0.5
9 0 1 0 0 0 1 0 0 0 1 -6 29.5 -5 0.5 2 0.5
9 0 1 0 0 0 1 0 0 0 1 -6 22.5 5 0.5 2 0.5
9 0 1 0 0 0 1 0 0 0 1 -8 8 94.5 0.5 0.5 2
9 0 1 0 0 0 1 0 0 0 1 -8 44 36 0.5 1.5 0.5
9 0 1 0 0 0 1 0 0 0 1 -8 38 34 0.5 1.5 0.5
9 0 1 0 0 0 1 0 0 0 1 -8 32 32 0.5 1.5 0.5
9 0 1 0 0 0 1 0 0 0 1 -8 9 37 0.5 0.5 1.5
9 0 1 0 0 0 1 0 0 0 1 -8 6 32 0.5 0.5 1.5
9 0 1 0 0 0 1 0 0 0 1 -8 2 107 0.5 0.5 1.5
