9 0 1 0 0 0 1 0 0 0 1 0 -20 0 3.5 5.5 3.5
9 0 1 0 0 0 1 0 0 0 1 0 -28 0 2.5 2.5 2.5
9 0 1 0 0 0 1 0 0 0 1 0 -13 0 2.5 1.5 2.5
9 0 1 0 0 0 1 0 0 0 1 0 -5 0 1.5 3.5 1.5
9 0 1 0 0 0 1 0 0 0 1 -4 -20.5 0 0.5 6 2.5
9 0 1 0 0 0 1 0 0 0 1 0 -32 0 1.5 1.5 2.5
9 0 1 0 0 0 1 0 0 0 1 5.5 -20 0 2 5.5 0.5
9 0 1 0 0 0 1 0 0 0 1 0 -21.5 4 2.5 4 0.5
9 0 1 0 0 0 1 0 0 0 1 0 -21.5 -4.5 1.5 3 1
9 0 1 0 0 0 1 0 0 0 1 -6 -20 0 1.5 5.5 0.5
9 0 1 0 0 0 1 0 0 0 1 4 -20.5 -1.5 0.5 6 1
9 0 1 0 0 0 1 0 0 0 1 4 -20.5 1.5 0.5 6 1
9 0 1 0 0 0 1 0 0 0 1 4 -28.5 0 1.5 3 0.5
9 0 1 0 0 0 1 0 0 0 1 0 -21.5 5 1.5 3 0.5
9 0 1 0 0 0 1 0 0 0 1 0 -28 -3 1.5 2.5 0.5
9 0 1 0 0 0 1 0 0 0 1 0 -28 3 1.5 2.5 0.5
9 0 1 0 0 0 1 0 0 0 1 -3 -27 0 0.5 1.5 2.5
9 0 1 0 0 0 1 0 0 0 1 -3.5 -31 0 1 2.5 0.5
9 0 1 0 0 0 1 0 0 0 1 5 -20 -1 0.5 4.5 0.5
9 0 1 0 0 0 1 0 0 0 1 3 -13 0 0.5 1.5 1.5
9 0 1 0 0 0 1 0 0 0 1 0 -13 -3 1.5 1.5 0.5
9 0 1 0 0 0 1 0 0 0 1 0 -13 3 1.5 1.5 0.5
9 0 1 0 0 0 1 0 0 0 1 0 -26 -4 1.5 1.5 0.5
9 0 1 0 0 0 1 0 0 0 1 -2 -32 0 0.5 1.5 1.5
9 0 1 0 0 0 1 0 0 0 1 -3 -13 0 0.5 1.5 1.5
9 0 1 0 0 0 1 0 0 0 1 -5 -20 1 0.5 4.5 0.5
9 0 1 0 0 0 1 0 0 0 1 5 -20.5 1 0.5 4 0.5
9 0 1 0 0 0 1 0 0 0 1 2 -21.5 -4 0.5 4 0.5
9 0 1 0 0 0 1 0 0 0 1 -2 -21.5 -4 0.5 4 0.5
9 0 1 0 0 0 1 0 0 0 1 -5 -20.5 -1 0.5 4 0.5
9 0 1 0 0 0 1 0 0 0 1 2 -5 0 0.5 3.5 0.5
9 0 1 0 0 0 1 0 0 0 1 0 -5 -2 0.5 3.5 0.5
9 0 1 0 0 0 1 0 0 0 1 0 -5 2 0.5 3.5 0.5
9 0 1 0 0 0 1 0 0 0 1 -2 -5 0 0.5 3.5 0.5
9 0 1 0 0 0 1 0 0 0 1 3 -27 -1.5 0.5 1.5 1
9 0 1 0 0 0 1 0 0 0 1 3 -27 1.5 0.5 1.5 1
9 0 1 0 0 0 1 0 0 0 1 2 -31.5 0 0.5 1 1.5
9 0 1 0 0 0 1 0 0 0 1 0 -26.5 4 1.5 1 0.5
9 0 1 0 0 0 1 0 0 0 1 -5 -27.5 0 1.5 1 0.5
9 0 1 0 0 0 1 0 0 0 1 3.5 -32.5 0 1 1 0.5
9 0 1 0 0 0 1 0 0 0 1 8 -21 0 0.5 1.5 0.5
9 0 1 0 0 0 1 0 0 0 1 6 -27 0 0.5 1.5 0.5
9 0 1 0 0 0 1 0 0 0 1 3 -18 -4 0.5 1.5 0.5
9 0 1 0 0 0 1 0 0 0 1 3 -18 4 0.5 1.5 0.5
9 0 1 0 0 0 1 0 0 0 1 2 -27 -3 0.5 1.5 0.5
9 0 1 0 0 0 1 0 0 0 1 2 -27 3 0.5 1.5 0.5
9 0 1 0 0 0 1 0 0 0 1 2 -33 0 0.5 0.5 1.5
9 0 1 0 0 0 1 0 0 0 1 0 -18 -4 1.5 0.5 0.5
9 0 1 0 0 0 1 0 0 0 1 -2 -27 -3 0.5 1.5 0.5
9 0 1 0 0 0 1 0 0 0 1 -2 -27 3 0.5 1.5 0.5
9 0 1 0 0 0 1 0 0 0 1 -3 -18 -4 0.5 1.5 0.5
9 0 1 0 0 0 1 0 0 0 1 -3 -18 4 0.5 1.5 0.5
9 0 1 0 0 0 1 0 0 0 1 -5 -30 0 0.5 1.5 0.5
9 0 1 0 0 0 1 0 0 0 1 -8 -21 0 0.5 1.5 0.5
