9 0 1 0 0 0 1 0 0 0 1 0 2 1 18.5 0.5 17.5
9 0 1 0 0 0 1 0 0 0 1 0 -27 22 18.5 9.5 0.5
9 0 1 0 0 0 1 0 0 0 1 0 4 -18 16.5 2.5 0.5
9 0 1 0 0 0 1 0 0 0 1 0 -36 23 16.5 2.5 0.5
9 0 1 0 0 0 1 0 0 0 1 0 4.5 18 18.5 2 0.5
9 0 1 0 0 0 1 0 0 0 1 18 4.5 0.5 0.5 2 17
9 0 1 0 0 0 1 0 0 0 1 -18 4.5 0.5 0.5 2 17
9 0 1 0 0 0 1 0 0 0 1 17 -19 21 1.5 11.5 0.5
9 0 1 0 0 0 1 0 0 0 1 -17 -19 21 1.5 11.5 0.5
9 0 1 0 0 0 1 0 0 0 1 0 -37.5 22 16.5 1 0.5
9 0 1 0 0 0 1 0 0 0 1 10 -2 -10 3.5 0.5 2.5
9 0 1 0 0 0 1 0 0 0 1 -10 -2 -10 3.5 0.5 2.5
9 0 1 0 0 0 1 0 0 0 1 0 2 -17 17.5 0.5 0.5
9 0 1 0 0 0 1 0 0 0 1 17 -9 20 1.5 5.5 0.5
9 0 1 0 0 0 1 0 0 0 1 -17 -9 20 1.5 5.5 0.5
9 0 1 0 0 0 1 0 0 0 1 0 1 18 12.5 0.5 0.5
9 0 1 0 0 0 1 0 0 0 1 17 1 16.5 1.5 0.5 2
9 0 1 0 0 0 1 0 0 0 1 -17 1 16.5 1.5 0.5 2
9 0 1 0 0 0 1 0 0 0 1 17.5 -35 23 1 1.5 0.5
9 0 1 0 0 0 1 0 0 0 1 17 0 17.5 1.5 0.5 1
9 0 1 0 0 0 1 0 0 0 1 -17 0 17.5 1.5 0.5 1
9 0 1 0 0 0 1 0 0 0 1 -17.5 -35 23 1 1.5 0.5
9 0 1 0 0 0 1 0 0 0 1 10 -2 -13 2.5 0.5 0.5
9 0 1 0 0 0 1 0 0 0 1 10 -2 -7 2.5 0.5 0.5
9 0 1 0 0 0 1 0 0 0 1 -10 -2 -13 2.5 0.5 0.5
9 0 1 0 0 0 1 0 0 0 1 -10 -2 -7 2.5 0.5 0.5
9 0 1 0 0 0 1 0 0 0 1 17 -1 18 1.5 0.5 0.5
9 0 1 0 0 0 1 0 0 0 1 17 -3 19 1.5 0.5 0.5
9 0 1 0 0 0 1 0 0 0 1 -17 -1 18 1.5 0.5 0.5
9 0 1 0 0 0 1 0 0 0 1 -17 -3 19 1.5 0.5 0.5
