9 0 1 0 0 0 1 0 0 0 1 0 148 0 3.5 10.5 4.5
9 0 1 0 0 0 1 0 0 0 1 -5 141.5 0 1.5 4 5.5
9 0 1 0 0 0 1 0 0 0 1 0 136.5 0 5.5 1 4.5
9 0 1 0 0 0 1 0 0 0 1 4.5 149 0 1 9.5 2.5
9 0 1 0 0 0 1 0 0 0 1 0 141 6 3.5 4.5 1.5
9 0 1 0 0 0 1 0 0 0 1 -0.5 141 -6 3 4.5 1.5
9 0 1 0 0 0 1 0 0 0 1 -4.5 152 0 1 6.5 2.5
9 0 1 0 0 0 1 0 0 0 1 5 10 -4.5 1.5 8.5 1
9 0 1 0 0 0 1 0 0 0 1 5 10 4.5 1.5 8.5 1
9 0 1 0 0 0 1 0 0 0 1 -4.5 10 -5 1 8.5 1.5
9 0 1 0 0 0 1 0 0 0 1 -4.5 10 5 1 8.5 1.5
9 0 1 0 0 0 1 0 0 0 1 -18.5 18 0 3 0.5 8.5
9 0 1 0 0 0 1 0 0 0 1 -18.5 2 0 3 0.5 8.5
9 0 1 0 0 0 1 0 0 0 1 -24.5 15 0 1 1.5 8.5
9 0 1 0 0 0 1 0 0 0 1 -24.5 5 0 1 1.5 8.5
9 0 1 0 0 0 1 0 0 0 1 6.5 141 1 1 4.5 2.5
9 0 1 0 0 0 1 0 0 0 1 5 141.5 -4 1.5 4 1.5
9 0 1 0 0 0 1 0 0 0 1 -16 15.5 0 0.5 2 8.5
9 0 1 0 0 0 1 0 0 0 1 -16 4.5 0 0.5 2 8.5
9 0 1 0 0 0 1 0 0 0 1 0 152 -5 2.5 6.5 0.5
9 0 1 0 0 0 1 0 0 0 1 0 152 5 2.5 6.5 0.5
9 0 1 0 0 0 1 0 0 0 1 0 135 0 4.5 0.5 3.5
9 0 1 0 0 0 1 0 0 0 1 -7 141 0 0.5 4.5 3.5
9 0 1 0 0 0 1 0 0 0 1 8 11 0 0.5 9.5 1.5
9 0 1 0 0 0 1 0 0 0 1 0 11 -8 1.5 9.5 0.5
9 0 1 0 0 0 1 0 0 0 1 0 11 8 1.5 9.5 0.5
9 0 1 0 0 0 1 0 0 0 1 -28 10 0 0.5 1.5 8.5
9 0 1 0 0 0 1 0 0 0 1 5 141.5 4.5 1.5 4 1
9 0 1 0 0 0 1 0 0 0 1 8 170 0 0.5 1.5 6.5
9 0 1 0 0 0 1 0 0 0 1 0 178 0 1.5 0.5 6.5
9 0 1 0 0 0 1 0 0 0 1 0 162 0 1.5 0.5 6.5
9 0 1 0 0 0 1 0 0 0 1 -8 170 0 0.5 1.5 6.5
9 0 1 0 0 0 1 0 0 0 1 4.5 10 -6 1 8.5 0.5
9 0 1 0 0 0 1 0 0 0 1 4.5 10 6 1 8.5 0.5
9 0 1 0 0 0 1 0 0 0 1 -6 10 -4.5 0.5 8.5 1
9 0 1 0 0 0 1 0 0 0 1 -6 10 4.5 0.5 8.5 1
9 0 1 0 0 0 1 0 0 0 1 -26 14.5 0 0.5 1 8.5
9 0 1 0 0 0 1 0 0 0 1 -26 5.5 0 0.5 1 8.5
9 0 1 0 0 0 1 0 0 0 1 8 141.5 0 0.5 4 1.5
9 0 1 0 0 0 1 0 0 0 1 4 141.5 -6 1.5 4 0.5
9 0 1 0 0 0 1 0 0 0 1 0 141.5 8 1.5 4 0.5
9 0 1 0 0 0 1 0 0 0 1 -8 141.5 0 0.5 4 1.5
9 0 1 0 0 0 1 0 0 0 1 4 148 3 0.5 10.5 0.5
9 0 1 0 0 0 1 0 0 0 1 4.5 138.5 0 1 1 2.5
9 0 1 0 0 0 1 0 0 0 1 6.5 141 -2 1 4.5 0.5
9 0 1 0 0 0 1 0 0 0 1 0 142 -8.5 4.5 0.5 1
9 0 1 0 0 0 1 0 0 0 1 4.5 141.5 6 1 4 0.5
9 0 1 0 0 0 1 0 0 0 1 -4.5 141.5 -6 1 4 0.5
9 0 1 0 0 0 1 0 0 0 1 -4.5 141.5 6 1 4 0.5
9 0 1 0 0 0 1 0 0 0 1 4 152 -3 0.5 6.5 0.5
9 0 1 0 0 0 1 0 0 0 1 -4 152 -3 0.5 6.5 0.5
9 0 1 0 0 0 1 0 0 0 1 -4 152 3 0.5 6.5 0.5
9 0 1 0 0 0 1 0 0 0 1 0 139.5 -8 1.5 2 0.5
9 0 1 0 0 0 1 0 0 0 1 0.5 136 5.5 3 0.5 1
9 0 1 0 0 0 1 0 0 0 1 -0.5 136 -5.5 3 0.5 1
9 0 1 0 0 0 1 0 0 0 1 3 140.5 -5 0.5 5 0.5
9 0 1 0 0 0 1 0 0 0 1 0 135 -4.5 2.5 0.5 1
9 0 1 0 0 0 1 0 0 0 1 0 135 4.5 2.5 0.5 1
9 0 1 0 0 0 1 0 0 0 1 -6 136.5 0 0.5 1 2.5
9 0 1 0 0 0 1 0 0 0 1 0 144 -8 1.5 1.5 0.5
9 0 1 0 0 0 1 0 0 0 1 0 142 9 4.5 0.5 0.5
9 0 1 0 0 0 1 0 0 0 1 -9 142 0 0.5 0.5 4.5
9 0 1 0 0 0 1 0 0 0 1 5 141.5 3 0.5 4 0.5
9 0 1 0 0 0 1 0 0 0 1 3 140 -7 0.5 3.5 0.5
9 0 1 0 0 0 1 0 0 0 1 9.5 142 0 1 0.5 1.5
9 0 1 0 0 0 1 0 0 0 1 8.5 142 -3 1 0.5 1.5
9 0 1 0 0 0 1 0 0 0 1 7 140 -3 0.5 3.5 0.5
9 0 1 0 0 0 1 0 0 0 1 8.5 142 3 1 0.5 1.5
9 0 1 0 0 0 1 0 0 0 1 6 136 0 0.5 0.5 2.5
9 0 1 0 0 0 1 0 0 0 1 5 159 0 0.5 0.5 2.5
9 0 1 0 0 0 1 0 0 0 1 5 135 0 0.5 0.5 2.5
9 0 1 0 0 0 1 0 0 0 1 -5 159 0 0.5 0.5 2.5
9 0 1 0 0 0 1 0 0 0 1 -5 135 0 0.5 0.5 2.5
9 0 1 0 0 0 1 0 0 0 1 7 142.5 -4.5 0.5 1 1
9 0 1 0 0 0 1 0 0 0 1 7 142.5 4.5 0.5 1 1
9 0 1 0 0 0 1 0 0 0 1 4.5 142.5 -7 1 1 0.5
9 0 1 0 0 0 1 0 0 0 1 4.5 142.5 7 1 1 0.5
9 0 1 0 0 0 1 0 0 0 1 3.5 142 8 2 0.5 0.5
9 0 1 0 0 0 1 0 0 0 1 -2.5 142.5 8 1 1 0.5
9 0 1 0 0 0 1 0 0 0 1 -4.5 142.5 -7 1 1 0.5
9 0 1 0 0 0 1 0 0 0 1 -4.5 142.5 7 1 1 0.5
9 0 1 0 0 0 1 0 0 0 1 -7 142.5 -4.5 0.5 1 1
9 0 1 0 0 0 1 0 0 0 1 -7 142.5 4.5 0.5 1 1
9 0 1 0 0 0 1 0 0 0 1 -8 142.5 -2.5 0.5 1 1
9 0 1 0 0 0 1 0 0 0 1 -8 142.5 2.5 0.5 1 1
9 0 1 0 0 0 1 0 0 0 1 0 142 -10 1.5 0.5 0.5
9 0 1 0 0 0 1 0 0 0 1 0 142 10 1.5 0.5 0.5
9 0 1 0 0 0 1 0 0 0 1 -8 20 0 0.5 0.5 1.5
9 0 1 0 0 0 1 0 0 0 1 -10 142 0 0.5 0.5 1.5
