9 0 1 0 0 0 1 0 0 0 1 20 -8.5 59.879 0.5 5 15.5
9 0 1 0 0 0 1 0 0 0 1 -20 -8.5 59.879 0.5 5 15.5
9 0 1 0 0 0 1 0 0 0 1 7.5 -17.5 40.379 5 1 5
9 0 1 0 0 0 1 0 0 0 1 -7.5 -17.5 40.379 5 1 5
9 0 1 0 0 0 1 0 0 0 1 0 10 -0.1210022 4.5 8.5 0.5
9 0 1 0 0 0 1 0 0 0 1 13 -9.5 66.379 0.5 2 16
9 0 1 0 0 0 1 0 0 0 1 13 -17 32.879 10.5 0.5 2.5
9 0 1 0 0 0 1 0 0 0 1 -13 -9 67.879 0.5 1.5 17.5
9 0 1 0 0 0 1 0 0 0 1 -13 -17 32.879 10.5 0.5 2.5
9 0 1 0 0 0 1 0 0 0 1 27 -9.5 66.379 0.5 2 11
9 0 1 0 0 0 1 0 0 0 1 -27 -9 64.879 0.5 1.5 14.5
9 0 1 0 0 0 1 0 0 0 1 23 -8.5 77.879 3.5 2 1.5
9 0 1 0 0 0 1 0 0 0 1 -17 -8.5 80.879 3.5 2 1.5
9 0 1 0 0 0 1 0 0 0 1 -23 -8.5 77.879 3.5 2 1.5
9 0 1 0 0 0 1 0 0 0 1 23.5 -10 10.379 2 2.5 2
9 0 1 0 0 0 1 0 0 0 1 -23.5 -10 10.379 2 2.5 2
9 0 1 0 0 0 1 0 0 0 1 0 -2.5 -6.621002 9.5 1 1
9 0 1 0 0 0 1 0 0 0 1 0 10 -2.621002 0.5 8.5 2
9 0 1 0 0 0 1 0 0 0 1 0 10 2.378998 0.5 8.5 2
9 0 1 0 0 0 1 0 0 0 1 17 -9 80.879 3.5 1.5 1.5
9 0 1 0 0 0 1 0 0 0 1 16 -8 2.878998 4.5 0.5 2.5
9 0 1 0 0 0 1 0 0 0 1 7 -2.5 -2.121002 1.5 1 3.5
9 0 1 0 0 0 1 0 0 0 1 -7 -2.5 -2.121002 1.5 1 3.5
9 0 1 0 0 0 1 0 0 0 1 -15 -8 2.378998 3.5 0.5 3
9 0 1 0 0 0 1 0 0 0 1 27 -8.5 14.379 0.5 5 2
9 0 1 0 0 0 1 0 0 0 1 26 -8.5 12.379 0.5 5 2
9 0 1 0 0 0 1 0 0 0 1 -25.5 -8.5 12.879 2 5 0.5
9 0 1 0 0 0 1 0 0 0 1 17 -17.5 36.379 4.5 1 1
9 0 1 0 0 0 1 0 0 0 1 7 -17 28.379 4.5 0.5 2
9 0 1 0 0 0 1 0 0 0 1 -7 -17 28.379 4.5 0.5 2
9 0 1 0 0 0 1 0 0 0 1 -17 -17.5 36.379 4.5 1 1
9 0 1 0 0 0 1 0 0 0 1 6 -14 15.879 3.5 0.5 2.5
9 0 1 0 0 0 1 0 0 0 1 6 -15 19.879 3.5 0.5 2.5
9 0 1 0 0 0 1 0 0 0 1 -6 -14 15.879 3.5 0.5 2.5
9 0 1 0 0 0 1 0 0 0 1 -6 -15 19.879 3.5 0.5 2.5
9 0 1 0 0 0 1 0 0 0 1 6.5 -13 13.379 4 0.5 2
9 0 1 0 0 0 1 0 0 0 1 -6.5 -13 13.379 4 0.5 2
9 0 1 0 0 0 1 0 0 0 1 12 -9 70.879 0.5 0.5 15.5
9 0 1 0 0 0 1 0 0 0 1 -12 -9 70.879 0.5 0.5 15.5
9 0 1 0 0 0 1 0 0 0 1 -27 -8.5 14.879 0.5 5 1.5
9 0 1 0 0 0 1 0 0 0 1 20 -14 59.379 0.5 0.5 14
9 0 1 0 0 0 1 0 0 0 1 6 -16 23.379 3.5 0.5 2
9 0 1 0 0 0 1 0 0 0 1 0 -2.5 6.378998 3.5 1 1
9 0 1 0 0 0 1 0 0 0 1 -6 -16 23.379 3.5 0.5 2
9 0 1 0 0 0 1 0 0 0 1 -20 -14 59.379 0.5 0.5 14
9 0 1 0 0 0 1 0 0 0 1 23 -9.5 7.378998 1.5 2 1
9 0 1 0 0 0 1 0 0 0 1 16.5 -6.5 80.379 3 1 1
9 0 1 0 0 0 1 0 0 0 1 14.5 -8.5 83.879 2 1 1.5
9 0 1 0 0 0 1 0 0 0 1 -7.5 -12.5 46.879 1 6 0.5
9 0 1 0 0 0 1 0 0 0 1 -23 -9.5 7.378998 1.5 2 1
9 0 1 0 0 0 1 0 0 0 1 28 -9 66.879 0.5 0.5 11.5
9 0 1 0 0 0 1 0 0 0 1 -26 -7 11.379 0.5 5.5 1
9 0 1 0 0 0 1 0 0 0 1 -27 -10 24.879 0.5 3.5 1.5
9 0 1 0 0 0 1 0 0 0 1 24.5 -8.5 12.879 1 5 0.5
9 0 1 0 0 0 1 0 0 0 1 23 -8.5 80.379 2.5 1 1
9 0 1 0 0 0 1 0 0 0 1 11.5 -9 51.379 1 2.5 1
9 0 1 0 0 0 1 0 0 0 1 5 -17.5 46.379 2.5 1 1
9 0 1 0 0 0 1 0 0 0 1 0 -17 44.379 2.5 0.5 2
9 0 1 0 0 0 1 0 0 0 1 -11.5 -9 51.379 1 2.5 1
9 0 1 0 0 0 1 0 0 0 1 13 -7 64.879 0.5 0.5 9.5
9 0 1 0 0 0 1 0 0 0 1 28 -9 21.379 0.5 4.5 1
9 0 1 0 0 0 1 0 0 0 1 0 -4.5 7.878998 1.5 3 0.5
9 0 1 0 0 0 1 0 0 0 1 0 -2.5 -8.121002 4.5 1 0.5
9 0 1 0 0 0 1 0 0 0 1 -22 -8.5 80.879 1.5 1 1.5
9 0 1 0 0 0 1 0 0 0 1 -28 -9 21.379 0.5 4.5 1
9 0 1 0 0 0 1 0 0 0 1 27 -9.5 51.379 0.5 4 1
9 0 1 0 0 0 1 0 0 0 1 26.5 -9.5 26.379 1 2 1
9 0 1 0 0 0 1 0 0 0 1 -4.5 -17.5 46.379 2 1 1
9 0 1 0 0 0 1 0 0 0 1 -15.5 -8.5 83.379 2 1 1
9 0 1 0 0 0 1 0 0 0 1 -21.5 -5.5 77.379 2 1 1
9 0 1 0 0 0 1 0 0 0 1 -25.5 -9.5 26.879 1 4 0.5
9 0 1 0 0 0 1 0 0 0 1 42 -3 56.879 2.5 1.5 0.5
9 0 1 0 0 0 1 0 0 0 1 22 -6 77.879 2.5 0.5 1.5
9 0 1 0 0 0 1 0 0 0 1 7 -9 46.879 0.5 7.5 0.5
9 0 1 0 0 0 1 0 0 0 1 -42 -3 56.879 2.5 1.5 0.5
9 0 1 0 0 0 1 0 0 0 1 13 -17.5 40.879 0.5 1 3.5
9 0 1 0 0 0 1 0 0 0 1 -13 -17.5 40.879 0.5 1 3.5
9 0 1 0 0 0 1 0 0 0 1 -27 -7 72.379 0.5 0.5 7
9 0 1 0 0 0 1 0 0 0 1 21.5 -9 4.378998 1 1.5 1
9 0 1 0 0 0 1 0 0 0 1 19.5 -3 -1.621002 1 1.5 1
9 0 1 0 0 0 1 0 0 0 1 18.5 -8.5 78.879 1 3 0.5
9 0 1 0 0 0 1 0 0 0 1 17 -2.5 -3.621002 1.5 1 1
9 0 1 0 0 0 1 0 0 0 1 7.5 -4.5 -5.121002 1 1 1.5
9 0 1 0 0 0 1 0 0 0 1 5 -2 0.3789978 0.5 0.5 6
9 0 1 0 0 0 1 0 0 0 1 -5 -2 0.3789978 0.5 0.5 6
9 0 1 0 0 0 1 0 0 0 1 -15 -2.5 -4.621002 1.5 1 1
9 0 1 0 0 0 1 0 0 0 1 -17.5 -3 -3.121002 2 1.5 0.5
9 0 1 0 0 0 1 0 0 0 1 -18.5 -8.5 78.879 1 3 0.5
9 0 1 0 0 0 1 0 0 0 1 -19.5 -3 -1.621002 1 1.5 1
9 0 1 0 0 0 1 0 0 0 1 -21.5 -9 4.378998 1 1.5 1
9 0 1 0 0 0 1 0 0 0 1 -22.5 -11 77.379 3 0.5 1
9 0 1 0 0 0 1 0 0 0 1 -28 -9 60.879 0.5 0.5 5.5
9 0 1 0 0 0 1 0 0 0 1 25.5 -9 75.879 1 2.5 0.5
9 0 1 0 0 0 1 0 0 0 1 22 -11 77.379 2.5 0.5 1
9 0 1 0 0 0 1 0 0 0 1 -13 -9 49.379 0.5 2.5 1
9 0 1 0 0 0 1 0 0 0 1 -25.5 -9 75.879 1 2.5 0.5
9 0 1 0 0 0 1 0 0 0 1 -26 -8.5 13.879 0.5 5 0.5
9 0 1 0 0 0 1 0 0 0 1 27 -9 53.879 0.5 1.5 1.5
9 0 1 0 0 0 1 0 0 0 1 20 -8 75.879 0.5 4.5 0.5
9 0 1 0 0 0 1 0 0 0 1 4 -12 9.878998 1.5 0.5 1.5
9 0 1 0 0 0 1 0 0 0 1 0 -2 -5.121002 4.5 0.5 0.5
9 0 1 0 0 0 1 0 0 0 1 0 -2 4.878998 4.5 0.5 0.5
9 0 1 0 0 0 1 0 0 0 1 -4 -12 9.878998 1.5 0.5 1.5
9 0 1 0 0 0 1 0 0 0 1 -20 -8 75.879 0.5 4.5 0.5
9 0 1 0 0 0 1 0 0 0 1 25.5 -11.5 41.379 1 1 1
9 0 1 0 0 0 1 0 0 0 1 25 -9.5 26.879 0.5 4 0.5
9 0 1 0 0 0 1 0 0 0 1 23.5 -13 11.379 2 0.5 1
9 0 1 0 0 0 1 0 0 0 1 18.5 -8.5 82.879 2 1 0.5
9 0 1 0 0 0 1 0 0 0 1 14.5 -2.5 -4.621002 1 1 1
9 0 1 0 0 0 1 0 0 0 1 15.5 -7 82.379 2 0.5 1
9 0 1 0 0 0 1 0 0 0 1 15.5 -11 80.379 2 0.5 1
9 0 1 0 0 0 1 0 0 0 1 11.5 -2.5 -6.121002 2 1 0.5
9 0 1 0 0 0 1 0 0 0 1 6.5 -2.5 2.378998 1 1 1
9 0 1 0 0 0 1 0 0 0 1 -6 -2.5 3.378998 0.5 1 2
9 0 1 0 0 0 1 0 0 0 1 -8 -4 -2.621002 0.5 0.5 4
9 0 1 0 0 0 1 0 0 0 1 -8.5 -17.5 45.879 2 1 0.5
9 0 1 0 0 0 1 0 0 0 1 -11.5 -2.5 -6.121002 2 1 0.5
9 0 1 0 0 0 1 0 0 0 1 -15.5 -11 80.379 2 0.5 1
9 0 1 0 0 0 1 0 0 0 1 -16.5 -6 80.379 2 0.5 1
9 0 1 0 0 0 1 0 0 0 1 -19.5 -8 3.378998 1 0.5 2
9 0 1 0 0 0 1 0 0 0 1 -23.5 -13 11.379 2 0.5 1
9 0 1 0 0 0 1 0 0 0 1 -25.5 -11.5 41.379 1 1 1
9 0 1 0 0 0 1 0 0 0 1 -26 -9.5 25.879 0.5 4 0.5
9 0 1 0 0 0 1 0 0 0 1 28 -9 51.879 0.5 3.5 0.5
9 0 1 0 0 0 1 0 0 0 1 15 -8 -0.1210022 3.5 0.5 0.5
9 0 1 0 0 0 1 0 0 0 1 -28 -9 51.879 0.5 3.5 0.5
9 0 1 0 0 0 1 0 0 0 1 27 -9 78.379 0.5 1.5 1
9 0 1 0 0 0 1 0 0 0 1 22.5 -9 5.878998 1 1.5 0.5
9 0 1 0 0 0 1 0 0 0 1 21 -5 77.379 1.5 0.5 1
9 0 1 0 0 0 1 0 0 0 1 13 -6 51.379 0.5 1.5 1
9 0 1 0 0 0 1 0 0 0 1 15.5 -10 82.879 3 0.5 0.5
9 0 1 0 0 0 1 0 0 0 1 9 -17.5 45.879 1.5 1 0.5
9 0 1 0 0 0 1 0 0 0 1 -19 -8.5 82.879 1.5 1 0.5
9 0 1 0 0 0 1 0 0 0 1 -22.5 -9 5.878998 1 1.5 0.5
9 0 1 0 0 0 1 0 0 0 1 -24.5 -9 79.879 1 1.5 0.5
9 0 1 0 0 0 1 0 0 0 1 -27 -6 51.379 0.5 1.5 1
9 0 1 0 0 0 1 0 0 0 1 -27 -12 51.379 0.5 1.5 1
9 0 1 0 0 0 1 0 0 0 1 24 -7 26.879 0.5 2.5 0.5
9 0 1 0 0 0 1 0 0 0 1 23 -10 79.879 2.5 0.5 0.5
9 0 1 0 0 0 1 0 0 0 1 21 -10 8.878998 0.5 2.5 0.5
9 0 1 0 0 0 1 0 0 0 1 22 -7 79.879 2.5 0.5 0.5
9 0 1 0 0 0 1 0 0 0 1 8 -4 -1.121002 0.5 0.5 2.5
9 0 1 0 0 0 1 0 0 0 1 -7 -4 46.879 0.5 2.5 0.5
9 0 1 0 0 0 1 0 0 0 1 -21 -10 8.878998 0.5 2.5 0.5
9 0 1 0 0 0 1 0 0 0 1 -24 -7 26.879 0.5 2.5 0.5
9 0 1 0 0 0 1 0 0 0 1 -27 -9 26.879 0.5 2.5 0.5
9 0 1 0 0 0 1 0 0 0 1 32.5 -11 36.379 1 0.5 1
9 0 1 0 0 0 1 0 0 0 1 32.5 -11 46.379 1 0.5 1
9 0 1 0 0 0 1 0 0 0 1 26 -2.5 11.379 0.5 1 1
9 0 1 0 0 0 1 0 0 0 1 26 -6.5 26.379 0.5 1 1
9 0 1 0 0 0 1 0 0 0 1 26 -12.5 26.379 0.5 1 1
9 0 1 0 0 0 1 0 0 0 1 25.5 -6 77.379 1 0.5 1
9 0 1 0 0 0 1 0 0 0 1 25 -5.5 11.879 0.5 2 0.5
9 0 1 0 0 0 1 0 0 0 1 23 -5.5 27.879 0.5 2 0.5
9 0 1 0 0 0 1 0 0 0 1 21.5 -2.5 -2.121002 1 1 0.5
9 0 1 0 0 0 1 0 0 0 1 21.5 -8.5 81.879 1 1 0.5
9 0 1 0 0 0 1 0 0 0 1 20 -15.5 51.379 0.5 1 1
9 0 1 0 0 0 1 0 0 0 1 19.5 -2.5 -3.121002 1 1 0.5
9 0 1 0 0 0 1 0 0 0 1 17.5 -4 -3.121002 2 0.5 0.5
9 0 1 0 0 0 1 0 0 0 1 14 -3.5 43.879 0.5 2 0.5
9 0 1 0 0 0 1 0 0 0 1 13 -12.5 51.379 0.5 1 1
9 0 1 0 0 0 1 0 0 0 1 13.5 -17 29.879 2 0.5 0.5
9 0 1 0 0 0 1 0 0 0 1 6 -2.5 4.378998 0.5 1 1
9 0 1 0 0 0 1 0 0 0 1 4.5 -3 5.378998 1 0.5 1
9 0 1 0 0 0 1 0 0 0 1 5.5 -4 -7.121002 2 0.5 0.5
9 0 1 0 0 0 1 0 0 0 1 -4.5 -3 5.378998 1 0.5 1
9 0 1 0 0 0 1 0 0 0 1 -7 -2.5 2.378998 0.5 1 1
9 0 1 0 0 0 1 0 0 0 1 -7 -4.5 -4.621002 0.5 1 1
9 0 1 0 0 0 1 0 0 0 1 -12.5 -3.5 -5.121002 1 1 0.5
9 0 1 0 0 0 1 0 0 0 1 -12.5 -6 51.379 1 0.5 1
9 0 1 0 0 0 1 0 0 0 1 -12.5 -12 51.379 1 0.5 1
9 0 1 0 0 0 1 0 0 0 1 -12.5 -17 29.379 1 0.5 1
9 0 1 0 0 0 1 0 0 0 1 -14 -17.5 41.379 0.5 1 1
9 0 1 0 0 0 1 0 0 0 1 -14.5 -8.5 84.879 1 1 0.5
9 0 1 0 0 0 1 0 0 0 1 -14.5 -10 83.379 1 0.5 1
9 0 1 0 0 0 1 0 0 0 1 -15.5 -7 82.879 2 0.5 0.5
9 0 1 0 0 0 1 0 0 0 1 -17.5 -2.5 -4.121002 1 1 0.5
9 0 1 0 0 0 1 0 0 0 1 -20 -15.5 51.379 0.5 1 1
9 0 1 0 0 0 1 0 0 0 1 -20.5 -6 79.379 1 0.5 1
9 0 1 0 0 0 1 0 0 0 1 -21.5 -7 80.379 1 0.5 1
9 0 1 0 0 0 1 0 0 0 1 -21.5 -10 80.379 1 0.5 1
9 0 1 0 0 0 1 0 0 0 1 -24.5 -6 77.379 1 0.5 1
9 0 1 0 0 0 1 0 0 0 1 -25 -5.5 11.879 0.5 2 0.5
9 0 1 0 0 0 1 0 0 0 1 -32.5 -11 36.379 1 0.5 1
9 0 1 0 0 0 1 0 0 0 1 -32.5 -11 46.379 1 0.5 1
9 0 1 0 0 0 1 0 0 0 1 41 -5 56.879 1.5 0.5 0.5
9 0 1 0 0 0 1 0 0 0 1 25 -10 13.879 0.5 1.5 0.5
9 0 1 0 0 0 1 0 0 0 1 20 -3 -0.1210022 0.5 1.5 0.5
9 0 1 0 0 0 1 0 0 0 1 21 -11 78.879 1.5 0.5 0.5
9 0 1 0 0 0 1 0 0 0 1 18 -3 -2.121002 0.5 1.5 0.5
9 0 1 0 0 0 1 0 0 0 1 18 -9 83.879 1.5 0.5 0.5
9 0 1 0 0 0 1 0 0 0 1 17 -10 78.879 0.5 1.5 0.5
9 0 1 0 0 0 1 0 0 0 1 17 -5 79.879 1.5 0.5 0.5
9 0 1 0 0 0 1 0 0 0 1 15 -4 -4.121002 1.5 0.5 0.5
9 0 1 0 0 0 1 0 0 0 1 15 -6 81.879 1.5 0.5 0.5
9 0 1 0 0 0 1 0 0 0 1 13 -3 -5.121002 0.5 1.5 0.5
9 0 1 0 0 0 1 0 0 0 1 13 -9 49.879 0.5 1.5 0.5
9 0 1 0 0 0 1 0 0 0 1 14 -10 83.879 1.5 0.5 0.5
9 0 1 0 0 0 1 0 0 0 1 13 -8 10.879 1.5 0.5 0.5
9 0 1 0 0 0 1 0 0 0 1 11 -13 12.879 0.5 0.5 1.5
9 0 1 0 0 0 1 0 0 0 1 5 -3 -4.121002 0.5 0.5 1.5
9 0 1 0 0 0 1 0 0 0 1 -5 -3 -4.121002 0.5 0.5 1.5
9 0 1 0 0 0 1 0 0 0 1 -5 -4 -7.121002 1.5 0.5 0.5
9 0 1 0 0 0 1 0 0 0 1 -11 -13 12.879 0.5 0.5 1.5
9 0 1 0 0 0 1 0 0 0 1 -13 -8 10.879 1.5 0.5 0.5
9 0 1 0 0 0 1 0 0 0 1 -15 -4 -4.121002 1.5 0.5 0.5
9 0 1 0 0 0 1 0 0 0 1 -18 -3 -2.121002 0.5 1.5 0.5
9 0 1 0 0 0 1 0 0 0 1 -17 -5 79.879 1.5 0.5 0.5
9 0 1 0 0 0 1 0 0 0 1 -20 -3 -0.1210022 0.5 1.5 0.5
9 0 1 0 0 0 1 0 0 0 1 -21 -11 78.879 1.5 0.5 0.5
9 0 1 0 0 0 1 0 0 0 1 -24 -12 40.879 0.5 1.5 0.5
9 0 1 0 0 0 1 0 0 0 1 -25 -10 13.879 0.5 1.5 0.5
9 0 1 0 0 0 1 0 0 0 1 -27 -7 56.879 0.5 0.5 1.5
9 0 1 0 0 0 1 0 0 0 1 -41 -5 56.879 1.5 0.5 0.5
