9 0 1 0 0 0 1 0 0 0 1 0 2.5 51 7.5 7 9.5
9 0 1 0 0 0 1 0 0 0 1 0 76.5 139.5 6.5 4 14
9 0 1 0 0 0 1 0 0 0 1 0 22.5 194 4.5 16 4.5
9 0 1 0 0 0 1 0 0 0 1 0 -26 152 4.5 3.5 13.5
9 0 1 0 0 0 1 0 0 0 1 -1 24.5 74 3.5 9 5.5
9 0 1 0 0 0 1 0 0 0 1 0 71 144.5 3.5 1.5 29
9 0 1 0 0 0 1 0 0 0 1 0 42 85 6.5 6.5 3.5
9 0 1 0 0 0 1 0 0 0 1 0 50 188 5.5 5.5 4.5
9 0 1 0 0 0 1 0 0 0 1 -0.5 68 107.5 3 5.5 8
9 0 1 0 0 0 1 0 0 0 1 0 10.5 48 4.5 1 26.5
9 0 1 0 0 0 1 0 0 0 1 -0.5 54.5 93 3 6 6.5
9 0 1 0 0 0 1 0 0 0 1 0 65.5 173 4.5 4 6.5
9 0 1 0 0 0 1 0 0 0 1 -9 0.5 37 1.5 5 15.5
9 0 1 0 0 0 1 0 0 0 1 9.5 0.5 36 2 4 14.5
9 0 1 0 0 0 1 0 0 0 1 0 -9.5 33.5 4.5 2 12
9 0 1 0 0 0 1 0 0 0 1 0 6 64.5 7.5 3.5 4
9 0 1 0 0 0 1 0 0 0 1 0 58.5 180 5.5 3 5.5
9 0 1 0 0 0 1 0 0 0 1 -1 5.5 115.5 2.5 16 2
9 0 1 0 0 0 1 0 0 0 1 0 75 159 5.5 2.5 5.5
9 0 1 0 0 0 1 0 0 0 1 0 8.5 31.5 7.5 1 10
9 0 1 0 0 0 1 0 0 0 1 0 82 136.5 4.5 1.5 11
9 0 1 0 0 0 1 0 0 0 1 0 -6 49 6.5 1.5 7.5
9 0 1 0 0 0 1 0 0 0 1 -1.5 76 120.5 4 3.5 5
9 0 1 0 0 0 1 0 0 0 1 0 1.5 191.5 4.5 5 3
9 0 1 0 0 0 1 0 0 0 1 0 31.5 82 6.5 4 2.5
9 0 1 0 0 0 1 0 0 0 1 -2 16.5 65 4.5 4 3.5
9 0 1 0 0 0 1 0 0 0 1 0 41.5 193 5.5 3 3.5
9 0 1 0 0 0 1 0 0 0 1 5 29.5 76 2.5 6 3.5
9 0 1 0 0 0 1 0 0 0 1 0 38 142.5 3.5 2.5 6
9 0 1 0 0 0 1 0 0 0 1 0 25.5 199.5 3.5 15 1
9 0 1 0 0 0 1 0 0 0 1 -1 -9 184 2.5 4.5 4.5
9 0 1 0 0 0 1 0 0 0 1 -1.5 40.5 79 4 5 2.5
9 0 1 0 0 0 1 0 0 0 1 0 59.5 102.5 5.5 3 3
9 0 1 0 0 0 1 0 0 0 1 0 22 156.5 2.5 9.5 2
9 0 1 0 0 0 1 0 0 0 1 -1.5 -18 175 3 3.5 4.5
9 0 1 0 0 0 1 0 0 0 1 0 -21 130.5 4.5 2.5 4
9 0 1 0 0 0 1 0 0 0 1 -6 26 74.5 1.5 7.5 4
9 0 1 0 0 0 1 0 0 0 1 -0.5 13.5 72 6 2 3.5
9 0 1 0 0 0 1 0 0 0 1 -5.5 24.5 194.5 1 14 3
9 0 1 0 0 0 1 0 0 0 1 0 45.5 91 5.5 3 2.5
9 0 1 0 0 0 1 0 0 0 1 -5 68 107.5 1.5 4.5 6
9 0 1 0 0 0 1 0 0 0 1 0 -16 124 4.5 3.5 2.5
9 0 1 0 0 0 1 0 0 0 1 0 -22 156.5 3.5 0.5 22
9 0 1 0 0 0 1 0 0 0 1 6 26 194.5 1.5 12.5 2
9 0 1 0 0 0 1 0 0 0 1 -5 55.5 94.5 1.5 5 5
9 0 1 0 0 0 1 0 0 0 1 0 67.5 162.5 4.5 2 4
9 0 1 0 0 0 1 0 0 0 1 8.5 6 44.5 1 1.5 23
9 0 1 0 0 0 1 0 0 0 1 0 5 112 3.5 6.5 1.5
9 0 1 0 0 0 1 0 0 0 1 4 69.5 111 1.5 5 4.5
9 0 1 0 0 0 1 0 0 0 1 4 58 96.5 1.5 7.5 3
9 0 1 0 0 0 1 0 0 0 1 0 0.5 63.5 5.5 2 3
9 0 1 0 0 0 1 0 0 0 1 0 4.5 118.5 1.5 21 1
9 0 1 0 0 0 1 0 0 0 1 -0.5 64 96.5 3 3.5 3
9 0 1 0 0 0 1 0 0 0 1 5 20 74 2.5 3.5 3.5
9 0 1 0 0 0 1 0 0 0 1 0 36 188.5 3.5 8.5 1
9 0 1 0 0 0 1 0 0 0 1 -11 0.5 36 0.5 4 14.5
9 0 1 0 0 0 1 0 0 0 1 8 -6 34 1.5 1.5 12.5
9 0 1 0 0 0 1 0 0 0 1 -8 -6 34 1.5 1.5 12.5
9 0 1 0 0 0 1 0 0 0 1 -0.5 0 186.5 3 4.5 2
9 0 1 0 0 0 1 0 0 0 1 0 53.5 180.5 4.5 2 3
9 0 1 0 0 0 1 0 0 0 1 0 -24.5 168.5 4.5 2 3
9 0 1 0 0 0 1 0 0 0 1 -1 51 83.5 3.5 2.5 3
9 0 1 0 0 0 1 0 0 0 1 0 34.5 141 1.5 1 16.5
9 0 1 0 0 0 1 0 0 0 1 -1 37 74.5 3.5 3.5 2
9 0 1 0 0 0 1 0 0 0 1 -0.5 75.5 111.5 3 2 4
9 0 1 0 0 0 1 0 0 0 1 0 -30.5 151 2.5 1 9.5
9 0 1 0 0 0 1 0 0 0 1 -5 71 162 1.5 1.5 10.5
9 0 1 0 0 0 1 0 0 0 1 -8.5 6.5 44.5 1 1 23
9 0 1 0 0 0 1 0 0 0 1 -7 77 134.5 0.5 3.5 13
9 0 1 0 0 0 1 0 0 0 1 3 2.5 115 1.5 10 1.5
9 0 1 0 0 0 1 0 0 0 1 0 7 70.5 4.5 2.5 2
9 0 1 0 0 0 1 0 0 0 1 0 -8.5 50.5 4.5 1 5
9 0 1 0 0 0 1 0 0 0 1 7 76 138.5 0.5 2.5 17
9 0 1 0 0 0 1 0 0 0 1 5 72.5 119 1.5 4 3.5
9 0 1 0 0 0 1 0 0 0 1 3 -8 185.5 1.5 3.5 4
9 0 1 0 0 0 1 0 0 0 1 0 67.5 118.5 3.5 2 3
9 0 1 0 0 0 1 0 0 0 1 0 30.5 124.5 3.5 3 2
9 0 1 0 0 0 1 0 0 0 1 -1 24.5 67 3.5 4 1.5
9 0 1 0 0 0 1 0 0 0 1 0 25 81 5.5 2.5 1.5
9 0 1 0 0 0 1 0 0 0 1 0 79 156.5 4.5 1.5 3
9 0 1 0 0 0 1 0 0 0 1 0 -16.5 181 4.5 3 1.5
9 0 1 0 0 0 1 0 0 0 1 -7.5 14 67 1 4.5 4.5
9 0 1 0 0 0 1 0 0 0 1 5.5 18 66.5 2 2.5 4
9 0 1 0 0 0 1 0 0 0 1 7 12.5 66 1.5 3 5.5
9 0 1 0 0 0 1 0 0 0 1 5 66.5 104.5 2.5 4 2
9 0 1 0 0 0 1 0 0 0 1 3 -19.5 173 1.5 2 6.5
9 0 1 0 0 0 1 0 0 0 1 0 74 168 3.5 1.5 3.5
9 0 1 0 0 0 1 0 0 0 1 0 48 194 3.5 3.5 1.5
9 0 1 0 0 0 1 0 0 0 1 6 -8.5 33.5 1.5 1 12
9 0 1 0 0 0 1 0 0 0 1 5.5 71 163.5 2 1.5 6
9 0 1 0 0 0 1 0 0 0 1 5 50.5 87.5 1.5 2 6
9 0 1 0 0 0 1 0 0 0 1 0 -24.5 134.5 4.5 1 4
9 0 1 0 0 0 1 0 0 0 1 -6 -8.5 33.5 1.5 1 12
9 0 1 0 0 0 1 0 0 0 1 0 64 181.5 3.5 2.5 2
9 0 1 0 0 0 1 0 0 0 1 0 58 187.5 3.5 2.5 2
9 0 1 0 0 0 1 0 0 0 1 5 -26 152 0.5 2.5 13.5
9 0 1 0 0 0 1 0 0 0 1 0 33 86 4.5 2.5 1.5
9 0 1 0 0 0 1 0 0 0 1 -5 -26 152 0.5 2.5 13.5
9 0 1 0 0 0 1 0 0 0 1 0 26 201 3.5 9.5 0.5
9 0 1 0 0 0 1 0 0 0 1 -0.5 -12 120.5 3 5.5 1
9 0 1 0 0 0 1 0 0 0 1 9 1.5 54 1.5 3 3.5
9 0 1 0 0 0 1 0 0 0 1 0 17 188.5 1.5 10.5 1
9 0 1 0 0 0 1 0 0 0 1 0 39.5 90 3.5 3 1.5
9 0 1 0 0 0 1 0 0 0 1 0 23 159.5 3.5 4.5 1
9 0 1 0 0 0 1 0 0 0 1 -1 81 122.5 3.5 1.5 3
9 0 1 0 0 0 1 0 0 0 1 -1 15.5 60 3.5 3 1.5
9 0 1 0 0 0 1 0 0 0 1 -0.5 12 62.5 6 0.5 6
9 0 1 0 0 0 1 0 0 0 1 5 41.5 80 2.5 4 1.5
9 0 1 0 0 0 1 0 0 0 1 -1.5 -12 177.5 3 2.5 2
9 0 1 0 0 0 1 0 0 0 1 -5.5 67 170.5 1 2.5 6
9 0 1 0 0 0 1 0 0 0 1 -7.5 42.5 84.5 1 5 3
9 0 1 0 0 0 1 0 0 0 1 -9 3 56.5 1.5 2.5 4
9 0 1 0 0 0 1 0 0 0 1 0 84 137 2.5 0.5 11.5
9 0 1 0 0 0 1 0 0 0 1 0 60.5 107.5 3.5 2 2
9 0 1 0 0 0 1 0 0 0 1 0 54.5 101.5 3.5 2 2
9 0 1 0 0 0 1 0 0 0 1 -6.5 73 117.5 1 3.5 4
9 0 1 0 0 0 1 0 0 0 1 7 69.5 111 1.5 2 4.5
9 0 1 0 0 0 1 0 0 0 1 7 55.5 94.5 1.5 3 3
9 0 1 0 0 0 1 0 0 0 1 6 67.5 170 1.5 2 4.5
9 0 1 0 0 0 1 0 0 0 1 4.5 28 71 2 4.5 1.5
9 0 1 0 0 0 1 0 0 0 1 0 -21 152.5 1.5 0.5 18
9 0 1 0 0 0 1 0 0 0 1 0 59.5 173 4.5 2 1.5
9 0 1 0 0 0 1 0 0 0 1 -4.5 71.5 127 1 1 13.5
9 0 1 0 0 0 1 0 0 0 1 -7 27 194.5 0.5 13.5 2
9 0 1 0 0 0 1 0 0 0 1 -1 37 133 2.5 1.5 3.5
9 0 1 0 0 0 1 0 0 0 1 0 -6 191 3.5 2.5 1.5
9 0 1 0 0 0 1 0 0 0 1 0 -17 129 3.5 1.5 2.5
9 0 1 0 0 0 1 0 0 0 1 -5.5 10 47.5 1 0.5 26
9 0 1 0 0 0 1 0 0 0 1 9.5 -4 34 2 0.5 12.5
9 0 1 0 0 0 1 0 0 0 1 0 68.5 153.5 2.5 1 5
9 0 1 0 0 0 1 0 0 0 1 0 81.5 151 3.5 1 3.5
9 0 1 0 0 0 1 0 0 0 1 0 32.5 154 3.5 1 3.5
9 0 1 0 0 0 1 0 0 0 1 4 54.5 89.5 1.5 2 4
9 0 1 0 0 0 1 0 0 0 1 -0.5 25.5 120.5 2 6 1
9 0 1 0 0 0 1 0 0 0 1 5.5 27 197.5 1 11.5 1
9 0 1 0 0 0 1 0 0 0 1 8.5 23 73 1 4.5 2.5
9 0 1 0 0 0 1 0 0 0 1 3 -15 176.5 1.5 2.5 3
9 0 1 0 0 0 1 0 0 0 1 -6 51 86.5 1.5 2.5 3
9 0 1 0 0 0 1 0 0 0 1 -8.5 23 73 1 4.5 2.5
9 0 1 0 0 0 1 0 0 0 1 6.5 60.5 99 1 2 5.5
9 0 1 0 0 0 1 0 0 0 1 5 5 191 0.5 8.5 2.5
9 0 1 0 0 0 1 0 0 0 1 8 77 134.5 0.5 1.5 14
9 0 1 0 0 0 1 0 0 0 1 0 71 175.5 3.5 1.5 2
9 0 1 0 0 0 1 0 0 0 1 0 49.5 182 3.5 2 1.5
9 0 1 0 0 0 1 0 0 0 1 0 42.5 186 3.5 2 1.5
9 0 1 0 0 0 1 0 0 0 1 0 41.5 197.5 3.5 3 1
9 0 1 0 0 0 1 0 0 0 1 0 4.5 196 3.5 2 1.5
9 0 1 0 0 0 1 0 0 0 1 0 -3 62.5 3.5 1.5 2
9 0 1 0 0 0 1 0 0 0 1 -1 47 79.5 3.5 1.5 2
9 0 1 0 0 0 1 0 0 0 1 -4.5 -3.5 187 1 7 1.5
9 0 1 0 0 0 1 0 0 0 1 -6.5 51 187.5 1 3.5 3
9 0 1 0 0 0 1 0 0 0 1 -8 77 134.5 0.5 1.5 14
9 0 1 0 0 0 1 0 0 0 1 0 47 95 4.5 1.5 1.5
9 0 1 0 0 0 1 0 0 0 1 0 -6 58 4.5 1.5 1.5
9 0 1 0 0 0 1 0 0 0 1 7.5 44.5 86.5 1 5 2
9 0 1 0 0 0 1 0 0 0 1 4.5 23 67.5 2 2.5 2
9 0 1 0 0 0 1 0 0 0 1 -0.5 -18.5 168 2 2 2.5
9 0 1 0 0 0 1 0 0 0 1 0 -27.5 136.5 2.5 2 2
9 0 1 0 0 0 1 0 0 0 1 -4.5 -9.5 183 1 4 2.5
9 0 1 0 0 0 1 0 0 0 1 -5.5 63 97.5 2 2.5 2
9 0 1 0 0 0 1 0 0 0 1 -7.5 69 109.5 1 2.5 4
9 0 1 0 0 0 1 0 0 0 1 5.5 10 41 1 0.5 19.5
9 0 1 0 0 0 1 0 0 0 1 2 4 117.5 0.5 19.5 1
9 0 1 0 0 0 1 0 0 0 1 -4.5 6 114 1 6.5 1.5
9 0 1 0 0 0 1 0 0 0 1 0 69 129 2.5 0.5 7.5
9 0 1 0 0 0 1 0 0 0 1 -1 12 153 2.5 2.5 1.5
9 0 1 0 0 0 1 0 0 0 1 8.5 31 77.5 1 4.5 2
9 0 1 0 0 0 1 0 0 0 1 8 39.5 83 1.5 4 1.5
9 0 1 0 0 0 1 0 0 0 1 6.5 47 189.5 1 4.5 2
9 0 1 0 0 0 1 0 0 0 1 6 64 175.5 1.5 1.5 4
9 0 1 0 0 0 1 0 0 0 1 5 74.5 124 1.5 4 1.5
9 0 1 0 0 0 1 0 0 0 1 -0.5 55.5 85 3 2 1.5
9 0 1 0 0 0 1 0 0 0 1 -0.5 22 63.5 3 1.5 2
9 0 1 0 0 0 1 0 0 0 1 -5.5 63 176.5 1 1.5 6
9 0 1 0 0 0 1 0 0 0 1 -6.5 57.5 181.5 1 3 3
9 0 1 0 0 0 1 0 0 0 1 -7 56.5 95 0.5 4 4.5
9 0 1 0 0 0 1 0 0 0 1 -6 23.5 68.5 1.5 3 2
9 0 1 0 0 0 1 0 0 0 1 -7 38.5 79.5 1.5 3 2
9 0 1 0 0 0 1 0 0 0 1 -3.5 34.5 78 6 1 1.5
9 0 1 0 0 0 1 0 0 0 1 0 64.5 164 3.5 1 2.5
9 0 1 0 0 0 1 0 0 0 1 0 36.5 151 3.5 1 2.5
9 0 1 0 0 0 1 0 0 0 1 -5 3.5 191 0.5 7 2.5
9 0 1 0 0 0 1 0 0 0 1 7.5 51 90 1 5.5 1.5
9 0 1 0 0 0 1 0 0 0 1 0 41.5 142 1.5 1 5.5
9 0 1 0 0 0 1 0 0 0 1 0 6 109.5 1.5 5.5 1
9 0 1 0 0 0 1 0 0 0 1 -3 -9 118.5 1.5 5.5 1
9 0 1 0 0 0 1 0 0 0 1 4.5 72 141.5 1 0.5 16
9 0 1 0 0 0 1 0 0 0 1 -6.5 74.5 157.5 1 2 4
9 0 1 0 0 0 1 0 0 0 1 3 77 122 0.5 4.5 3.5
9 0 1 0 0 0 1 0 0 0 1 4 67 101 1.5 3.5 1.5
9 0 1 0 0 0 1 0 0 0 1 4 14 65 1.5 1.5 3.5
9 0 1 0 0 0 1 0 0 0 1 0 -12 32 1.5 0.5 10.5
9 0 1 0 0 0 1 0 0 0 1 0 32 128 3.5 1.5 1.5
9 0 1 0 0 0 1 0 0 0 1 0 28 122 3.5 4.5 0.5
9 0 1 0 0 0 1 0 0 0 1 0 -11 123 3.5 1.5 1.5
9 0 1 0 0 0 1 0 0 0 1 0 -15 184 3.5 1.5 1.5
9 0 1 0 0 0 1 0 0 0 1 -1 62 92 3.5 1.5 1.5
9 0 1 0 0 0 1 0 0 0 1 9.5 10.5 65 1 3 2.5
9 0 1 0 0 0 1 0 0 0 1 7 6 31.5 0.5 1.5 10
9 0 1 0 0 0 1 0 0 0 1 5.5 -13.5 180 1 3 2.5
9 0 1 0 0 0 1 0 0 0 1 4 0.5 187.5 1.5 5 1
9 0 1 0 0 0 1 0 0 0 1 3 -10.5 179 1.5 2 2.5
9 0 1 0 0 0 1 0 0 0 1 0 13.5 112 2.5 2 1.5
9 0 1 0 0 0 1 0 0 0 1 0 -21 124.5 2.5 1.5 2
9 0 1 0 0 0 1 0 0 0 1 0 -24 173.5 2.5 1.5 2
9 0 1 0 0 0 1 0 0 0 1 -6.5 60.5 102 1 3 2.5
9 0 1 0 0 0 1 0 0 0 1 -6 7 31.5 1.5 0.5 10
9 0 1 0 0 0 1 0 0 0 1 -8.5 30 76.5 1 2.5 3
9 0 1 0 0 0 1 0 0 0 1 -9.5 10.5 65 1 3 2.5
9 0 1 0 0 0 1 0 0 0 1 7.5 73.5 118 1 2 3.5
9 0 1 0 0 0 1 0 0 0 1 6.5 53.5 186 1 2 3.5
9 0 1 0 0 0 1 0 0 0 1 0 78.5 113.5 3.5 1 2
9 0 1 0 0 0 1 0 0 0 1 0 78.5 161.5 3.5 1 2
9 0 1 0 0 0 1 0 0 0 1 0 69.5 98.5 3.5 2 1
9 0 1 0 0 0 1 0 0 0 1 0 42.5 75.5 3.5 2 1
9 0 1 0 0 0 1 0 0 0 1 4 40.5 77.5 1.5 5 1
9 0 1 0 0 0 1 0 0 0 1 0 20.5 80.5 3.5 2 1
9 0 1 0 0 0 1 0 0 0 1 0 13.5 76.5 3.5 2 1
9 0 1 0 0 0 1 0 0 0 1 -5 81.5 135.5 0.5 1 14
9 0 1 0 0 0 1 0 0 0 1 -4.5 68.5 117 1 2 3.5
9 0 1 0 0 0 1 0 0 0 1 -6 43.5 191 0.5 4 3.5
9 0 1 0 0 0 1 0 0 0 1 -5.5 -15 178.5 1 3.5 2
9 0 1 0 0 0 1 0 0 0 1 4 59.5 92 1.5 3 1.5
9 0 1 0 0 0 1 0 0 0 1 -3 22.5 157 0.5 9 1.5
9 0 1 0 0 0 1 0 0 0 1 0 3 69.5 4.5 1.5 1
9 0 1 0 0 0 1 0 0 0 1 0 1 67.5 4.5 1.5 1
9 0 1 0 0 0 1 0 0 0 1 -4.5 74 111 1 1.5 4.5
9 0 1 0 0 0 1 0 0 0 1 -5.5 17 73 1 1.5 4.5
9 0 1 0 0 0 1 0 0 0 1 7 79.5 134.5 0.5 1 13
9 0 1 0 0 0 1 0 0 0 1 5.5 81.5 139 1 1 6.5
9 0 1 0 0 0 1 0 0 0 1 5.5 32 191.5 1 6.5 1
9 0 1 0 0 0 1 0 0 0 1 3 50.5 87 0.5 2 6.5
9 0 1 0 0 0 1 0 0 0 1 0 23 154 1.5 8.5 0.5
9 0 1 0 0 0 1 0 0 0 1 4.5 26 199 1 12.5 0.5
9 0 1 0 0 0 1 0 0 0 1 2.5 37 134 1 2.5 2.5
9 0 1 0 0 0 1 0 0 0 1 0 36 71.5 2.5 2.5 1
9 0 1 0 0 0 1 0 0 0 1 0 -2 183.5 2.5 2.5 1
9 0 1 0 0 0 1 0 0 0 1 0 -4 112.5 2.5 2.5 1
9 0 1 0 0 0 1 0 0 0 1 0 -27.5 168 2.5 1 2.5
9 0 1 0 0 0 1 0 0 0 1 -4.5 26 199 1 12.5 0.5
9 0 1 0 0 0 1 0 0 0 1 8 8 46 0.5 0.5 24.5
9 0 1 0 0 0 1 0 0 0 1 0 -10 49 3.5 0.5 3.5
9 0 1 0 0 0 1 0 0 0 1 -8 8 46 0.5 0.5 24.5
9 0 1 0 0 0 1 0 0 0 1 8.5 18.5 68.5 1 3 2
9 0 1 0 0 0 1 0 0 0 1 6.5 74.5 158.5 1 2 3
9 0 1 0 0 0 1 0 0 0 1 6.5 65.5 100.5 1 3 2
9 0 1 0 0 0 1 0 0 0 1 3.5 -7.5 118 1 4 1.5
9 0 1 0 0 0 1 0 0 0 1 2.5 18.5 115.5 1 6 1
9 0 1 0 0 0 1 0 0 0 1 -0.5 23.5 116 2 2 1.5
9 0 1 0 0 0 1 0 0 0 1 -0.5 74.5 105.5 3 1 2
9 0 1 0 0 0 1 0 0 0 1 -0.5 13.5 56.5 3 1 2
9 0 1 0 0 0 1 0 0 0 1 -1.5 -7.5 189 3 4 0.5
9 0 1 0 0 0 1 0 0 0 1 -5 49.5 93.5 1.5 1 4
9 0 1 0 0 0 1 0 0 0 1 10 -5.5 33 0.5 1 11.5
9 0 1 0 0 0 1 0 0 0 1 -5.5 27 198 1 11.5 0.5
9 0 1 0 0 0 1 0 0 0 1 -10 -5.5 33 0.5 1 11.5
9 0 1 0 0 0 1 0 0 0 1 6 9 193 0.5 4.5 2.5
9 0 1 0 0 0 1 0 0 0 1 5 80 123 1.5 1.5 2.5
9 0 1 0 0 0 1 0 0 0 1 5 77.5 118.5 1.5 1 4
9 0 1 0 0 0 1 0 0 0 1 3 18 66 0.5 2.5 4.5
9 0 1 0 0 0 1 0 0 0 1 0 36 187 2.5 4.5 0.5
9 0 1 0 0 0 1 0 0 0 1 0 24 202 2.5 4.5 0.5
9 0 1 0 0 0 1 0 0 0 1 8.5 36 80.5 1 5.5 1
9 0 1 0 0 0 1 0 0 0 1 3.5 22 157.5 1 5.5 1
9 0 1 0 0 0 1 0 0 0 1 10 5 43 0.5 0.5 21.5
9 0 1 0 0 0 1 0 0 0 1 12 0.5 32 0.5 1 10.5
9 0 1 0 0 0 1 0 0 0 1 4 38 140.5 0.5 1.5 7
9 0 1 0 0 0 1 0 0 0 1 2.5 17 189 1 10.5 0.5
9 0 1 0 0 0 1 0 0 0 1 0 76.5 166 3.5 1 1.5
9 0 1 0 0 0 1 0 0 0 1 0 63 184.5 3.5 1.5 1
9 0 1 0 0 0 1 0 0 0 1 0 57 190.5 3.5 1.5 1
9 0 1 0 0 0 1 0 0 0 1 0 30 67.5 3.5 1.5 1
9 0 1 0 0 0 1 0 0 0 1 0 29 85.5 3.5 1.5 1
9 0 1 0 0 0 1 0 0 0 1 0 26 83.5 3.5 1.5 1
9 0 1 0 0 0 1 0 0 0 1 -2.5 17 189 1 10.5 0.5
9 0 1 0 0 0 1 0 0 0 1 -4 38 140.5 0.5 1.5 7
9 0 1 0 0 0 1 0 0 0 1 -5 -19 173.5 0.5 3.5 3
9 0 1 0 0 0 1 0 0 0 1 -5.5 11 64 1 0.5 10.5
9 0 1 0 0 0 1 0 0 0 1 -12 0.5 32 0.5 1 10.5
9 0 1 0 0 0 1 0 0 0 1 8.5 2.5 60 1 2 2.5
9 0 1 0 0 0 1 0 0 0 1 6.5 60.5 180 1 2 2.5
9 0 1 0 0 0 1 0 0 0 1 5.5 7 31.5 1 0.5 10
9 0 1 0 0 0 1 0 0 0 1 5.5 -7 31.5 1 0.5 10
9 0 1 0 0 0 1 0 0 0 1 5.5 -18.5 174 1 2 2.5
9 0 1 0 0 0 1 0 0 0 1 4.5 70.5 152.5 1 1 5
9 0 1 0 0 0 1 0 0 0 1 4.5 75.5 113 2 1 2.5
9 0 1 0 0 0 1 0 0 0 1 4.5 63.5 109 2 1 2.5
9 0 1 0 0 0 1 0 0 0 1 4.5 21 78.5 2 2.5 1
9 0 1 0 0 0 1 0 0 0 1 0 8.5 187 2.5 4 0.5
9 0 1 0 0 0 1 0 0 0 1 0 0.5 195.5 2.5 2 1
9 0 1 0 0 0 1 0 0 0 1 -2.5 34.5 129.5 1 1 5
9 0 1 0 0 0 1 0 0 0 1 -2.5 20.5 118.5 1 5 1
9 0 1 0 0 0 1 0 0 0 1 -0.5 -23 136.5 5 0.5 2
9 0 1 0 0 0 1 0 0 0 1 -5.5 -7 31.5 1 0.5 10
9 0 1 0 0 0 1 0 0 0 1 -7 70.5 164.5 0.5 2 5
9 0 1 0 0 0 1 0 0 0 1 -5.5 66 100.5 2 2.5 1
9 0 1 0 0 0 1 0 0 0 1 -7 5.5 31.5 0.5 1 10
9 0 1 0 0 0 1 0 0 0 1 -7.5 66 103.5 1 2.5 2
9 0 1 0 0 0 1 0 0 0 1 -7.5 33 81.5 1 2.5 2
9 0 1 0 0 0 1 0 0 0 1 -8.5 50.5 89 1 2 2.5
9 0 1 0 0 0 1 0 0 0 1 -8.5 -1.5 55 1 2 2.5
9 0 1 0 0 0 1 0 0 0 1 -9.5 16 68.5 1 2.5 2
9 0 1 0 0 0 1 0 0 0 1 5 6 114 0.5 6.5 1.5
9 0 1 0 0 0 1 0 0 0 1 -6 27 79 1.5 6.5 0.5
9 0 1 0 0 0 1 0 0 0 1 7.5 -5.5 51 1 1 4.5
9 0 1 0 0 0 1 0 0 0 1 6.5 73 111.5 1 1.5 3
9 0 1 0 0 0 1 0 0 0 1 6.5 66 109.5 1 1.5 3
9 0 1 0 0 0 1 0 0 0 1 7 57 182.5 1.5 1.5 2
9 0 1 0 0 0 1 0 0 0 1 4 72 104.5 1.5 1.5 2
9 0 1 0 0 0 1 0 0 0 1 3.5 -30 151.5 1 0.5 9
9 0 1 0 0 0 1 0 0 0 1 0 39.5 133.5 1.5 1 3
9 0 1 0 0 0 1 0 0 0 1 0 12 27.5 1.5 0.5 6
9 0 1 0 0 0 1 0 0 0 1 0 -32 151.5 1.5 0.5 6
9 0 1 0 0 0 1 0 0 0 1 -0.5 -12 116 2 1.5 1.5
9 0 1 0 0 0 1 0 0 0 1 -0.5 -13 174 2 1.5 1.5
9 0 1 0 0 0 1 0 0 0 1 -0.5 81 118.5 3 1.5 1
9 0 1 0 0 0 1 0 0 0 1 -2.5 34.5 152 1 1 4.5
9 0 1 0 0 0 1 0 0 0 1 0 12 54.5 4.5 0.5 2
9 0 1 0 0 0 1 0 0 0 1 0 8.5 73.5 4.5 1 1
9 0 1 0 0 0 1 0 0 0 1 -3.5 -30 151.5 1 0.5 9
9 0 1 0 0 0 1 0 0 0 1 -4 -20 168.5 1.5 1.5 2
9 0 1 0 0 0 1 0 0 0 1 -6 75 123.5 0.5 4.5 2
9 0 1 0 0 0 1 0 0 0 1 -5 55.5 88 1.5 2 1.5
9 0 1 0 0 0 1 0 0 0 1 -7 75.5 150.5 0.5 3 3
9 0 1 0 0 0 1 0 0 0 1 -6 36.5 75.5 1.5 3 1
9 0 1 0 0 0 1 0 0 0 1 -8 60.5 99.5 0.5 3 3
9 0 1 0 0 0 1 0 0 0 1 -7.5 -5.5 51 1 1 4.5
9 0 1 0 0 0 1 0 0 0 1 0 83 123 3.5 0.5 2.5
9 0 1 0 0 0 1 0 0 0 1 -8 74.5 123 0.5 1 8.5
9 0 1 0 0 0 1 0 0 0 1 6 -1 189 0.5 5.5 1.5
9 0 1 0 0 0 1 0 0 0 1 -6 -1 189 0.5 5.5 1.5
9 0 1 0 0 0 1 0 0 0 1 7 31.5 81.5 0.5 4 2
9 0 1 0 0 0 1 0 0 0 1 6.5 56.5 99.5 1 2 2
9 0 1 0 0 0 1 0 0 0 1 6.5 42.5 192.5 1 4 1
9 0 1 0 0 0 1 0 0 0 1 6.5 37.5 76.5 1 2 2
9 0 1 0 0 0 1 0 0 0 1 4 38 75 1.5 2.5 1.5
9 0 1 0 0 0 1 0 0 0 1 6.5 0.5 62.5 1 2 2
9 0 1 0 0 0 1 0 0 0 1 4.5 49.5 95.5 2 1 2
9 0 1 0 0 0 1 0 0 0 1 3.5 20.5 117.5 1 4 1
9 0 1 0 0 0 1 0 0 0 1 2.5 26 120.5 1 4.5 1
9 0 1 0 0 0 1 0 0 0 1 3.5 -12.5 120.5 1 4 1
9 0 1 0 0 0 1 0 0 0 1 -4.5 71.5 147.5 1 1 4
9 0 1 0 0 0 1 0 0 0 1 -6 6.5 192.5 0.5 4 2
9 0 1 0 0 0 1 0 0 0 1 -7 66.5 171.5 0.5 2 4
9 0 1 0 0 0 1 0 0 0 1 -6.5 0.5 62.5 1 2 2
9 0 1 0 0 0 1 0 0 0 1 -8 55.5 94.5 0.5 4 2
9 0 1 0 0 0 1 0 0 0 1 -9 39.5 82.5 0.5 4 2
9 0 1 0 0 0 1 0 0 0 1 8 65 103.5 0.5 2.5 3
9 0 1 0 0 0 1 0 0 0 1 8.5 -3 53 1 1.5 2.5
9 0 1 0 0 0 1 0 0 0 1 6.5 14 73 1 2.5 1.5
9 0 1 0 0 0 1 0 0 0 1 5.5 68 163 1 1.5 2.5
9 0 1 0 0 0 1 0 0 0 1 5 8.5 195 0.5 5 1.5
9 0 1 0 0 0 1 0 0 0 1 5.5 -10 29 1 0.5 7.5
9 0 1 0 0 0 1 0 0 0 1 5.5 -9 185 1 2.5 1.5
9 0 1 0 0 0 1 0 0 0 1 5.5 -21 170 1 2.5 1.5
9 0 1 0 0 0 1 0 0 0 1 4.5 71 133 1 0.5 7.5
9 0 1 0 0 0 1 0 0 0 1 4.5 71 172 1 1.5 2.5
9 0 1 0 0 0 1 0 0 0 1 4.5 42 188 1 2.5 1.5
9 0 1 0 0 0 1 0 0 0 1 4 6 112.5 0.5 7.5 1
9 0 1 0 0 0 1 0 0 0 1 5 36.5 80 2.5 1 1.5
9 0 1 0 0 0 1 0 0 0 1 4 13.5 59 1.5 1 2.5
9 0 1 0 0 0 1 0 0 0 1 4 -2 185.5 1.5 2.5 1
9 0 1 0 0 0 1 0 0 0 1 3 34.5 129 1.5 1 2.5
9 0 1 0 0 0 1 0 0 0 1 3 34.5 152 1.5 1 2.5
9 0 1 0 0 0 1 0 0 0 1 2.5 12 153 1 2.5 1.5
9 0 1 0 0 0 1 0 0 0 1 3 -12.5 185 1.5 1 2.5
9 0 1 0 0 0 1 0 0 0 1 0 21.5 161 1.5 5 0.5
9 0 1 0 0 0 1 0 0 0 1 0 81 157.5 2.5 0.5 3
9 0 1 0 0 0 1 0 0 0 1 0 73.5 173 2.5 1 1.5
9 0 1 0 0 0 1 0 0 0 1 0 67 155.5 2.5 0.5 3
9 0 1 0 0 0 1 0 0 0 1 0 61.5 111 2.5 1 1.5
9 0 1 0 0 0 1 0 0 0 1 0 60.5 170 2.5 1 1.5
9 0 1 0 0 0 1 0 0 0 1 0 54.5 176 2.5 1 1.5
9 0 1 0 0 0 1 0 0 0 1 0 53 193.5 2.5 1.5 1
9 0 1 0 0 0 1 0 0 0 1 0 50 79.5 2.5 1.5 1
9 0 1 0 0 0 1 0 0 0 1 0 46 182.5 2.5 1.5 1
9 0 1 0 0 0 1 0 0 0 1 0 47.5 196 2.5 3 0.5
9 0 1 0 0 0 1 0 0 0 1 0 41 92.5 2.5 1.5 1
9 0 1 0 0 0 1 0 0 0 1 0 38.5 150 2.5 1 1.5
9 0 1 0 0 0 1 0 0 0 1 0 36.5 128 2.5 1 1.5
9 0 1 0 0 0 1 0 0 0 1 0 34 88.5 2.5 1.5 1
9 0 1 0 0 0 1 0 0 0 1 0 26.5 124 2.5 1 1.5
9 0 1 0 0 0 1 0 0 0 1 0 25 64.5 2.5 1.5 1
9 0 1 0 0 0 1 0 0 0 1 0 11.5 156 2.5 1 1.5
9 0 1 0 0 0 1 0 0 0 1 0 -14.5 128 2.5 1 1.5
9 0 1 0 0 0 1 0 0 0 1 0 -17.5 133 2.5 1 1.5
9 0 1 0 0 0 1 0 0 0 1 0 -19.5 136 2.5 1 1.5
9 0 1 0 0 0 1 0 0 0 1 0 -20 162.5 2.5 0.5 3
9 0 1 0 0 0 1 0 0 0 1 0 -24.5 129 2.5 1 1.5
9 0 1 0 0 0 1 0 0 0 1 0 -26.5 133 2.5 1 1.5
9 0 1 0 0 0 1 0 0 0 1 0 -30 163.5 2.5 0.5 3
9 0 1 0 0 0 1 0 0 0 1 -4 3.5 116 0.5 15 0.5
9 0 1 0 0 0 1 0 0 0 1 -4.5 42 188 1 2.5 1.5
9 0 1 0 0 0 1 0 0 0 1 -5.5 -10 29 1 0.5 7.5
9 0 1 0 0 0 1 0 0 0 1 -7.5 16 73 1 2.5 1.5
9 0 1 0 0 0 1 0 0 0 1 -7.5 12 61 1 2.5 1.5
9 0 1 0 0 0 1 0 0 0 1 6 -26.5 154.5 0.5 1 7
9 0 1 0 0 0 1 0 0 0 1 5 10.5 67.5 0.5 1 7
9 0 1 0 0 0 1 0 0 0 1 0 80 115.5 3.5 0.5 2
9 0 1 0 0 0 1 0 0 0 1 0 68.5 96.5 3.5 1 1
9 0 1 0 0 0 1 0 0 0 1 0 65 117.5 3.5 0.5 2
9 0 1 0 0 0 1 0 0 0 1 0 61.5 89.5 3.5 1 1
9 0 1 0 0 0 1 0 0 0 1 0 57.5 106.5 3.5 1 1
9 0 1 0 0 0 1 0 0 0 1 0 55.5 104.5 3.5 1 1
9 0 1 0 0 0 1 0 0 0 1 0 51.5 100.5 3.5 1 1
9 0 1 0 0 0 1 0 0 0 1 0 8.5 199 3.5 2 0.5
9 0 1 0 0 0 1 0 0 0 1 0 -5 61.5 3.5 0.5 2
9 0 1 0 0 0 1 0 0 0 1 -5 31.5 190.5 0.5 7 1
9 0 1 0 0 0 1 0 0 0 1 -6 -26.5 154.5 0.5 1 7
9 0 1 0 0 0 1 0 0 0 1 -7 62.5 177 0.5 2 3.5
9 0 1 0 0 0 1 0 0 0 1 -7 49 91.5 0.5 3.5 2
9 0 1 0 0 0 1 0 0 0 1 5 57 187 1.5 1.5 1.5
9 0 1 0 0 0 1 0 0 0 1 3 -16 172 1.5 1.5 1.5
9 0 1 0 0 0 1 0 0 0 1 0 27 118 1.5 1.5 1.5
9 0 1 0 0 0 1 0 0 0 1 -5 62 107 1.5 1.5 1.5
9 0 1 0 0 0 1 0 0 0 1 -5 57 187 1.5 1.5 1.5
9 0 1 0 0 0 1 0 0 0 1 8 -8 34.5 0.5 0.5 13
9 0 1 0 0 0 1 0 0 0 1 -6 81.5 139 0.5 1 6.5
9 0 1 0 0 0 1 0 0 0 1 -8 -8 34.5 0.5 0.5 13
9 0 1 0 0 0 1 0 0 0 1 8 60 100 0.5 2.5 2.5
9 0 1 0 0 0 1 0 0 0 1 6 55 89 0.5 2.5 2.5
9 0 1 0 0 0 1 0 0 0 1 0 83 150 2.5 0.5 2.5
9 0 1 0 0 0 1 0 0 0 1 0 -6 193 2.5 2.5 0.5
9 0 1 0 0 0 1 0 0 0 1 -6 -9 184 0.5 2.5 2.5
9 0 1 0 0 0 1 0 0 0 1 -7 45 190 0.5 2.5 2.5
9 0 1 0 0 0 1 0 0 0 1 -11 -4 34 0.5 0.5 12.5
9 0 1 0 0 0 1 0 0 0 1 9 49.5 88.5 0.5 3 2
9 0 1 0 0 0 1 0 0 0 1 7 26.5 70.5 0.5 3 2
9 0 1 0 0 0 1 0 0 0 1 6.5 49.5 186 1 2 1.5
9 0 1 0 0 0 1 0 0 0 1 6 45.5 90.5 0.5 3 2
9 0 1 0 0 0 1 0 0 0 1 5.5 67 176.5 1 1.5 2
9 0 1 0 0 0 1 0 0 0 1 5.5 19.5 192 1 6 0.5
9 0 1 0 0 0 1 0 0 0 1 6 7.5 69.5 1.5 2 1
9 0 1 0 0 0 1 0 0 0 1 5 73.5 166.5 1.5 1 2
9 0 1 0 0 0 1 0 0 0 1 4.5 63 181.5 1 1.5 2
9 0 1 0 0 0 1 0 0 0 1 5 47.5 80.5 1.5 2 1
9 0 1 0 0 0 1 0 0 0 1 4.5 46.5 194 1 2 1.5
9 0 1 0 0 0 1 0 0 0 1 5 40.5 89.5 1.5 2 1
9 0 1 0 0 0 1 0 0 0 1 3.5 68.5 155.5 1 1 3
9 0 1 0 0 0 1 0 0 0 1 4 16 74.5 1.5 0.5 4
9 0 1 0 0 0 1 0 0 0 1 0 32.5 131.5 1.5 1 2
9 0 1 0 0 0 1 0 0 0 1 0 17.5 112.5 1.5 2 1
9 0 1 0 0 0 1 0 0 0 1 0 16.5 159.5 1.5 2 1
9 0 1 0 0 0 1 0 0 0 1 -0.5 -8 178.5 2 1.5 1
9 0 1 0 0 0 1 0 0 0 1 -0.5 19.5 60.5 3 1 1
9 0 1 0 0 0 1 0 0 0 1 -2.5 10.5 188 1 6 0.5
9 0 1 0 0 0 1 0 0 0 1 -3.5 68.5 155.5 1 1 3
9 0 1 0 0 0 1 0 0 0 1 -4.5 74 166.5 1 1.5 2
9 0 1 0 0 0 1 0 0 0 1 -4.5 47.5 193.5 1 3 1
9 0 1 0 0 0 1 0 0 0 1 -5.5 68.5 161.5 1 1 3
9 0 1 0 0 0 1 0 0 0 1 -5 62.5 94.5 1.5 2 1
9 0 1 0 0 0 1 0 0 0 1 -6 45.5 90.5 0.5 3 2
9 0 1 0 0 0 1 0 0 0 1 -5 40.5 89.5 1.5 2 1
9 0 1 0 0 0 1 0 0 0 1 -5.5 7.5 70 1 2 1.5
9 0 1 0 0 0 1 0 0 0 1 -6.5 44.5 80.5 1 3 1
9 0 1 0 0 0 1 0 0 0 1 -7.5 45.5 88.5 1 3 1
9 0 1 0 0 0 1 0 0 0 1 -8.5 20.5 69 1 2 1.5
9 0 1 0 0 0 1 0 0 0 1 -8.5 4 62.5 1 1.5 2
9 0 1 0 0 0 1 0 0 0 1 4.5 24 200 1 5.5 0.5
9 0 1 0 0 0 1 0 0 0 1 4 -22 166.5 0.5 0.5 11
9 0 1 0 0 0 1 0 0 0 1 3 16 155.5 0.5 5.5 1
9 0 1 0 0 0 1 0 0 0 1 2.5 21 119 1 5.5 0.5
9 0 1 0 0 0 1 0 0 0 1 2.5 11 188 1 5.5 0.5
9 0 1 0 0 0 1 0 0 0 1 -4 22 157.5 0.5 5.5 1
9 0 1 0 0 0 1 0 0 0 1 -4 25.5 200 0.5 11 0.5
9 0 1 0 0 0 1 0 0 0 1 -4 -22 166.5 0.5 0.5 11
9 0 1 0 0 0 1 0 0 0 1 -8 72.5 116 0.5 1 5.5
9 0 1 0 0 0 1 0 0 0 1 5 -24 167 0.5 3.5 1.5
9 0 1 0 0 0 1 0 0 0 1 3 76 117 0.5 3.5 1.5
9 0 1 0 0 0 1 0 0 0 1 4 29 69 1.5 3.5 0.5
9 0 1 0 0 0 1 0 0 0 1 0 68 123 3.5 0.5 1.5
9 0 1 0 0 0 1 0 0 0 1 0 68 180 3.5 1.5 0.5
9 0 1 0 0 0 1 0 0 0 1 0 62 186 3.5 1.5 0.5
9 0 1 0 0 0 1 0 0 0 1 0 44 94 3.5 1.5 0.5
9 0 1 0 0 0 1 0 0 0 1 0 10 75 3.5 1.5 0.5
9 0 1 0 0 0 1 0 0 0 1 -5 7 195 0.5 3.5 1.5
9 0 1 0 0 0 1 0 0 0 1 -9 45 86 0.5 3.5 1.5
9 0 1 0 0 0 1 0 0 0 1 10 16 68.5 0.5 2.5 2
9 0 1 0 0 0 1 0 0 0 1 9 44.5 85.5 0.5 5 1
9 0 1 0 0 0 1 0 0 0 1 8 75 131.5 0.5 0.5 10
9 0 1 0 0 0 1 0 0 0 1 8 74.5 154.5 0.5 1 5
9 0 1 0 0 0 1 0 0 0 1 8.5 30 74.5 1 2.5 1
9 0 1 0 0 0 1 0 0 0 1 7 51.5 86 0.5 2 2.5
9 0 1 0 0 0 1 0 0 0 1 6 74.5 154.5 0.5 5 1
9 0 1 0 0 0 1 0 0 0 1 6 -24.5 163.5 0.5 1 5
9 0 1 0 0 0 1 0 0 0 1 5.5 64.5 169 1 1 2.5
9 0 1 0 0 0 1 0 0 0 1 5 -5.5 186.5 0.5 1 5
9 0 1 0 0 0 1 0 0 0 1 4.5 67.5 118 1 1 2.5
9 0 1 0 0 0 1 0 0 0 1 3.5 57.5 88 1 1 2.5
9 0 1 0 0 0 1 0 0 0 1 3 6.5 117 0.5 10 0.5
9 0 1 0 0 0 1 0 0 0 1 2.5 41 141.5 1 0.5 5
9 0 1 0 0 0 1 0 0 0 1 0 69 146.5 2.5 0.5 2
9 0 1 0 0 0 1 0 0 0 1 0 64.5 92.5 2.5 1 1
9 0 1 0 0 0 1 0 0 0 1 0 63 164.5 2.5 0.5 2
9 0 1 0 0 0 1 0 0 0 1 0 56.5 173.5 2.5 1 1
9 0 1 0 0 0 1 0 0 0 1 0 54.5 82.5 2.5 1 1
9 0 1 0 0 0 1 0 0 0 1 0 50.5 179.5 2.5 1 1
9 0 1 0 0 0 1 0 0 0 1 0 47.5 97.5 2.5 1 1
9 0 1 0 0 0 1 0 0 0 1 0 15.5 57.5 2.5 1 1
9 0 1 0 0 0 1 0 0 0 1 0 -4.5 120 2.5 2 0.5
9 0 1 0 0 0 1 0 0 0 1 0 -8.5 122.5 2.5 1 1
9 0 1 0 0 0 1 0 0 0 1 0 -9.5 190.5 2.5 1 1
9 0 1 0 0 0 1 0 0 0 1 0 -17.5 183.5 2.5 1 1
9 0 1 0 0 0 1 0 0 0 1 0 -20.5 180.5 2.5 1 1
9 0 1 0 0 0 1 0 0 0 1 0 -30 139.5 2.5 0.5 2
9 0 1 0 0 0 1 0 0 0 1 -2.5 41 141.5 1 0.5 5
9 0 1 0 0 0 1 0 0 0 1 -4.5 76.5 113 1 1 2.5
9 0 1 0 0 0 1 0 0 0 1 -5 53.5 181 0.5 2 2.5
9 0 1 0 0 0 1 0 0 0 1 -5 15.5 190.5 0.5 5 1
9 0 1 0 0 0 1 0 0 0 1 -5 -23.5 168 0.5 2 2.5
9 0 1 0 0 0 1 0 0 0 1 -6 -18.5 174 0.5 2 2.5
9 0 1 0 0 0 1 0 0 0 1 -6 -24.5 163.5 0.5 1 5
9 0 1 0 0 0 1 0 0 0 1 -6.5 73.5 111 1 1 2.5
9 0 1 0 0 0 1 0 0 0 1 -8 74.5 154.5 0.5 1 5
9 0 1 0 0 0 1 0 0 0 1 -8.5 25 76.5 1 2.5 1
9 0 1 0 0 0 1 0 0 0 1 -2 6 118 0.5 9.5 0.5
9 0 1 0 0 0 1 0 0 0 1 11 1.5 52 0.5 3 1.5
9 0 1 0 0 0 1 0 0 0 1 9 14.5 68 0.5 1 4.5
9 0 1 0 0 0 1 0 0 0 1 9.5 9 61 1 1.5 1.5
9 0 1 0 0 0 1 0 0 0 1 8.5 17 72 1 1.5 1.5
9 0 1 0 0 0 1 0 0 0 1 7.5 51 93 1 1.5 1.5
9 0 1 0 0 0 1 0 0 0 1 7.5 46 83 1 1.5 1.5
9 0 1 0 0 0 1 0 0 0 1 7.5 11 59 1 1.5 1.5
9 0 1 0 0 0 1 0 0 0 1 8 9 61.5 0.5 0.5 9
9 0 1 0 0 0 1 0 0 0 1 7 10.5 193 0.5 3 1.5
9 0 1 0 0 0 1 0 0 0 1 6.5 64 97 1 1.5 1.5
9 0 1 0 0 0 1 0 0 0 1 6.5 61 176 1 1.5 1.5
9 0 1 0 0 0 1 0 0 0 1 5.5 54 181 1 1.5 1.5
9 0 1 0 0 0 1 0 0 0 1 6 -8 48.5 1.5 0.5 3
9 0 1 0 0 0 1 0 0 0 1 5.5 -9 182 1 1.5 1.5
9 0 1 0 0 0 1 0 0 0 1 5 -19 127.5 0.5 1.5 3
9 0 1 0 0 0 1 0 0 0 1 5 -23 134.5 0.5 1.5 3
9 0 1 0 0 0 1 0 0 0 1 5 61.5 107 1.5 1 1.5
9 0 1 0 0 0 1 0 0 0 1 4.5 55 101 1 1.5 1.5
9 0 1 0 0 0 1 0 0 0 1 4 15.5 115 0.5 3 1.5
9 0 1 0 0 0 1 0 0 0 1 4 54 84.5 1.5 1.5 1
9 0 1 0 0 0 1 0 0 0 1 4 34 71.5 1.5 1.5 1
9 0 1 0 0 0 1 0 0 0 1 4 21.5 64 1.5 1 1.5
9 0 1 0 0 0 1 0 0 0 1 4 16.5 60 1.5 1 1.5
9 0 1 0 0 0 1 0 0 0 1 3.5 -27 137 1 1.5 1.5
9 0 1 0 0 0 1 0 0 0 1 2.5 17 114 1 4.5 0.5
9 0 1 0 0 0 1 0 0 0 1 3 -7 180.5 1.5 1.5 1
9 0 1 0 0 0 1 0 0 0 1 3 -9 115.5 1.5 1.5 1
9 0 1 0 0 0 1 0 0 0 1 2 -8.5 119 0.5 9 0.5
9 0 1 0 0 0 1 0 0 0 1 0 29 159.5 1.5 1.5 1
9 0 1 0 0 0 1 0 0 0 1 0 11 150.5 1.5 1.5 1
9 0 1 0 0 0 1 0 0 0 1 0 9 153.5 1.5 0.5 3
9 0 1 0 0 0 1 0 0 0 1 -3 26 120.5 0.5 4.5 1
9 0 1 0 0 0 1 0 0 0 1 -3.5 -27 137 1 1.5 1.5
9 0 1 0 0 0 1 0 0 0 1 -4.5 67 98 1 1.5 1.5
9 0 1 0 0 0 1 0 0 0 1 -4.5 55 101 1 1.5 1.5
9 0 1 0 0 0 1 0 0 0 1 -4.5 -7 117 1 4.5 0.5
9 0 1 0 0 0 1 0 0 0 1 -5 -19 127.5 0.5 1.5 3
9 0 1 0 0 0 1 0 0 0 1 -5.5 66 178 1 1.5 1.5
9 0 1 0 0 0 1 0 0 0 1 -5.5 28 69 1 1.5 1.5
9 0 1 0 0 0 1 0 0 0 1 -5.5 14 60 1 1.5 1.5
9 0 1 0 0 0 1 0 0 0 1 -5.5 -8 50 1 0.5 4.5
9 0 1 0 0 0 1 0 0 0 1 -6 35 73.5 1.5 1.5 1
9 0 1 0 0 0 1 0 0 0 1 -6 22 65.5 1.5 1.5 1
9 0 1 0 0 0 1 0 0 0 1 -7 10.5 193 0.5 3 1.5
9 0 1 0 0 0 1 0 0 0 1 -8 9 61.5 0.5 0.5 9
9 0 1 0 0 0 1 0 0 0 1 -9.5 9 61 1 1.5 1.5
9 0 1 0 0 0 1 0 0 0 1 -11 1.5 52 0.5 3 1.5
9 0 1 0 0 0 1 0 0 0 1 10 6.5 61.5 0.5 1 4
9 0 1 0 0 0 1 0 0 0 1 9 56.5 95.5 0.5 2 2
9 0 1 0 0 0 1 0 0 0 1 8.5 24.5 76.5 1 2 1
9 0 1 0 0 0 1 0 0 0 1 7 26.5 197 0.5 8 0.5
9 0 1 0 0 0 1 0 0 0 1 6.5 25.5 80.5 1 2 1
9 0 1 0 0 0 1 0 0 0 1 5.5 33.5 85.5 1 2 1
9 0 1 0 0 0 1 0 0 0 1 5.5 -17.5 178.5 1 1 2
9 0 1 0 0 0 1 0 0 0 1 4.5 67.5 98.5 1 2 1
9 0 1 0 0 0 1 0 0 0 1 4.5 35.5 189 1 4 0.5
9 0 1 0 0 0 1 0 0 0 1 2.5 -21 162.5 1 0.5 4
9 0 1 0 0 0 1 0 0 0 1 0 12 44.5 0.5 0.5 8
9 0 1 0 0 0 1 0 0 0 1 -0.5 -15.5 169.5 2 1 1
9 0 1 0 0 0 1 0 0 0 1 -2 -21 162.5 0.5 0.5 8
9 0 1 0 0 0 1 0 0 0 1 -4 63.5 181.5 0.5 2 2
9 0 1 0 0 0 1 0 0 0 1 -4 21.5 117.5 0.5 2 2
9 0 1 0 0 0 1 0 0 0 1 -4 -12.5 120.5 0.5 4 1
9 0 1 0 0 0 1 0 0 0 1 -4.5 70 124.5 1 0.5 4
9 0 1 0 0 0 1 0 0 0 1 -4.5 70.5 174.5 1 1 2
9 0 1 0 0 0 1 0 0 0 1 -4.5 35.5 189 1 4 0.5
9 0 1 0 0 0 1 0 0 0 1 -4.5 -3.5 184.5 1 2 1
9 0 1 0 0 0 1 0 0 0 1 -4.5 -5.5 190.5 1 2 1
9 0 1 0 0 0 1 0 0 0 1 -5.5 78.5 155.5 1 1 2
9 0 1 0 0 0 1 0 0 0 1 -6 59.5 176.5 0.5 2 2
9 0 1 0 0 0 1 0 0 0 1 -5.5 50.5 82.5 1 2 1
9 0 1 0 0 0 1 0 0 0 1 -5.5 33.5 85.5 1 2 1
9 0 1 0 0 0 1 0 0 0 1 -6.5 77.5 119.5 1 1 2
9 0 1 0 0 0 1 0 0 0 1 -6.5 73.5 163.5 1 1 2
9 0 1 0 0 0 1 0 0 0 1 -6.5 68.5 115.5 1 1 2
9 0 1 0 0 0 1 0 0 0 1 -7 64.5 107.5 0.5 2 2
9 0 1 0 0 0 1 0 0 0 1 -6.5 25.5 80.5 1 2 1
9 0 1 0 0 0 1 0 0 0 1 -7 19.5 66.5 0.5 1 4
9 0 1 0 0 0 1 0 0 0 1 -7 26.5 197 0.5 8 0.5
9 0 1 0 0 0 1 0 0 0 1 -7.5 36.5 83.5 1 1 2
9 0 1 0 0 0 1 0 0 0 1 -9 56.5 95.5 0.5 2 2
9 0 1 0 0 0 1 0 0 0 1 -10 6.5 61.5 0.5 1 4
9 0 1 0 0 0 1 0 0 0 1 10 6 29 0.5 0.5 7.5
9 0 1 0 0 0 1 0 0 0 1 9 53 92 0.5 2.5 1.5
9 0 1 0 0 0 1 0 0 0 1 8 53 186 0.5 2.5 1.5
9 0 1 0 0 0 1 0 0 0 1 6 72 133 0.5 0.5 7.5
9 0 1 0 0 0 1 0 0 0 1 6 41 195 0.5 2.5 1.5
9 0 1 0 0 0 1 0 0 0 1 5 18 62 1.5 2.5 0.5
9 0 1 0 0 0 1 0 0 0 1 3 84 139 0.5 0.5 7.5
9 0 1 0 0 0 1 0 0 0 1 5 22 70 2.5 1.5 0.5
9 0 1 0 0 0 1 0 0 0 1 0 85 143 1.5 0.5 2.5
9 0 1 0 0 0 1 0 0 0 1 0 29 153 1.5 2.5 0.5
9 0 1 0 0 0 1 0 0 0 1 0 80 161 2.5 0.5 1.5
9 0 1 0 0 0 1 0 0 0 1 0 78 165 2.5 0.5 1.5
9 0 1 0 0 0 1 0 0 0 1 0 76 169 2.5 0.5 1.5
9 0 1 0 0 0 1 0 0 0 1 0 74 102 2.5 0.5 1.5
9 0 1 0 0 0 1 0 0 0 1 0 65 160 2.5 0.5 1.5
9 0 1 0 0 0 1 0 0 0 1 0 46 197 2.5 1.5 0.5
9 0 1 0 0 0 1 0 0 0 1 0 43 184 2.5 1.5 0.5
9 0 1 0 0 0 1 0 0 0 1 0 42 199 2.5 1.5 0.5
9 0 1 0 0 0 1 0 0 0 1 0 39 186 2.5 1.5 0.5
9 0 1 0 0 0 1 0 0 0 1 0 36 155 2.5 0.5 1.5
9 0 1 0 0 0 1 0 0 0 1 0 37 201 2.5 1.5 0.5
9 0 1 0 0 0 1 0 0 0 1 0 35 70 2.5 1.5 0.5
9 0 1 0 0 0 1 0 0 0 1 0 33 149 2.5 0.5 1.5
9 0 1 0 0 0 1 0 0 0 1 0 15 201 2.5 1.5 0.5
9 0 1 0 0 0 1 0 0 0 1 0 6 186 2.5 1.5 0.5
9 0 1 0 0 0 1 0 0 0 1 0 5 198 2.5 1.5 0.5
9 0 1 0 0 0 1 0 0 0 1 0 -3 182 2.5 1.5 0.5
9 0 1 0 0 0 1 0 0 0 1 0 -8 113 2.5 1.5 0.5
9 0 1 0 0 0 1 0 0 0 1 0 -11 47 2.5 0.5 1.5
9 0 1 0 0 0 1 0 0 0 1 0 -12 126 2.5 0.5 1.5
9 0 1 0 0 0 1 0 0 0 1 0 -15 186 2.5 1.5 0.5
9 0 1 0 0 0 1 0 0 0 1 0 -23 177 2.5 0.5 1.5
9 0 1 0 0 0 1 0 0 0 1 0 -29 167 2.5 0.5 1.5
9 0 1 0 0 0 1 0 0 0 1 -3 84 139 0.5 0.5 7.5
9 0 1 0 0 0 1 0 0 0 1 -4 51 88 0.5 2.5 1.5
9 0 1 0 0 0 1 0 0 0 1 -4 6 112 0.5 7.5 0.5
9 0 1 0 0 0 1 0 0 0 1 -6 72 133 0.5 0.5 7.5
9 0 1 0 0 0 1 0 0 0 1 -6 52 183 0.5 2.5 1.5
9 0 1 0 0 0 1 0 0 0 1 -6 -21 170 0.5 2.5 1.5
9 0 1 0 0 0 1 0 0 0 1 -8 53 186 0.5 2.5 1.5
9 0 1 0 0 0 1 0 0 0 1 -10 6 29 0.5 0.5 7.5
9 0 1 0 0 0 1 0 0 0 1 12 -1.5 25 0.5 1 3.5
9 0 1 0 0 0 1 0 0 0 1 8 79 137.5 0.5 0.5 7
9 0 1 0 0 0 1 0 0 0 1 7 73 128.5 0.5 0.5 7
9 0 1 0 0 0 1 0 0 0 1 5.5 81 129 1 0.5 3.5
9 0 1 0 0 0 1 0 0 0 1 5 78.5 157 0.5 1 3.5
9 0 1 0 0 0 1 0 0 0 1 5 31.5 190 0.5 7 0.5
9 0 1 0 0 0 1 0 0 0 1 5 17 190.5 0.5 3.5 1
9 0 1 0 0 0 1 0 0 0 1 5.5 11 57 1 0.5 3.5
9 0 1 0 0 0 1 0 0 0 1 5 12 197.5 0.5 3.5 1
9 0 1 0 0 0 1 0 0 0 1 2.5 8 110 1 3.5 0.5
9 0 1 0 0 0 1 0 0 0 1 -2 6.5 110 0.5 7 0.5
9 0 1 0 0 0 1 0 0 0 1 0 78 110.5 3.5 0.5 1
9 0 1 0 0 0 1 0 0 0 1 0 76 106.5 3.5 0.5 1
9 0 1 0 0 0 1 0 0 0 1 0 70.5 178 3.5 1 0.5
9 0 1 0 0 0 1 0 0 0 1 0 64 116.5 3.5 0.5 1
9 0 1 0 0 0 1 0 0 0 1 0 56.5 192 3.5 1 0.5
9 0 1 0 0 0 1 0 0 0 1 0 46.5 77 3.5 1 0.5
9 0 1 0 0 0 1 0 0 0 1 0 45.5 76 3.5 1 0.5
9 0 1 0 0 0 1 0 0 0 1 0 41.5 74 3.5 1 0.5
9 0 1 0 0 0 1 0 0 0 1 0 36 89.5 3.5 0.5 1
9 0 1 0 0 0 1 0 0 0 1 -2.5 35 138 1 0.5 3.5
9 0 1 0 0 0 1 0 0 0 1 0 23.5 83 3.5 1 0.5
9 0 1 0 0 0 1 0 0 0 1 0 21.5 82 3.5 1 0.5
9 0 1 0 0 0 1 0 0 0 1 0 17.5 80 3.5 1 0.5
9 0 1 0 0 0 1 0 0 0 1 0 14.5 78 3.5 1 0.5
9 0 1 0 0 0 1 0 0 0 1 0 6.5 73 3.5 1 0.5
9 0 1 0 0 0 1 0 0 0 1 0 3.5 71 3.5 1 0.5
9 0 1 0 0 0 1 0 0 0 1 0 -2 65.5 3.5 0.5 1
9 0 1 0 0 0 1 0 0 0 1 0 -6 60.5 3.5 0.5 1
9 0 1 0 0 0 1 0 0 0 1 0 -8 56.5 3.5 0.5 1
9 0 1 0 0 0 1 0 0 0 1 -4 -4 114.5 0.5 3.5 1
9 0 1 0 0 0 1 0 0 0 1 -5.5 80 122 1 0.5 3.5
9 0 1 0 0 0 1 0 0 0 1 -6 36 190.5 0.5 3.5 1
9 0 1 0 0 0 1 0 0 0 1 -7 73 128.5 0.5 0.5 7
9 0 1 0 0 0 1 0 0 0 1 -6.5 39 77 1 3.5 0.5
9 0 1 0 0 0 1 0 0 0 1 -7 39 191.5 0.5 3.5 1
9 0 1 0 0 0 1 0 0 0 1 -8 79 137.5 0.5 0.5 7
9 0 1 0 0 0 1 0 0 0 1 -12 -1.5 25 0.5 1 3.5
9 0 1 0 0 0 1 0 0 0 1 4 70 129 0.5 0.5 6.5
9 0 1 0 0 0 1 0 0 0 1 2 35 143 0.5 0.5 6.5
9 0 1 0 0 0 1 0 0 0 1 10 3 59.5 0.5 1.5 2
9 0 1 0 0 0 1 0 0 0 1 9 61 99.5 0.5 1.5 2
9 0 1 0 0 0 1 0 0 0 1 9.5 -4.5 48 1 1 1.5
9 0 1 0 0 0 1 0 0 0 1 8 72.5 160.5 0.5 1 3
9 0 1 0 0 0 1 0 0 0 1 8 69.5 166.5 0.5 1 3
9 0 1 0 0 0 1 0 0 0 1 8 67.5 170.5 0.5 1 3
9 0 1 0 0 0 1 0 0 0 1 8.5 37 78.5 1 1.5 1
9 0 1 0 0 0 1 0 0 0 1 8 23.5 69 0.5 2 1.5
9 0 1 0 0 0 1 0 0 0 1 8.5 17 65.5 1 1.5 1
9 0 1 0 0 0 1 0 0 0 1 8.5 -0.5 59 1 1 1.5
9 0 1 0 0 0 1 0 0 0 1 7 77 119.5 0.5 1.5 2
9 0 1 0 0 0 1 0 0 0 1 7 72.5 152.5 0.5 1 3
9 0 1 0 0 0 1 0 0 0 1 7.5 70.5 117 1 1 1.5
9 0 1 0 0 0 1 0 0 0 1 7.5 38.5 86 1 1 1.5
9 0 1 0 0 0 1 0 0 0 1 7 23.5 67.5 0.5 3 1
9 0 1 0 0 0 1 0 0 0 1 7.5 -7 49.5 1 0.5 3
9 0 1 0 0 0 1 0 0 0 1 6.5 74 162.5 1 1.5 1
9 0 1 0 0 0 1 0 0 0 1 6 71.5 150.5 0.5 1 3
9 0 1 0 0 0 1 0 0 0 1 6.5 59.5 92 1 1 1.5
9 0 1 0 0 0 1 0 0 0 1 6.5 57.5 179 1 1 1.5
9 0 1 0 0 0 1 0 0 0 1 6.5 51.5 96 1 1 1.5
9 0 1 0 0 0 1 0 0 0 1 6.5 41 77.5 1 1.5 1
9 0 1 0 0 0 1 0 0 0 1 6.5 41 190.5 1 1.5 1
9 0 1 0 0 0 1 0 0 0 1 6 2.5 192 0.5 2 1.5
9 0 1 0 0 0 1 0 0 0 1 5.5 61.5 173 1 1 1.5
9 0 1 0 0 0 1 0 0 0 1 5 -3.5 115.5 0.5 3 1
9 0 1 0 0 0 1 0 0 0 1 5 -8.5 117.5 0.5 3 1
9 0 1 0 0 0 1 0 0 0 1 5 -13 121.5 0.5 1.5 2
9 0 1 0 0 0 1 0 0 0 1 5.5 -15.5 176 1 1 1.5
9 0 1 0 0 0 1 0 0 0 1 5 -16 124.5 0.5 1.5 2
9 0 1 0 0 0 1 0 0 0 1 5 -29 152.5 0.5 0.5 6
9 0 1 0 0 0 1 0 0 0 1 4.5 81 150.5 1 0.5 3
9 0 1 0 0 0 1 0 0 0 1 4.5 80 119.5 1 1.5 1
9 0 1 0 0 0 1 0 0 0 1 4.5 50 182.5 1 1.5 1
9 0 1 0 0 0 1 0 0 0 1 4.5 40 197.5 1 1.5 1
9 0 1 0 0 0 1 0 0 0 1 4 31.5 125 0.5 2 1.5
9 0 1 0 0 0 1 0 0 0 1 5 27.5 68 1.5 2 0.5
9 0 1 0 0 0 1 0 0 0 1 4 12.5 189 0.5 6 0.5
9 0 1 0 0 0 1 0 0 0 1 5 -2 62.5 1.5 0.5 2
9 0 1 0 0 0 1 0 0 0 1 4 82 123.5 1.5 0.5 2
9 0 1 0 0 0 1 0 0 0 1 4 77 112.5 1.5 0.5 2
9 0 1 0 0 0 1 0 0 0 1 4 75 108.5 1.5 0.5 2
9 0 1 0 0 0 1 0 0 0 1 4 71.5 101.5 1.5 1 1
9 0 1 0 0 0 1 0 0 0 1 4 66.5 96.5 1.5 1 1
9 0 1 0 0 0 1 0 0 0 1 4 59.5 89.5 1.5 1 1
9 0 1 0 0 0 1 0 0 0 1 3.5 47 78.5 1 1.5 1
9 0 1 0 0 0 1 0 0 0 1 3.5 30 155.5 1 1.5 1
9 0 1 0 0 0 1 0 0 0 1 4 15 59.5 1.5 0.5 2
9 0 1 0 0 0 1 0 0 0 1 3.5 -12.5 118 1 1 1.5
9 0 1 0 0 0 1 0 0 0 1 3.5 -20.5 125 1 1 1.5
9 0 1 0 0 0 1 0 0 0 1 3.5 -23.5 173 1 1 1.5
9 0 1 0 0 0 1 0 0 0 1 2.5 37 130.5 1 1.5 1
9 0 1 0 0 0 1 0 0 0 1 3 -21 136.5 1.5 0.5 2
9 0 1 0 0 0 1 0 0 0 1 0 84 123.5 1.5 0.5 2
9 0 1 0 0 0 1 0 0 0 1 0 67.5 181.5 1.5 1 1
9 0 1 0 0 0 1 0 0 0 1 0 61.5 187.5 1.5 1 1
9 0 1 0 0 0 1 0 0 0 1 0 41.5 135.5 1.5 1 1
9 0 1 0 0 0 1 0 0 0 1 0 34.5 123.5 1.5 1 1
9 0 1 0 0 0 1 0 0 0 1 0 29.5 127.5 1.5 1 1
9 0 1 0 0 0 1 0 0 0 1 0 24.5 123.5 1.5 1 1
9 0 1 0 0 0 1 0 0 0 1 0 17.5 120 1.5 2 0.5
9 0 1 0 0 0 1 0 0 0 1 0 -3.5 111 1.5 2 0.5
9 0 1 0 0 0 1 0 0 0 1 0 -18.5 120.5 1.5 1 1
9 0 1 0 0 0 1 0 0 0 1 0 -18.5 164.5 1.5 1 1
9 0 1 0 0 0 1 0 0 0 1 -2 -21 140.5 0.5 0.5 6
9 0 1 0 0 0 1 0 0 0 1 -2.5 39.5 135 1 1 1.5
9 0 1 0 0 0 1 0 0 0 1 -3 15.5 155 0.5 6 0.5
9 0 1 0 0 0 1 0 0 0 1 -4 35.5 131.5 0.5 1 3
9 0 1 0 0 0 1 0 0 0 1 -3.5 35 71.5 1 1.5 1
9 0 1 0 0 0 1 0 0 0 1 -4 31.5 125 0.5 2 1.5
9 0 1 0 0 0 1 0 0 0 1 -4 15.5 114.5 0.5 3 1
9 0 1 0 0 0 1 0 0 0 1 -4 12.5 189 0.5 6 0.5
9 0 1 0 0 0 1 0 0 0 1 -3.5 -20.5 125 1 1 1.5
9 0 1 0 0 0 1 0 0 0 1 -3.5 -20.5 165 1 1 1.5
9 0 1 0 0 0 1 0 0 0 1 -3.5 -23.5 173 1 1 1.5
9 0 1 0 0 0 1 0 0 0 1 -4.5 70 100.5 1 1.5 1
9 0 1 0 0 0 1 0 0 0 1 -4.5 65.5 115 1 1 1.5
9 0 1 0 0 0 1 0 0 0 1 -4.5 63 102.5 1 0.5 3
9 0 1 0 0 0 1 0 0 0 1 -4.5 55 85.5 1 1.5 1
9 0 1 0 0 0 1 0 0 0 1 -4.5 50 182.5 1 1.5 1
9 0 1 0 0 0 1 0 0 0 1 -4.5 40 197.5 1 1.5 1
9 0 1 0 0 0 1 0 0 0 1 -4.5 -2.5 62 1 1 1.5
9 0 1 0 0 0 1 0 0 0 1 -5 -3.5 115.5 0.5 3 1
9 0 1 0 0 0 1 0 0 0 1 -5 -13 121.5 0.5 1.5 2
9 0 1 0 0 0 1 0 0 0 1 -5 -16 124.5 0.5 1.5 2
9 0 1 0 0 0 1 0 0 0 1 -5 -21.5 132 0.5 2 1.5
9 0 1 0 0 0 1 0 0 0 1 -5 -29 152.5 0.5 0.5 6
9 0 1 0 0 0 1 0 0 0 1 -6 81 126.5 0.5 0.5 6
9 0 1 0 0 0 1 0 0 0 1 -5.5 -15 181.5 1 1.5 1
9 0 1 0 0 0 1 0 0 0 1 -6.5 77 156.5 1 0.5 3
9 0 1 0 0 0 1 0 0 0 1 -7 71.5 156.5 0.5 1 3
9 0 1 0 0 0 1 0 0 0 1 -6.5 56 100.5 1 1.5 1
9 0 1 0 0 0 1 0 0 0 1 -7 29 81.5 0.5 1.5 2
9 0 1 0 0 0 1 0 0 0 1 -8 72.5 160.5 0.5 1 3
9 0 1 0 0 0 1 0 0 0 1 -8 69.5 166.5 0.5 1 3
9 0 1 0 0 0 1 0 0 0 1 -8 67.5 170.5 0.5 1 3
9 0 1 0 0 0 1 0 0 0 1 -8 57 182.5 0.5 1.5 2
9 0 1 0 0 0 1 0 0 0 1 -7.5 55 89.5 1 1.5 1
9 0 1 0 0 0 1 0 0 0 1 -7.5 11 58.5 1 1.5 1
9 0 1 0 0 0 1 0 0 0 1 -8 -1 59.5 0.5 1.5 2
9 0 1 0 0 0 1 0 0 0 1 -7.5 -7 49.5 1 0.5 3
9 0 1 0 0 0 1 0 0 0 1 -9 61 99.5 0.5 1.5 2
9 0 1 0 0 0 1 0 0 0 1 -8.5 54 91.5 1 1.5 1
9 0 1 0 0 0 1 0 0 0 1 -9 33.5 81 0.5 2 1.5
9 0 1 0 0 0 1 0 0 0 1 -9 15.5 65 0.5 2 1.5
9 0 1 0 0 0 1 0 0 0 1 3 -31 152 0.5 0.5 5.5
9 0 1 0 0 0 1 0 0 0 1 -3 -31 152 0.5 0.5 5.5
9 0 1 0 0 0 1 0 0 0 1 -5 24 200 0.5 5.5 0.5
9 0 1 0 0 0 1 0 0 0 1 -5 -10 42 0.5 0.5 5.5
9 0 1 0 0 0 1 0 0 0 1 0 -13 22 5.5 0.5 0.5
9 0 1 0 0 0 1 0 0 0 1 -13 0 22 0.5 5.5 0.5
9 0 1 0 0 0 1 0 0 0 1 13.5 0 22 1 2.5 0.5
9 0 1 0 0 0 1 0 0 0 1 9 11 68.5 0.5 2.5 1
9 0 1 0 0 0 1 0 0 0 1 8 74 126.5 0.5 0.5 5
9 0 1 0 0 0 1 0 0 0 1 8 66.5 109 0.5 1 2.5
9 0 1 0 0 0 1 0 0 0 1 8 49 188.5 0.5 2.5 1
9 0 1 0 0 0 1 0 0 0 1 8 33 82.5 0.5 2.5 1
9 0 1 0 0 0 1 0 0 0 1 8 -2.5 58 0.5 1 2.5
9 0 1 0 0 0 1 0 0 0 1 7 43 89.5 0.5 2.5 1
9 0 1 0 0 0 1 0 0 0 1 7 33.5 192 0.5 5 0.5
9 0 1 0 0 0 1 0 0 0 1 6 77.5 158 0.5 1 2.5
9 0 1 0 0 0 1 0 0 0 1 6 71.5 104 0.5 1 2.5
9 0 1 0 0 0 1 0 0 0 1 6 -4 186.5 0.5 2.5 1
9 0 1 0 0 0 1 0 0 0 1 5.5 69 158 1 0.5 2.5
9 0 1 0 0 0 1 0 0 0 1 5.5 -10 42 1 0.5 2.5
9 0 1 0 0 0 1 0 0 0 1 5 -21.5 174 0.5 1 2.5
9 0 1 0 0 0 1 0 0 0 1 4 27 121.5 0.5 2.5 1
9 0 1 0 0 0 1 0 0 0 1 4 -6 190.5 0.5 2.5 1
9 0 1 0 0 0 1 0 0 0 1 4 -17.5 129 0.5 1 2.5
9 0 1 0 0 0 1 0 0 0 1 3.5 38 73 1 2.5 0.5
9 0 1 0 0 0 1 0 0 0 1 3 14 112.5 0.5 2.5 1
9 0 1 0 0 0 1 0 0 0 1 0 81 116.5 2.5 0.5 1
9 0 1 0 0 0 1 0 0 0 1 0 67 122.5 2.5 0.5 1
9 0 1 0 0 0 1 0 0 0 1 0 62 113.5 2.5 0.5 1
9 0 1 0 0 0 1 0 0 0 1 0 62 165.5 2.5 0.5 1
9 0 1 0 0 0 1 0 0 0 1 0 61 167.5 2.5 0.5 1
9 0 1 0 0 0 1 0 0 0 1 0 59 170.5 2.5 0.5 1
9 0 1 0 0 0 1 0 0 0 1 0 58.5 86 2.5 1 0.5
9 0 1 0 0 0 1 0 0 0 1 0 53 176.5 2.5 0.5 1
9 0 1 0 0 0 1 0 0 0 1 0 45 95.5 2.5 0.5 1
9 0 1 0 0 0 1 0 0 0 1 0 29.5 87 2.5 1 0.5
9 0 1 0 0 0 1 0 0 0 1 0 26.5 85 2.5 1 0.5
9 0 1 0 0 0 1 0 0 0 1 0 21.5 61 2.5 1 0.5
9 0 1 0 0 0 1 0 0 0 1 0 15.5 153 2.5 1 0.5
9 0 1 0 0 0 1 0 0 0 1 0 13.5 22 2.5 1 0.5
9 0 1 0 0 0 1 0 0 0 1 0 10 155.5 2.5 0.5 1
9 0 1 0 0 0 1 0 0 0 1 0 9.5 200 2.5 1 0.5
9 0 1 0 0 0 1 0 0 0 1 0 1 69.5 2.5 0.5 1
9 0 1 0 0 0 1 0 0 0 1 0 -1 67.5 2.5 0.5 1
9 0 1 0 0 0 1 0 0 0 1 0 -2.5 195 2.5 1 0.5
9 0 1 0 0 0 1 0 0 0 1 0 -4.5 194 2.5 1 0.5
9 0 1 0 0 0 1 0 0 0 1 0 -10.5 175 2.5 1 0.5
9 0 1 0 0 0 1 0 0 0 1 0 -23.5 126 2.5 1 0.5
9 0 1 0 0 0 1 0 0 0 1 0 -26 172.5 2.5 0.5 1
9 0 1 0 0 0 1 0 0 0 1 -3 14 112.5 0.5 2.5 1
9 0 1 0 0 0 1 0 0 0 1 -4 34.5 152 0.5 1 2.5
9 0 1 0 0 0 1 0 0 0 1 -4 27 121.5 0.5 2.5 1
9 0 1 0 0 0 1 0 0 0 1 -4 -17.5 129 0.5 1 2.5
9 0 1 0 0 0 1 0 0 0 1 -5 48 80.5 0.5 2.5 1
9 0 1 0 0 0 1 0 0 0 1 -4.5 6 188 1 2.5 0.5
9 0 1 0 0 0 1 0 0 0 1 -5 -10 118.5 0.5 2.5 1
9 0 1 0 0 0 1 0 0 0 1 -5 -24.5 136 0.5 1 2.5
9 0 1 0 0 0 1 0 0 0 1 -6 50 191.5 0.5 2.5 1
9 0 1 0 0 0 1 0 0 0 1 -6 41 195.5 0.5 2.5 1
9 0 1 0 0 0 1 0 0 0 1 -6 -4 186.5 0.5 2.5 1
9 0 1 0 0 0 1 0 0 0 1 -7 69.5 103 0.5 1 2.5
9 0 1 0 0 0 1 0 0 0 1 -6.5 57 185 1 2.5 0.5
9 0 1 0 0 0 1 0 0 0 1 -8 75 136.5 0.5 0.5 5
9 0 1 0 0 0 1 0 0 0 1 -8 70.5 116 0.5 1 2.5
9 0 1 0 0 0 1 0 0 0 1 -7.5 48 85 1 0.5 2.5
9 0 1 0 0 0 1 0 0 0 1 -8 49 188.5 0.5 2.5 1
9 0 1 0 0 0 1 0 0 0 1 -9 16 71.5 0.5 2.5 1
9 0 1 0 0 0 1 0 0 0 1 -9 11 68.5 0.5 2.5 1
9 0 1 0 0 0 1 0 0 0 1 -10 -0.5 55 0.5 1 2.5
9 0 1 0 0 0 1 0 0 0 1 9 66 104 0.5 1.5 1.5
9 0 1 0 0 0 1 0 0 0 1 8 69 105 0.5 1.5 1.5
9 0 1 0 0 0 1 0 0 0 1 8 65 174 0.5 1.5 1.5
9 0 1 0 0 0 1 0 0 0 1 8 61 178 0.5 1.5 1.5
9 0 1 0 0 0 1 0 0 0 1 8 60 96 0.5 1.5 1.5
9 0 1 0 0 0 1 0 0 0 1 8 51 87 0.5 1.5 1.5
9 0 1 0 0 0 1 0 0 0 1 8 3 64 0.5 1.5 1.5
9 0 1 0 0 0 1 0 0 0 1 8 44 83 1.5 0.5 1.5
9 0 1 0 0 0 1 0 0 0 1 6 71 171 0.5 1.5 1.5
9 0 1 0 0 0 1 0 0 0 1 6 60 184 0.5 1.5 1.5
9 0 1 0 0 0 1 0 0 0 1 6 46 186 0.5 1.5 1.5
9 0 1 0 0 0 1 0 0 0 1 5 -8 188 0.5 1.5 1.5
9 0 1 0 0 0 1 0 0 0 1 5 -13 184 0.5 1.5 1.5
9 0 1 0 0 0 1 0 0 0 1 4 -22 139 0.5 0.5 4.5
9 0 1 0 0 0 1 0 0 0 1 4 64 113 1.5 0.5 1.5
9 0 1 0 0 0 1 0 0 0 1 4 63 101 1.5 0.5 1.5
9 0 1 0 0 0 1 0 0 0 1 4 24 65 1.5 1.5 0.5
9 0 1 0 0 0 1 0 0 0 1 4 2 186 1.5 1.5 0.5
9 0 1 0 0 0 1 0 0 0 1 4 -3 184 1.5 1.5 0.5
9 0 1 0 0 0 1 0 0 0 1 3 -11 176 1.5 1.5 0.5
9 0 1 0 0 0 1 0 0 0 1 3 -13 181 1.5 0.5 1.5
9 0 1 0 0 0 1 0 0 0 1 0 66 157 1.5 0.5 1.5
9 0 1 0 0 0 1 0 0 0 1 0 56 193 1.5 1.5 0.5
9 0 1 0 0 0 1 0 0 0 1 0 36 125 1.5 0.5 1.5
9 0 1 0 0 0 1 0 0 0 1 0 33 158 1.5 1.5 0.5
9 0 1 0 0 0 1 0 0 0 1 0 23 114 1.5 1.5 0.5
9 0 1 0 0 0 1 0 0 0 1 0 22 122 1.5 1.5 0.5
9 0 1 0 0 0 1 0 0 0 1 0 21 113 1.5 1.5 0.5
9 0 1 0 0 0 1 0 0 0 1 0 13 110 1.5 1.5 0.5
9 0 1 0 0 0 1 0 0 0 1 0 8 153 1.5 0.5 1.5
9 0 1 0 0 0 1 0 0 0 1 0 2 184 1.5 1.5 0.5
9 0 1 0 0 0 1 0 0 0 1 0 -1 110 1.5 1.5 0.5
9 0 1 0 0 0 1 0 0 0 1 0 -5 121 1.5 1.5 0.5
9 0 1 0 0 0 1 0 0 0 1 0 -8 177 1.5 1.5 0.5
9 0 1 0 0 0 1 0 0 0 1 0 -14 171 1.5 0.5 1.5
9 0 1 0 0 0 1 0 0 0 1 0 -20 139 1.5 0.5 1.5
9 0 1 0 0 0 1 0 0 0 1 0 -26 130 1.5 0.5 1.5
9 0 1 0 0 0 1 0 0 0 1 0 -31 140 1.5 0.5 1.5
9 0 1 0 0 0 1 0 0 0 1 -3 69 126 0.5 0.5 4.5
9 0 1 0 0 0 1 0 0 0 1 -3 23 116 0.5 1.5 1.5
9 0 1 0 0 0 1 0 0 0 1 -4 22 64 0.5 1.5 1.5
9 0 1 0 0 0 1 0 0 0 1 -4 -22 139 0.5 0.5 4.5
9 0 1 0 0 0 1 0 0 0 1 -4 -27 167 1.5 0.5 1.5
9 0 1 0 0 0 1 0 0 0 1 -5 63 110 1.5 0.5 1.5
9 0 1 0 0 0 1 0 0 0 1 -6 46 186 0.5 1.5 1.5
9 0 1 0 0 0 1 0 0 0 1 -5 -10 180 1.5 1.5 0.5
9 0 1 0 0 0 1 0 0 0 1 -7 72 109 0.5 0.5 4.5
9 0 1 0 0 0 1 0 0 0 1 -7 51 95 0.5 1.5 1.5
9 0 1 0 0 0 1 0 0 0 1 -8 65 174 0.5 1.5 1.5
9 0 1 0 0 0 1 0 0 0 1 -8 61 178 0.5 1.5 1.5
9 0 1 0 0 0 1 0 0 0 1 -8 56 98 0.5 1.5 1.5
9 0 1 0 0 0 1 0 0 0 1 -8 26 79 0.5 1.5 1.5
9 0 1 0 0 0 1 0 0 0 1 -8 24 69 0.5 1.5 1.5
9 0 1 0 0 0 1 0 0 0 1 -9 66 104 0.5 1.5 1.5
9 0 1 0 0 0 1 0 0 0 1 -9 37 79 0.5 1.5 1.5
9 0 1 0 0 0 1 0 0 0 1 10 -2.5 52.5 0.5 1 2
9 0 1 0 0 0 1 0 0 0 1 9 63.5 101.5 0.5 1 2
9 0 1 0 0 0 1 0 0 0 1 8 76.5 150.5 0.5 1 2
9 0 1 0 0 0 1 0 0 0 1 8 72.5 112.5 0.5 1 2
9 0 1 0 0 0 1 0 0 0 1 8 29.5 72.5 0.5 2 1
9 0 1 0 0 0 1 0 0 0 1 8 28.5 80.5 0.5 2 1
9 0 1 0 0 0 1 0 0 0 1 7 47.5 92.5 0.5 2 1
9 0 1 0 0 0 1 0 0 0 1 7 35.5 85.5 0.5 2 1
9 0 1 0 0 0 1 0 0 0 1 7 31.5 71.5 0.5 2 1
9 0 1 0 0 0 1 0 0 0 1 7 4.5 191.5 0.5 2 1
9 0 1 0 0 0 1 0 0 0 1 6.5 72.5 107.5 1 1 1
9 0 1 0 0 0 1 0 0 0 1 6.5 71.5 156.5 1 1 1
9 0 1 0 0 0 1 0 0 0 1 6.5 69.5 101.5 1 1 1
9 0 1 0 0 0 1 0 0 0 1 6.5 66.5 113.5 1 1 1
9 0 1 0 0 0 1 0 0 0 1 6.5 53.5 98.5 1 1 1
9 0 1 0 0 0 1 0 0 0 1 6 53.5 190.5 0.5 2 1
9 0 1 0 0 0 1 0 0 0 1 6 48.5 192.5 0.5 2 1
9 0 1 0 0 0 1 0 0 0 1 6 24.5 199 0.5 4 0.5
9 0 1 0 0 0 1 0 0 0 1 6.5 15.5 75.5 1 1 1
9 0 1 0 0 0 1 0 0 0 1 6.5 14.5 60 1 2 0.5
9 0 1 0 0 0 1 0 0 0 1 6.5 1.5 65.5 1 1 1
9 0 1 0 0 0 1 0 0 0 1 5 83 141.5 0.5 0.5 4
9 0 1 0 0 0 1 0 0 0 1 5 57.5 88.5 0.5 1 2
9 0 1 0 0 0 1 0 0 0 1 5.5 47.5 94.5 1 1 1
9 0 1 0 0 0 1 0 0 0 1 5.5 8.5 71.5 1 1 1
9 0 1 0 0 0 1 0 0 0 1 5.5 -9 47.5 1 0.5 2
9 0 1 0 0 0 1 0 0 0 1 5 -23 161.5 0.5 0.5 4
9 0 1 0 0 0 1 0 0 0 1 4.5 79 116.5 1 0.5 2
9 0 1 0 0 0 1 0 0 0 1 4.5 75.5 165.5 1 1 1
9 0 1 0 0 0 1 0 0 0 1 4.5 73 170.5 1 0.5 2
9 0 1 0 0 0 1 0 0 0 1 4.5 71 145.5 1 0.5 2
9 0 1 0 0 0 1 0 0 0 1 4.5 70.5 175.5 1 1 1
9 0 1 0 0 0 1 0 0 0 1 4.5 65 164.5 1 0.5 2
9 0 1 0 0 0 1 0 0 0 1 4.5 65.5 180.5 1 1 1
9 0 1 0 0 0 1 0 0 0 1 4.5 59.5 106.5 1 1 1
9 0 1 0 0 0 1 0 0 0 1 4.5 59.5 186.5 1 1 1
9 0 1 0 0 0 1 0 0 0 1 4.5 56.5 189.5 1 1 1
9 0 1 0 0 0 1 0 0 0 1 4.5 50.5 193 1 2 0.5
9 0 1 0 0 0 1 0 0 0 1 4 36.5 149.5 0.5 1 2
9 0 1 0 0 0 1 0 0 0 1 4 24.5 119.5 0.5 2 1
9 0 1 0 0 0 1 0 0 0 1 4 24.5 201 0.5 4 0.5
9 0 1 0 0 0 1 0 0 0 1 4 16.5 156 0.5 4 0.5
9 0 1 0 0 0 1 0 0 0 1 4 4.5 195.5 0.5 2 1
9 0 1 0 0 0 1 0 0 0 1 4.5 -3.5 61.5 1 1 1
9 0 1 0 0 0 1 0 0 0 1 3 69 126.5 0.5 0.5 4
9 0 1 0 0 0 1 0 0 0 1 3 29.5 157.5 0.5 2 1
9 0 1 0 0 0 1 0 0 0 1 3.5 27.5 66.5 1 1 1
9 0 1 0 0 0 1 0 0 0 1 3.5 19.5 61 1 2 0.5
9 0 1 0 0 0 1 0 0 0 1 3.5 17.5 78.5 1 1 1
9 0 1 0 0 0 1 0 0 0 1 3.5 -27 167.5 1 0.5 2
9 0 1 0 0 0 1 0 0 0 1 2.5 34.5 125.5 1 1 1
9 0 1 0 0 0 1 0 0 0 1 2.5 34.5 155.5 1 1 1
9 0 1 0 0 0 1 0 0 0 1 2.5 30.5 153.5 1 1 1
9 0 1 0 0 0 1 0 0 0 1 2.5 25.5 117.5 1 1 1
9 0 1 0 0 0 1 0 0 0 1 2.5 -17 168.5 1 0.5 2
9 0 1 0 0 0 1 0 0 0 1 2 -21 142.5 0.5 0.5 4
9 0 1 0 0 0 1 0 0 0 1 -0.5 -14 116.5 2 0.5 1
9 0 1 0 0 0 1 0 0 0 1 -2.5 30.5 153.5 1 1 1
9 0 1 0 0 0 1 0 0 0 1 -2.5 26.5 118.5 1 1 1
9 0 1 0 0 0 1 0 0 0 1 -3 -2.5 183.5 0.5 2 1
9 0 1 0 0 0 1 0 0 0 1 -3 -17.5 168.5 0.5 1 2
9 0 1 0 0 0 1 0 0 0 1 -4 81.5 149.5 0.5 1 2
9 0 1 0 0 0 1 0 0 0 1 -4 64.5 164.5 0.5 1 2
9 0 1 0 0 0 1 0 0 0 1 -4 36.5 149.5 0.5 1 2
9 0 1 0 0 0 1 0 0 0 1 -4 33.5 128.5 0.5 1 2
9 0 1 0 0 0 1 0 0 0 1 -4 30.5 155.5 0.5 2 1
9 0 1 0 0 0 1 0 0 0 1 -4 24.5 201 0.5 4 0.5
9 0 1 0 0 0 1 0 0 0 1 -4 16.5 156 0.5 4 0.5
9 0 1 0 0 0 1 0 0 0 1 -4 4.5 195.5 0.5 2 1
9 0 1 0 0 0 1 0 0 0 1 -3.5 -8.5 178.5 1 1 1
9 0 1 0 0 0 1 0 0 0 1 -3.5 -13.5 174.5 1 1 1
9 0 1 0 0 0 1 0 0 0 1 -3.5 -20.5 135.5 1 1 1
9 0 1 0 0 0 1 0 0 0 1 -5 83 141.5 0.5 0.5 4
9 0 1 0 0 0 1 0 0 0 1 -4.5 73.5 105.5 1 1 1
9 0 1 0 0 0 1 0 0 0 1 -4.5 73 170.5 1 0.5 2
9 0 1 0 0 0 1 0 0 0 1 -4.5 70 149.5 1 0.5 2
9 0 1 0 0 0 1 0 0 0 1 -5 66.5 162.5 0.5 1 2
9 0 1 0 0 0 1 0 0 0 1 -5 63.5 168.5 0.5 1 2
9 0 1 0 0 0 1 0 0 0 1 -4.5 59.5 106.5 1 1 1
9 0 1 0 0 0 1 0 0 0 1 -4.5 59.5 186.5 1 1 1
9 0 1 0 0 0 1 0 0 0 1 -4.5 58.5 88.5 1 1 1
9 0 1 0 0 0 1 0 0 0 1 -4.5 56.5 189.5 1 1 1
9 0 1 0 0 0 1 0 0 0 1 -4.5 46.5 195 1 2 0.5
9 0 1 0 0 0 1 0 0 0 1 -4.5 13.5 57.5 1 1 1
9 0 1 0 0 0 1 0 0 0 1 -5 -9 49.5 0.5 0.5 4
9 0 1 0 0 0 1 0 0 0 1 -4.5 -14.5 183.5 1 1 1
9 0 1 0 0 0 1 0 0 0 1 -5 -23 161.5 0.5 0.5 4
9 0 1 0 0 0 1 0 0 0 1 -6 75.5 111.5 0.5 1 2
9 0 1 0 0 0 1 0 0 0 1 -6 72 147.5 0.5 0.5 4
9 0 1 0 0 0 1 0 0 0 1 -5.5 61.5 92.5 1 1 1
9 0 1 0 0 0 1 0 0 0 1 -5.5 60.5 173.5 1 1 1
9 0 1 0 0 0 1 0 0 0 1 -5.5 47.5 94.5 1 1 1
9 0 1 0 0 0 1 0 0 0 1 -6 43.5 78.5 0.5 2 1
9 0 1 0 0 0 1 0 0 0 1 -6 24.5 199 0.5 4 0.5
9 0 1 0 0 0 1 0 0 0 1 -5.5 19.5 69.5 1 1 1
9 0 1 0 0 0 1 0 0 0 1 -6 14.5 191 0.5 4 0.5
9 0 1 0 0 0 1 0 0 0 1 -6 0.5 191.5 0.5 2 1
9 0 1 0 0 0 1 0 0 0 1 -7 69.5 171.5 0.5 1 2
9 0 1 0 0 0 1 0 0 0 1 -7 67.5 165.5 0.5 1 2
9 0 1 0 0 0 1 0 0 0 1 -6.5 61.5 105 1 2 0.5
9 0 1 0 0 0 1 0 0 0 1 -6.5 55 187.5 1 0.5 2
9 0 1 0 0 0 1 0 0 0 1 -7 40.5 88.5 0.5 2 1
9 0 1 0 0 0 1 0 0 0 1 -7 33.5 84.5 0.5 2 1
9 0 1 0 0 0 1 0 0 0 1 -7 16.5 75.5 0.5 2 1
9 0 1 0 0 0 1 0 0 0 1 -7 7.5 69.5 0.5 2 1
9 0 1 0 0 0 1 0 0 0 1 -7 4.5 191.5 0.5 2 1
9 0 1 0 0 0 1 0 0 0 1 -6.5 1.5 65.5 1 1 1
9 0 1 0 0 0 1 0 0 0 1 -8 76.5 150.5 0.5 1 2
9 0 1 0 0 0 1 0 0 0 1 -8 65.5 107.5 0.5 1 2
9 0 1 0 0 0 1 0 0 0 1 -8 34.5 75.5 0.5 2 1
9 0 1 0 0 0 1 0 0 0 1 -8 29.5 72.5 0.5 2 1
9 0 1 0 0 0 1 0 0 0 1 -8 20.5 66.5 0.5 2 1
9 0 1 0 0 0 1 0 0 0 1 -8 1.5 62.5 0.5 1 2
9 0 1 0 0 0 1 0 0 0 1 -9 63.5 101.5 0.5 1 2
9 0 1 0 0 0 1 0 0 0 1 -9 -5 50.5 0.5 0.5 4
9 0 1 0 0 0 1 0 0 0 1 12 2 25 0.5 0.5 3.5
9 0 1 0 0 0 1 0 0 0 1 6 71 129 0.5 0.5 3.5
9 0 1 0 0 0 1 0 0 0 1 6 36 190 0.5 3.5 0.5
9 0 1 0 0 0 1 0 0 0 1 5 82 129 0.5 0.5 3.5
9 0 1 0 0 0 1 0 0 0 1 4 36 188 0.5 3.5 0.5
9 0 1 0 0 0 1 0 0 0 1 4 33 200 0.5 3.5 0.5
9 0 1 0 0 0 1 0 0 0 1 3 25 156 0.5 3.5 0.5
9 0 1 0 0 0 1 0 0 0 1 2 12 25 0.5 0.5 3.5
9 0 1 0 0 0 1 0 0 0 1 2 -12 25 0.5 0.5 3.5
9 0 1 0 0 0 1 0 0 0 1 -2 12 25 0.5 0.5 3.5
9 0 1 0 0 0 1 0 0 0 1 -2 -12 25 0.5 0.5 3.5
9 0 1 0 0 0 1 0 0 0 1 0 73 175 3.5 0.5 0.5
9 0 1 0 0 0 1 0 0 0 1 0 72 99 3.5 0.5 0.5
9 0 1 0 0 0 1 0 0 0 1 0 70 179 3.5 0.5 0.5
9 0 1 0 0 0 1 0 0 0 1 0 68 95 3.5 0.5 0.5
9 0 1 0 0 0 1 0 0 0 1 0 66 93 3.5 0.5 0.5
9 0 1 0 0 0 1 0 0 0 1 0 61 88 3.5 0.5 0.5
9 0 1 0 0 0 1 0 0 0 1 0 58 108 3.5 0.5 0.5
9 0 1 0 0 0 1 0 0 0 1 0 56 83 3.5 0.5 0.5
9 0 1 0 0 0 1 0 0 0 1 0 56 106 3.5 0.5 0.5
9 0 1 0 0 0 1 0 0 0 1 0 54 104 3.5 0.5 0.5
9 0 1 0 0 0 1 0 0 0 1 0 52 102 3.5 0.5 0.5
9 0 1 0 0 0 1 0 0 0 1 0 50 100 3.5 0.5 0.5
9 0 1 0 0 0 1 0 0 0 1 0 49 78 3.5 0.5 0.5
9 0 1 0 0 0 1 0 0 0 1 0 44 183 3.5 0.5 0.5
9 0 1 0 0 0 1 0 0 0 1 0 39 72 3.5 0.5 0.5
9 0 1 0 0 0 1 0 0 0 1 0 39 92 3.5 0.5 0.5
9 0 1 0 0 0 1 0 0 0 1 0 32 88 3.5 0.5 0.5
9 0 1 0 0 0 1 0 0 0 1 0 24 63 3.5 0.5 0.5
9 0 1 0 0 0 1 0 0 0 1 0 13 54 3.5 0.5 0.5
9 0 1 0 0 0 1 0 0 0 1 0 11 76 3.5 0.5 0.5
9 0 1 0 0 0 1 0 0 0 1 -3 8 110 0.5 3.5 0.5
9 0 1 0 0 0 1 0 0 0 1 0 -3 65 3.5 0.5 0.5
9 0 1 0 0 0 1 0 0 0 1 0 -13 127 3.5 0.5 0.5
9 0 1 0 0 0 1 0 0 0 1 0 -14 187 3.5 0.5 0.5
9 0 1 0 0 0 1 0 0 0 1 -4 70 132 0.5 0.5 3.5
9 0 1 0 0 0 1 0 0 0 1 -4 36 188 0.5 3.5 0.5
9 0 1 0 0 0 1 0 0 0 1 -5 69 155 0.5 0.5 3.5
9 0 1 0 0 0 1 0 0 0 1 -5 12 198 0.5 3.5 0.5
9 0 1 0 0 0 1 0 0 0 1 -6 71 129 0.5 0.5 3.5
9 0 1 0 0 0 1 0 0 0 1 -6 61 182 0.5 0.5 3.5
9 0 1 0 0 0 1 0 0 0 1 -6 29 191 0.5 3.5 0.5
9 0 1 0 0 0 1 0 0 0 1 -7 32 192 0.5 3.5 0.5
9 0 1 0 0 0 1 0 0 0 1 -9 54 93 0.5 3.5 0.5
9 0 1 0 0 0 1 0 0 0 1 -12 2 25 0.5 0.5 3.5
9 0 1 0 0 0 1 0 0 0 1 12.5 4 22 1 1.5 0.5
9 0 1 0 0 0 1 0 0 0 1 12.5 -4 22 1 1.5 0.5
9 0 1 0 0 0 1 0 0 0 1 11 2.5 55 0.5 1 1.5
9 0 1 0 0 0 1 0 0 0 1 10 24 73.5 0.5 1.5 1
9 0 1 0 0 0 1 0 0 0 1 10 19.5 71 0.5 1 1.5
9 0 1 0 0 0 1 0 0 0 1 10 6 42.5 0.5 0.5 3
9 0 1 0 0 0 1 0 0 0 1 9 68.5 108 0.5 1 1.5
9 0 1 0 0 0 1 0 0 0 1 9 45 87.5 0.5 1.5 1
9 0 1 0 0 0 1 0 0 0 1 9 12 61.5 0.5 1.5 1
9 0 1 0 0 0 1 0 0 0 1 9 9 58.5 0.5 1.5 1
9 0 1 0 0 0 1 0 0 0 1 8 71 163.5 0.5 0.5 3
9 0 1 0 0 0 1 0 0 0 1 8 64 99.5 0.5 1.5 1
9 0 1 0 0 0 1 0 0 0 1 8 56.5 99 0.5 1 1.5
9 0 1 0 0 0 1 0 0 0 1 8 43 80.5 0.5 1.5 1
9 0 1 0 0 0 1 0 0 0 1 8 40 78.5 0.5 1.5 1
9 0 1 0 0 0 1 0 0 0 1 8 25.5 79 0.5 1 1.5
9 0 1 0 0 0 1 0 0 0 1 8 21 76.5 0.5 1.5 1
9 0 1 0 0 0 1 0 0 0 1 8 17 63.5 0.5 1.5 1
9 0 1 0 0 0 1 0 0 0 1 8 17 74.5 0.5 1.5 1
9 0 1 0 0 0 1 0 0 0 1 8 14.5 73 0.5 1 1.5
9 0 1 0 0 0 1 0 0 0 1 7 70.5 120 0.5 1 1.5
9 0 1 0 0 0 1 0 0 0 1 7 69 162.5 0.5 0.5 3
9 0 1 0 0 0 1 0 0 0 1 7 63.5 108 0.5 1 1.5
9 0 1 0 0 0 1 0 0 0 1 7 61 105.5 0.5 1.5 1
9 0 1 0 0 0 1 0 0 0 1 7 57.5 90 0.5 1 1.5
9 0 1 0 0 0 1 0 0 0 1 7 57 185.5 0.5 1.5 1
9 0 1 0 0 0 1 0 0 0 1 7 49 82.5 0.5 1.5 1
9 0 1 0 0 0 1 0 0 0 1 7 40 194.5 0.5 1.5 1
9 0 1 0 0 0 1 0 0 0 1 7.5 34 84 1 1.5 0.5
9 0 1 0 0 0 1 0 0 0 1 7 22 65.5 0.5 1.5 1
9 0 1 0 0 0 1 0 0 0 1 7 22 78.5 0.5 1.5 1
9 0 1 0 0 0 1 0 0 0 1 7 1.5 190 0.5 3 0.5
9 0 1 0 0 0 1 0 0 0 1 7 -15 178.5 0.5 1.5 1
9 0 1 0 0 0 1 0 0 0 1 6 67.5 117 0.5 1 1.5
9 0 1 0 0 0 1 0 0 0 1 6 64 180.5 0.5 1.5 1
9 0 1 0 0 0 1 0 0 0 1 6.5 58 103 1 0.5 1.5
9 0 1 0 0 0 1 0 0 0 1 6 58.5 176 0.5 1 1.5
9 0 1 0 0 0 1 0 0 0 1 6 54 85.5 0.5 1.5 1
9 0 1 0 0 0 1 0 0 0 1 6 50.5 183 0.5 1 1.5
9 0 1 0 0 0 1 0 0 0 1 6 41 188.5 0.5 1.5 1
9 0 1 0 0 0 1 0 0 0 1 6 12 196.5 0.5 1.5 1
9 0 1 0 0 0 1 0 0 0 1 6 -22 167.5 0.5 1.5 1
9 0 1 0 0 0 1 0 0 0 1 6 -26 144.5 0.5 0.5 3
9 0 1 0 0 0 1 0 0 0 1 5 70 125.5 0.5 0.5 3
9 0 1 0 0 0 1 0 0 0 1 5.5 66 164 1 0.5 1.5
9 0 1 0 0 0 1 0 0 0 1 5.5 63 170 1 0.5 1.5
9 0 1 0 0 0 1 0 0 0 1 6 11.5 22 1.5 1 0.5
9 0 1 0 0 0 1 0 0 0 1 6 4.5 69 1.5 1 0.5
9 0 1 0 0 0 1 0 0 0 1 6 -5 57.5 1.5 0.5 1
9 0 1 0 0 0 1 0 0 0 1 5.5 -8 53 1 0.5 1.5
9 0 1 0 0 0 1 0 0 0 1 6 -11.5 22 1.5 1 0.5
9 0 1 0 0 0 1 0 0 0 1 5 -10.5 119 0.5 3 0.5
9 0 1 0 0 0 1 0 0 0 1 5.5 -13 177 1 1.5 0.5
9 0 1 0 0 0 1 0 0 0 1 5 -19.5 178 0.5 1 1.5
9 0 1 0 0 0 1 0 0 0 1 5 -20 131.5 0.5 1.5 1
9 0 1 0 0 0 1 0 0 0 1 5 -24.5 170 0.5 1 1.5
9 0 1 0 0 0 1 0 0 0 1 5 -25.5 137 0.5 1 1.5
9 0 1 0 0 0 1 0 0 0 1 4 78.5 161 0.5 1 1.5
9 0 1 0 0 0 1 0 0 0 1 4.5 43 186 1 1.5 0.5
9 0 1 0 0 0 1 0 0 0 1 5 41.5 76 1.5 1 0.5
9 0 1 0 0 0 1 0 0 0 1 4.5 41 91 1 1.5 0.5
9 0 1 0 0 0 1 0 0 0 1 4 40 142.5 0.5 0.5 3
9 0 1 0 0 0 1 0 0 0 1 4.5 37 89 1 1.5 0.5
9 0 1 0 0 0 1 0 0 0 1 4 36.5 132 0.5 1 1.5
9 0 1 0 0 0 1 0 0 0 1 4.5 21 80 1 1.5 0.5
9 0 1 0 0 0 1 0 0 0 1 4.5 14 76 1 1.5 0.5
9 0 1 0 0 0 1 0 0 0 1 4 12.5 154 0.5 1 1.5
9 0 1 0 0 0 1 0 0 0 1 4.5 7 188 1 1.5 0.5
9 0 1 0 0 0 1 0 0 0 1 4 -0.5 117 0.5 3 0.5
9 0 1 0 0 0 1 0 0 0 1 4 -14.5 184 0.5 1 1.5
9 0 1 0 0 0 1 0 0 0 1 4 -20.5 165 0.5 1 1.5
9 0 1 0 0 0 1 0 0 0 1 3 76.5 109 0.5 1 1.5
9 0 1 0 0 0 1 0 0 0 1 4 74 105.5 1.5 0.5 1
9 0 1 0 0 0 1 0 0 0 1 3.5 69 151 1 0.5 1.5
9 0 1 0 0 0 1 0 0 0 1 4 63 92.5 1.5 0.5 1
9 0 1 0 0 0 1 0 0 0 1 3.5 62 111 1 0.5 1.5
9 0 1 0 0 0 1 0 0 0 1 4 53.5 83 1.5 1 0.5
9 0 1 0 0 0 1 0 0 0 1 3 48.5 80 0.5 3 0.5
9 0 1 0 0 0 1 0 0 0 1 4 45.5 196 1.5 1 0.5
9 0 1 0 0 0 1 0 0 0 1 4 36.5 72 1.5 1 0.5
9 0 1 0 0 0 1 0 0 0 1 3.5 34 88 1 1.5 0.5
9 0 1 0 0 0 1 0 0 0 1 4 26 66.5 1.5 0.5 1
9 0 1 0 0 0 1 0 0 0 1 3 15 157.5 0.5 1.5 1
9 0 1 0 0 0 1 0 0 0 1 3.5 1 195 1 1.5 0.5
9 0 1 0 0 0 1 0 0 0 1 3.5 -3 113 1 1.5 0.5
9 0 1 0 0 0 1 0 0 0 1 3 -19.5 165 0.5 1 1.5
9 0 1 0 0 0 1 0 0 0 1 3.5 -26 134 1 0.5 1.5
9 0 1 0 0 0 1 0 0 0 1 2 42 143.5 0.5 0.5 3
9 0 1 0 0 0 1 0 0 0 1 2.5 40 135 1 0.5 1.5
9 0 1 0 0 0 1 0 0 0 1 2.5 34 133 1 0.5 1.5
9 0 1 0 0 0 1 0 0 0 1 2.5 33 131 1 0.5 1.5
9 0 1 0 0 0 1 0 0 0 1 2.5 17 159 1 1.5 0.5
9 0 1 0 0 0 1 0 0 0 1 2.5 16 154 1 1.5 0.5
9 0 1 0 0 0 1 0 0 0 1 3 -7.5 179 1.5 1 0.5
9 0 1 0 0 0 1 0 0 0 1 2.5 -9 114 1 1.5 0.5
9 0 1 0 0 0 1 0 0 0 1 2.5 -12 116 1 1.5 0.5
9 0 1 0 0 0 1 0 0 0 1 2 -32 152.5 0.5 0.5 3
9 0 1 0 0 0 1 0 0 0 1 1 12 49.5 0.5 0.5 3
9 0 1 0 0 0 1 0 0 0 1 0 82 155.5 1.5 0.5 1
9 0 1 0 0 0 1 0 0 0 1 0 69 137.5 1.5 0.5 1
9 0 1 0 0 0 1 0 0 0 1 0 65.5 184 1.5 1 0.5
9 0 1 0 0 0 1 0 0 0 1 0 59.5 190 1.5 1 0.5
9 0 1 0 0 0 1 0 0 0 1 0 52.5 80 1.5 1 0.5
9 0 1 0 0 0 1 0 0 0 1 0 45.5 198 1.5 1 0.5
9 0 1 0 0 0 1 0 0 0 1 0 41 133.5 1.5 0.5 1
9 0 1 0 0 0 1 0 0 0 1 0 41.5 200 1.5 1 0.5
9 0 1 0 0 0 1 0 0 0 1 0 40 149.5 1.5 0.5 1
9 0 1 0 0 0 1 0 0 0 1 0 39.5 185 1.5 1 0.5
9 0 1 0 0 0 1 0 0 0 1 0 38 128.5 1.5 0.5 1
9 0 1 0 0 0 1 0 0 0 1 0 38.5 152 1.5 1 0.5
9 0 1 0 0 0 1 0 0 0 1 0 37 154.5 1.5 0.5 1
9 0 1 0 0 0 1 0 0 0 1 0 34.5 69 1.5 1 0.5
9 0 1 0 0 0 1 0 0 0 1 0 33.5 122 1.5 1 0.5
9 0 1 0 0 0 1 0 0 0 1 0 33 134.5 1.5 0.5 1
9 0 1 0 0 0 1 0 0 0 1 0 32.5 68 1.5 1 0.5
9 0 1 0 0 0 1 0 0 0 1 0 32.5 121 1.5 1 0.5
9 0 1 0 0 0 1 0 0 0 1 0 32 149.5 1.5 0.5 1
9 0 1 0 0 0 1 0 0 0 1 0 31 130.5 1.5 0.5 1
9 0 1 0 0 0 1 0 0 0 1 0 31 151.5 1.5 0.5 1
9 0 1 0 0 0 1 0 0 0 1 0 31.5 159 1.5 1 0.5
9 0 1 0 0 0 1 0 0 0 1 0 29.5 66 1.5 1 0.5
9 0 1 0 0 0 1 0 0 0 1 0 29.5 119 1.5 1 0.5
9 0 1 0 0 0 1 0 0 0 1 0 29.5 202 1.5 1 0.5
9 0 1 0 0 0 1 0 0 0 1 0 27.5 65 1.5 1 0.5
9 0 1 0 0 0 1 0 0 0 1 0 26.5 116 1.5 1 0.5
9 0 1 0 0 0 1 0 0 0 1 0 18.5 202 1.5 1 0.5
9 0 1 0 0 0 1 0 0 0 1 0 17.5 58 1.5 1 0.5
9 0 1 0 0 0 1 0 0 0 1 0 16.5 111 1.5 1 0.5
9 0 1 0 0 0 1 0 0 0 1 0 15.5 152 1.5 1 0.5
9 0 1 0 0 0 1 0 0 0 1 0 13.5 151 1.5 1 0.5
9 0 1 0 0 0 1 0 0 0 1 0 13.5 159 1.5 1 0.5
9 0 1 0 0 0 1 0 0 0 1 0 13.5 187 1.5 1 0.5
9 0 1 0 0 0 1 0 0 0 1 -1 12 49.5 0.5 0.5 3
9 0 1 0 0 0 1 0 0 0 1 0 5.5 185 1.5 1 0.5
9 0 1 0 0 0 1 0 0 0 1 0 5.5 188 1.5 1 0.5
9 0 1 0 0 0 1 0 0 0 1 0 5.5 199 1.5 1 0.5
9 0 1 0 0 0 1 0 0 0 1 0 1.5 197 1.5 1 0.5
9 0 1 0 0 0 1 0 0 0 1 0 -3.5 181 1.5 1 0.5
9 0 1 0 0 0 1 0 0 0 1 0 -5.5 179 1.5 1 0.5
9 0 1 0 0 0 1 0 0 0 1 0 -10 53.5 1.5 0.5 1
9 0 1 0 0 0 1 0 0 0 1 0 -10.5 125 1.5 1 0.5
9 0 1 0 0 0 1 0 0 0 1 0 -11.5 114 1.5 1 0.5
9 0 1 0 0 0 1 0 0 0 1 0 -15 130.5 1.5 0.5 1
9 0 1 0 0 0 1 0 0 0 1 0 -16 132.5 1.5 0.5 1
9 0 1 0 0 0 1 0 0 0 1 0 -16 167.5 1.5 0.5 1
9 0 1 0 0 0 1 0 0 0 1 0 -18 135.5 1.5 0.5 1
9 0 1 0 0 0 1 0 0 0 1 0 -20 121.5 1.5 0.5 1
9 0 1 0 0 0 1 0 0 0 1 0 -22 179.5 1.5 0.5 1
9 0 1 0 0 0 1 0 0 0 1 0 -23 124.5 1.5 0.5 1
9 0 1 0 0 0 1 0 0 0 1 0 -24 176.5 1.5 0.5 1
9 0 1 0 0 0 1 0 0 0 1 0 -27 171.5 1.5 0.5 1
9 0 1 0 0 0 1 0 0 0 1 0 -28 133.5 1.5 0.5 1
9 0 1 0 0 0 1 0 0 0 1 0 -31 161.5 1.5 0.5 1
9 0 1 0 0 0 1 0 0 0 1 -2 42 143.5 0.5 0.5 3
9 0 1 0 0 0 1 0 0 0 1 -2 35 144.5 0.5 0.5 3
9 0 1 0 0 0 1 0 0 0 1 -2 17.5 154 0.5 3 0.5
9 0 1 0 0 0 1 0 0 0 1 -2 -32 152.5 0.5 0.5 3
9 0 1 0 0 0 1 0 0 0 1 -3 69 149.5 0.5 0.5 3
9 0 1 0 0 0 1 0 0 0 1 -3 37.5 187 0.5 3 0.5
9 0 1 0 0 0 1 0 0 0 1 -2.5 33 131 1 0.5 1.5
9 0 1 0 0 0 1 0 0 0 1 -3 28.5 155 0.5 3 0.5
9 0 1 0 0 0 1 0 0 0 1 -2.5 17 159 1 1.5 0.5
9 0 1 0 0 0 1 0 0 0 1 -3 -3 112.5 0.5 1.5 1
9 0 1 0 0 0 1 0 0 0 1 -3 -12 116.5 0.5 1.5 1
9 0 1 0 0 0 1 0 0 0 1 -4 78.5 161 0.5 1 1.5
9 0 1 0 0 0 1 0 0 0 1 -4 71.5 142 0.5 1 1.5
9 0 1 0 0 0 1 0 0 0 1 -4 68.5 122 0.5 1 1.5
9 0 1 0 0 0 1 0 0 0 1 -3.5 62 111 1 0.5 1.5
9 0 1 0 0 0 1 0 0 0 1 -3.5 53 193 1 1.5 0.5
9 0 1 0 0 0 1 0 0 0 1 -3.5 50 80 1 1.5 0.5
9 0 1 0 0 0 1 0 0 0 1 -3.5 46 196 1 1.5 0.5
9 0 1 0 0 0 1 0 0 0 1 -4 43 185.5 0.5 1.5 1
9 0 1 0 0 0 1 0 0 0 1 -4 42 75.5 0.5 1.5 1
9 0 1 0 0 0 1 0 0 0 1 -4 40 142.5 0.5 0.5 3
9 0 1 0 0 0 1 0 0 0 1 -3.5 34 88 1 1.5 0.5
9 0 1 0 0 0 1 0 0 0 1 -3.5 25 65 1 1.5 0.5
9 0 1 0 0 0 1 0 0 0 1 -4 25 119.5 0.5 1.5 1
9 0 1 0 0 0 1 0 0 0 1 -4 21 80.5 0.5 1.5 1
9 0 1 0 0 0 1 0 0 0 1 -4 18 117.5 0.5 1.5 1
9 0 1 0 0 0 1 0 0 0 1 -4 12.5 154 0.5 1 1.5
9 0 1 0 0 0 1 0 0 0 1 -3.5 1 195 1 1.5 0.5
9 0 1 0 0 0 1 0 0 0 1 -4 -11.5 187 0.5 1 1.5
9 0 1 0 0 0 1 0 0 0 1 -3.5 -26 134 1 0.5 1.5
9 0 1 0 0 0 1 0 0 0 1 -5 78.5 159 0.5 1 1.5
9 0 1 0 0 0 1 0 0 0 1 -4.5 41 91 1 1.5 0.5
9 0 1 0 0 0 1 0 0 0 1 -4.5 37 89 1 1.5 0.5
9 0 1 0 0 0 1 0 0 0 1 -5 31 69.5 0.5 1.5 1
9 0 1 0 0 0 1 0 0 0 1 -5 17 60.5 0.5 1.5 1
9 0 1 0 0 0 1 0 0 0 1 -4.5 14 76 1 1.5 0.5
9 0 1 0 0 0 1 0 0 0 1 -4 12.5 22 1.5 1 0.5
9 0 1 0 0 0 1 0 0 0 1 -5 4 69.5 0.5 1.5 1
9 0 1 0 0 0 1 0 0 0 1 -5 -5.5 58 0.5 1 1.5
9 0 1 0 0 0 1 0 0 0 1 -5 -6.5 189 0.5 3 0.5
9 0 1 0 0 0 1 0 0 0 1 -5 -14 175.5 0.5 1.5 1
9 0 1 0 0 0 1 0 0 0 1 -5 -19.5 178 0.5 1 1.5
9 0 1 0 0 0 1 0 0 0 1 -6 77.5 116 0.5 1 1.5
9 0 1 0 0 0 1 0 0 0 1 -6 75.5 163 0.5 1 1.5
9 0 1 0 0 0 1 0 0 0 1 -6 73.5 107 0.5 1 1.5
9 0 1 0 0 0 1 0 0 0 1 -6 73.5 167 0.5 1 1.5
9 0 1 0 0 0 1 0 0 0 1 -6 68.5 119 0.5 1 1.5
9 0 1 0 0 0 1 0 0 0 1 -6 67 98.5 0.5 1.5 1
9 0 1 0 0 0 1 0 0 0 1 -6 66.5 115 0.5 1 1.5
9 0 1 0 0 0 1 0 0 0 1 -5.5 41 76 1 1.5 0.5
9 0 1 0 0 0 1 0 0 0 1 -6 9 195.5 0.5 1.5 1
9 0 1 0 0 0 1 0 0 0 1 -6 -10.5 181 0.5 3 0.5
9 0 1 0 0 0 1 0 0 0 1 -6 -22 167.5 0.5 1.5 1
9 0 1 0 0 0 1 0 0 0 1 -6 -26 144.5 0.5 0.5 3
9 0 1 0 0 0 1 0 0 0 1 -7 65.5 111 0.5 1 1.5
9 0 1 0 0 0 1 0 0 0 1 -7 62 94.5 0.5 1.5 1
9 0 1 0 0 0 1 0 0 0 1 -7 59.5 177 0.5 1 1.5
9 0 1 0 0 0 1 0 0 0 1 -7 53.5 183 0.5 1 1.5
9 0 1 0 0 0 1 0 0 0 1 -7 44 90.5 0.5 1.5 1
9 0 1 0 0 0 1 0 0 0 1 -7 43.5 193 0.5 3 0.5
9 0 1 0 0 0 1 0 0 0 1 -7 28 69.5 0.5 1.5 1
9 0 1 0 0 0 1 0 0 0 1 -7 16 61.5 0.5 1.5 1
9 0 1 0 0 0 1 0 0 0 1 -7 12.5 73 0.5 1 1.5
9 0 1 0 0 0 1 0 0 0 1 -7 1.5 190 0.5 3 0.5
9 0 1 0 0 0 1 0 0 0 1 -7 -8 48.5 0.5 0.5 3
9 0 1 0 0 0 1 0 0 0 1 -6 -11.5 22 1.5 1 0.5
9 0 1 0 0 0 1 0 0 0 1 -7 -15 178.5 0.5 1.5 1
9 0 1 0 0 0 1 0 0 0 1 -8 71 163.5 0.5 0.5 3
9 0 1 0 0 0 1 0 0 0 1 -8 65 100.5 0.5 1.5 1
9 0 1 0 0 0 1 0 0 0 1 -8 62.5 104 0.5 1 1.5
9 0 1 0 0 0 1 0 0 0 1 -8 50.5 93 0.5 1 1.5
9 0 1 0 0 0 1 0 0 0 1 -8 50 85.5 0.5 1.5 1
9 0 1 0 0 0 1 0 0 0 1 -8 47 90.5 0.5 1.5 1
9 0 1 0 0 0 1 0 0 0 1 -8 43 80.5 0.5 1.5 1
9 0 1 0 0 0 1 0 0 0 1 -8 29 80.5 0.5 1.5 1
9 0 1 0 0 0 1 0 0 0 1 -8 21 76.5 0.5 1.5 1
9 0 1 0 0 0 1 0 0 0 1 -8 4.5 66 0.5 1 1.5
9 0 1 0 0 0 1 0 0 0 1 -9 68.5 108 0.5 1 1.5
9 0 1 0 0 0 1 0 0 0 1 -9 47.5 89 0.5 1 1.5
9 0 1 0 0 0 1 0 0 0 1 -9 45 83.5 0.5 1.5 1
9 0 1 0 0 0 1 0 0 0 1 -8.5 33 78 1 0.5 1.5
9 0 1 0 0 0 1 0 0 0 1 -9 12 61.5 0.5 1.5 1
9 0 1 0 0 0 1 0 0 0 1 -9 9 58.5 0.5 1.5 1
9 0 1 0 0 0 1 0 0 0 1 -9 -0.5 59 0.5 1 1.5
9 0 1 0 0 0 1 0 0 0 1 -8.5 -4 54 1 0.5 1.5
9 0 1 0 0 0 1 0 0 0 1 -10 24 73.5 0.5 1.5 1
9 0 1 0 0 0 1 0 0 0 1 -10 19.5 71 0.5 1 1.5
9 0 1 0 0 0 1 0 0 0 1 -10 6 42.5 0.5 0.5 3
9 0 1 0 0 0 1 0 0 0 1 -10 4.5 62 0.5 1 1.5
9 0 1 0 0 0 1 0 0 0 1 -11 2.5 55 0.5 1 1.5
9 0 1 0 0 0 1 0 0 0 1 -11.5 6 22 1 1.5 0.5
9 0 1 0 0 0 1 0 0 0 1 -11.5 -6 22 1 1.5 0.5
9 0 1 0 0 0 1 0 0 0 1 12 -1 31 0.5 0.5 2.5
9 0 1 0 0 0 1 0 0 0 1 10 6 55 0.5 0.5 2.5
9 0 1 0 0 0 1 0 0 0 1 9 59 98 0.5 0.5 2.5
9 0 1 0 0 0 1 0 0 0 1 9 -5 52 0.5 0.5 2.5
9 0 1 0 0 0 1 0 0 0 1 8 75 147 0.5 0.5 2.5
9 0 1 0 0 0 1 0 0 0 1 8 59 180 0.5 2.5 0.5
9 0 1 0 0 0 1 0 0 0 1 8 46 190 0.5 2.5 0.5
9 0 1 0 0 0 1 0 0 0 1 7 72 124 0.5 0.5 2.5
9 0 1 0 0 0 1 0 0 0 1 7 10 55 0.5 0.5 2.5
9 0 1 0 0 0 1 0 0 0 1 6 60 105 0.5 2.5 0.5
9 0 1 0 0 0 1 0 0 0 1 6 46 194 0.5 2.5 0.5
9 0 1 0 0 0 1 0 0 0 1 6 28 69 0.5 2.5 0.5
9 0 1 0 0 0 1 0 0 0 1 6 16 191 0.5 2.5 0.5
9 0 1 0 0 0 1 0 0 0 1 6 6 24 0.5 0.5 2.5
9 0 1 0 0 0 1 0 0 0 1 6 6 36 0.5 0.5 2.5
9 0 1 0 0 0 1 0 0 0 1 6 7 190 0.5 2.5 0.5
9 0 1 0 0 0 1 0 0 0 1 6 -6 24 0.5 0.5 2.5
9 0 1 0 0 0 1 0 0 0 1 6 -6 36 0.5 0.5 2.5
9 0 1 0 0 0 1 0 0 0 1 5 68 158 0.5 0.5 2.5
9 0 1 0 0 0 1 0 0 0 1 5 62 177 0.5 0.5 2.5
9 0 1 0 0 0 1 0 0 0 1 5 23 191 0.5 2.5 0.5
9 0 1 0 0 0 1 0 0 0 1 4 29 123 0.5 2.5 0.5
9 0 1 0 0 0 1 0 0 0 1 4 29 189 0.5 2.5 0.5
9 0 1 0 0 0 1 0 0 0 1 4 21 116 0.5 2.5 0.5
9 0 1 0 0 0 1 0 0 0 1 4 -10 48 0.5 0.5 2.5
9 0 1 0 0 0 1 0 0 0 1 3 35 139 0.5 0.5 2.5
9 0 1 0 0 0 1 0 0 0 1 3 37 187 0.5 2.5 0.5
9 0 1 0 0 0 1 0 0 0 1 3 -1 118 0.5 2.5 0.5
9 0 1 0 0 0 1 0 0 0 1 2 2 110 0.5 2.5 0.5
9 0 1 0 0 0 1 0 0 0 1 0 83 120 2.5 0.5 0.5
9 0 1 0 0 0 1 0 0 0 1 0 79 164 2.5 0.5 0.5
9 0 1 0 0 0 1 0 0 0 1 0 77 168 2.5 0.5 0.5
9 0 1 0 0 0 1 0 0 0 1 0 75 172 2.5 0.5 0.5
9 0 1 0 0 0 1 0 0 0 1 0 70 97 2.5 0.5 0.5
9 0 1 0 0 0 1 0 0 0 1 0 68 125 2.5 0.5 0.5
9 0 1 0 0 0 1 0 0 0 1 0 64 91 2.5 0.5 0.5
9 0 1 0 0 0 1 0 0 0 1 0 64 161 2.5 0.5 0.5
9 0 1 0 0 0 1 0 0 0 1 0 63 90 2.5 0.5 0.5
9 0 1 0 0 0 1 0 0 0 1 0 63 116 2.5 0.5 0.5
9 0 1 0 0 0 1 0 0 0 1 0 60 110 2.5 0.5 0.5
9 0 1 0 0 0 1 0 0 0 1 0 58 85 2.5 0.5 0.5
9 0 1 0 0 0 1 0 0 0 1 0 58 171 2.5 0.5 0.5
9 0 1 0 0 0 1 0 0 0 1 0 57 172 2.5 0.5 0.5
9 0 1 0 0 0 1 0 0 0 1 0 55 174 2.5 0.5 0.5
9 0 1 0 0 0 1 0 0 0 1 0 54 81 2.5 0.5 0.5
9 0 1 0 0 0 1 0 0 0 1 0 52 177 2.5 0.5 0.5
9 0 1 0 0 0 1 0 0 0 1 0 52 195 2.5 0.5 0.5
9 0 1 0 0 0 1 0 0 0 1 0 51 178 2.5 0.5 0.5
9 0 1 0 0 0 1 0 0 0 1 0 49 180 2.5 0.5 0.5
9 0 1 0 0 0 1 0 0 0 1 0 48 99 2.5 0.5 0.5
9 0 1 0 0 0 1 0 0 0 1 0 47 181 2.5 0.5 0.5
9 0 1 0 0 0 1 0 0 0 1 0 46 97 2.5 0.5 0.5
9 0 1 0 0 0 1 0 0 0 1 0 44 95 2.5 0.5 0.5
9 0 1 0 0 0 1 0 0 0 1 0 42 94 2.5 0.5 0.5
9 0 1 0 0 0 1 0 0 0 1 0 41 73 2.5 0.5 0.5
9 0 1 0 0 0 1 0 0 0 1 0 35 90 2.5 0.5 0.5
9 0 1 0 0 0 1 0 0 0 1 0 24 84 2.5 0.5 0.5
9 0 1 0 0 0 1 0 0 0 1 0 19 59 2.5 0.5 0.5
9 0 1 0 0 0 1 0 0 0 1 -2 18 113 0.5 2.5 0.5
9 0 1 0 0 0 1 0 0 0 1 0 15 56 2.5 0.5 0.5
9 0 1 0 0 0 1 0 0 0 1 0 15 79 2.5 0.5 0.5
9 0 1 0 0 0 1 0 0 0 1 0 4 72 2.5 0.5 0.5
9 0 1 0 0 0 1 0 0 0 1 0 0 69 2.5 0.5 0.5
9 0 1 0 0 0 1 0 0 0 1 0 -7 122 2.5 0.5 0.5
9 0 1 0 0 0 1 0 0 0 1 0 -9 56 2.5 0.5 0.5
9 0 1 0 0 0 1 0 0 0 1 0 -9 176 2.5 0.5 0.5
9 0 1 0 0 0 1 0 0 0 1 0 -9 192 2.5 0.5 0.5
9 0 1 0 0 0 1 0 0 0 1 0 -11 174 2.5 0.5 0.5
9 0 1 0 0 0 1 0 0 0 1 0 -11 190 2.5 0.5 0.5
9 0 1 0 0 0 1 0 0 0 1 0 -12 189 2.5 0.5 0.5
9 0 1 0 0 0 1 0 0 0 1 0 -13 172 2.5 0.5 0.5
9 0 1 0 0 0 1 0 0 0 1 0 -14 22 2.5 0.5 0.5
9 0 1 0 0 0 1 0 0 0 1 0 -17 185 2.5 0.5 0.5
9 0 1 0 0 0 1 0 0 0 1 0 -19 183 2.5 0.5 0.5
9 0 1 0 0 0 1 0 0 0 1 0 -20 182 2.5 0.5 0.5
9 0 1 0 0 0 1 0 0 0 1 0 -24 127 2.5 0.5 0.5
9 0 1 0 0 0 1 0 0 0 1 -3 -1 118 0.5 2.5 0.5
9 0 1 0 0 0 1 0 0 0 1 -3 -21 161 0.5 0.5 2.5
9 0 1 0 0 0 1 0 0 0 1 -4 29 123 0.5 2.5 0.5
9 0 1 0 0 0 1 0 0 0 1 -4 29 189 0.5 2.5 0.5
9 0 1 0 0 0 1 0 0 0 1 -4 0 117 0.5 2.5 0.5
9 0 1 0 0 0 1 0 0 0 1 -4 -10 48 0.5 0.5 2.5
9 0 1 0 0 0 1 0 0 0 1 -6 79 119 0.5 0.5 2.5
9 0 1 0 0 0 1 0 0 0 1 -6 6 24 0.5 0.5 2.5
9 0 1 0 0 0 1 0 0 0 1 -6 6 36 0.5 0.5 2.5
9 0 1 0 0 0 1 0 0 0 1 -6 7 190 0.5 2.5 0.5
9 0 1 0 0 0 1 0 0 0 1 -6 -6 24 0.5 0.5 2.5
9 0 1 0 0 0 1 0 0 0 1 -6 -6 36 0.5 0.5 2.5
9 0 1 0 0 0 1 0 0 0 1 -6 -10 42 0.5 0.5 2.5
9 0 1 0 0 0 1 0 0 0 1 -7 72 124 0.5 0.5 2.5
9 0 1 0 0 0 1 0 0 0 1 -7 10 55 0.5 0.5 2.5
9 0 1 0 0 0 1 0 0 0 1 -8 75 147 0.5 0.5 2.5
9 0 1 0 0 0 1 0 0 0 1 -8 59 180 0.5 2.5 0.5
9 0 1 0 0 0 1 0 0 0 1 -8 46 190 0.5 2.5 0.5
9 0 1 0 0 0 1 0 0 0 1 -9 59 98 0.5 0.5 2.5
9 0 1 0 0 0 1 0 0 0 1 -10 6 55 0.5 0.5 2.5
9 0 1 0 0 0 1 0 0 0 1 -10 -5 47 0.5 0.5 2.5
9 0 1 0 0 0 1 0 0 0 1 -12 -1 31 0.5 0.5 2.5
9 0 1 0 0 0 1 0 0 0 1 -14 0 22 0.5 2.5 0.5
9 0 1 0 0 0 1 0 0 0 1 12 0 44.5 0.5 0.5 2
9 0 1 0 0 0 1 0 0 0 1 11.5 6.5 22 1 1 0.5
9 0 1 0 0 0 1 0 0 0 1 11.5 -6.5 22 1 1 0.5
9 0 1 0 0 0 1 0 0 0 1 10 21.5 72.5 0.5 1 1
9 0 1 0 0 0 1 0 0 0 1 10 14.5 65.5 0.5 1 1
9 0 1 0 0 0 1 0 0 0 1 10 12.5 68.5 0.5 1 1
9 0 1 0 0 0 1 0 0 0 1 9 53.5 94.5 0.5 1 1
9 0 1 0 0 0 1 0 0 0 1 9 45.5 83.5 0.5 1 1
9 0 1 0 0 0 1 0 0 0 1 9 33.5 82 0.5 2 0.5
9 0 1 0 0 0 1 0 0 0 1 9 23.5 70 0.5 2 0.5
9 0 1 0 0 0 1 0 0 0 1 9.5 8.5 22 1 1 0.5
9 0 1 0 0 0 1 0 0 0 1 9 8 55.5 0.5 0.5 2
9 0 1 0 0 0 1 0 0 0 1 9 3.5 63.5 0.5 1 1
9 0 1 0 0 0 1 0 0 0 1 9 -2.5 56.5 0.5 1 1
9 0 1 0 0 0 1 0 0 0 1 9 -6 48.5 0.5 0.5 2
9 0 1 0 0 0 1 0 0 0 1 9.5 -8.5 22 1 1 0.5
9 0 1 0 0 0 1 0 0 0 1 8 73 155.5 0.5 0.5 2
9 0 1 0 0 0 1 0 0 0 1 8 63.5 176.5 0.5 1 1
9 0 1 0 0 0 1 0 0 0 1 8 61.5 103.5 0.5 1 1
9 0 1 0 0 0 1 0 0 0 1 8 54.5 183.5 0.5 1 1
9 0 1 0 0 0 1 0 0 0 1 8 37.5 77 0.5 2 0.5
9 0 1 0 0 0 1 0 0 0 1 8 34.5 75 0.5 2 0.5
9 0 1 0 0 0 1 0 0 0 1 8 20.5 66 0.5 2 0.5
9 0 1 0 0 0 1 0 0 0 1 8 6.5 68.5 0.5 1 1
9 0 1 0 0 0 1 0 0 0 1 8 -0.5 61.5 0.5 1 1
9 0 1 0 0 0 1 0 0 0 1 8 -4 48.5 0.5 0.5 2
9 0 1 0 0 0 1 0 0 0 1 7 79 149.5 0.5 0.5 2
9 0 1 0 0 0 1 0 0 0 1 7 77 157.5 0.5 0.5 2
9 0 1 0 0 0 1 0 0 0 1 7 76.5 116.5 0.5 1 1
9 0 1 0 0 0 1 0 0 0 1 7 73 147.5 0.5 0.5 2
9 0 1 0 0 0 1 0 0 0 1 7 73.5 164.5 0.5 1 1
9 0 1 0 0 0 1 0 0 0 1 7 71.5 105.5 0.5 1 1
9 0 1 0 0 0 1 0 0 0 1 7 70.5 170.5 0.5 1 1
9 0 1 0 0 0 1 0 0 0 1 7 69 117.5 0.5 0.5 2
9 0 1 0 0 0 1 0 0 0 1 7 67.5 164.5 0.5 1 1
9 0 1 0 0 0 1 0 0 0 1 7 66.5 175.5 0.5 1 1
9 0 1 0 0 0 1 0 0 0 1 7 65 169.5 0.5 0.5 2
9 0 1 0 0 0 1 0 0 0 1 7 59.5 183.5 0.5 1 1
9 0 1 0 0 0 1 0 0 0 1 7 55.5 179.5 0.5 1 1
9 0 1 0 0 0 1 0 0 0 1 7 54.5 87.5 0.5 1 1
9 0 1 0 0 0 1 0 0 0 1 7 54.5 181.5 0.5 1 1
9 0 1 0 0 0 1 0 0 0 1 7.5 48.5 84 1 1 0.5
9 0 1 0 0 0 1 0 0 0 1 7 46.5 80.5 0.5 1 1
9 0 1 0 0 0 1 0 0 0 1 7 37.5 191 0.5 2 0.5
9 0 1 0 0 0 1 0 0 0 1 7 16.5 61.5 0.5 1 1
9 0 1 0 0 0 1 0 0 0 1 7 -1.5 189 0.5 2 0.5
9 0 1 0 0 0 1 0 0 0 1 7 -3.5 188 0.5 2 0.5
9 0 1 0 0 0 1 0 0 0 1 7 -8.5 184.5 0.5 1 1
9 0 1 0 0 0 1 0 0 0 1 7 -10.5 182.5 0.5 1 1
9 0 1 0 0 0 1 0 0 0 1 7 -12.5 180.5 0.5 1 1
9 0 1 0 0 0 1 0 0 0 1 7 -17 176.5 0.5 0.5 2
9 0 1 0 0 0 1 0 0 0 1 6 81 147.5 0.5 0.5 2
9 0 1 0 0 0 1 0 0 0 1 6 79.5 119.5 0.5 1 1
9 0 1 0 0 0 1 0 0 0 1 6 74.5 164 0.5 2 0.5
9 0 1 0 0 0 1 0 0 0 1 6 72 145.5 0.5 0.5 2
9 0 1 0 0 0 1 0 0 0 1 6 66.5 97.5 0.5 1 1
9 0 1 0 0 0 1 0 0 0 1 6.5 63 94.5 1 0.5 1
9 0 1 0 0 0 1 0 0 0 1 6 61.5 92.5 0.5 1 1
9 0 1 0 0 0 1 0 0 0 1 6 58.5 89.5 0.5 1 1
9 0 1 0 0 0 1 0 0 0 1 6 56.5 102.5 0.5 1 1
9 0 1 0 0 0 1 0 0 0 1 6 56 178.5 0.5 0.5 2
9 0 1 0 0 0 1 0 0 0 1 6 51.5 98.5 0.5 1 1
9 0 1 0 0 0 1 0 0 0 1 6 46.5 93 0.5 2 0.5
9 0 1 0 0 0 1 0 0 0 1 6.5 36.5 74 1 1 0.5
9 0 1 0 0 0 1 0 0 0 1 6.5 26.5 82 1 1 0.5
9 0 1 0 0 0 1 0 0 0 1 6.5 13.5 59 1 1 0.5
9 0 1 0 0 0 1 0 0 0 1 6.5 11 72.5 1 0.5 1
9 0 1 0 0 0 1 0 0 0 1 6 -0.5 191.5 0.5 1 1
9 0 1 0 0 0 1 0 0 0 1 6 -7.5 187.5 0.5 1 1
9 0 1 0 0 0 1 0 0 0 1 6 -12.5 183 0.5 2 0.5
9 0 1 0 0 0 1 0 0 0 1 6 -21.5 172.5 0.5 1 1
9 0 1 0 0 0 1 0 0 0 1 6 -26 163.5 0.5 0.5 2
9 0 1 0 0 0 1 0 0 0 1 5 82 147.5 0.5 0.5 2
9 0 1 0 0 0 1 0 0 0 1 5 80 155.5 0.5 0.5 2
9 0 1 0 0 0 1 0 0 0 1 5 69 153.5 0.5 0.5 2
9 0 1 0 0 0 1 0 0 0 1 5.5 69 175.5 1 0.5 1
9 0 1 0 0 0 1 0 0 0 1 5.5 66.5 179 1 1 0.5
9 0 1 0 0 0 1 0 0 0 1 5.5 60 173.5 1 0.5 1
9 0 1 0 0 0 1 0 0 0 1 5.5 55 178.5 1 0.5 1
9 0 1 0 0 0 1 0 0 0 1 5.5 52 181.5 1 0.5 1
9 0 1 0 0 0 1 0 0 0 1 5 53.5 183 0.5 2 0.5
9 0 1 0 0 0 1 0 0 0 1 5.5 36.5 73 1 1 0.5
9 0 1 0 0 0 1 0 0 0 1 5.5 34.5 87 1 1 0.5
9 0 1 0 0 0 1 0 0 0 1 5 14.5 115 0.5 2 0.5
9 0 1 0 0 0 1 0 0 0 1 5.5 6.5 71 1 1 0.5
9 0 1 0 0 0 1 0 0 0 1 5.5 2 67.5 1 0.5 1
9 0 1 0 0 0 1 0 0 0 1 5 2.5 194.5 0.5 1 1
9 0 1 0 0 0 1 0 0 0 1 5 -4 190.5 0.5 0.5 2
9 0 1 0 0 0 1 0 0 0 1 5.5 -7 182.5 1 0.5 1
9 0 1 0 0 0 1 0 0 0 1 5 -9 51.5 0.5 0.5 2
9 0 1 0 0 0 1 0 0 0 1 5.5 -9.5 180 1 1 0.5
9 0 1 0 0 0 1 0 0 0 1 5 -13.5 175.5 0.5 1 1
9 0 1 0 0 0 1 0 0 0 1 5 -16 172.5 0.5 0.5 2
9 0 1 0 0 0 1 0 0 0 1 5 -17.5 170.5 0.5 1 1
9 0 1 0 0 0 1 0 0 0 1 5 -19.5 167.5 0.5 1 1
9 0 1 0 0 0 1 0 0 0 1 5 -21 128.5 0.5 0.5 2
9 0 1 0 0 0 1 0 0 0 1 5 -21.5 164.5 0.5 1 1
9 0 1 0 0 0 1 0 0 0 1 5 -22.5 130.5 0.5 1 1
9 0 1 0 0 0 1 0 0 0 1 4 82 149.5 0.5 0.5 2
9 0 1 0 0 0 1 0 0 0 1 4.5 75 167.5 1 0.5 1
9 0 1 0 0 0 1 0 0 0 1 4.5 66 116.5 1 0.5 1
9 0 1 0 0 0 1 0 0 0 1 4.5 64 165.5 1 0.5 1
9 0 1 0 0 0 1 0 0 0 1 4.5 62.5 184 1 1 0.5
9 0 1 0 0 0 1 0 0 0 1 4.5 61.5 109 1 1 0.5
9 0 1 0 0 0 1 0 0 0 1 4.5 56 103.5 1 0.5 1
9 0 1 0 0 0 1 0 0 0 1 4.5 53 100.5 1 0.5 1
9 0 1 0 0 0 1 0 0 0 1 4 51.5 81 0.5 2 0.5
9 0 1 0 0 0 1 0 0 0 1 4.5 49.5 194 1 1 0.5
9 0 1 0 0 0 1 0 0 0 1 4.5 47.5 183 1 1 0.5
9 0 1 0 0 0 1 0 0 0 1 4.5 42.5 197 1 1 0.5
9 0 1 0 0 0 1 0 0 0 1 4 33 128.5 0.5 0.5 2
9 0 1 0 0 0 1 0 0 0 1 4 32.5 154.5 0.5 1 1
9 0 1 0 0 0 1 0 0 0 1 4.5 29.5 85 1 1 0.5
9 0 1 0 0 0 1 0 0 0 1 4.5 27 83.5 1 0.5 1
9 0 1 0 0 0 1 0 0 0 1 4 16.5 200 0.5 2 0.5
9 0 1 0 0 0 1 0 0 0 1 4 11.5 199 0.5 2 0.5
9 0 1 0 0 0 1 0 0 0 1 4 -4.5 192.5 0.5 1 1
9 0 1 0 0 0 1 0 0 0 1 4 -10.5 122 0.5 2 0.5
9 0 1 0 0 0 1 0 0 0 1 4 -15.5 127.5 0.5 1 1
9 0 1 0 0 0 1 0 0 0 1 3.5 82 120.5 1 0.5 1
9 0 1 0 0 0 1 0 0 0 1 3 81 156.5 0.5 0.5 2
9 0 1 0 0 0 1 0 0 0 1 3.5 80.5 118 1 1 0.5
9 0 1 0 0 0 1 0 0 0 1 3 73.5 172.5 0.5 1 1
9 0 1 0 0 0 1 0 0 0 1 3.5 71.5 100 1 1 0.5
9 0 1 0 0 0 1 0 0 0 1 3.5 67 157.5 1 0.5 1
9 0 1 0 0 0 1 0 0 0 1 3.5 66.5 95 1 1 0.5
9 0 1 0 0 0 1 0 0 0 1 3 66.5 98.5 0.5 1 1
9 0 1 0 0 0 1 0 0 0 1 3.5 64.5 93 1 1 0.5
9 0 1 0 0 0 1 0 0 0 1 3.5 63 112.5 1 0.5 1
9 0 1 0 0 0 1 0 0 0 1 3 61 169.5 0.5 0.5 2
9 0 1 0 0 0 1 0 0 0 1 3.5 59.5 88 1 1 0.5
9 0 1 0 0 0 1 0 0 0 1 3.5 56.5 85 1 1 0.5
9 0 1 0 0 0 1 0 0 0 1 3.5 55 176.5 1 0.5 1
9 0 1 0 0 0 1 0 0 0 1 3.5 53.5 193 1 1 0.5
9 0 1 0 0 0 1 0 0 0 1 4.5 50 98 2 0.5 0.5
9 0 1 0 0 0 1 0 0 0 1 3.5 47.5 97 1 1 0.5
9 0 1 0 0 0 1 0 0 0 1 3 46.5 182.5 0.5 1 1
9 0 1 0 0 0 1 0 0 0 1 3.5 42 92.5 1 0.5 1
9 0 1 0 0 0 1 0 0 0 1 3 35 147.5 0.5 0.5 2
9 0 1 0 0 0 1 0 0 0 1 3.5 33.5 70 1 1 0.5
9 0 1 0 0 0 1 0 0 0 1 3 26.5 123.5 0.5 1 1
9 0 1 0 0 0 1 0 0 0 1 3.5 23.5 64 1 1 0.5
9 0 1 0 0 0 1 0 0 0 1 3.5 21.5 62 1 1 0.5
9 0 1 0 0 0 1 0 0 0 1 3.5 18.5 60 1 1 0.5
9 0 1 0 0 0 1 0 0 0 1 3.5 13.5 56 1 1 0.5
9 0 1 0 0 0 1 0 0 0 1 3.5 12.5 22 1 1 0.5
9 0 1 0 0 0 1 0 0 0 1 3.5 1.5 185 1 1 0.5
9 0 1 0 0 0 1 0 0 0 1 3 -2.5 183 0.5 2 0.5
9 0 1 0 0 0 1 0 0 0 1 3.5 -7.5 120 1 1 0.5
9 0 1 0 0 0 1 0 0 0 1 3.5 -9.5 190 1 1 0.5
9 0 1 0 0 0 1 0 0 0 1 3.5 -14 118.5 1 0.5 1
9 0 1 0 0 0 1 0 0 0 1 3.5 -20 135.5 1 0.5 1
9 0 1 0 0 0 1 0 0 0 1 3.5 -20 180.5 1 0.5 1
9 0 1 0 0 0 1 0 0 0 1 3.5 -22 125.5 1 0.5 1
9 0 1 0 0 0 1 0 0 0 1 3.5 -23 175.5 1 0.5 1
9 0 1 0 0 0 1 0 0 0 1 3.5 -24 129.5 1 0.5 1
9 0 1 0 0 0 1 0 0 0 1 3.5 -28 166.5 1 0.5 1
9 0 1 0 0 0 1 0 0 0 1 3 -30 140.5 0.5 0.5 2
9 0 1 0 0 0 1 0 0 0 1 2.5 67 181.5 1 0.5 1
9 0 1 0 0 0 1 0 0 0 1 2.5 61 187.5 1 0.5 1
9 0 1 0 0 0 1 0 0 0 1 2.5 34 148.5 1 0.5 1
9 0 1 0 0 0 1 0 0 0 1 2.5 28.5 154 1 1 0.5
9 0 1 0 0 0 1 0 0 0 1 2.5 28.5 159 1 1 0.5
9 0 1 0 0 0 1 0 0 0 1 2.5 27.5 119 1 1 0.5
9 0 1 0 0 0 1 0 0 0 1 2.5 20.5 120 1 1 0.5
9 0 1 0 0 0 1 0 0 0 1 2.5 17.5 113 1 1 0.5
9 0 1 0 0 0 1 0 0 0 1 2 18.5 188 0.5 2 0.5
9 0 1 0 0 0 1 0 0 0 1 2.5 11.5 151 1 1 0.5
9 0 1 0 0 0 1 0 0 0 1 2.5 -4.5 181 1 1 0.5
9 0 1 0 0 0 1 0 0 0 1 2.5 -12 174.5 1 0.5 1
9 0 1 0 0 0 1 0 0 0 1 2.5 -12.5 188 1 1 0.5
9 0 1 0 0 0 1 0 0 0 1 2.5 -13.5 173 1 1 0.5
9 0 1 0 0 0 1 0 0 0 1 2.5 -15.5 170 1 1 0.5
9 0 1 0 0 0 1 0 0 0 1 2 -18.5 165.5 0.5 1 1
9 0 1 0 0 0 1 0 0 0 1 2 -21 156.5 0.5 0.5 2
9 0 1 0 0 0 1 0 0 0 1 -2 18.5 188 0.5 2 0.5
9 0 1 0 0 0 1 0 0 0 1 -2 11.5 151 0.5 2 0.5
9 0 1 0 0 0 1 0 0 0 1 -2 -1.5 119 0.5 2 0.5
9 0 1 0 0 0 1 0 0 0 1 -0.5 -15 117 2 0.5 0.5
9 0 1 0 0 0 1 0 0 0 1 -2 -15.5 118.5 0.5 1 1
9 0 1 0 0 0 1 0 0 0 1 -0.5 -17 119 2 0.5 0.5
9 0 1 0 0 0 1 0 0 0 1 -3 81 156.5 0.5 0.5 2
9 0 1 0 0 0 1 0 0 0 1 -3 73.5 172.5 0.5 1 1
9 0 1 0 0 0 1 0 0 0 1 -3 67 156.5 0.5 0.5 2
9 0 1 0 0 0 1 0 0 0 1 -2.5 67 181.5 1 0.5 1
9 0 1 0 0 0 1 0 0 0 1 -3 61 169.5 0.5 0.5 2
9 0 1 0 0 0 1 0 0 0 1 -2.5 61 187.5 1 0.5 1
9 0 1 0 0 0 1 0 0 0 1 -3 54.5 176.5 0.5 1 1
9 0 1 0 0 0 1 0 0 0 1 -3 46.5 182.5 0.5 1 1
9 0 1 0 0 0 1 0 0 0 1 -3 41.5 92.5 0.5 1 1
9 0 1 0 0 0 1 0 0 0 1 -2.5 39 132.5 1 0.5 1
9 0 1 0 0 0 1 0 0 0 1 -2.5 28.5 154 1 1 0.5
9 0 1 0 0 0 1 0 0 0 1 -2.5 28.5 159 1 1 0.5
9 0 1 0 0 0 1 0 0 0 1 -3 26.5 123.5 0.5 1 1
9 0 1 0 0 0 1 0 0 0 1 -3 12.5 156.5 0.5 1 1
9 0 1 0 0 0 1 0 0 0 1 -3 6.5 187 0.5 2 0.5
9 0 1 0 0 0 1 0 0 0 1 -2.5 -19 164.5 1 0.5 1
9 0 1 0 0 0 1 0 0 0 1 -3 -28.5 166.5 0.5 1 1
9 0 1 0 0 0 1 0 0 0 1 -3 -30 140.5 0.5 0.5 2
9 0 1 0 0 0 1 0 0 0 1 -4 81 153.5 0.5 0.5 2
9 0 1 0 0 0 1 0 0 0 1 -4 80.5 118.5 0.5 1 1
9 0 1 0 0 0 1 0 0 0 1 -4 78.5 114.5 0.5 1 1
9 0 1 0 0 0 1 0 0 0 1 -4 69.5 98.5 0.5 1 1
9 0 1 0 0 0 1 0 0 0 1 -4 66.5 95.5 0.5 1 1
9 0 1 0 0 0 1 0 0 0 1 -4 66.5 180.5 0.5 1 1
9 0 1 0 0 0 1 0 0 0 1 -3.5 64.5 93 1 1 0.5
9 0 1 0 0 0 1 0 0 0 1 -4 62.5 184.5 0.5 1 1
9 0 1 0 0 0 1 0 0 0 1 -4 55.5 103.5 0.5 1 1
9 0 1 0 0 0 1 0 0 0 1 -3.5 54.5 83 1 1 0.5
9 0 1 0 0 0 1 0 0 0 1 -4 52.5 100.5 0.5 1 1
9 0 1 0 0 0 1 0 0 0 1 -3.5 47.5 97 1 1 0.5
9 0 1 0 0 0 1 0 0 0 1 -4 42.5 197.5 0.5 1 1
9 0 1 0 0 0 1 0 0 0 1 -3.5 37.5 72 1 1 0.5
9 0 1 0 0 0 1 0 0 0 1 -4 26.5 83.5 0.5 1 1
9 0 1 0 0 0 1 0 0 0 1 -3.5 15.5 58 1 1 0.5
9 0 1 0 0 0 1 0 0 0 1 -4 11.5 199 0.5 2 0.5
9 0 1 0 0 0 1 0 0 0 1 -4 0.5 185 0.5 2 0.5
9 0 1 0 0 0 1 0 0 0 1 -4 -2.5 113 0.5 2 0.5
9 0 1 0 0 0 1 0 0 0 1 -4 -4.5 182.5 0.5 1 1
9 0 1 0 0 0 1 0 0 0 1 -3.5 -4.5 193 1 1 0.5
9 0 1 0 0 0 1 0 0 0 1 -3.5 -9.5 190 1 1 0.5
9 0 1 0 0 0 1 0 0 0 1 -4 -10.5 122 0.5 2 0.5
9 0 1 0 0 0 1 0 0 0 1 -3.5 -14.5 127 1 1 0.5
9 0 1 0 0 0 1 0 0 0 1 -4 -18 168.5 0.5 0.5 2
9 0 1 0 0 0 1 0 0 0 1 -3.5 -20 180.5 1 0.5 1
9 0 1 0 0 0 1 0 0 0 1 -3.5 -21 137.5 1 0.5 1
9 0 1 0 0 0 1 0 0 0 1 -3.5 -22 125.5 1 0.5 1
9 0 1 0 0 0 1 0 0 0 1 -3.5 -23 175.5 1 0.5 1
9 0 1 0 0 0 1 0 0 0 1 -3.5 -24 129.5 1 0.5 1
9 0 1 0 0 0 1 0 0 0 1 -5 81 151.5 0.5 0.5 2
9 0 1 0 0 0 1 0 0 0 1 -5 80 155.5 0.5 0.5 2
9 0 1 0 0 0 1 0 0 0 1 -4.5 76 165.5 1 0.5 1
9 0 1 0 0 0 1 0 0 0 1 -4.5 73 103.5 1 0.5 1
9 0 1 0 0 0 1 0 0 0 1 -4.5 72 173.5 1 0.5 1
9 0 1 0 0 0 1 0 0 0 1 -5 68.5 177.5 0.5 1 1
9 0 1 0 0 0 1 0 0 0 1 -4.5 65 94.5 1 0.5 1
9 0 1 0 0 0 1 0 0 0 1 -5 65.5 180.5 0.5 1 1
9 0 1 0 0 0 1 0 0 0 1 -5 62.5 183.5 0.5 1 1
9 0 1 0 0 0 1 0 0 0 1 -4.5 61.5 109 1 1 0.5
9 0 1 0 0 0 1 0 0 0 1 -4.5 54.5 84 1 1 0.5
9 0 1 0 0 0 1 0 0 0 1 -4.5 47.5 183 1 1 0.5
9 0 1 0 0 0 1 0 0 0 1 -5 38.5 74 0.5 2 0.5
9 0 1 0 0 0 1 0 0 0 1 -5 35.5 72 0.5 2 0.5
9 0 1 0 0 0 1 0 0 0 1 -4.5 29.5 85 1 1 0.5
9 0 1 0 0 0 1 0 0 0 1 -5 24.5 65.5 0.5 1 1
9 0 1 0 0 0 1 0 0 0 1 -5 21.5 63.5 0.5 1 1
9 0 1 0 0 0 1 0 0 0 1 -5 22.5 191 0.5 2 0.5
9 0 1 0 0 0 1 0 0 0 1 -5 14.5 115 0.5 2 0.5
9 0 1 0 0 0 1 0 0 0 1 -5 8.5 72.5 0.5 1 1
9 0 1 0 0 0 1 0 0 0 1 -5 8.5 197 0.5 2 0.5
9 0 1 0 0 0 1 0 0 0 1 -4.5 4.5 187 1 1 0.5
9 0 1 0 0 0 1 0 0 0 1 -5 2.5 194.5 0.5 1 1
9 0 1 0 0 0 1 0 0 0 1 -5 1.5 67.5 0.5 1 1
9 0 1 0 0 0 1 0 0 0 1 -4.5 -4 61.5 1 0.5 1
9 0 1 0 0 0 1 0 0 0 1 -4.5 -4.5 192 1 1 0.5
9 0 1 0 0 0 1 0 0 0 1 -5 -10.5 178.5 0.5 1 1
9 0 1 0 0 0 1 0 0 0 1 -5 -21 128.5 0.5 0.5 2
9 0 1 0 0 0 1 0 0 0 1 -5 -21.5 134.5 0.5 1 1
9 0 1 0 0 0 1 0 0 0 1 -5 -21.5 164.5 0.5 1 1
9 0 1 0 0 0 1 0 0 0 1 -5 -23 172.5 0.5 0.5 2
9 0 1 0 0 0 1 0 0 0 1 -5 -26 167.5 0.5 0.5 2
9 0 1 0 0 0 1 0 0 0 1 -6 81 147.5 0.5 0.5 2
9 0 1 0 0 0 1 0 0 0 1 -6 71 149.5 0.5 0.5 2
9 0 1 0 0 0 1 0 0 0 1 -6 69.5 100.5 0.5 1 1
9 0 1 0 0 0 1 0 0 0 1 -5.5 69 121.5 1 0.5 1
9 0 1 0 0 0 1 0 0 0 1 -6 67 162.5 0.5 0.5 2
9 0 1 0 0 0 1 0 0 0 1 -6 64 168.5 0.5 0.5 2
9 0 1 0 0 0 1 0 0 0 1 -6 56.5 102.5 0.5 1 1
9 0 1 0 0 0 1 0 0 0 1 -6 56.5 177.5 0.5 1 1
9 0 1 0 0 0 1 0 0 0 1 -6 54.5 85.5 0.5 1 1
9 0 1 0 0 0 1 0 0 0 1 -6 53.5 180.5 0.5 1 1
9 0 1 0 0 0 1 0 0 0 1 -6 48.5 80.5 0.5 1 1
9 0 1 0 0 0 1 0 0 0 1 -6 46.5 93 0.5 2 0.5
9 0 1 0 0 0 1 0 0 0 1 -5.5 34.5 87 1 1 0.5
9 0 1 0 0 0 1 0 0 0 1 -5.5 19.5 79 1 1 0.5
9 0 1 0 0 0 1 0 0 0 1 -6 -2 62.5 0.5 0.5 2
9 0 1 0 0 0 1 0 0 0 1 -6 -7.5 187.5 0.5 1 1
9 0 1 0 0 0 1 0 0 0 1 -6 -9 47.5 0.5 0.5 2
9 0 1 0 0 0 1 0 0 0 1 -6 -12.5 182.5 0.5 1 1
9 0 1 0 0 0 1 0 0 0 1 -6 -15.5 175.5 0.5 1 1
9 0 1 0 0 0 1 0 0 0 1 -6 -21.5 172.5 0.5 1 1
9 0 1 0 0 0 1 0 0 0 1 -6 -26 163.5 0.5 0.5 2
9 0 1 0 0 0 1 0 0 0 1 -7 79 149.5 0.5 0.5 2
9 0 1 0 0 0 1 0 0 0 1 -7 72 151.5 0.5 0.5 2
9 0 1 0 0 0 1 0 0 0 1 -7 65.5 176.5 0.5 1 1
9 0 1 0 0 0 1 0 0 0 1 -7 64 171.5 0.5 0.5 2
9 0 1 0 0 0 1 0 0 0 1 -7 61.5 181.5 0.5 1 1
9 0 1 0 0 0 1 0 0 0 1 -7 57.5 89.5 0.5 1 1
9 0 1 0 0 0 1 0 0 0 1 -7 56.5 186.5 0.5 1 1
9 0 1 0 0 0 1 0 0 0 1 -7 54.5 87.5 0.5 1 1
9 0 1 0 0 0 1 0 0 0 1 -7 49.5 82.5 0.5 1 1
9 0 1 0 0 0 1 0 0 0 1 -7 49.5 191 0.5 2 0.5
9 0 1 0 0 0 1 0 0 0 1 -7 43.5 79 0.5 2 0.5
9 0 1 0 0 0 1 0 0 0 1 -7 36.5 86.5 0.5 1 1
9 0 1 0 0 0 1 0 0 0 1 -6.5 26.5 82 1 1 0.5
9 0 1 0 0 0 1 0 0 0 1 -6.5 11.5 22 1 1 0.5
9 0 1 0 0 0 1 0 0 0 1 -6.5 4.5 69 1 1 0.5
9 0 1 0 0 0 1 0 0 0 1 -7 -1.5 189 0.5 2 0.5
9 0 1 0 0 0 1 0 0 0 1 -6.5 -5 57.5 1 0.5 1
9 0 1 0 0 0 1 0 0 0 1 -7 -3.5 188 0.5 2 0.5
9 0 1 0 0 0 1 0 0 0 1 -7 -8.5 184.5 0.5 1 1
9 0 1 0 0 0 1 0 0 0 1 -7 -10.5 182.5 0.5 1 1
9 0 1 0 0 0 1 0 0 0 1 -7 -12.5 180.5 0.5 1 1
9 0 1 0 0 0 1 0 0 0 1 -7 -17 176.5 0.5 0.5 2
9 0 1 0 0 0 1 0 0 0 1 -8 73 155.5 0.5 0.5 2
9 0 1 0 0 0 1 0 0 0 1 -8 69.5 104.5 0.5 1 1
9 0 1 0 0 0 1 0 0 0 1 -8 68.5 114.5 0.5 1 1
9 0 1 0 0 0 1 0 0 0 1 -8 63.5 176.5 0.5 1 1
9 0 1 0 0 0 1 0 0 0 1 -8 60.5 95.5 0.5 1 1
9 0 1 0 0 0 1 0 0 0 1 -8 56.5 91.5 0.5 1 1
9 0 1 0 0 0 1 0 0 0 1 -8 54.5 183.5 0.5 1 1
9 0 1 0 0 0 1 0 0 0 1 -8 37.5 77 0.5 2 0.5
9 0 1 0 0 0 1 0 0 0 1 -8 6.5 68.5 0.5 1 1
9 0 1 0 0 0 1 0 0 0 1 -8.5 53 89.5 1 0.5 1
9 0 1 0 0 0 1 0 0 0 1 -9 53.5 94.5 0.5 1 1
9 0 1 0 0 0 1 0 0 0 1 -9 40.5 85.5 0.5 1 1
9 0 1 0 0 0 1 0 0 0 1 -9 17.5 73.5 0.5 1 1
9 0 1 0 0 0 1 0 0 0 1 -8.5 9.5 22 1 1 0.5
9 0 1 0 0 0 1 0 0 0 1 -9 8 55.5 0.5 0.5 2
9 0 1 0 0 0 1 0 0 0 1 -9 1.5 61.5 0.5 1 1
9 0 1 0 0 0 1 0 0 0 1 -9 -6 48.5 0.5 0.5 2
9 0 1 0 0 0 1 0 0 0 1 -8.5 -9.5 22 1 1 0.5
9 0 1 0 0 0 1 0 0 0 1 -10 21.5 72.5 0.5 1 1
9 0 1 0 0 0 1 0 0 0 1 -10 14.5 65.5 0.5 1 1
9 0 1 0 0 0 1 0 0 0 1 -10 12.5 68.5 0.5 1 1
9 0 1 0 0 0 1 0 0 0 1 -10 -2.5 53.5 0.5 1 1
9 0 1 0 0 0 1 0 0 0 1 -12 0 44.5 0.5 0.5 2
9 0 1 0 0 0 1 0 0 0 1 12 -1 38 0.5 0.5 1.5
9 0 1 0 0 0 1 0 0 0 1 10 1 59 0.5 0.5 1.5
9 0 1 0 0 0 1 0 0 0 1 10 -4 51 0.5 0.5 1.5
9 0 1 0 0 0 1 0 0 0 1 9 67 107 0.5 0.5 1.5
9 0 1 0 0 0 1 0 0 0 1 9 29 73 0.5 1.5 0.5
9 0 1 0 0 0 1 0 0 0 1 9 12 70 0.5 1.5 0.5
9 0 1 0 0 0 1 0 0 0 1 8 76 119 0.5 0.5 1.5
9 0 1 0 0 0 1 0 0 0 1 8 76 154 0.5 0.5 1.5
9 0 1 0 0 0 1 0 0 0 1 8 66 171 0.5 0.5 1.5
9 0 1 0 0 0 1 0 0 0 1 8 65 108 0.5 0.5 1.5
9 0 1 0 0 0 1 0 0 0 1 8 49 187 0.5 1.5 0.5
9 0 1 0 0 0 1 0 0 0 1 8 44 89 0.5 1.5 0.5
9 0 1 0 0 0 1 0 0 0 1 8 44 191 0.5 1.5 0.5
9 0 1 0 0 0 1 0 0 0 1 8 42 192 0.5 1.5 0.5
9 0 1 0 0 0 1 0 0 0 1 8 36 85 0.5 1.5 0.5
9 0 1 0 0 0 1 0 0 0 1 8 27 70 0.5 1.5 0.5
9 0 1 0 0 0 1 0 0 0 1 8 23 78 0.5 1.5 0.5
9 0 1 0 0 0 1 0 0 0 1 8 12 72 0.5 1.5 0.5
9 0 1 0 0 0 1 0 0 0 1 7 75 113 0.5 0.5 1.5
9 0 1 0 0 0 1 0 0 0 1 7 53 190 0.5 1.5 0.5
9 0 1 0 0 0 1 0 0 0 1 7 48 192 0.5 1.5 0.5
9 0 1 0 0 0 1 0 0 0 1 7 46 187 0.5 1.5 0.5
9 0 1 0 0 0 1 0 0 0 1 7 44 91 0.5 1.5 0.5
9 0 1 0 0 0 1 0 0 0 1 7 31 84 0.5 1.5 0.5
9 0 1 0 0 0 1 0 0 0 1 7 22 69 0.5 1.5 0.5
9 0 1 0 0 0 1 0 0 0 1 7 12 195 0.5 1.5 0.5
9 0 1 0 0 0 1 0 0 0 1 8 10 22 1.5 0.5 0.5
9 0 1 0 0 0 1 0 0 0 1 8 -10 22 1.5 0.5 0.5
9 0 1 0 0 0 1 0 0 0 1 7 -18 175 0.5 0.5 1.5
9 0 1 0 0 0 1 0 0 0 1 6 74 107 0.5 0.5 1.5
9 0 1 0 0 0 1 0 0 0 1 6 73 115 0.5 1.5 0.5
9 0 1 0 0 0 1 0 0 0 1 6 70 174 0.5 0.5 1.5
9 0 1 0 0 0 1 0 0 0 1 6 57 185 0.5 1.5 0.5
9 0 1 0 0 0 1 0 0 0 1 6 48 184 0.5 1.5 0.5
9 0 1 0 0 0 1 0 0 0 1 6 44 78 0.5 1.5 0.5
9 0 1 0 0 0 1 0 0 0 1 6 43 187 0.5 1.5 0.5
9 0 1 0 0 0 1 0 0 0 1 6 22 65 0.5 1.5 0.5
9 0 1 0 0 0 1 0 0 0 1 6 17 61 0.5 1.5 0.5
9 0 1 0 0 0 1 0 0 0 1 6 12 59 0.5 0.5 1.5
9 0 1 0 0 0 1 0 0 0 1 6 13 75 0.5 1.5 0.5
9 0 1 0 0 0 1 0 0 0 1 6 9 196 0.5 1.5 0.5
9 0 1 0 0 0 1 0 0 0 1 6 0 187 0.5 1.5 0.5
9 0 1 0 0 0 1 0 0 0 1 6 -5 185 0.5 1.5 0.5
9 0 1 0 0 0 1 0 0 0 1 6 -23 165 0.5 0.5 1.5
9 0 1 0 0 0 1 0 0 0 1 6 -25 157 0.5 0.5 1.5
9 0 1 0 0 0 1 0 0 0 1 6 -28 154 0.5 0.5 1.5
9 0 1 0 0 0 1 0 0 0 1 5 62 170 0.5 0.5 1.5
9 0 1 0 0 0 1 0 0 0 1 5 53 179 0.5 1.5 0.5
9 0 1 0 0 0 1 0 0 0 1 5 47 79 0.5 1.5 0.5
9 0 1 0 0 0 1 0 0 0 1 5 17 116 0.5 1.5 0.5
9 0 1 0 0 0 1 0 0 0 1 5 4 70 0.5 1.5 0.5
9 0 1 0 0 0 1 0 0 0 1 5 -4 117 0.5 1.5 0.5
9 0 1 0 0 0 1 0 0 0 1 5 -6 58 0.5 0.5 1.5
9 0 1 0 0 0 1 0 0 0 1 5 -10 38 0.5 0.5 1.5
9 0 1 0 0 0 1 0 0 0 1 5 -10 46 0.5 0.5 1.5
9 0 1 0 0 0 1 0 0 0 1 5 -21 134 0.5 0.5 1.5
9 0 1 0 0 0 1 0 0 0 1 5 -23 173 0.5 0.5 1.5
9 0 1 0 0 0 1 0 0 0 1 4 83 124 0.5 0.5 1.5
9 0 1 0 0 0 1 0 0 0 1 4 78 113 0.5 0.5 1.5
9 0 1 0 0 0 1 0 0 0 1 5 76 110 1.5 0.5 0.5
9 0 1 0 0 0 1 0 0 0 1 4 74 170 0.5 0.5 1.5
9 0 1 0 0 0 1 0 0 0 1 4 71 142 0.5 0.5 1.5
9 0 1 0 0 0 1 0 0 0 1 4 68 122 0.5 0.5 1.5
9 0 1 0 0 0 1 0 0 0 1 4 50 181 0.5 1.5 0.5
9 0 1 0 0 0 1 0 0 0 1 4 43 185 0.5 1.5 0.5
9 0 1 0 0 0 1 0 0 0 1 4 42 75 0.5 1.5 0.5
9 0 1 0 0 0 1 0 0 0 1 4 35 133 0.5 0.5 1.5
9 0 1 0 0 0 1 0 0 0 1 4 29 157 0.5 1.5 0.5
9 0 1 0 0 0 1 0 0 0 1 4 25 83 0.5 1.5 0.5
9 0 1 0 0 0 1 0 0 0 1 4 21 81 0.5 1.5 0.5
9 0 1 0 0 0 1 0 0 0 1 4 21 119 0.5 1.5 0.5
9 0 1 0 0 0 1 0 0 0 1 4 15 117 0.5 1.5 0.5
9 0 1 0 0 0 1 0 0 0 1 4 15 155 0.5 1.5 0.5
9 0 1 0 0 0 1 0 0 0 1 4 -12 124 0.5 0.5 1.5
9 0 1 0 0 0 1 0 0 0 1 4 -31 152 0.5 0.5 1.5
9 0 1 0 0 0 1 0 0 0 1 3 83 149 0.5 0.5 1.5
9 0 1 0 0 0 1 0 0 0 1 3 75 105 0.5 0.5 1.5
9 0 1 0 0 0 1 0 0 0 1 3 74 103 0.5 0.5 1.5
9 0 1 0 0 0 1 0 0 0 1 3 73 101 0.5 0.5 1.5
9 0 1 0 0 0 1 0 0 0 1 3 69 148 0.5 0.5 1.5
9 0 1 0 0 0 1 0 0 0 1 3 63 165 0.5 0.5 1.5
9 0 1 0 0 0 1 0 0 0 1 4 53 82 1.5 0.5 0.5
9 0 1 0 0 0 1 0 0 0 1 3 47 81 0.5 1.5 0.5
9 0 1 0 0 0 1 0 0 0 1 3 38 150 0.5 0.5 1.5
9 0 1 0 0 0 1 0 0 0 1 3 36 128 0.5 0.5 1.5
9 0 1 0 0 0 1 0 0 0 1 3 27 68 0.5 1.5 0.5
9 0 1 0 0 0 1 0 0 0 1 3 27 155 0.5 1.5 0.5
9 0 1 0 0 0 1 0 0 0 1 3 23 202 0.5 1.5 0.5
9 0 1 0 0 0 1 0 0 0 1 3 15 118 0.5 1.5 0.5
9 0 1 0 0 0 1 0 0 0 1 3 7 187 0.5 1.5 0.5
9 0 1 0 0 0 1 0 0 0 1 3 5 186 0.5 1.5 0.5
9 0 1 0 0 0 1 0 0 0 1 3 0 184 0.5 1.5 0.5
9 0 1 0 0 0 1 0 0 0 1 3 -3 112 0.5 1.5 0.5
9 0 1 0 0 0 1 0 0 0 1 3 -5 193 0.5 1.5 0.5
9 0 1 0 0 0 1 0 0 0 1 3 -15 128 0.5 0.5 1.5
9 0 1 0 0 0 1 0 0 0 1 3 -18 133 0.5 0.5 1.5
9 0 1 0 0 0 1 0 0 0 1 3 -30 162 0.5 0.5 1.5
9 0 1 0 0 0 1 0 0 0 1 2 26 188 0.5 1.5 0.5
9 0 1 0 0 0 1 0 0 0 1 2 25 161 0.5 1.5 0.5
9 0 1 0 0 0 1 0 0 0 1 2 19 154 0.5 1.5 0.5
9 0 1 0 0 0 1 0 0 0 1 2 9 154 0.5 0.5 1.5
9 0 1 0 0 0 1 0 0 0 1 3 -4 189 1.5 0.5 0.5
9 0 1 0 0 0 1 0 0 0 1 3 -8 178 1.5 0.5 0.5
9 0 1 0 0 0 1 0 0 0 1 3 -12 182 1.5 0.5 0.5
9 0 1 0 0 0 1 0 0 0 1 2 -12 115 0.5 1.5 0.5
9 0 1 0 0 0 1 0 0 0 1 1 12 38 0.5 0.5 1.5
9 0 1 0 0 0 1 0 0 0 1 0 85 139 0.5 0.5 1.5
9 0 1 0 0 0 1 0 0 0 1 0 68 127 0.5 0.5 1.5
9 0 1 0 0 0 1 0 0 0 1 0 18 153 0.5 1.5 0.5
9 0 1 0 0 0 1 0 0 0 1 0 12 35 0.5 0.5 1.5
9 0 1 0 0 0 1 0 0 0 1 0 84 149 1.5 0.5 0.5
9 0 1 0 0 0 1 0 0 0 1 0 83 153 1.5 0.5 0.5
9 0 1 0 0 0 1 0 0 0 1 0 82 117 1.5 0.5 0.5
9 0 1 0 0 0 1 0 0 0 1 0 79 111 1.5 0.5 0.5
9 0 1 0 0 0 1 0 0 0 1 0 78 109 1.5 0.5 0.5
9 0 1 0 0 0 1 0 0 0 1 0 77 107 1.5 0.5 0.5
9 0 1 0 0 0 1 0 0 0 1 0 76 105 1.5 0.5 0.5
9 0 1 0 0 0 1 0 0 0 1 0 75 103 1.5 0.5 0.5
9 0 1 0 0 0 1 0 0 0 1 0 73 176 1.5 0.5 0.5
9 0 1 0 0 0 1 0 0 0 1 0 72 178 1.5 0.5 0.5
9 0 1 0 0 0 1 0 0 0 1 0 69 144 1.5 0.5 0.5
9 0 1 0 0 0 1 0 0 0 1 0 67 152 1.5 0.5 0.5
9 0 1 0 0 0 1 0 0 0 1 0 67 183 1.5 0.5 0.5
9 0 1 0 0 0 1 0 0 0 1 0 65 120 1.5 0.5 0.5
9 0 1 0 0 0 1 0 0 0 1 0 64 118 1.5 0.5 0.5
9 0 1 0 0 0 1 0 0 0 1 0 63 187 1.5 0.5 0.5
9 0 1 0 0 0 1 0 0 0 1 0 61 189 1.5 0.5 0.5
9 0 1 0 0 0 1 0 0 0 1 0 59 191 1.5 0.5 0.5
9 0 1 0 0 0 1 0 0 0 1 0 58 192 1.5 0.5 0.5
9 0 1 0 0 0 1 0 0 0 1 0 54 105 1.5 0.5 0.5
9 0 1 0 0 0 1 0 0 0 1 0 53 104 1.5 0.5 0.5
9 0 1 0 0 0 1 0 0 0 1 0 52 103 1.5 0.5 0.5
9 0 1 0 0 0 1 0 0 0 1 0 50 101 1.5 0.5 0.5
9 0 1 0 0 0 1 0 0 0 1 0 49 100 1.5 0.5 0.5
9 0 1 0 0 0 1 0 0 0 1 0 48 77 1.5 0.5 0.5
9 0 1 0 0 0 1 0 0 0 1 0 48 197 1.5 0.5 0.5
9 0 1 0 0 0 1 0 0 0 1 0 45 75 1.5 0.5 0.5
9 0 1 0 0 0 1 0 0 0 1 0 43 74 1.5 0.5 0.5
9 0 1 0 0 0 1 0 0 0 1 0 43 183 1.5 0.5 0.5
9 0 1 0 0 0 1 0 0 0 1 0 41 148 1.5 0.5 0.5
9 0 1 0 0 0 1 0 0 0 1 0 41 184 1.5 0.5 0.5
9 0 1 0 0 0 1 0 0 0 1 0 39 130 1.5 0.5 0.5
9 0 1 0 0 0 1 0 0 0 1 0 39 201 1.5 0.5 0.5
9 0 1 0 0 0 1 0 0 0 1 0 38 153 1.5 0.5 0.5
9 0 1 0 0 0 1 0 0 0 1 0 37 126 1.5 0.5 0.5
9 0 1 0 0 0 1 0 0 0 1 0 37 186 1.5 0.5 0.5
9 0 1 0 0 0 1 0 0 0 1 0 36 91 1.5 0.5 0.5
9 0 1 0 0 0 1 0 0 0 1 0 36 157 1.5 0.5 0.5
9 0 1 0 0 0 1 0 0 0 1 0 33 147 1.5 0.5 0.5
9 0 1 0 0 0 1 0 0 0 1 0 32 120 1.5 0.5 0.5
9 0 1 0 0 0 1 0 0 0 1 0 31 88 1.5 0.5 0.5
9 0 1 0 0 0 1 0 0 0 1 0 31 187 1.5 0.5 0.5
9 0 1 0 0 0 1 0 0 0 1 0 30 129 1.5 0.5 0.5
9 0 1 0 0 0 1 0 0 0 1 0 30 152 1.5 0.5 0.5
9 0 1 0 0 0 1 0 0 0 1 0 29 118 1.5 0.5 0.5
9 0 1 0 0 0 1 0 0 0 1 0 28 127 1.5 0.5 0.5
9 0 1 0 0 0 1 0 0 0 1 0 27 126 1.5 0.5 0.5
9 0 1 0 0 0 1 0 0 0 1 0 27 161 1.5 0.5 0.5
9 0 1 0 0 0 1 0 0 0 1 0 23 123 1.5 0.5 0.5
9 0 1 0 0 0 1 0 0 0 1 0 22 83 1.5 0.5 0.5
9 0 1 0 0 0 1 0 0 0 1 0 20 82 1.5 0.5 0.5
9 0 1 0 0 0 1 0 0 0 1 0 19 121 1.5 0.5 0.5
9 0 1 0 0 0 1 0 0 0 1 0 18 81 1.5 0.5 0.5
9 0 1 0 0 0 1 0 0 0 1 0 13 78 1.5 0.5 0.5
9 0 1 0 0 0 1 0 0 0 1 0 13 150 1.5 0.5 0.5
9 0 1 0 0 0 1 0 0 0 1 0 13 201 1.5 0.5 0.5
9 0 1 0 0 0 1 0 0 0 1 -1 12 38 0.5 0.5 1.5
9 0 1 0 0 0 1 0 0 0 1 0 12 158 1.5 0.5 0.5
9 0 1 0 0 0 1 0 0 0 1 0 10 76 1.5 0.5 0.5
9 0 1 0 0 0 1 0 0 0 1 0 10 157 1.5 0.5 0.5
9 0 1 0 0 0 1 0 0 0 1 0 8 186 1.5 0.5 0.5
9 0 1 0 0 0 1 0 0 0 1 0 8 200 1.5 0.5 0.5
9 0 1 0 0 0 1 0 0 0 1 0 7 74 1.5 0.5 0.5
9 0 1 0 0 0 1 0 0 0 1 0 3 198 1.5 0.5 0.5
9 0 1 0 0 0 1 0 0 0 1 0 2 71 1.5 0.5 0.5
9 0 1 0 0 0 1 0 0 0 1 0 1 183 1.5 0.5 0.5
9 0 1 0 0 0 1 0 0 0 1 0 -2 67 1.5 0.5 0.5
9 0 1 0 0 0 1 0 0 0 1 0 -2 120 1.5 0.5 0.5
9 0 1 0 0 0 1 0 0 0 1 0 -4 180 1.5 0.5 0.5
9 0 1 0 0 0 1 0 0 0 1 0 -6 178 1.5 0.5 0.5
9 0 1 0 0 0 1 0 0 0 1 0 -6 194 1.5 0.5 0.5
9 0 1 0 0 0 1 0 0 0 1 0 -7 60 1.5 0.5 0.5
9 0 1 0 0 0 1 0 0 0 1 0 -7 112 1.5 0.5 0.5
9 0 1 0 0 0 1 0 0 0 1 0 -8 58 1.5 0.5 0.5
9 0 1 0 0 0 1 0 0 0 1 0 -9 124 1.5 0.5 0.5
9 0 1 0 0 0 1 0 0 0 1 0 -11 49 1.5 0.5 0.5
9 0 1 0 0 0 1 0 0 0 1 0 -11 126 1.5 0.5 0.5
9 0 1 0 0 0 1 0 0 0 1 0 -13 128 1.5 0.5 0.5
9 0 1 0 0 0 1 0 0 0 1 0 -14 188 1.5 0.5 0.5
9 0 1 0 0 0 1 0 0 0 1 0 -15 187 1.5 0.5 0.5
9 0 1 0 0 0 1 0 0 0 1 0 -19 138 1.5 0.5 0.5
9 0 1 0 0 0 1 0 0 0 1 0 -19 163 1.5 0.5 0.5
9 0 1 0 0 0 1 0 0 0 1 0 -20 159 1.5 0.5 0.5
9 0 1 0 0 0 1 0 0 0 1 0 -21 122 1.5 0.5 0.5
9 0 1 0 0 0 1 0 0 0 1 0 -26 174 1.5 0.5 0.5
9 0 1 0 0 0 1 0 0 0 1 0 -27 131 1.5 0.5 0.5
9 0 1 0 0 0 1 0 0 0 1 0 -29 169 1.5 0.5 0.5
9 0 1 0 0 0 1 0 0 0 1 0 -30 137 1.5 0.5 0.5
9 0 1 0 0 0 1 0 0 0 1 0 -30 167 1.5 0.5 0.5
9 0 1 0 0 0 1 0 0 0 1 -2 26 188 0.5 1.5 0.5
9 0 1 0 0 0 1 0 0 0 1 -2 25 161 0.5 1.5 0.5
9 0 1 0 0 0 1 0 0 0 1 -2 9 154 0.5 0.5 1.5
9 0 1 0 0 0 1 0 0 0 1 -3 83 149 0.5 0.5 1.5
9 0 1 0 0 0 1 0 0 0 1 -3 63 165 0.5 0.5 1.5
9 0 1 0 0 0 1 0 0 0 1 -3 38 150 0.5 0.5 1.5
9 0 1 0 0 0 1 0 0 0 1 -3 36 128 0.5 0.5 1.5
9 0 1 0 0 0 1 0 0 0 1 -3 23 202 0.5 1.5 0.5
9 0 1 0 0 0 1 0 0 0 1 -3 16 154 0.5 1.5 0.5
9 0 1 0 0 0 1 0 0 0 1 -3 -18 133 0.5 0.5 1.5
9 0 1 0 0 0 1 0 0 0 1 -3 -30 162 0.5 0.5 1.5
9 0 1 0 0 0 1 0 0 0 1 -4 83 124 0.5 0.5 1.5
9 0 1 0 0 0 1 0 0 0 1 -4 76 109 0.5 0.5 1.5
9 0 1 0 0 0 1 0 0 0 1 -4 74 170 0.5 0.5 1.5
9 0 1 0 0 0 1 0 0 0 1 -4 69 151 0.5 0.5 1.5
9 0 1 0 0 0 1 0 0 0 1 -4 66 118 0.5 0.5 1.5
9 0 1 0 0 0 1 0 0 0 1 -4 50 181 0.5 1.5 0.5
9 0 1 0 0 0 1 0 0 0 1 -4 37 132 0.5 0.5 1.5
9 0 1 0 0 0 1 0 0 0 1 -4 33 154 0.5 0.5 1.5
9 0 1 0 0 0 1 0 0 0 1 -4 30 68 0.5 1.5 0.5
9 0 1 0 0 0 1 0 0 0 1 -4 29 157 0.5 1.5 0.5
9 0 1 0 0 0 1 0 0 0 1 -4 20 61 0.5 1.5 0.5
9 0 1 0 0 0 1 0 0 0 1 -4 15 117 0.5 1.5 0.5
9 0 1 0 0 0 1 0 0 0 1 -4 15 155 0.5 1.5 0.5
9 0 1 0 0 0 1 0 0 0 1 -4 14 113 0.5 1.5 0.5
9 0 1 0 0 0 1 0 0 0 1 -4 -7 180 0.5 1.5 0.5
9 0 1 0 0 0 1 0 0 0 1 -3 -9 177 1.5 0.5 0.5
9 0 1 0 0 0 1 0 0 0 1 -4 -9 115 0.5 1.5 0.5
9 0 1 0 0 0 1 0 0 0 1 -4 -12 124 0.5 0.5 1.5
9 0 1 0 0 0 1 0 0 0 1 -4 -31 152 0.5 0.5 1.5
9 0 1 0 0 0 1 0 0 0 1 -5 81 120 0.5 0.5 1.5
9 0 1 0 0 0 1 0 0 0 1 -5 72 142 0.5 0.5 1.5
9 0 1 0 0 0 1 0 0 0 1 -5 68 157 0.5 0.5 1.5
9 0 1 0 0 0 1 0 0 0 1 -5 47 79 0.5 1.5 0.5
9 0 1 0 0 0 1 0 0 0 1 -5 43 186 0.5 1.5 0.5
9 0 1 0 0 0 1 0 0 0 1 -5 21 80 0.5 1.5 0.5
9 0 1 0 0 0 1 0 0 0 1 -5 17 78 0.5 1.5 0.5
9 0 1 0 0 0 1 0 0 0 1 -5 17 116 0.5 1.5 0.5
9 0 1 0 0 0 1 0 0 0 1 -5 12 189 0.5 1.5 0.5
9 0 1 0 0 0 1 0 0 0 1 -5 -26 137 0.5 0.5 1.5
9 0 1 0 0 0 1 0 0 0 1 -6 78 159 0.5 0.5 1.5
9 0 1 0 0 0 1 0 0 0 1 -6 77 161 0.5 0.5 1.5
9 0 1 0 0 0 1 0 0 0 1 -6 70 123 0.5 0.5 1.5
9 0 1 0 0 0 1 0 0 0 1 -6 70 174 0.5 0.5 1.5
9 0 1 0 0 0 1 0 0 0 1 -6 69 157 0.5 0.5 1.5
9 0 1 0 0 0 1 0 0 0 1 -6 54 191 0.5 1.5 0.5
9 0 1 0 0 0 1 0 0 0 1 -5 50 98 1.5 0.5 0.5
9 0 1 0 0 0 1 0 0 0 1 -6 49 193 0.5 1.5 0.5
9 0 1 0 0 0 1 0 0 0 1 -6 48 184 0.5 1.5 0.5
9 0 1 0 0 0 1 0 0 0 1 -6 43 187 0.5 1.5 0.5
9 0 1 0 0 0 1 0 0 0 1 -6 39 193 0.5 0.5 1.5
9 0 1 0 0 0 1 0 0 0 1 -6 31 70 0.5 1.5 0.5
9 0 1 0 0 0 1 0 0 0 1 -6 17 61 0.5 1.5 0.5
9 0 1 0 0 0 1 0 0 0 1 -6 6 195 0.5 1.5 0.5
9 0 1 0 0 0 1 0 0 0 1 -6 0 187 0.5 1.5 0.5
9 0 1 0 0 0 1 0 0 0 1 -6 -5 185 0.5 1.5 0.5
9 0 1 0 0 0 1 0 0 0 1 -6 -23 165 0.5 0.5 1.5
9 0 1 0 0 0 1 0 0 0 1 -6 -25 157 0.5 0.5 1.5
9 0 1 0 0 0 1 0 0 0 1 -6 -28 154 0.5 0.5 1.5
9 0 1 0 0 0 1 0 0 0 1 -7 71 104 0.5 0.5 1.5
9 0 1 0 0 0 1 0 0 0 1 -7 67 99 0.5 1.5 0.5
9 0 1 0 0 0 1 0 0 0 1 -7 61 106 0.5 1.5 0.5
9 0 1 0 0 0 1 0 0 0 1 -7 51 184 0.5 1.5 0.5
9 0 1 0 0 0 1 0 0 0 1 -7 46 187 0.5 1.5 0.5
9 0 1 0 0 0 1 0 0 0 1 -7 42 194 0.5 1.5 0.5
9 0 1 0 0 0 1 0 0 0 1 -7 41 190 0.5 1.5 0.5
9 0 1 0 0 0 1 0 0 0 1 -7 12 195 0.5 1.5 0.5
9 0 1 0 0 0 1 0 0 0 1 -7 10 72 0.5 1.5 0.5
9 0 1 0 0 0 1 0 0 0 1 -7 -18 175 0.5 0.5 1.5
9 0 1 0 0 0 1 0 0 0 1 -8 76 119 0.5 0.5 1.5
9 0 1 0 0 0 1 0 0 0 1 -8 76 154 0.5 0.5 1.5
9 0 1 0 0 0 1 0 0 0 1 -8 66 171 0.5 0.5 1.5
9 0 1 0 0 0 1 0 0 0 1 -8 49 187 0.5 1.5 0.5
9 0 1 0 0 0 1 0 0 0 1 -8 44 191 0.5 1.5 0.5
9 0 1 0 0 0 1 0 0 0 1 -8 42 192 0.5 1.5 0.5
9 0 1 0 0 0 1 0 0 0 1 -8 41 88 0.5 1.5 0.5
9 0 1 0 0 0 1 0 0 0 1 -8 34 84 0.5 1.5 0.5
9 0 1 0 0 0 1 0 0 0 1 -8 27 70 0.5 1.5 0.5
9 0 1 0 0 0 1 0 0 0 1 -8 23 78 0.5 1.5 0.5
9 0 1 0 0 0 1 0 0 0 1 -8 17 75 0.5 1.5 0.5
9 0 1 0 0 0 1 0 0 0 1 -8 12 72 0.5 1.5 0.5
9 0 1 0 0 0 1 0 0 0 1 -8 -3 59 0.5 0.5 1.5
9 0 1 0 0 0 1 0 0 0 1 -9 67 107 0.5 0.5 1.5
9 0 1 0 0 0 1 0 0 0 1 -9 51 92 0.5 1.5 0.5
9 0 1 0 0 0 1 0 0 0 1 -9 45 88 0.5 1.5 0.5
9 0 1 0 0 0 1 0 0 0 1 -9 40 80 0.5 1.5 0.5
9 0 1 0 0 0 1 0 0 0 1 -9 34 76 0.5 1.5 0.5
9 0 1 0 0 0 1 0 0 0 1 -9 30 80 0.5 1.5 0.5
9 0 1 0 0 0 1 0 0 0 1 -9 29 73 0.5 1.5 0.5
9 0 1 0 0 0 1 0 0 0 1 -9 26 78 0.5 1.5 0.5
9 0 1 0 0 0 1 0 0 0 1 -9 24 70 0.5 1.5 0.5
9 0 1 0 0 0 1 0 0 0 1 -9 20 67 0.5 1.5 0.5
9 0 1 0 0 0 1 0 0 0 1 -9 12 70 0.5 1.5 0.5
9 0 1 0 0 0 1 0 0 0 1 -9 5 66 0.5 0.5 1.5
9 0 1 0 0 0 1 0 0 0 1 -10 8 22 1.5 0.5 0.5
9 0 1 0 0 0 1 0 0 0 1 -10 -8 22 1.5 0.5 0.5
9 0 1 0 0 0 1 0 0 0 1 -12 -1 38 0.5 0.5 1.5
