9 0 1 0 0 0 1 0 0 0 1 0 -14 0.5 10.5 2.5 7
9 0 1 0 0 0 1 0 0 0 1 -14 0 0.5 2.5 10.5 7
9 0 1 0 0 0 1 0 0 0 1 15 0 0.5 3.5 6.5 7
9 0 1 0 0 0 1 0 0 0 1 0 15 0.5 6.5 3.5 7
9 0 1 0 0 0 1 0 0 0 1 0 -17.5 2 6.5 1 8.5
9 0 1 0 0 0 1 0 0 0 1 -17.5 0 2 1 6.5 8.5
9 0 1 0 0 0 1 0 0 0 1 12.5 -9 0.5 3 2.5 7
9 0 1 0 0 0 1 0 0 0 1 9.5 12 0.5 3 2.5 7
9 0 1 0 0 0 1 0 0 0 1 -9 12.5 0 2.5 3 6.5
9 0 1 0 0 0 1 0 0 0 1 13 8 0 3.5 1.5 6.5
9 0 1 0 0 0 1 0 0 0 1 16.5 1 9 2 7.5 1.5
9 0 1 0 0 0 1 0 0 0 1 1 16.5 9 7.5 2 1.5
9 0 1 0 0 0 1 0 0 0 1 -9.5 -10 0 2 1.5 6.5
9 0 1 0 0 0 1 0 0 0 1 0.5 -15 8.5 11 1.5 1
9 0 1 0 0 0 1 0 0 0 1 -15 0.5 8.5 1.5 11 1
9 0 1 0 0 0 1 0 0 0 1 0 -19 2 3.5 0.5 8.5
9 0 1 0 0 0 1 0 0 0 1 -19 0 2 0.5 3.5 8.5
9 0 1 0 0 0 1 0 0 0 1 19 0 1.5 0.5 3.5 8
9 0 1 0 0 0 1 0 0 0 1 8.5 15.5 0.5 2 1 7
9 0 1 0 0 0 1 0 0 0 1 0 19 1.5 3.5 0.5 8
9 0 1 0 0 0 1 0 0 0 1 14 10.5 2 1.5 1 8.5
9 0 1 0 0 0 1 0 0 0 1 12 -12.5 2 1.5 1 8.5
9 0 1 0 0 0 1 0 0 0 1 -11.5 -13 2 1 1.5 8.5
9 0 1 0 0 0 1 0 0 0 1 -12.5 12 2 1 1.5 8.5
9 0 1 0 0 0 1 0 0 0 1 -10.5 8 0.5 1 1.5 7
9 0 1 0 0 0 1 0 0 0 1 8.5 -10 0 1 1.5 6.5
9 0 1 0 0 0 1 0 0 0 1 16.5 -7.5 2 1 1 8.5
9 0 1 0 0 0 1 0 0 0 1 -7.5 16.5 2 1 1 8.5
9 0 1 0 0 0 1 0 0 0 1 -13.5 -11.5 2 1 1 8.5
9 0 1 0 0 0 1 0 0 0 1 1 14 8.5 13.5 0.5 1
9 0 1 0 0 0 1 0 0 0 1 -11 -6.5 0 0.5 2 6.5
9 0 1 0 0 0 1 0 0 0 1 14 -1.5 8.5 0.5 11 1
9 0 1 0 0 0 1 0 0 0 1 0.5 -15.5 10 11 1 0.5
9 0 1 0 0 0 1 0 0 0 1 -15.5 0.5 10 1 11 0.5
9 0 1 0 0 0 1 0 0 0 1 6 -11 0 1.5 0.5 6.5
9 0 1 0 0 0 1 0 0 0 1 -6 -11 0 1.5 0.5 6.5
9 0 1 0 0 0 1 0 0 0 1 16 -9.5 2 0.5 1 8.5
9 0 1 0 0 0 1 0 0 0 1 13.5 12 2 1 0.5 8.5
9 0 1 0 0 0 1 0 0 0 1 7.5 -17 2 1 0.5 8.5
9 0 1 0 0 0 1 0 0 0 1 -7.5 -17 2 1 0.5 8.5
9 0 1 0 0 0 1 0 0 0 1 -9.5 16 2 1 0.5 8.5
9 0 1 0 0 0 1 0 0 0 1 -17 7.5 2 0.5 1 8.5
9 0 1 0 0 0 1 0 0 0 1 -17 -7.5 2 0.5 1 8.5
9 0 1 0 0 0 1 0 0 0 1 21.5 2 7 2 0.5 3.5
9 0 1 0 0 0 1 0 0 0 1 21.5 -2 -3 2 0.5 3.5
9 0 1 0 0 0 1 0 0 0 1 17 7.5 0.5 0.5 1 7
9 0 1 0 0 0 1 0 0 0 1 12.5 -14 -3 2 0.5 3.5
9 0 1 0 0 0 1 0 0 0 1 7.5 17 0.5 1 0.5 7
9 0 1 0 0 0 1 0 0 0 1 2 21.5 7 0.5 2 3.5
9 0 1 0 0 0 1 0 0 0 1 2 -21.5 -3 0.5 2 3.5
9 0 1 0 0 0 1 0 0 0 1 -2 21.5 -3 0.5 2 3.5
9 0 1 0 0 0 1 0 0 0 1 -2 -21.5 7 0.5 2 3.5
9 0 1 0 0 0 1 0 0 0 1 -14 12.5 -3 0.5 2 3.5
9 0 1 0 0 0 1 0 0 0 1 -13.5 -13.5 7 1 1 3.5
9 0 1 0 0 0 1 0 0 0 1 -21.5 2 -3 2 0.5 3.5
9 0 1 0 0 0 1 0 0 0 1 -21.5 -2 7 2 0.5 3.5
9 0 1 0 0 0 1 0 0 0 1 11 5.5 0 0.5 1 6.5
9 0 1 0 0 0 1 0 0 0 1 11 -5.5 0 0.5 1 6.5
9 0 1 0 0 0 1 0 0 0 1 9 8.5 0 0.5 1 6.5
9 0 1 0 0 0 1 0 0 0 1 5.5 11 0 1 0.5 6.5
9 0 1 0 0 0 1 0 0 0 1 -5.5 11 0 1 0.5 6.5
9 0 1 0 0 0 1 0 0 0 1 -8.5 9 0 1 0.5 6.5
9 0 1 0 0 0 1 0 0 0 1 -9.5 -8 0 1 0.5 6.5
9 0 1 0 0 0 1 0 0 0 1 -11 5.5 0 0.5 1 6.5
9 0 1 0 0 0 1 0 0 0 1 1 13 8 12.5 0.5 0.5
9 0 1 0 0 0 1 0 0 0 1 -9 13 7 2.5 2.5 0.5
9 0 1 0 0 0 1 0 0 0 1 13 -1 8 0.5 10.5 0.5
9 0 1 0 0 0 1 0 0 0 1 0 -13 8 10.5 0.5 0.5
9 0 1 0 0 0 1 0 0 0 1 -13 0 8 0.5 10.5 0.5
9 0 1 0 0 0 1 0 0 0 1 13.5 8 7 3 1.5 0.5
9 0 1 0 0 0 1 0 0 0 1 16 10 2 0.5 0.5 8.5
9 0 1 0 0 0 1 0 0 0 1 11 15 2 0.5 0.5 8.5
9 0 1 0 0 0 1 0 0 0 1 -11 -15 2 0.5 0.5 8.5
9 0 1 0 0 0 1 0 0 0 1 -12 -11 2 0.5 0.5 8.5
9 0 1 0 0 0 1 0 0 0 1 -15 -11 2 0.5 0.5 8.5
9 0 1 0 0 0 1 0 0 0 1 15 -9 9 0.5 2.5 1.5
9 0 1 0 0 0 1 0 0 0 1 -9 15 9 2.5 0.5 1.5
9 0 1 0 0 0 1 0 0 0 1 19 4.5 -3 0.5 1 3.5
9 0 1 0 0 0 1 0 0 0 1 19 -4.5 7 0.5 1 3.5
9 0 1 0 0 0 1 0 0 0 1 18 -7.5 -3 0.5 1 3.5
9 0 1 0 0 0 1 0 0 0 1 14 -12 0.5 0.5 0.5 7
9 0 1 0 0 0 1 0 0 0 1 13 13 0.5 0.5 0.5 7
9 0 1 0 0 0 1 0 0 0 1 11.5 -14 4 1 0.5 3.5
9 0 1 0 0 0 1 0 0 0 1 11 -15 0.5 0.5 0.5 7
9 0 1 0 0 0 1 0 0 0 1 7.5 -18 -3 1 0.5 3.5
9 0 1 0 0 0 1 0 0 0 1 4.5 19 -3 1 0.5 3.5
9 0 1 0 0 0 1 0 0 0 1 4.5 -19 7 1 0.5 3.5
9 0 1 0 0 0 1 0 0 0 1 -4.5 19 7 1 0.5 3.5
9 0 1 0 0 0 1 0 0 0 1 -4.5 -19 -3 1 0.5 3.5
9 0 1 0 0 0 1 0 0 0 1 -7 -10 0.5 0.5 0.5 7
9 0 1 0 0 0 1 0 0 0 1 -7.5 18 -3 1 0.5 3.5
9 0 1 0 0 0 1 0 0 0 1 -7.5 -18 7 1 0.5 3.5
9 0 1 0 0 0 1 0 0 0 1 -12 14 0.5 0.5 0.5 7
9 0 1 0 0 0 1 0 0 0 1 -14 11.5 4 0.5 1 3.5
9 0 1 0 0 0 1 0 0 0 1 -15 11 0.5 0.5 0.5 7
9 0 1 0 0 0 1 0 0 0 1 -18 7.5 -3 0.5 1 3.5
9 0 1 0 0 0 1 0 0 0 1 -18 -7.5 7 0.5 1 3.5
9 0 1 0 0 0 1 0 0 0 1 -19 4.5 7 0.5 1 3.5
9 0 1 0 0 0 1 0 0 0 1 -19 -4.5 -3 0.5 1 3.5
9 0 1 0 0 0 1 0 0 0 1 9 -8 0 0.5 0.5 6.5
9 0 1 0 0 0 1 0 0 0 1 8 9 0 0.5 0.5 6.5
9 0 1 0 0 0 1 0 0 0 1 7 -10 0 0.5 0.5 6.5
9 0 1 0 0 0 1 0 0 0 1 -9 8 0 0.5 0.5 6.5
9 0 1 0 0 0 1 0 0 0 1 -10 -7 0 0.5 0.5 6.5
9 0 1 0 0 0 1 0 0 0 1 11.5 12 9.5 1 1.5 1
9 0 1 0 0 0 1 0 0 0 1 11 10.5 8 1.5 2 0.5
9 0 1 0 0 0 1 0 0 0 1 9.5 15.5 9 1 1 1.5
9 0 1 0 0 0 1 0 0 0 1 -10 -10.5 7.5 1.5 1 1
9 0 1 0 0 0 1 0 0 0 1 -13 -13 -1.5 0.5 0.5 5
9 0 1 0 0 0 1 0 0 0 1 11 -10 8 1.5 1.5 0.5
9 0 1 0 0 0 1 0 0 0 1 10 14 10 4.5 0.5 0.5
9 0 1 0 0 0 1 0 0 0 1 -10 11 8 1.5 1.5 0.5
9 0 1 0 0 0 1 0 0 0 1 18 7.5 5.5 0.5 1 2
9 0 1 0 0 0 1 0 0 0 1 14 13.5 5.5 0.5 1 2
9 0 1 0 0 0 1 0 0 0 1 12.5 -9.5 9 1 2 0.5
9 0 1 0 0 0 1 0 0 0 1 7.5 18 5.5 1 0.5 2
9 0 1 0 0 0 1 0 0 0 1 -10.5 12.5 9.5 1 1 1
9 0 1 0 0 0 1 0 0 0 1 19 0 10 0.5 3.5 0.5
9 0 1 0 0 0 1 0 0 0 1 16 11 -3 0.5 0.5 3.5
9 0 1 0 0 0 1 0 0 0 1 16 -11 7 0.5 0.5 3.5
9 0 1 0 0 0 1 0 0 0 1 14 -9 10 0.5 3.5 0.5
9 0 1 0 0 0 1 0 0 0 1 14 -13 -3 0.5 0.5 3.5
9 0 1 0 0 0 1 0 0 0 1 11 16 -3 0.5 0.5 3.5
9 0 1 0 0 0 1 0 0 0 1 9 -14 10 3.5 0.5 0.5
9 0 1 0 0 0 1 0 0 0 1 0 19 10 3.5 0.5 0.5
9 0 1 0 0 0 1 0 0 0 1 -11 16 7 0.5 0.5 3.5
9 0 1 0 0 0 1 0 0 0 1 -11 -16 -3 0.5 0.5 3.5
9 0 1 0 0 0 1 0 0 0 1 -9 14 10 3.5 0.5 0.5
9 0 1 0 0 0 1 0 0 0 1 -13 14 -3 0.5 0.5 3.5
9 0 1 0 0 0 1 0 0 0 1 -16 -11 -3 0.5 0.5 3.5
9 0 1 0 0 0 1 0 0 0 1 15.5 9 9 1 0.5 1.5
9 0 1 0 0 0 1 0 0 0 1 9 12.5 9 1.5 1 0.5
9 0 1 0 0 0 1 0 0 0 1 -9 -12 8.5 1.5 0.5 1
9 0 1 0 0 0 1 0 0 0 1 -12.5 9 9 1 1.5 0.5
9 0 1 0 0 0 1 0 0 0 1 -8 -13 9 2.5 0.5 0.5
9 0 1 0 0 0 1 0 0 0 1 -8 -14 10 2.5 0.5 0.5
9 0 1 0 0 0 1 0 0 0 1 -12 -8 8 0.5 2.5 0.5
9 0 1 0 0 0 1 0 0 0 1 -14 8 10 0.5 2.5 0.5
9 0 1 0 0 0 1 0 0 0 1 -14 -8 10 0.5 2.5 0.5
9 0 1 0 0 0 1 0 0 0 1 14 7.5 10 0.5 2 0.5
9 0 1 0 0 0 1 0 0 0 1 13 14 5.5 0.5 0.5 2
9 0 1 0 0 0 1 0 0 0 1 13.5 13 9.5 1 0.5 1
9 0 1 0 0 0 1 0 0 0 1 12.5 -10.5 10 1 1 0.5
9 0 1 0 0 0 1 0 0 0 1 11 -16 5.5 0.5 0.5 2
9 0 1 0 0 0 1 0 0 0 1 10 -12.5 9.5 0.5 1 1
9 0 1 0 0 0 1 0 0 0 1 9 -10.5 7.5 0.5 1 1
9 0 1 0 0 0 1 0 0 0 1 8 -12 8 2.5 0.5 0.5
9 0 1 0 0 0 1 0 0 0 1 8.5 11.5 8 1 1 0.5
9 0 1 0 0 0 1 0 0 0 1 -9.5 10 7 2 0.5 0.5
9 0 1 0 0 0 1 0 0 0 1 -11 -7.5 7 0.5 2 0.5
9 0 1 0 0 0 1 0 0 0 1 -11.5 8.5 8 1 1 0.5
9 0 1 0 0 0 1 0 0 0 1 -13 -8.5 9 0.5 2 0.5
9 0 1 0 0 0 1 0 0 0 1 -16 11 5.5 0.5 0.5 2
9 0 1 0 0 0 1 0 0 0 1 13 8 9 0.5 1.5 0.5
9 0 1 0 0 0 1 0 0 0 1 12 7 8 0.5 1.5 0.5
9 0 1 0 0 0 1 0 0 0 1 12 -7 8 0.5 1.5 0.5
9 0 1 0 0 0 1 0 0 0 1 8 -13 9 1.5 0.5 0.5
9 0 1 0 0 0 1 0 0 0 1 7 -11 7 1.5 0.5 0.5
9 0 1 0 0 0 1 0 0 0 1 -7 12 8 1.5 0.5 0.5
9 0 1 0 0 0 1 0 0 0 1 -7 -11 7 1.5 0.5 0.5
9 0 1 0 0 0 1 0 0 0 1 -8 13 9 1.5 0.5 0.5
9 0 1 0 0 0 1 0 0 0 1 -14 12 9 0.5 0.5 1.5
