9 0 -1.192093E-07 0 -1 0 1 0 1 0 -1.192093E-07 -10 -2 50 3.35 0.5 3.35
9 0 -1.192093E-07 0 -1 0 1 0 1 0 -1.192093E-07 -10 -2 30 3.35 0.5 3.35
9 0 -1.192093E-07 0 -1 0 1 0 1 0 -1.192093E-07 10 -2 50 3.35 0.5 3.35
9 0 -1.192093E-07 0 -1 0 1 0 1 0 -1.192093E-07 10 -2 30 3.35 0.5 3.35
9 0 -1.192093E-07 0 -1 0 1 0 1 0 -1.192093E-07 -10 -2 10 3.35 0.5 3.35
9 0 -1.192093E-07 0 -1 0 1 0 1 0 -1.192093E-07 -10 -2 -10 3.35 0.5 3.35
9 0 -1.192093E-07 0 -1 0 1 0 1 0 -1.192093E-07 10 -2 10 3.35 0.5 3.35
9 0 -1.192093E-07 0 -1 0 1 0 1 0 -1.192093E-07 10 -2 -10 3.35 0.5 3.35
9 0 -1.192093E-07 0 -1 0 1 0 1 0 -1.192093E-07 -10 14 -30 3.35 0.5 3.35
9 0 -1.192093E-07 0 -1 0 1 0 1 0 -1.192093E-07 -10 14 -50 3.35 0.5 3.35
9 0 -1.192093E-07 0 -1 0 1 0 1 0 -1.192093E-07 10 14 -30 3.35 0.5 3.35
9 0 -1.192093E-07 0 -1 0 1 0 1 0 -1.192093E-07 10 14 -50 3.35 0.5 3.35
9 0 1 0 0 0 1 0 0 0 1 0 6 20.5 18.5 4.5 38.5
9 0 1 0 0 0 1 0 0 0 1 0 24 17 14.5 10.5 17
9 0 1 0 0 0 1 0 0 0 1 0 18.5 43.5 14.5 5 9.5
9 0 1 0 0 0 1 0 0 0 1 11.5 24 -7 3 10.5 7
9 0 1 0 0 0 1 0 0 0 1 -11.5 24 -7 3 10.5 7
9 0 1 0 0 0 1 0 0 0 1 0 29 48.5 14.5 5.5 2.5
9 0 1 0 0 0 1 0 0 0 1 0 18 -37.5 18.5 0.5 20.5
9 0 1 0 0 0 1 0 0 0 1 0 30 40 22.5 2.5 2
9 0 1 0 0 0 1 0 0 0 1 0 20.5 -19.5 18.5 2 2.5
9 0 1 0 0 0 1 0 0 0 1 0 18 54 14.5 4.5 1
9 0 1 0 0 0 1 0 0 0 1 0 28 52.5 14.5 2.5 1.5
9 0 1 0 0 0 1 0 0 0 1 0 32 -17.5 16.5 6.5 0.5
9 0 1 0 0 0 1 0 0 0 1 18 12.5 21 0.5 2 38
9 0 1 0 0 0 1 0 0 0 1 -18 12.5 21 0.5 2 38
9 0 1 0 0 0 1 0 0 0 1 0 21.5 -0.5 8.5 8 0.5
9 0 1 0 0 0 1 0 0 0 1 0 14 -17.5 18.5 3.5 0.5
9 0 1 0 0 0 1 0 0 0 1 14 38 34.5 2.5 0.5 22.5
9 0 1 0 0 0 1 0 0 0 1 -14 38 34.5 2.5 0.5 22.5
9 0 1 0 0 0 1 0 0 0 1 0 20 57 4.5 2.5 2
9 0 1 0 0 0 1 0 0 0 1 18 27 23 0.5 5.5 7
9 0 1 0 0 0 1 0 0 0 1 -18 27 23 0.5 5.5 7
9 0 1 0 0 0 1 0 0 0 1 0 20.5 -57.5 18.5 2 0.5
9 0 1 0 0 0 1 0 0 0 1 13 24 58.5 5.5 6.5 0.5
9 0 1 0 0 0 1 0 0 0 1 -13 24 58.5 5.5 6.5 0.5
9 0 1 0 0 0 1 0 0 0 1 18 20.5 -39.5 0.5 2 17.5
9 0 1 0 0 0 1 0 0 0 1 0 12.5 58.5 17.5 2 0.5
9 0 1 0 0 0 1 0 0 0 1 -18 20.5 -39.5 0.5 2 17.5
9 0 1 0 0 0 1 0 0 0 1 0 30 37.5 22.5 1.5 0.5
9 0 1 0 0 0 1 0 0 0 1 0 30 42.5 22.5 1.5 0.5
9 0 1 0 0 0 1 0 0 0 1 18 19 40 0.5 4.5 7
9 0 1 0 0 0 1 0 0 0 1 -18 19 40 0.5 4.5 7
9 0 1 0 0 0 1 0 0 0 1 0 24.5 52 14.5 1 1
9 0 1 0 0 0 1 0 0 0 1 11 32.5 53 3.5 2 2
9 0 1 0 0 0 1 0 0 0 1 -11 32.5 53 3.5 2 2
9 0 1 0 0 0 1 0 0 0 1 18 25 54.5 0.5 7.5 3.5
9 0 1 0 0 0 1 0 0 0 1 -18 25 54.5 0.5 7.5 3.5
9 0 1 0 0 0 1 0 0 0 1 9 38 21 2.5 0.5 9
9 0 1 0 0 0 1 0 0 0 1 -9 38 21 2.5 0.5 9
9 0 1 0 0 0 1 0 0 0 1 0 33 40 22.5 0.5 1
9 0 1 0 0 0 1 0 0 0 1 0 27 40 22.5 0.5 1
9 0 1 0 0 0 1 0 0 0 1 9 26.5 54.5 5.5 4 0.5
9 0 1 0 0 0 1 0 0 0 1 -9 26.5 54.5 5.5 4 0.5
9 0 1 0 0 0 1 0 0 0 1 26 30 40 3.5 1.5 2
9 0 1 0 0 0 1 0 0 0 1 8 24 -3 0.5 10.5 2
9 0 1 0 0 0 1 0 0 0 1 -8 24 -3 0.5 10.5 2
9 0 1 0 0 0 1 0 0 0 1 -26 30 40 3.5 1.5 2
9 0 1 0 0 0 1 0 0 0 1 0 21.5 -13.5 2.5 8 0.5
9 0 1 0 0 0 1 0 0 0 1 0 38 -16 16.5 0.5 1
9 0 1 0 0 0 1 0 0 0 1 0 24.5 34.5 14.5 1 0.5
9 0 1 0 0 0 1 0 0 0 1 0 24 45 14.5 0.5 1
9 0 1 0 0 0 1 0 0 0 1 0 18 -4.5 2.5 4.5 0.5
9 0 1 0 0 0 1 0 0 0 1 7 24 -2 0.5 10.5 1
9 0 1 0 0 0 1 0 0 0 1 -6.5 24 -1.5 1 10.5 0.5
9 0 1 0 0 0 1 0 0 0 1 8 24 53.5 6.5 1.5 0.5
9 0 1 0 0 0 1 0 0 0 1 -8 24 53.5 6.5 1.5 0.5
9 0 1 0 0 0 1 0 0 0 1 -5.5 24 36 9 0.5 1
9 0 1 0 0 0 1 0 0 0 1 9 38 53.5 2.5 0.5 3.5
9 0 1 0 0 0 1 0 0 0 1 5 32 -0.5 3.5 2.5 0.5
9 0 1 0 0 0 1 0 0 0 1 -5 32 -0.5 3.5 2.5 0.5
9 0 1 0 0 0 1 0 0 0 1 -9 38 53.5 2.5 0.5 3.5
9 0 1 0 0 0 1 0 0 0 1 18 28.5 14 0.5 4 2
9 0 1 0 0 0 1 0 0 0 1 18 19.5 25 0.5 2 4
9 0 1 0 0 0 1 0 0 0 1 5 21.5 -9 0.5 8 1
9 0 1 0 0 0 1 0 0 0 1 -5 21.5 -9 0.5 8 1
9 0 1 0 0 0 1 0 0 0 1 -18 28.5 14 0.5 4 2
9 0 1 0 0 0 1 0 0 0 1 -18 19.5 25 0.5 2 4
9 0 1 0 0 0 1 0 0 0 1 11.5 38 -6.5 5 0.5 1.5
9 0 1 0 0 0 1 0 0 0 1 11.5 38 3.5 5 0.5 1.5
9 0 1 0 0 0 1 0 0 0 1 -11.5 38 -6.5 5 0.5 1.5
9 0 1 0 0 0 1 0 0 0 1 -11.5 38 3.5 5 0.5 1.5
9 0 1 0 0 0 1 0 0 0 1 0 25 45.5 14.5 0.5 0.5
9 0 1 0 0 0 1 0 0 0 1 18 18.5 -6.5 0.5 4 1.5
9 0 1 0 0 0 1 0 0 0 1 18 18.5 3.5 0.5 4 1.5
9 0 1 0 0 0 1 0 0 0 1 -18 18.5 -6.5 0.5 4 1.5
9 0 1 0 0 0 1 0 0 0 1 -18 18.5 3.5 0.5 4 1.5
9 0 1 0 0 0 1 0 0 0 1 18 29 -16.5 0.5 3.5 1.5
9 0 1 0 0 0 1 0 0 0 1 18 29 -6.5 0.5 3.5 1.5
9 0 1 0 0 0 1 0 0 0 1 18 29 3.5 0.5 3.5 1.5
9 0 1 0 0 0 1 0 0 0 1 8 24 -13.5 0.5 10.5 0.5
9 0 1 0 0 0 1 0 0 0 1 6 24 -1.5 0.5 10.5 0.5
9 0 1 0 0 0 1 0 0 0 1 -7 24 -2.5 0.5 10.5 0.5
9 0 1 0 0 0 1 0 0 0 1 -8 24 -13.5 0.5 10.5 0.5
9 0 1 0 0 0 1 0 0 0 1 -18 29 -16.5 0.5 3.5 1.5
9 0 1 0 0 0 1 0 0 0 1 -18 29 -6.5 0.5 3.5 1.5
9 0 1 0 0 0 1 0 0 0 1 -18 29 3.5 0.5 3.5 1.5
9 0 1 0 0 0 1 0 0 0 1 0 27.5 -4.5 2.5 2 0.5
9 0 1 0 0 0 1 0 0 0 1 0 30 -9 0.5 4.5 1
9 0 1 0 0 0 1 0 0 0 1 0 30 58 0.5 4.5 1
9 0 1 0 0 0 1 0 0 0 1 0 18 -9 0.5 4.5 1
9 0 1 0 0 0 1 0 0 0 1 5.5 24 43.5 9 0.5 0.5
9 0 1 0 0 0 1 0 0 0 1 18 18.5 -16 0.5 4 1
9 0 1 0 0 0 1 0 0 0 1 6.5 32.5 52 1 2 1
9 0 1 0 0 0 1 0 0 0 1 -6.5 32.5 52 1 2 1
9 0 1 0 0 0 1 0 0 0 1 -18 18.5 -16 0.5 4 1
9 0 1 0 0 0 1 0 0 0 1 9 33 58.5 1.5 2.5 0.5
9 0 1 0 0 0 1 0 0 0 1 -9 33 58.5 1.5 2.5 0.5
9 0 1 0 0 0 1 0 0 0 1 18 29.5 50 0.5 3 1
9 0 1 0 0 0 1 0 0 0 1 10.5 16 63 1 1.5 1
9 0 1 0 0 0 1 0 0 0 1 0 20.5 60.5 0.5 2 1.5
9 0 1 0 0 0 1 0 0 0 1 -10.5 16 63 1 1.5 1
9 0 1 0 0 0 1 0 0 0 1 -18 29.5 50 0.5 3 1
9 0 1 0 0 0 1 0 0 0 1 17 31 -17.5 0.5 5.5 0.5
9 0 1 0 0 0 1 0 0 0 1 9 24 35.5 5.5 0.5 0.5
9 0 1 0 0 0 1 0 0 0 1 -17 31 -17.5 0.5 5.5 0.5
9 0 1 0 0 0 1 0 0 0 1 18 15.5 14.5 0.5 1 2.5
9 0 1 0 0 0 1 0 0 0 1 -18 15.5 14.5 0.5 1 2.5
9 0 1 0 0 0 1 0 0 0 1 10.5 38 48 1 0.5 2
9 0 1 0 0 0 1 0 0 0 1 10 26.5 62.5 0.5 4 0.5
9 0 1 0 0 0 1 0 0 0 1 -10 26.5 62.5 0.5 4 0.5
9 0 1 0 0 0 1 0 0 0 1 -10.5 38 48 1 0.5 2
9 0 1 0 0 0 1 0 0 0 1 18 29.5 30.5 0.5 3 0.5
9 0 1 0 0 0 1 0 0 0 1 18 20.5 19.5 0.5 1 1.5
9 0 1 0 0 0 1 0 0 0 1 11 38 33 0.5 0.5 3
9 0 1 0 0 0 1 0 0 0 1 0 33.5 -0.5 1.5 1 0.5
9 0 1 0 0 0 1 0 0 0 1 -5 18.5 -1.5 0.5 3 0.5
9 0 1 0 0 0 1 0 0 0 1 -10 38 31 1.5 0.5 1
9 0 1 0 0 0 1 0 0 0 1 -18 29.5 30.5 0.5 3 0.5
9 0 1 0 0 0 1 0 0 0 1 -18 20.5 19.5 0.5 1 1.5
9 0 1 0 0 0 1 0 0 0 1 18 17 32.5 0.5 2.5 0.5
9 0 1 0 0 0 1 0 0 0 1 18 17 47.5 0.5 2.5 0.5
9 0 1 0 0 0 1 0 0 0 1 5 25 -1.5 0.5 2.5 0.5
9 0 1 0 0 0 1 0 0 0 1 0 33 -13.5 2.5 0.5 0.5
9 0 1 0 0 0 1 0 0 0 1 0 33 -4.5 2.5 0.5 0.5
9 0 1 0 0 0 1 0 0 0 1 -5 29 -1.5 0.5 2.5 0.5
9 0 1 0 0 0 1 0 0 0 1 -18 17 32.5 0.5 2.5 0.5
9 0 1 0 0 0 1 0 0 0 1 -18 17 47.5 0.5 2.5 0.5
9 0 1 0 0 0 1 0 0 0 1 27.5 32 40 1 0.5 1
9 0 1 0 0 0 1 0 0 0 1 27.5 28 40 1 0.5 1
9 0 1 0 0 0 1 0 0 0 1 18 24.5 50.5 0.5 2 0.5
9 0 1 0 0 0 1 0 0 0 1 18 17.5 13 0.5 1 1
9 0 1 0 0 0 1 0 0 0 1 9.5 38 31 1 0.5 1
9 0 1 0 0 0 1 0 0 0 1 7 32.5 53.5 0.5 2 0.5
9 0 1 0 0 0 1 0 0 0 1 5 32.5 51.5 0.5 2 0.5
9 0 1 0 0 0 1 0 0 0 1 5 15.5 -1.5 0.5 2 0.5
9 0 1 0 0 0 1 0 0 0 1 -5 32.5 51.5 0.5 2 0.5
9 0 1 0 0 0 1 0 0 0 1 -7 32.5 53.5 0.5 2 0.5
9 0 1 0 0 0 1 0 0 0 1 -11 38 34 0.5 0.5 2
9 0 1 0 0 0 1 0 0 0 1 -18 24.5 50.5 0.5 2 0.5
9 0 1 0 0 0 1 0 0 0 1 -18 17.5 13 0.5 1 1
9 0 1 0 0 0 1 0 0 0 1 -27.5 32 40 1 0.5 1
9 0 1 0 0 0 1 0 0 0 1 -27.5 28 40 1 0.5 1
9 0 1 0 0 0 1 0 0 0 1 18 24 14.5 0.5 0.5 1.5
9 0 1 0 0 0 1 0 0 0 1 12 16 62.5 0.5 1.5 0.5
9 0 1 0 0 0 1 0 0 0 1 2 24 -4.5 0.5 1.5 0.5
9 0 1 0 0 0 1 0 0 0 1 -2 24 -4.5 0.5 1.5 0.5
9 0 1 0 0 0 1 0 0 0 1 -12 16 62.5 0.5 1.5 0.5
9 0 1 0 0 0 1 0 0 0 1 -18 24 14.5 0.5 0.5 1.5
