9 0 1 0 0 0 1 0 0 0 1 0 66.7968 -152.2417 1.5 14.5 4
9 0 1 0 0 0 1 0 0 0 1 0 -10.7032 -18.24171 2.5 2 3
9 0 1 0 0 0 1 0 0 0 1 0 -12.7032 -23.24171 2.5 2 2
9 0 1 0 0 0 1 0 0 0 1 5 0.7967987 -23.24171 0.5 4.5 4
9 0 1 0 0 0 1 0 0 0 1 0 70.7968 -157.2417 1.5 5.5 1
9 0 1 0 0 0 1 0 0 0 1 -0.5 83.2968 -152.2417 1 2 4
9 0 1 0 0 0 1 0 0 0 1 0 75.2968 -147.7417 1.5 9 0.5
9 0 1 0 0 0 1 0 0 0 1 0 -36.7032 -79.74171 1.5 1 4.5
9 0 1 0 0 0 1 0 0 0 1 0 -38.7032 -109.2417 0.5 1 13
9 0 1 0 0 0 1 0 0 0 1 0 -18.2032 -32.74171 1.5 1.5 2.5
9 0 1 0 0 0 1 0 0 0 1 0 -9.203201 -13.74171 2.5 1.5 1.5
9 0 1 0 0 0 1 0 0 0 1 0 -5.203201 -152.7417 0.5 20.5 0.5
9 0 1 0 0 0 1 0 0 0 1 0 75.2968 -159.7417 0.5 6 1.5
9 0 1 0 0 0 1 0 0 0 1 0 86.7968 -151.2417 1.5 1.5 2
9 0 1 0 0 0 1 0 0 0 1 0 51.2968 -152.2417 1.5 1 3
9 0 1 0 0 0 1 0 0 0 1 0 -21.2032 -38.24171 1.5 1.5 2
9 0 1 0 0 0 1 0 0 0 1 1 83.2968 -152.2417 0.5 2 4
9 0 1 0 0 0 1 0 0 0 1 0 78.7968 -157.2417 1.5 2.5 1
9 0 1 0 0 0 1 0 0 0 1 0 -25.7032 -47.74171 1.5 1 2.5
9 0 1 0 0 0 1 0 0 0 1 0 55.2968 -157.2417 1.5 2 1
9 0 1 0 0 0 1 0 0 0 1 0 3.296799 5.758289 1.5 1 2
9 0 1 0 0 0 1 0 0 0 1 0 0.2967987 0.7582893 1.5 1 2
9 0 1 0 0 0 1 0 0 0 1 0 -1.703201 -3.241711 1.5 1 2
9 0 1 0 0 0 1 0 0 0 1 0 -3.703201 -6.241711 1.5 1 2
9 0 1 0 0 0 1 0 0 0 1 0 -13.7032 -19.24171 1.5 1 2
9 0 1 0 0 0 1 0 0 0 1 0 -23.7032 -42.24171 1.5 1 2
9 0 1 0 0 0 1 0 0 0 1 0 -37.7032 -86.24171 1.5 1 2
9 0 1 0 0 0 1 0 0 0 1 2 68.2968 -152.7417 0.5 1 5.5
9 0 1 0 0 0 1 0 0 0 1 -2 68.2968 -152.7417 0.5 1 5.5
9 0 1 0 0 0 1 0 0 0 1 0 91.7968 -151.7417 0.5 3.5 1.5
9 0 1 0 0 0 1 0 0 0 1 0 -34.2032 -65.74171 1.5 0.5 3.5
9 0 1 0 0 0 1 0 0 0 1 0 -31.2032 -106.2417 0.5 0.5 10
9 0 1 0 0 0 1 0 0 0 1 0 -15.7032 -23.24171 2.5 1 1
9 0 1 0 0 0 1 0 0 0 1 0 -35.2032 -69.24171 1.5 0.5 3
9 0 1 0 0 0 1 0 0 0 1 0 -38.2032 -92.24171 1.5 1.5 1
9 0 1 0 0 0 1 0 0 0 1 2 60.2968 -152.2417 0.5 2 2
9 0 1 0 0 0 1 0 0 0 1 0 77.2968 -146.7417 0.5 8 0.5
9 0 1 0 0 0 1 0 0 0 1 -2 60.2968 -152.2417 0.5 2 2
9 0 1 0 0 0 1 0 0 0 1 0 -16.2032 -30.74171 1.5 0.5 2.5
9 0 1 0 0 0 1 0 0 0 1 0 -36.2032 -72.74171 1.5 0.5 2.5
9 0 1 0 0 0 1 0 0 0 1 0 -8.203201 -16.74171 2.5 0.5 1.5
9 0 1 0 0 0 1 0 0 0 1 0 -32.7032 -61.74171 0.5 1 3.5
9 0 1 0 0 0 1 0 0 0 1 0 -6.703201 -14.74171 3.5 1 0.5
9 0 1 0 0 0 1 0 0 0 1 3 -9.703201 -16.24171 0.5 1 3
9 0 1 0 0 0 1 0 0 0 1 3 -11.7032 -20.24171 0.5 1 3
9 0 1 0 0 0 1 0 0 0 1 0 58.2968 -147.7417 1.5 2 0.5
9 0 1 0 0 0 1 0 0 0 1 0 49.7968 -152.2417 1.5 0.5 2
9 0 1 0 0 0 1 0 0 0 1 0 5.296799 8.758289 1.5 1 1
9 0 1 0 0 0 1 0 0 0 1 0 2.296799 2.758289 1.5 1 1
9 0 1 0 0 0 1 0 0 0 1 0 -22.2032 -42.24171 1.5 0.5 2
9 0 1 0 0 0 1 0 0 0 1 0 -38.7032 -126.2417 1.5 1 1
9 0 1 0 0 0 1 0 0 0 1 -3 -9.703201 -16.24171 0.5 1 3
9 0 1 0 0 0 1 0 0 0 1 -3 -11.7032 -20.24171 0.5 1 3
9 0 1 0 0 0 1 0 0 0 1 1 -38.2032 -101.2417 0.5 0.5 5
9 0 1 0 0 0 1 0 0 0 1 -1 -38.2032 -101.2417 0.5 0.5 5
9 0 1 0 0 0 1 0 0 0 1 1 71.7968 -158.7417 0.5 4.5 0.5
9 0 1 0 0 0 1 0 0 0 1 0 -38.2032 -79.74171 0.5 0.5 4.5
9 0 1 0 0 0 1 0 0 0 1 -1 71.7968 -158.7417 0.5 4.5 0.5
9 0 1 0 0 0 1 0 0 0 1 0 -5.203201 -7.741711 1.5 0.5 1.5
9 0 1 0 0 0 1 0 0 0 1 0 -10.2032 -22.74171 1.5 0.5 1.5
9 0 1 0 0 0 1 0 0 0 1 0 -11.2032 -13.74171 1.5 0.5 1.5
9 0 1 0 0 0 1 0 0 0 1 0 -15.2032 -20.74171 1.5 0.5 1.5
9 0 1 0 0 0 1 0 0 0 1 0 -19.2032 -36.74171 1.5 0.5 1.5
9 0 1 0 0 0 1 0 0 0 1 0 -20.2032 -34.74171 1.5 0.5 1.5
9 0 1 0 0 0 1 0 0 0 1 0 -27.2032 -48.74171 1.5 0.5 1.5
9 0 1 0 0 0 1 0 0 0 1 0 -29.2032 -54.74171 1.5 1.5 0.5
9 0 1 0 0 0 1 0 0 0 1 5 0.2967987 -28.24171 0.5 2 1
9 0 1 0 0 0 1 0 0 0 1 5 0.2967987 -18.24171 0.5 2 1
9 0 1 0 0 0 1 0 0 0 1 5 -4.703201 -23.24171 0.5 1 2
9 0 1 0 0 0 1 0 0 0 1 3 -13.7032 -23.24171 0.5 1 2
9 0 1 0 0 0 1 0 0 0 1 0 82.2968 -158.2417 0.5 1 2
9 0 1 0 0 0 1 0 0 0 1 0 83.2968 -145.2417 0.5 2 1
9 0 1 0 0 0 1 0 0 0 1 0 61.2968 -156.7417 0.5 4 0.5
9 0 1 0 0 0 1 0 0 0 1 0 -24.2032 -68.24171 0.5 0.5 4
9 0 1 0 0 0 1 0 0 0 1 0 -23.7032 -46.24171 0.5 1 2
9 0 1 0 0 0 1 0 0 0 1 -3 -13.7032 -23.24171 0.5 1 2
9 0 1 0 0 0 1 0 0 0 1 0 73.7968 -161.7417 0.5 3.5 0.5
9 0 1 0 0 0 1 0 0 0 1 0 -7.203201 -15.74171 3.5 0.5 0.5
9 0 1 0 0 0 1 0 0 0 1 0 -7.203201 -13.74171 3.5 0.5 0.5
9 0 1 0 0 0 1 0 0 0 1 2 58.7968 -155.2417 0.5 1.5 1
9 0 1 0 0 0 1 0 0 0 1 0 -35.2032 -75.24171 0.5 0.5 3
9 0 1 0 0 0 1 0 0 0 1 0 -37.2032 -99.24171 0.5 0.5 3
9 0 1 0 0 0 1 0 0 0 1 0 86.2968 -153.7417 1.5 1 0.5
9 0 1 0 0 0 1 0 0 0 1 0 56.2968 -158.7417 1.5 1 0.5
9 0 1 0 0 0 1 0 0 0 1 0 4.796799 6.758289 1.5 0.5 1
9 0 1 0 0 0 1 0 0 0 1 0 1.796799 4.758289 1.5 0.5 1
9 0 1 0 0 0 1 0 0 0 1 0 -0.2032013 -2.241711 1.5 0.5 1
9 0 1 0 0 0 1 0 0 0 1 0 -1.203201 -0.2417107 1.5 0.5 1
9 0 1 0 0 0 1 0 0 0 1 0 -11.7032 -25.74171 1.5 1 0.5
9 0 1 0 0 0 1 0 0 0 1 0 -14.7032 -29.74171 1.5 1 0.5
9 0 1 0 0 0 1 0 0 0 1 0 -17.2032 -29.24171 1.5 0.5 1
9 0 1 0 0 0 1 0 0 0 1 0 -23.2032 -39.24171 1.5 0.5 1
9 0 1 0 0 0 1 0 0 0 1 0 -25.2032 -44.24171 1.5 0.5 1
9 0 1 0 0 0 1 0 0 0 1 -2 58.7968 -155.2417 0.5 1.5 1
9 0 1 0 0 0 1 0 0 0 1 5 5.796799 -22.74171 0.5 0.5 2.5
9 0 1 0 0 0 1 0 0 0 1 3 -8.203201 -14.74171 0.5 0.5 2.5
9 0 1 0 0 0 1 0 0 0 1 2 69.7968 -155.7417 0.5 0.5 2.5
9 0 1 0 0 0 1 0 0 0 1 -2 69.7968 -155.7417 0.5 0.5 2.5
9 0 1 0 0 0 1 0 0 0 1 -3 -8.203201 -14.74171 0.5 0.5 2.5
9 0 1 0 0 0 1 0 0 0 1 2 70.2968 -149.2417 0.5 1 1
9 0 1 0 0 0 1 0 0 0 1 2.5 -13.2032 -20.24171 1 0.5 1
9 0 1 0 0 0 1 0 0 0 1 1.5 58.2968 -156.7417 1 1 0.5
9 0 1 0 0 0 1 0 0 0 1 1 -33.2032 -63.24171 0.5 0.5 2
9 0 1 0 0 0 1 0 0 0 1 0 94.2968 -154.2417 0.5 1 1
9 0 1 0 0 0 1 0 0 0 1 0 94.2968 -149.2417 0.5 1 1
9 0 1 0 0 0 1 0 0 0 1 0 -21.7032 -35.24171 0.5 1 1
9 0 1 0 0 0 1 0 0 0 1 0 -31.2032 -131.2417 0.5 0.5 2
9 0 1 0 0 0 1 0 0 0 1 0 -33.2032 -67.24171 0.5 0.5 2
9 0 1 0 0 0 1 0 0 0 1 0 -35.2032 -64.24171 0.5 0.5 2
9 0 1 0 0 0 1 0 0 0 1 0 -36.2032 -86.24171 0.5 0.5 2
9 0 1 0 0 0 1 0 0 0 1 0 -37.2032 -138.2417 0.5 0.5 2
9 0 1 0 0 0 1 0 0 0 1 0 -37.2032 -73.24171 0.5 0.5 2
9 0 1 0 0 0 1 0 0 0 1 0 -38.2032 -132.2417 0.5 0.5 2
9 0 1 0 0 0 1 0 0 0 1 0 -39.2032 -86.24171 0.5 0.5 2
9 0 1 0 0 0 1 0 0 0 1 -1 59.2968 -156.7417 0.5 2 0.5
9 0 1 0 0 0 1 0 0 0 1 -1 -33.2032 -63.24171 0.5 0.5 2
9 0 1 0 0 0 1 0 0 0 1 -2 70.2968 -149.2417 0.5 1 1
9 0 1 0 0 0 1 0 0 0 1 -2 -13.2032 -19.24171 0.5 0.5 2
9 0 1 0 0 0 1 0 0 0 1 2 59.7968 -149.7417 0.5 1.5 0.5
9 0 1 0 0 0 1 0 0 0 1 2 56.7968 -156.7417 0.5 0.5 1.5
9 0 1 0 0 0 1 0 0 0 1 1 -24.2032 -45.74171 0.5 0.5 1.5
9 0 1 0 0 0 1 0 0 0 1 1 -32.2032 -60.74171 0.5 0.5 1.5
9 0 1 0 0 0 1 0 0 0 1 0 54.7968 -147.7417 0.5 1.5 0.5
9 0 1 0 0 0 1 0 0 0 1 0 3.796799 9.258289 0.5 0.5 1.5
9 0 1 0 0 0 1 0 0 0 1 0 -15.2032 -31.74171 0.5 0.5 1.5
9 0 1 0 0 0 1 0 0 0 1 0 -21.2032 -41.74171 0.5 0.5 1.5
9 0 1 0 0 0 1 0 0 0 1 0 -28.2032 -48.74171 0.5 0.5 1.5
9 0 1 0 0 0 1 0 0 0 1 0 -30.2032 -138.7417 0.5 0.5 1.5
9 0 1 0 0 0 1 0 0 0 1 0 -31.2032 -60.74171 0.5 0.5 1.5
9 0 1 0 0 0 1 0 0 0 1 0 -34.2032 -70.74171 0.5 0.5 1.5
9 0 1 0 0 0 1 0 0 0 1 0 -36.2032 -68.74171 0.5 0.5 1.5
9 0 1 0 0 0 1 0 0 0 1 0 85.7968 -154.7417 1.5 0.5 0.5
9 0 1 0 0 0 1 0 0 0 1 0 85.7968 -148.7417 1.5 0.5 0.5
9 0 1 0 0 0 1 0 0 0 1 0 57.7968 -157.7417 1.5 0.5 0.5
9 0 1 0 0 0 1 0 0 0 1 0 52.7968 -156.7417 1.5 0.5 0.5
9 0 1 0 0 0 1 0 0 0 1 0 51.7968 -155.7417 1.5 0.5 0.5
9 0 1 0 0 0 1 0 0 0 1 0 1.796799 1.258289 1.5 0.5 0.5
9 0 1 0 0 0 1 0 0 0 1 0 0.7967987 3.258289 1.5 0.5 0.5
9 0 1 0 0 0 1 0 0 0 1 0 -2.203201 -5.741711 1.5 0.5 0.5
9 0 1 0 0 0 1 0 0 0 1 0 -3.203201 -3.741711 1.5 0.5 0.5
9 0 1 0 0 0 1 0 0 0 1 0 -4.203201 -8.741711 1.5 0.5 0.5
9 0 1 0 0 0 1 0 0 0 1 0 -5.203201 -14.74171 1.5 0.5 0.5
9 0 1 0 0 0 1 0 0 0 1 0 -6.203201 -8.741711 1.5 0.5 0.5
9 0 1 0 0 0 1 0 0 0 1 0 -9.203201 -21.74171 1.5 0.5 0.5
9 0 1 0 0 0 1 0 0 0 1 0 -10.2032 -11.74171 1.5 0.5 0.5
9 0 1 0 0 0 1 0 0 0 1 0 -12.2032 -14.74171 1.5 0.5 0.5
9 0 1 0 0 0 1 0 0 0 1 0 -13.2032 -16.74171 1.5 0.5 0.5
9 0 1 0 0 0 1 0 0 0 1 0 -16.2032 -21.74171 1.5 0.5 0.5
9 0 1 0 0 0 1 0 0 0 1 0 -18.2032 -35.74171 1.5 0.5 0.5
9 0 1 0 0 0 1 0 0 0 1 0 -18.2032 -29.74171 1.5 0.5 0.5
9 0 1 0 0 0 1 0 0 0 1 -1 -24.2032 -45.74171 0.5 0.5 1.5
9 0 1 0 0 0 1 0 0 0 1 0 -26.2032 -50.74171 1.5 0.5 0.5
9 0 1 0 0 0 1 0 0 0 1 0 -28.2032 -55.74171 1.5 0.5 0.5
9 0 1 0 0 0 1 0 0 0 1 0 -30.2032 -53.74171 1.5 0.5 0.5
9 0 1 0 0 0 1 0 0 0 1 -1 -32.2032 -60.74171 0.5 0.5 1.5
9 0 1 0 0 0 1 0 0 0 1 0 -35.2032 -150.7417 1.5 0.5 0.5
9 0 1 0 0 0 1 0 0 0 1 -2 59.7968 -149.7417 0.5 1.5 0.5
9 0 1 0 0 0 1 0 0 0 1 -2 57.7968 -156.7417 0.5 1.5 0.5
