9 0 1 0 0 0 1 0 0 0 1 -5.299299 5.200701 -3 2 1.5 2.5
9 0 1 0 0 0 1 0 0 0 1 6.200701 4.700701 -3 2.5 1 2.5
9 0 1 0 0 0 1 0 0 0 1 -4.299299 -4.299299 3.5 1 1 5
9 0 1 0 0 0 1 0 0 0 1 -0.2992992 8.200701 -3 3 0.5 2.5
9 0 1 0 0 0 1 0 0 0 1 8.700701 3.200701 -3 2 0.5 2.5
9 0 1 0 0 0 1 0 0 0 1 4.700701 6.700701 -3 1 1 2.5
9 0 1 0 0 0 1 0 0 0 1 4.200701 -4.299299 3.5 0.5 1 5
9 0 1 0 0 0 1 0 0 0 1 -8.299299 3.700701 -3 1 1 2.5
9 0 1 0 0 0 1 0 0 0 1 11.2007 -5.299299 -5 1.5 3 0.5
9 0 1 0 0 0 1 0 0 0 1 8.700701 -10.2993 -5 2 2 0.5
9 0 1 0 0 0 1 0 0 0 1 -4.299299 -4.299299 -6.5 1 1 2
9 0 1 0 0 0 1 0 0 0 1 -7.299299 -11.2993 -5 2 2 0.5
9 0 1 0 0 0 1 0 0 0 1 -11.7993 -4.799299 -5 1.5 2.5 0.5
9 0 1 0 0 0 1 0 0 0 1 4.200701 4.700701 5.5 0.5 1 3
9 0 1 0 0 0 1 0 0 0 1 -3.799299 4.700701 5.5 0.5 1 3
9 0 1 0 0 0 1 0 0 0 1 -0.2992992 -24.7993 0 6 0.5 0.5
9 0 1 0 0 0 1 0 0 0 1 -12.7993 -5.299299 4 0.5 2 1.5
9 0 1 0 0 0 1 0 0 0 1 -20.7993 -4.299299 0 0.5 6 0.5
9 0 1 0 0 0 1 0 0 0 1 -3.799299 -5.799299 3.5 0.5 0.5 5
9 0 1 0 0 0 1 0 0 0 1 -4.299299 7.200701 -3 1 0.5 2.5
9 0 1 0 0 0 1 0 0 0 1 -12.7993 -4.799299 -3.5 0.5 2.5 1
9 0 1 0 0 0 1 0 0 0 1 13.2007 -3.799299 -4 0.5 1.5 1.5
9 0 1 0 0 0 1 0 0 0 1 13.2007 -3.799299 4 0.5 1.5 1.5
9 0 1 0 0 0 1 0 0 0 1 0.2007008 9.200701 -4 1.5 0.5 1.5
9 0 1 0 0 0 1 0 0 0 1 21.2007 -4.299299 0 0.5 4 0.5
9 0 1 0 0 0 1 0 0 0 1 4.700701 -3.799299 -6.5 1 0.5 2
9 0 1 0 0 0 1 0 0 0 1 -0.2992992 17.2007 0 4 0.5 0.5
9 0 1 0 0 0 1 0 0 0 1 -10.2993 -9.299299 -5 1 2 0.5
9 0 1 0 0 0 1 0 0 0 1 6.700701 6.200701 -4 1 0.5 1.5
9 0 1 0 0 0 1 0 0 0 1 7.200701 -13.2993 -5 1.5 1 0.5
9 0 1 0 0 0 1 0 0 0 1 3.700701 8.200701 -4 1 0.5 1.5
9 0 1 0 0 0 1 0 0 0 1 -3.799299 -4.299299 -3 0.5 1 1.5
9 0 1 0 0 0 1 0 0 0 1 -4.799299 4.200701 5.5 0.5 0.5 3
9 0 1 0 0 0 1 0 0 0 1 -7.799299 5.700701 -4 0.5 1 1.5
9 0 1 0 0 0 1 0 0 0 1 -9.799299 3.700701 -4 0.5 1 1.5
9 0 1 0 0 0 1 0 0 0 1 9.200701 4.200701 -3 0.5 0.5 2.5
9 0 1 0 0 0 1 0 0 0 1 3.200701 7.200701 -3 0.5 0.5 2.5
9 0 1 0 0 0 1 0 0 0 1 -12.7993 -3.799299 0 0.5 0.5 2.5
9 0 1 0 0 0 1 0 0 0 1 4.200701 -4.799299 -6.5 0.5 0.5 2
9 0 1 0 0 0 1 0 0 0 1 -6.299299 -14.2993 -5 1 1 0.5
9 0 1 0 0 0 1 0 0 0 1 6.200701 7.200701 -4 0.5 0.5 1.5
9 0 1 0 0 0 1 0 0 0 1 6.200701 -10.7993 -5 0.5 1.5 0.5
9 0 1 0 0 0 1 0 0 0 1 4.200701 -3.799299 -3 0.5 0.5 1.5
9 0 1 0 0 0 1 0 0 0 1 -3.799299 8.200701 -4 0.5 0.5 1.5
9 0 1 0 0 0 1 0 0 0 1 -5.799299 7.200701 -4 0.5 0.5 1.5
9 0 1 0 0 0 1 0 0 0 1 -8.799299 5.200701 -4 0.5 0.5 1.5
9 0 1 0 0 0 1 0 0 0 1 -7.799299 -8.799299 -5 1.5 0.5 0.5
9 0 1 0 0 0 1 0 0 0 1 -12.7993 -2.799299 4 0.5 0.5 1.5
