9 0 1 0 0 0 1 0 0 0 1 49.9353 25.5 0 4.5 1 8.5
9 0 1 0 0 0 1 0 0 0 1 49.9353 -25.5 0 4.5 1 8.5
9 0 1 0 0 0 1 0 0 0 1 29.9353 25.5 0 4.5 1 8.5
9 0 1 0 0 0 1 0 0 0 1 29.9353 -25.5 0 4.5 1 8.5
9 0 1 0 0 0 1 0 0 0 1 9.935303 25.5 0 4.5 1 8.5
9 0 1 0 0 0 1 0 0 0 1 9.935303 -25.5 0 4.5 1 8.5
9 0 1 0 0 0 1 0 0 0 1 -10.0647 25.5 0 4.5 1 8.5
9 0 1 0 0 0 1 0 0 0 1 -10.0647 -25.5 0 4.5 1 8.5
9 0 1 0 0 0 1 0 0 0 1 -30.0647 25.5 0 4.5 1 8.5
9 0 1 0 0 0 1 0 0 0 1 -30.0647 -25.5 0 4.5 1 8.5
9 0 1 0 0 0 1 0 0 0 1 -50.0647 25.5 0 4.5 1 8.5
9 0 1 0 0 0 1 0 0 0 1 -50.0647 -25.5 0 4.5 1 8.5
9 0 1 0 0 0 1 0 0 0 1 83.9353 6.5 0 0.5 1 7.5
9 0 1 0 0 0 1 0 0 0 1 83.9353 -6.5 0 0.5 1 7.5
9 0 1 0 0 0 1 0 0 0 1 -66.5647 24 0 1 0.5 7.5
9 0 1 0 0 0 1 0 0 0 1 -66.5647 -24 0 1 0.5 7.5
9 0 1 0 0 0 1 0 0 0 1 -84.0647 6 0.5 0.5 0.5 8
9 0 1 0 0 0 1 0 0 0 1 -84.0647 -6 0.5 0.5 0.5 8
9 0 1 0 0 0 1 0 0 0 1 71.9353 22 0 0.5 0.5 7.5
9 0 1 0 0 0 1 0 0 0 1 71.9353 -22 0 0.5 0.5 7.5
9 0 1 0 0 0 1 0 0 0 1 66.9353 24 0 0.5 0.5 7.5
9 0 1 0 0 0 1 0 0 0 1 66.9353 -24 0 0.5 0.5 7.5
9 0 1 0 0 0 1 0 0 0 1 49.9353 25 -9 4.5 0.5 0.5
9 0 1 0 0 0 1 0 0 0 1 49.9353 25 9 4.5 0.5 0.5
9 0 1 0 0 0 1 0 0 0 1 49.9353 -25 -9 4.5 0.5 0.5
9 0 1 0 0 0 1 0 0 0 1 49.9353 -25 9 4.5 0.5 0.5
9 0 1 0 0 0 1 0 0 0 1 29.9353 25 -9 4.5 0.5 0.5
9 0 1 0 0 0 1 0 0 0 1 29.9353 25 9 4.5 0.5 0.5
9 0 1 0 0 0 1 0 0 0 1 29.9353 -25 -9 4.5 0.5 0.5
9 0 1 0 0 0 1 0 0 0 1 29.9353 -25 9 4.5 0.5 0.5
9 0 1 0 0 0 1 0 0 0 1 9.935303 25 -9 4.5 0.5 0.5
9 0 1 0 0 0 1 0 0 0 1 9.935303 25 9 4.5 0.5 0.5
9 0 1 0 0 0 1 0 0 0 1 9.935303 -25 -9 4.5 0.5 0.5
9 0 1 0 0 0 1 0 0 0 1 9.935303 -25 9 4.5 0.5 0.5
9 0 1 0 0 0 1 0 0 0 1 -10.0647 25 -9 4.5 0.5 0.5
9 0 1 0 0 0 1 0 0 0 1 -10.0647 25 9 4.5 0.5 0.5
9 0 1 0 0 0 1 0 0 0 1 -10.0647 -25 -9 4.5 0.5 0.5
9 0 1 0 0 0 1 0 0 0 1 -10.0647 -25 9 4.5 0.5 0.5
9 0 1 0 0 0 1 0 0 0 1 -30.0647 25 -9 4.5 0.5 0.5
9 0 1 0 0 0 1 0 0 0 1 -30.0647 25 9 4.5 0.5 0.5
9 0 1 0 0 0 1 0 0 0 1 -30.0647 -25 -9 4.5 0.5 0.5
9 0 1 0 0 0 1 0 0 0 1 -30.0647 -25 9 4.5 0.5 0.5
9 0 1 0 0 0 1 0 0 0 1 -50.0647 25 -9 4.5 0.5 0.5
9 0 1 0 0 0 1 0 0 0 1 -50.0647 25 9 4.5 0.5 0.5
9 0 1 0 0 0 1 0 0 0 1 -50.0647 -25 -9 4.5 0.5 0.5
9 0 1 0 0 0 1 0 0 0 1 -50.0647 -25 9 4.5 0.5 0.5
9 0 1 0 0 0 1 0 0 0 1 49.9353 18.5 0 1.5 1 0.5
9 0 1 0 0 0 1 0 0 0 1 49.9353 -18.5 0 1.5 1 0.5
9 0 1 0 0 0 1 0 0 0 1 29.9353 18.5 0 1.5 1 0.5
9 0 1 0 0 0 1 0 0 0 1 29.9353 -18.5 0 1.5 1 0.5
9 0 1 0 0 0 1 0 0 0 1 9.935303 18.5 0 1.5 1 0.5
9 0 1 0 0 0 1 0 0 0 1 9.935303 -18.5 0 1.5 1 0.5
9 0 1 0 0 0 1 0 0 0 1 -10.0647 18.5 0 1.5 1 0.5
9 0 1 0 0 0 1 0 0 0 1 -10.0647 -18.5 0 1.5 1 0.5
9 0 1 0 0 0 1 0 0 0 1 -30.0647 18.5 0 1.5 1 0.5
9 0 1 0 0 0 1 0 0 0 1 -30.0647 -18.5 0 1.5 1 0.5
9 0 1 0 0 0 1 0 0 0 1 -50.0647 18.5 0 1.5 1 0.5
9 0 1 0 0 0 1 0 0 0 1 -50.0647 -18.5 0 1.5 1 0.5
9 0 1 0 0 0 1 0 0 0 1 76.9353 7 0 0.5 1.5 0.5
9 0 1 0 0 0 1 0 0 0 1 76.9353 -7 0 0.5 1.5 0.5
9 0 1 0 0 0 1 0 0 0 1 66.9353 17 0 1.5 0.5 0.5
9 0 1 0 0 0 1 0 0 0 1 66.9353 -17 0 1.5 0.5 0.5
9 0 1 0 0 0 1 0 0 0 1 -67.0647 17 0 1.5 0.5 0.5
9 0 1 0 0 0 1 0 0 0 1 -67.0647 -17 0 1.5 0.5 0.5
9 0 1 0 0 0 1 0 0 0 1 -77.0647 7 0 0.5 1.5 0.5
9 0 1 0 0 0 1 0 0 0 1 -77.0647 -7 0 0.5 1.5 0.5
