9 0 1 0 0 0 1 0 0 0 1 -0.125 -19.5 22.49997 6 14 1
9 0 1 0 0 0 1 0 0 0 1 22.875 -19.5 -2.670288E-05 1 14 4.5
9 0 1 0 0 0 1 0 0 0 1 -0.125 -19.5 -22.00003 9 14 0.5
9 0 1 0 0 0 1 0 0 0 1 -23.125 -19.5 -2.670288E-05 1 14 3.5
9 0 1 0 0 0 1 0 0 0 1 -0.125 -28 -35.50003 2 7.5 2
9 0 1 0 0 0 1 0 0 0 1 -0.125 -58.5 -2.670288E-05 2 1 13.5
9 0 1 0 0 0 1 0 0 0 1 0.375 -21.5 31.49997 0.5 11 4
9 0 1 0 0 0 1 0 0 0 1 -0.125 -27.5 -23.00003 6 6 0.5
9 0 1 0 0 0 1 0 0 0 1 -0.125 -37 18.49997 11 0.5 3
9 0 1 0 0 0 1 0 0 0 1 18.875 -37 -2.670288E-05 3 0.5 10.5
9 0 1 0 0 0 1 0 0 0 1 -0.125 -37 -19.00003 9 0.5 3.5
9 0 1 0 0 0 1 0 0 0 1 -0.125 -16 -31.50003 2 2.5 3
9 0 1 0 0 0 1 0 0 0 1 -18.625 -37 -2.670288E-05 2.5 0.5 11.5
9 0 1 0 0 0 1 0 0 0 1 -21.625 -19.5 -7.500027 0.5 14 2
9 0 1 0 0 0 1 0 0 0 1 -21.625 -19.5 7.499973 0.5 14 2
9 0 1 0 0 0 1 0 0 0 1 22.375 -19.5 -6.000027 0.5 14 1.5
9 0 1 0 0 0 1 0 0 0 1 22.375 -19.5 5.999973 0.5 14 1.5
9 0 1 0 0 0 1 0 0 0 1 21.375 -19.5 -8.000027 0.5 14 1.5
9 0 1 0 0 0 1 0 0 0 1 21.375 -19.5 7.999973 0.5 14 1.5
9 0 1 0 0 0 1 0 0 0 1 9.375 -19.5 -21.00003 1.5 14 0.5
9 0 1 0 0 0 1 0 0 0 1 9.375 -19.5 20.99997 1.5 14 0.5
9 0 1 0 0 0 1 0 0 0 1 7.375 -19.5 21.99997 1.5 14 0.5
9 0 1 0 0 0 1 0 0 0 1 -7.625 -19.5 21.99997 1.5 14 0.5
9 0 1 0 0 0 1 0 0 0 1 -9.625 -19.5 -21.00003 1.5 14 0.5
9 0 1 0 0 0 1 0 0 0 1 -20.625 -19.5 -10.00003 0.5 14 1.5
9 0 1 0 0 0 1 0 0 0 1 -20.625 -19.5 9.999973 0.5 14 1.5
9 0 1 0 0 0 1 0 0 0 1 -22.625 -19.5 -5.000027 0.5 14 1.5
9 0 1 0 0 0 1 0 0 0 1 -22.625 -19.5 4.999973 0.5 14 1.5
9 0 1 0 0 0 1 0 0 0 1 -9.625 -20 20.99997 1.5 13.5 0.5
9 0 1 0 0 0 1 0 0 0 1 -1.125 -23 33.49997 1 9.5 1
9 0 1 0 0 0 1 0 0 0 1 20.375 -19.5 -10.50003 0.5 14 1
9 0 1 0 0 0 1 0 0 0 1 20.375 -19.5 10.49997 0.5 14 1
9 0 1 0 0 0 1 0 0 0 1 19.375 -19.5 -12.50003 0.5 14 1
9 0 1 0 0 0 1 0 0 0 1 19.375 -19.5 12.49997 0.5 14 1
9 0 1 0 0 0 1 0 0 0 1 12.875 -19.5 -19.00003 1 14 0.5
9 0 1 0 0 0 1 0 0 0 1 12.875 -19.5 18.99997 1 14 0.5
9 0 1 0 0 0 1 0 0 0 1 10.875 -19.5 19.99997 1 14 0.5
9 0 1 0 0 0 1 0 0 0 1 -11.125 -19.5 -20.00003 1 14 0.5
9 0 1 0 0 0 1 0 0 0 1 -11.125 -19.5 19.99997 1 14 0.5
9 0 1 0 0 0 1 0 0 0 1 -13.125 -19.5 -19.00003 1 14 0.5
9 0 1 0 0 0 1 0 0 0 1 -13.125 -19.5 18.99997 1 14 0.5
9 0 1 0 0 0 1 0 0 0 1 -14.125 -19.5 -18.00003 1 14 0.5
9 0 1 0 0 0 1 0 0 0 1 -14.125 -19.5 17.99997 1 14 0.5
9 0 1 0 0 0 1 0 0 0 1 -18.625 -19.5 -13.50003 0.5 14 1
9 0 1 0 0 0 1 0 0 0 1 -18.625 -19.5 13.49997 0.5 14 1
9 0 1 0 0 0 1 0 0 0 1 -19.625 -19.5 -11.50003 0.5 14 1
9 0 1 0 0 0 1 0 0 0 1 -19.625 -19.5 11.49997 0.5 14 1
9 0 1 0 0 0 1 0 0 0 1 10.875 -20 -20.00003 1 13.5 0.5
9 0 1 0 0 0 1 0 0 0 1 -0.125 -57 -2.670288E-05 1 0.5 13.5
9 0 1 0 0 0 1 0 0 0 1 -0.625 -19.5 -34.00003 2.5 1 2.5
9 0 1 0 0 0 1 0 0 0 1 -0.125 -3.5 -22.00003 6 2 0.5
9 0 1 0 0 0 1 0 0 0 1 -0.125 -3.5 21.99997 6 2 0.5
9 0 1 0 0 0 1 0 0 0 1 -0.125 -60 1.999973 1 0.5 11.5
9 0 1 0 0 0 1 0 0 0 1 1.375 -21.5 33.49997 0.5 11 1
9 0 1 0 0 0 1 0 0 0 1 2.375 -25 -35.00003 0.5 6.5 1.5
9 0 1 0 0 0 1 0 0 0 1 22.375 -3.5 -2.670288E-05 0.5 2 4.5
9 0 1 0 0 0 1 0 0 0 1 13.875 -37 14.49997 3 0.5 3
9 0 1 0 0 0 1 0 0 0 1 -0.125 -25 -33.00003 2 4.5 0.5
9 0 1 0 0 0 1 0 0 0 1 -0.125 -13.5 -23.00003 3 3 0.5
9 0 1 0 0 0 1 0 0 0 1 -12.125 -37 -15.50003 3 0.5 3
9 0 1 0 0 0 1 0 0 0 1 14.875 -37 -13.00003 3 0.5 2.5
9 0 1 0 0 0 1 0 0 0 1 0.375 -14.5 -28.00003 2.5 3 0.5
9 0 1 0 0 0 1 0 0 0 1 -22.125 -37 -2.670288E-05 1 0.5 7.5
9 0 1 0 0 0 1 0 0 0 1 18.375 -19.5 -14.00003 0.5 14 0.5
9 0 1 0 0 0 1 0 0 0 1 18.375 -19.5 13.99997 0.5 14 0.5
9 0 1 0 0 0 1 0 0 0 1 17.375 -19.5 -15.00003 0.5 14 0.5
9 0 1 0 0 0 1 0 0 0 1 17.375 -19.5 14.99997 0.5 14 0.5
9 0 1 0 0 0 1 0 0 0 1 16.375 -19.5 -16.00003 0.5 14 0.5
9 0 1 0 0 0 1 0 0 0 1 16.375 -19.5 15.99997 0.5 14 0.5
9 0 1 0 0 0 1 0 0 0 1 15.375 -19.5 -17.00003 0.5 14 0.5
9 0 1 0 0 0 1 0 0 0 1 15.375 -19.5 16.99997 0.5 14 0.5
9 0 1 0 0 0 1 0 0 0 1 14.375 -19.5 -18.00003 0.5 14 0.5
9 0 1 0 0 0 1 0 0 0 1 14.375 -19.5 17.99997 0.5 14 0.5
9 0 1 0 0 0 1 0 0 0 1 -15.625 -19.5 -17.00003 0.5 14 0.5
9 0 1 0 0 0 1 0 0 0 1 -15.625 -19.5 16.99997 0.5 14 0.5
9 0 1 0 0 0 1 0 0 0 1 -16.625 -19.5 -16.00003 0.5 14 0.5
9 0 1 0 0 0 1 0 0 0 1 -16.625 -19.5 15.99997 0.5 14 0.5
9 0 1 0 0 0 1 0 0 0 1 -17.625 -19.5 -15.00003 0.5 14 0.5
9 0 1 0 0 0 1 0 0 0 1 -17.625 -19.5 14.99997 0.5 14 0.5
9 0 1 0 0 0 1 0 0 0 1 -22.625 -3.5 -2.670288E-05 0.5 2 3.5
9 0 1 0 0 0 1 0 0 0 1 -0.625 -38 -37.00003 1.5 1.5 1.5
9 0 1 0 0 0 1 0 0 0 1 -2.625 -25 -35.00003 0.5 4.5 1.5
9 0 1 0 0 0 1 0 0 0 1 -13.625 -37 13.99997 4.5 0.5 1.5
9 0 1 0 0 0 1 0 0 0 1 0.375 -21 23.99997 0.5 12.5 0.5
9 0 1 0 0 0 1 0 0 0 1 -0.125 -37 22.49997 6 0.5 1
9 0 1 0 0 0 1 0 0 0 1 11.375 -37 -17.50003 2.5 0.5 2
9 0 1 0 0 0 1 0 0 0 1 -0.125 -13 -31.00003 2 0.5 2.5
9 0 1 0 0 0 1 0 0 0 1 -0.125 -40 -39.00003 2 2.5 0.5
9 0 1 0 0 0 1 0 0 0 1 -2.625 -15.5 -31.00003 0.5 2 2.5
9 0 1 0 0 0 1 0 0 0 1 22.875 -37 -2.670288E-05 1 0.5 4.5
9 0 1 0 0 0 1 0 0 0 1 2.875 -16 -32.00003 1 1.5 1.5
9 0 1 0 0 0 1 0 0 0 1 2.875 -14.5 -29.50003 1 2 1
9 0 1 0 0 0 1 0 0 0 1 0.375 -29.5 -24.00003 0.5 8 0.5
9 0 1 0 0 0 1 0 0 0 1 -0.125 -24.5 -38.00003 1 4 0.5
9 0 1 0 0 0 1 0 0 0 1 -0.125 -16.5 -35.00003 2 2 0.5
9 0 1 0 0 0 1 0 0 0 1 0.375 -9.5 30.99997 0.5 1 3.5
9 0 1 0 0 0 1 0 0 0 1 0.375 -11.5 -29.50003 1.5 1 1
9 0 1 0 0 0 1 0 0 0 1 -0.125 -23.5 -32.00003 1 3 0.5
9 0 1 0 0 0 1 0 0 0 1 -0.125 -36 -36.00003 2 0.5 1.5
9 0 1 0 0 0 1 0 0 0 1 -0.125 -42 -40.00003 2 1.5 0.5
9 0 1 0 0 0 1 0 0 0 1 -3.625 -14 -28.50003 0.5 1.5 2
9 0 1 0 0 0 1 0 0 0 1 -0.125 -37 -23.00003 6 0.5 0.5
9 0 1 0 0 0 1 0 0 0 1 -12.625 -37 17.49997 1.5 0.5 2
9 0 1 0 0 0 1 0 0 0 1 -14.625 -37 -10.50003 1.5 0.5 2
9 0 1 0 0 0 1 0 0 0 1 -14.625 -37 10.49997 1.5 0.5 2
9 0 1 0 0 0 1 0 0 0 1 14.875 -37 8.999973 1 0.5 2.5
9 0 1 0 0 0 1 0 0 0 1 10.375 -41 -0.5000267 0.5 0.5 5
9 0 1 0 0 0 1 0 0 0 1 3.375 -21 -34.50003 0.5 2.5 1
9 0 1 0 0 0 1 0 0 0 1 -0.625 -11 33.49997 0.5 2.5 1
9 0 1 0 0 0 1 0 0 0 1 18.375 -37 11.99997 1.5 0.5 1.5
9 0 1 0 0 0 1 0 0 0 1 1.375 -38 -37.00003 0.5 1.5 1.5
9 0 1 0 0 0 1 0 0 0 1 0.375 -14 -24.00003 0.5 4.5 0.5
9 0 1 0 0 0 1 0 0 0 1 0.375 -19 -37.00003 1.5 1.5 0.5
9 0 1 0 0 0 1 0 0 0 1 -10.625 -41 -2.670288E-05 0.5 0.5 4.5
9 0 1 0 0 0 1 0 0 0 1 -16.625 -37 -14.00003 1.5 0.5 1.5
9 0 1 0 0 0 1 0 0 0 1 12.375 -17.5 19.99997 0.5 4 0.5
9 0 1 0 0 0 1 0 0 0 1 9.875 -37 -14.50003 2 0.5 1
9 0 1 0 0 0 1 0 0 0 1 2.375 -33.5 -35.50003 0.5 2 1
9 0 1 0 0 0 1 0 0 0 1 1.375 -57 5.499973 0.5 0.5 4
9 0 1 0 0 0 1 0 0 0 1 1.375 -60 -5.500027 0.5 0.5 4
9 0 1 0 0 0 1 0 0 0 1 -0.625 -17.5 34.99997 0.5 4 0.5
9 0 1 0 0 0 1 0 0 0 1 -0.125 -31.5 -33.00003 1 2 0.5
9 0 1 0 0 0 1 0 0 0 1 -0.125 -40.5 -37.50003 1 1 1
9 0 1 0 0 0 1 0 0 0 1 -0.125 -60 -11.50003 1 0.5 2
9 0 1 0 0 0 1 0 0 0 1 -0.125 -17.5 -36.00003 2 1 0.5
9 0 1 0 0 0 1 0 0 0 1 -0.125 -19.5 -31.00003 2 1 0.5
9 0 1 0 0 0 1 0 0 0 1 -22.625 -13.5 -7.000027 0.5 4 0.5
9 0 1 0 0 0 1 0 0 0 1 -22.625 -19.5 6.999973 0.5 4 0.5
9 0 1 0 0 0 1 0 0 0 1 12.375 -26 -20.00003 0.5 3.5 0.5
9 0 1 0 0 0 1 0 0 0 1 2.375 -21 -33.00003 0.5 3.5 0.5
9 0 1 0 0 0 1 0 0 0 1 0.375 -33 30.99997 0.5 0.5 3.5
9 0 1 0 0 0 1 0 0 0 1 0.375 -41 10.99997 3.5 0.5 0.5
9 0 1 0 0 0 1 0 0 0 1 -22.625 -9 6.999973 0.5 3.5 0.5
9 0 1 0 0 0 1 0 0 0 1 -22.625 -24 -7.000027 0.5 3.5 0.5
9 0 1 0 0 0 1 0 0 0 1 -22.625 -30 6.999973 0.5 3.5 0.5
9 0 1 0 0 0 1 0 0 0 1 -23.625 -37 -2.670288E-05 0.5 0.5 3.5
9 0 1 0 0 0 1 0 0 0 1 18.875 -37 -12.00003 1 0.5 1.5
9 0 1 0 0 0 1 0 0 0 1 15.375 -37 -7.500027 0.5 0.5 3
9 0 1 0 0 0 1 0 0 0 1 12.375 -37 18.49997 1.5 0.5 1
9 0 1 0 0 0 1 0 0 0 1 9.875 -37 13.99997 1 0.5 1.5
9 0 1 0 0 0 1 0 0 0 1 2.875 -17 -34.00003 1 1.5 0.5
9 0 1 0 0 0 1 0 0 0 1 0.375 -39.5 12.99997 1.5 1 0.5
9 0 1 0 0 0 1 0 0 0 1 -2.625 -12.5 -29.00003 0.5 1 1.5
9 0 1 0 0 0 1 0 0 0 1 -0.125 -41 -11.00003 3 0.5 0.5
9 0 1 0 0 0 1 0 0 0 1 -0.125 -42 -9.000027 3 0.5 0.5
9 0 1 0 0 0 1 0 0 0 1 -0.125 -42 8.999973 3 0.5 0.5
9 0 1 0 0 0 1 0 0 0 1 -3.625 -16 -31.50003 0.5 1.5 1
9 0 1 0 0 0 1 0 0 0 1 -3.125 -18 -33.00003 1 0.5 1.5
9 0 1 0 0 0 1 0 0 0 1 -3.625 -20 -34.50003 0.5 1.5 1
9 0 1 0 0 0 1 0 0 0 1 -10.125 -37 -20.00003 1 0.5 1.5
9 0 1 0 0 0 1 0 0 0 1 -12.125 -40 -2.670288E-05 1 0.5 1.5
9 0 1 0 0 0 1 0 0 0 1 -15.625 -37 -5.500027 0.5 0.5 3
9 0 1 0 0 0 1 0 0 0 1 -15.625 -37 5.499973 0.5 0.5 3
9 0 1 0 0 0 1 0 0 0 1 12.375 -8 19.99997 0.5 2.5 0.5
9 0 1 0 0 0 1 0 0 0 1 10.375 -4 -20.00003 0.5 2.5 0.5
9 0 1 0 0 0 1 0 0 0 1 2.375 -23 -37.00003 0.5 2.5 0.5
9 0 1 0 0 0 1 0 0 0 1 0.375 -11 -28.00003 2.5 0.5 0.5
9 0 1 0 0 0 1 0 0 0 1 0.375 -17 -23.00003 2.5 0.5 0.5
9 0 1 0 0 0 1 0 0 0 1 0.375 -40 11.99997 2.5 0.5 0.5
9 0 1 0 0 0 1 0 0 0 1 21.375 -3.5 -7.000027 0.5 2 0.5
9 0 1 0 0 0 1 0 0 0 1 21.375 -3.5 6.999973 0.5 2 0.5
9 0 1 0 0 0 1 0 0 0 1 14.875 -37 -16.50003 1 0.5 1
9 0 1 0 0 0 1 0 0 0 1 13.875 -37 -9.500027 1 0.5 1
9 0 1 0 0 0 1 0 0 0 1 10.375 -3.5 19.99997 0.5 2 0.5
9 0 1 0 0 0 1 0 0 0 1 10.875 -37 -20.00003 2 0.5 0.5
9 0 1 0 0 0 1 0 0 0 1 8.375 -3.5 -21.00003 0.5 2 0.5
9 0 1 0 0 0 1 0 0 0 1 8.375 -3.5 20.99997 0.5 2 0.5
9 0 1 0 0 0 1 0 0 0 1 3.875 -13.5 -23.00003 1 1 0.5
9 0 1 0 0 0 1 0 0 0 1 3.375 -14.5 -28.00003 0.5 2 0.5
9 0 1 0 0 0 1 0 0 0 1 3.875 -6 -23.00003 2 0.5 0.5
9 0 1 0 0 0 1 0 0 0 1 2.375 -13.5 -31.50003 0.5 1 1
9 0 1 0 0 0 1 0 0 0 1 2.375 -18.5 -31.50003 0.5 1 1
9 0 1 0 0 0 1 0 0 0 1 -0.125 -12 -31.50003 1 0.5 1
9 0 1 0 0 0 1 0 0 0 1 -0.125 -35.5 -38.00003 1 1 0.5
9 0 1 0 0 0 1 0 0 0 1 -0.125 -37.5 -35.00003 1 1 0.5
9 0 1 0 0 0 1 0 0 0 1 -0.125 -39.5 -40.00003 1 1 0.5
9 0 1 0 0 0 1 0 0 0 1 -0.125 -40.5 -41.00003 1 1 0.5
9 0 1 0 0 0 1 0 0 0 1 -0.125 -10 -23.00003 2 0.5 0.5
9 0 1 0 0 0 1 0 0 0 1 -1.625 -11.5 32.99997 0.5 2 0.5
9 0 1 0 0 0 1 0 0 0 1 -0.125 -40 -12.00003 2 0.5 0.5
9 0 1 0 0 0 1 0 0 0 1 -0.125 -43 -7.000027 2 0.5 0.5
9 0 1 0 0 0 1 0 0 0 1 -0.125 -43 6.999973 2 0.5 0.5
9 0 1 0 0 0 1 0 0 0 1 -2.625 -31.5 -35.00003 0.5 2 0.5
9 0 1 0 0 0 1 0 0 0 1 -3.625 -13.5 -23.00003 0.5 2 0.5
9 0 1 0 0 0 1 0 0 0 1 -4.125 -6 -23.00003 2 0.5 0.5
9 0 1 0 0 0 1 0 0 0 1 -7.125 -37 -15.00003 2 0.5 0.5
9 0 1 0 0 0 1 0 0 0 1 -15.125 -37 16.49997 1 0.5 1
9 0 1 0 0 0 1 0 0 0 1 -19.625 -3.5 -11.00003 0.5 2 0.5
9 0 1 0 0 0 1 0 0 0 1 -19.625 -3.5 10.99997 0.5 2 0.5
9 0 1 0 0 0 1 0 0 0 1 -18.125 -37 -12.00003 2 0.5 0.5
9 0 1 0 0 0 1 0 0 0 1 -18.125 -37 11.99997 2 0.5 0.5
9 0 1 0 0 0 1 0 0 0 1 -20.625 -3.5 -9.000027 0.5 2 0.5
9 0 1 0 0 0 1 0 0 0 1 -20.625 -3.5 8.999973 0.5 2 0.5
9 0 1 0 0 0 1 0 0 0 1 -21.625 -2.5 -5.500027 0.5 1 1
9 0 1 0 0 0 1 0 0 0 1 -21.625 -3.5 5.999973 0.5 2 0.5
9 0 1 0 0 0 1 0 0 0 1 22.375 -37 -6.000027 0.5 0.5 1.5
9 0 1 0 0 0 1 0 0 0 1 22.375 -37 5.999973 0.5 0.5 1.5
9 0 1 0 0 0 1 0 0 0 1 21.375 -12 9.999973 0.5 1.5 0.5
9 0 1 0 0 0 1 0 0 0 1 21.375 -26 -10.00003 0.5 1.5 0.5
9 0 1 0 0 0 1 0 0 0 1 18.375 -5 -13.00003 0.5 1.5 0.5
9 0 1 0 0 0 1 0 0 0 1 18.375 -10 12.99997 0.5 1.5 0.5
9 0 1 0 0 0 1 0 0 0 1 18.375 -12 -13.00003 0.5 1.5 0.5
9 0 1 0 0 0 1 0 0 0 1 18.375 -17 12.99997 0.5 1.5 0.5
9 0 1 0 0 0 1 0 0 0 1 18.375 -18 -13.00003 0.5 1.5 0.5
9 0 1 0 0 0 1 0 0 0 1 18.375 -24 -13.00003 0.5 1.5 0.5
9 0 1 0 0 0 1 0 0 0 1 18.375 -24 12.99997 0.5 1.5 0.5
9 0 1 0 0 0 1 0 0 0 1 18.375 -30 12.99997 0.5 1.5 0.5
9 0 1 0 0 0 1 0 0 0 1 18.375 -31 -13.00003 0.5 1.5 0.5
9 0 1 0 0 0 1 0 0 0 1 15.375 -37 4.999973 0.5 0.5 1.5
9 0 1 0 0 0 1 0 0 0 1 13.375 -37 9.999973 0.5 0.5 1.5
9 0 1 0 0 0 1 0 0 0 1 12.375 -18 -20.00003 0.5 1.5 0.5
9 0 1 0 0 0 1 0 0 0 1 12.375 -30 19.99997 0.5 1.5 0.5
9 0 1 0 0 0 1 0 0 0 1 12.375 -40 0.9999733 0.5 0.5 1.5
9 0 1 0 0 0 1 0 0 0 1 11.375 -41 -2.670288E-05 0.5 0.5 1.5
9 0 1 0 0 0 1 0 0 0 1 9.375 -42 -2.670288E-05 0.5 0.5 1.5
9 0 1 0 0 0 1 0 0 0 1 7.375 -37 14.99997 1.5 0.5 0.5
9 0 1 0 0 0 1 0 0 0 1 7.375 -37 21.99997 1.5 0.5 0.5
9 0 1 0 0 0 1 0 0 0 1 3.375 -19 -33.00003 0.5 1.5 0.5
9 0 1 0 0 0 1 0 0 0 1 3.375 -25 -35.00003 0.5 1.5 0.5
9 0 1 0 0 0 1 0 0 0 1 2.375 -17 -35.00003 0.5 1.5 0.5
9 0 1 0 0 0 1 0 0 0 1 3.375 -41 -10.00003 1.5 0.5 0.5
9 0 1 0 0 0 1 0 0 0 1 3.375 -41 9.999973 1.5 0.5 0.5
9 0 1 0 0 0 1 0 0 0 1 -1.625 -12 -30.00003 0.5 0.5 1.5
9 0 1 0 0 0 1 0 0 0 1 -2.625 -15 -28.00003 0.5 1.5 0.5
9 0 1 0 0 0 1 0 0 0 1 -2.625 -16 -34.00003 0.5 1.5 0.5
9 0 1 0 0 0 1 0 0 0 1 -2.625 -22 -33.00003 0.5 1.5 0.5
9 0 1 0 0 0 1 0 0 0 1 -3.625 -41 -10.00003 1.5 0.5 0.5
9 0 1 0 0 0 1 0 0 0 1 -3.625 -41 9.999973 1.5 0.5 0.5
9 0 1 0 0 0 1 0 0 0 1 -7.625 -7 -21.00003 0.5 1.5 0.5
9 0 1 0 0 0 1 0 0 0 1 -7.625 -8 20.99997 0.5 1.5 0.5
9 0 1 0 0 0 1 0 0 0 1 -7.625 -14 -21.00003 0.5 1.5 0.5
9 0 1 0 0 0 1 0 0 0 1 -7.625 -15 20.99997 0.5 1.5 0.5
9 0 1 0 0 0 1 0 0 0 1 -7.625 -20 -21.00003 0.5 1.5 0.5
9 0 1 0 0 0 1 0 0 0 1 -7.625 -22 20.99997 0.5 1.5 0.5
9 0 1 0 0 0 1 0 0 0 1 -7.625 -26 -21.00003 0.5 1.5 0.5
9 0 1 0 0 0 1 0 0 0 1 -7.625 -28 20.99997 0.5 1.5 0.5
9 0 1 0 0 0 1 0 0 0 1 -7.625 -37 14.99997 1.5 0.5 0.5
9 0 1 0 0 0 1 0 0 0 1 -7.625 -37 21.99997 1.5 0.5 0.5
9 0 1 0 0 0 1 0 0 0 1 -9.625 -41 -5.000027 0.5 0.5 1.5
9 0 1 0 0 0 1 0 0 0 1 -9.625 -41 4.999973 0.5 0.5 1.5
9 0 1 0 0 0 1 0 0 0 1 -9.625 -6 20.99997 1.5 0.5 0.5
9 0 1 0 0 0 1 0 0 0 1 -12.625 -37 -19.00003 1.5 0.5 0.5
9 0 1 0 0 0 1 0 0 0 1 -19.625 -22 12.99997 0.5 1.5 0.5
9 0 1 0 0 0 1 0 0 0 1 -21.625 -22 -5.000027 0.5 1.5 0.5
9 0 1 0 0 0 1 0 0 0 1 -22.625 -32 -7.000027 0.5 1.5 0.5
