9 0 1 0 0 0 1 0 0 0 1 -10 -18 -10 3.35 0.5 3.35
9 0 1 0 0 0 1 0 0 0 1 10 -18 -10 3.35 0.5 3.35
9 0 1 0 0 0 1 0 0 0 1 -10 -18 10 3.35 0.5 3.35
9 0 1 0 0 0 1 0 0 0 1 10 -18 10 3.35 0.5 3.35
9 0 1 0 0 0 1 0 0 0 1 0 -14 -12.5 13.5 0.5 5
9 0 1 0 0 0 1 0 0 0 1 0 -14 12.5 13.5 0.5 5
9 0 1 0 0 0 1 0 0 0 1 -14 -14 0 6.5 0.5 7.5
9 0 1 0 0 0 1 0 0 0 1 13 -14 0 5.5 0.5 7.5
9 0 1 0 0 0 1 0 0 0 1 18 -11.5 0 0.5 2 18.5
9 0 1 0 0 0 1 0 0 0 1 -18 -11.5 0 0.5 2 18.5
9 0 1 0 0 0 1 0 0 0 1 0 -11.5 -18 17.5 2 0.5
9 0 1 0 0 0 1 0 0 0 1 0 -11.5 18 17.5 2 0.5
9 0 1 0 0 0 1 0 0 0 1 0 -14 19 8.5 0.5 1.5
9 0 1 0 0 0 1 0 0 0 1 0 -14 -19.5 5.5 0.5 2
9 0 1 0 0 0 1 0 0 0 1 20 -14 0 1.5 0.5 5.5
9 0 1 0 0 0 1 0 0 0 1 15.5 -14 -10.5 2 0.5 3
9 0 1 0 0 0 1 0 0 0 1 15.5 -14 10.5 2 0.5 3
9 0 1 0 0 0 1 0 0 0 1 -15.5 -14 -10.5 2 0.5 3
9 0 1 0 0 0 1 0 0 0 1 -15.5 -14 10.5 2 0.5 3
9 0 1 0 0 0 1 0 0 0 1 0 -14 21 5.5 0.5 0.5
9 0 1 0 0 0 1 0 0 0 1 -21 -14 0 0.5 0.5 5.5
9 0 1 0 0 0 1 0 0 0 1 -8 -14 -18.5 2.5 0.5 1
9 0 1 0 0 0 1 0 0 0 1 7 -14 -19 1.5 0.5 1.5
9 0 1 0 0 0 1 0 0 0 1 19.5 -14 -7 1 0.5 1.5
9 0 1 0 0 0 1 0 0 0 1 19.5 -14 7 1 0.5 1.5
9 0 1 0 0 0 1 0 0 0 1 -18.5 -14 9 1 0.5 1.5
9 0 1 0 0 0 1 0 0 0 1 18.5 -14 -9.5 1 0.5 1
9 0 1 0 0 0 1 0 0 0 1 14.5 -14 -14.5 1 0.5 1
9 0 1 0 0 0 1 0 0 0 1 14.5 -14 14.5 1 0.5 1
9 0 1 0 0 0 1 0 0 0 1 9.5 -14 18.5 1 0.5 1
9 0 1 0 0 0 1 0 0 0 1 7 -14 -5.5 0.5 0.5 2
9 0 1 0 0 0 1 0 0 0 1 7 -14 5.5 0.5 0.5 2
9 0 1 0 0 0 1 0 0 0 1 -5.5 -14 -7 2 0.5 0.5
9 0 1 0 0 0 1 0 0 0 1 -5.5 -14 7 2 0.5 0.5
9 0 1 0 0 0 1 0 0 0 1 -14.5 -14 -14.5 1 0.5 1
9 0 1 0 0 0 1 0 0 0 1 -14.5 -14 14.5 1 0.5 1
9 0 1 0 0 0 1 0 0 0 1 -18 -14 -9.5 0.5 0.5 2
9 0 1 0 0 0 1 0 0 0 1 18 -14 10 0.5 0.5 1.5
9 0 1 0 0 0 1 0 0 0 1 10 -14 -18 1.5 0.5 0.5
9 0 1 0 0 0 1 0 0 0 1 5 -14 -7 1.5 0.5 0.5
9 0 1 0 0 0 1 0 0 0 1 5 -14 7 1.5 0.5 0.5
9 0 1 0 0 0 1 0 0 0 1 -7 -14 -5 0.5 0.5 1.5
9 0 1 0 0 0 1 0 0 0 1 -7 -14 5 0.5 0.5 1.5
9 0 1 0 0 0 1 0 0 0 1 -7 -14 -20 1.5 0.5 0.5
9 0 1 0 0 0 1 0 0 0 1 -10 -14 18 1.5 0.5 0.5
