9 0 1 0 0 0 1 0 0 0 1 -60.00049 -46.3248 -17 42.5 8.5 0.5
9 0 1 0 0 0 1 0 0 0 1 -141.5005 2.675201 -17 8 15.5 0.5
9 0 1 0 0 0 1 0 0 0 1 21.99951 2.675201 -17 8.5 14.5 0.5
9 0 1 0 0 0 1 0 0 0 1 -6.500488 -30.8248 -17 15 7 0.5
9 0 1 0 0 0 1 0 0 0 1 -113.0005 -31.3248 -17 15.5 6.5 0.5
9 0 1 0 0 0 1 0 0 0 1 -60.00049 -52.3248 -16 26.5 3.5 0.5
9 0 1 0 0 0 1 0 0 0 1 -60.50049 -58.3248 -17 22 3.5 0.5
9 0 1 0 0 0 1 0 0 0 1 79.99951 20.1752 -58 1.5 2 12.5
9 0 1 0 0 0 1 0 0 0 1 -200.0005 20.1752 -58 1.5 2 12.5
9 0 1 0 0 0 1 0 0 0 1 9.499512 -17.8248 -17 12 6 0.5
9 0 1 0 0 0 1 0 0 0 1 -129.5005 -18.8248 -17 11 6 0.5
9 0 1 0 0 0 1 0 0 0 1 -60.00049 -96.8248 -61 3.5 1 6.5
9 0 1 0 0 0 1 0 0 0 1 -13.00049 -42.3248 -16.5 4.5 4.5 1
9 0 1 0 0 0 1 0 0 0 1 -108.0005 -44.3248 -17 5.5 6.5 0.5
9 0 1 0 0 0 1 0 0 0 1 -149.0005 14.1752 -16 3.5 10 0.5
9 0 1 0 0 0 1 0 0 0 1 30.49951 16.6752 -16 4 7.5 0.5
9 0 1 0 0 0 1 0 0 0 1 -153.0005 9.175201 -17 3.5 8 0.5
9 0 1 0 0 0 1 0 0 0 1 -107.0005 -40.8248 -16 4.5 6 0.5
9 0 1 0 0 0 1 0 0 0 1 -195.0005 18.6752 -77 1.5 5.5 1.5
9 0 1 0 0 0 1 0 0 0 1 33.99951 10.1752 -17 3.5 7 0.5
9 0 1 0 0 0 1 0 0 0 1 76.49951 16.1752 -77 4 2 1.5
9 0 1 0 0 0 1 0 0 0 1 76.49951 16.1752 -43 4 2 1.5
9 0 1 0 0 0 1 0 0 0 1 -143.0005 -0.8247986 -16 2.5 9 0.5
9 0 1 0 0 0 1 0 0 0 1 -195.0005 18.1752 -43 1.5 5 1.5
9 0 1 0 0 0 1 0 0 0 1 25.49951 2.675201 -16 4 5.5 0.5
9 0 1 0 0 0 1 0 0 0 1 -60.00049 -66.3248 -18 14.5 1.5 0.5
9 0 1 0 0 0 1 0 0 0 1 -25.50049 -46.8248 -16 7 3 0.5
9 0 1 0 0 0 1 0 0 0 1 -131.5005 -2.324799 -17 2 10.5 0.5
9 0 1 0 0 0 1 0 0 0 1 11.49951 -1.824799 -17 2 10 0.5
9 0 1 0 0 0 1 0 0 0 1 -94.50049 -47.3248 -16 8 2.5 0.5
9 0 1 0 0 0 1 0 0 0 1 15.99951 -13.3248 -16 3.5 5.5 0.5
9 0 1 0 0 0 1 0 0 0 1 -136.0005 -13.3248 -16 3.5 5.5 0.5
9 0 1 0 0 0 1 0 0 0 1 -60.50049 -96.3248 -52.5 9 0.5 2
9 0 1 0 0 0 1 0 0 0 1 -60.50049 -56.8248 -16 17 1 0.5
9 0 1 0 0 0 1 0 0 0 1 -27.00049 -34.8248 -17 5.5 3 0.5
9 0 1 0 0 0 1 0 0 0 1 5.999512 7.675201 -13 4.5 0.5 3.5
9 0 1 0 0 0 1 0 0 0 1 -126.0005 7.675201 -13 4.5 0.5 3.5
9 0 1 0 0 0 1 0 0 0 1 7.499512 -24.8248 -16 3 5 0.5
9 0 1 0 0 0 1 0 0 0 1 -90.00049 -35.8248 -17 7.5 2 0.5
9 0 1 0 0 0 1 0 0 0 1 -117.5005 -33.8248 -16 5 3 0.5
9 0 1 0 0 0 1 0 0 0 1 -60.00049 -96.3248 -69 9.5 0.5 1.5
9 0 1 0 0 0 1 0 0 0 1 0.4995117 -31.3248 -16 4 3.5 0.5
9 0 1 0 0 0 1 0 0 0 1 -4.500488 -41.3248 -17 4 3.5 0.5
9 0 1 0 0 0 1 0 0 0 1 -128.0005 -23.8248 -16 3.5 4 0.5
9 0 1 0 0 0 1 0 0 0 1 -7.000488 7.675201 -6 5.5 0.5 2.5
9 0 1 0 0 0 1 0 0 0 1 -113.0005 7.675201 -6 5.5 0.5 2.5
9 0 1 0 0 0 1 0 0 0 1 74.99951 21.1752 -77 1.5 3 1.5
9 0 1 0 0 0 1 0 0 0 1 -199.5005 16.6752 -77 3 1.5 1.5
9 0 1 0 0 0 1 0 0 0 1 -199.5005 16.6752 -43 3 1.5 1.5
9 0 1 0 0 0 1 0 0 0 1 -54.50049 -97.3248 -61 2 0.5 6.5
9 0 1 0 0 0 1 0 0 0 1 -65.50049 -97.3248 -61 2 0.5 6.5
9 0 1 0 0 0 1 0 0 0 1 -59.00049 -85.8248 -93 12.5 1 0.5
9 0 1 0 0 0 1 0 0 0 1 11.99951 -27.3248 -17 3.5 3.5 0.5
9 0 1 0 0 0 1 0 0 0 1 -60.00049 -95.3248 -49 3.5 0.5 3.5
9 0 1 0 0 0 1 0 0 0 1 -115.0005 -21.3248 -17 3.5 3.5 0.5
9 0 1 0 0 0 1 0 0 0 1 -59.50049 -87.3248 -91 8 0.5 1.5
9 0 1 0 0 0 1 0 0 0 1 -74.50049 -96.3248 -60.5 2 0.5 6
9 0 1 0 0 0 1 0 0 0 1 74.99951 20.6752 -43 1.5 2.5 1.5
9 0 1 0 0 0 1 0 0 0 1 21.99951 -7.324799 -16 2.5 4.5 0.5
9 0 1 0 0 0 1 0 0 0 1 -6.000488 -36.3248 -16 2.5 4.5 0.5
9 0 1 0 0 0 1 0 0 0 1 -34.00049 -57.3248 -17 4.5 2.5 0.5
9 0 1 0 0 0 1 0 0 0 1 -12.00049 -48.8248 -17 5.5 2 0.5
9 0 1 0 0 0 1 0 0 0 1 -124.0005 -10.8248 -17 5.5 2 0.5
9 0 1 0 0 0 1 0 0 0 1 -116.5005 -41.3248 -17 3 3.5 0.5
9 0 1 0 0 0 1 0 0 0 1 -131.5005 -28.3248 -17 3 3.5 0.5
9 0 1 0 0 0 1 0 0 0 1 -5.000488 -7.324799 -12.5 2.5 0.5 4
9 0 1 0 0 0 1 0 0 0 1 -45.00049 -96.3248 -59.5 2.5 0.5 4
9 0 1 0 0 0 1 0 0 0 1 -86.50049 -57.3248 -17 4 2.5 0.5
9 0 1 0 0 0 1 0 0 0 1 -115.0005 -7.324799 -12.5 2.5 0.5 4
9 0 1 0 0 0 1 0 0 0 1 -16.00049 -1.324799 -4.5 0.5 9.5 1
9 0 1 0 0 0 1 0 0 0 1 -24.00049 -2.324799 -15.5 0.5 9.5 1
9 0 1 0 0 0 1 0 0 0 1 -25.00049 -2.324799 -14.5 0.5 9.5 1
9 0 1 0 0 0 1 0 0 0 1 -104.0005 -1.324799 -4.5 0.5 9.5 1
9 0 1 0 0 0 1 0 0 0 1 79.99951 19.6752 -72.5 1.5 1.5 2
9 0 1 0 0 0 1 0 0 0 1 -60.50049 -62.3248 -17 18 0.5 0.5
9 0 1 0 0 0 1 0 0 0 1 -200.0005 19.6752 -72.5 1.5 1.5 2
9 0 1 0 0 0 1 0 0 0 1 -5.000488 -20.3248 -17 2.5 3.5 0.5
9 0 1 0 0 0 1 0 0 0 1 3.999512 -10.3248 -17 5.5 1.5 0.5
9 0 1 0 0 0 1 0 0 0 1 -154.0005 18.6752 -16 1.5 5.5 0.5
9 0 1 0 0 0 1 0 0 0 1 -98.50049 -42.8248 -16 4 2 0.5
9 0 1 0 0 0 1 0 0 0 1 3.999512 -7.324799 -11.5 1.5 0.5 5
9 0 1 0 0 0 1 0 0 0 1 -40.00049 -36.8248 -17 7.5 1 0.5
9 0 1 0 0 0 1 0 0 0 1 -124.0005 -7.324799 -11.5 1.5 0.5 5
9 0 1 0 0 0 1 0 0 0 1 -202.0005 19.6752 -60 0.5 0.5 14.5
9 0 1 0 0 0 1 0 0 0 1 -39.50049 -47.8248 -16 7 1 0.5
9 0 1 0 0 0 1 0 0 0 1 -142.5005 -16.3248 -17 2 3.5 0.5
9 0 1 0 0 0 1 0 0 0 1 -13.00049 -36.3248 -16 4.5 1.5 0.5
9 0 1 0 0 0 1 0 0 0 1 -29.00049 -51.3248 -16 4.5 1.5 0.5
9 0 1 0 0 0 1 0 0 0 1 -52.00049 -96.3248 -56 4.5 0.5 1.5
9 0 1 0 0 0 1 0 0 0 1 -68.00049 -96.3248 -56 4.5 0.5 1.5
9 0 1 0 0 0 1 0 0 0 1 -91.00049 -51.3248 -16 4.5 1.5 0.5
9 0 1 0 0 0 1 0 0 0 1 -106.0005 -10.3248 -16 1.5 1.5 1.5
9 0 1 0 0 0 1 0 0 0 1 -124.0005 -29.3248 -16 4.5 1.5 0.5
9 0 1 0 0 0 1 0 0 0 1 -147.0005 -0.3247986 -16 1.5 4.5 0.5
9 0 1 0 0 0 1 0 0 0 1 -151.0005 -3.324799 -17 1.5 4.5 0.5
9 0 1 0 0 0 1 0 0 0 1 -198.0005 19.6752 -61 0.5 0.5 13.5
9 0 1 0 0 0 1 0 0 0 1 19.99951 18.1752 -17 6.5 1 0.5
9 0 1 0 0 0 1 0 0 0 1 23.99951 -14.3248 -17 2.5 2.5 0.5
9 0 1 0 0 0 1 0 0 0 1 12.99951 -21.3248 -16 2.5 2.5 0.5
9 0 1 0 0 0 1 0 0 0 1 -22.00049 -14.3248 -15 0.5 2.5 2.5
9 0 1 0 0 0 1 0 0 0 1 -38.00049 -95.3248 -57 2.5 0.5 2.5
9 0 1 0 0 0 1 0 0 0 1 -82.00049 -95.3248 -57 2.5 0.5 2.5
9 0 1 0 0 0 1 0 0 0 1 32.49951 0.1752014 -17 2 3 0.5
9 0 1 0 0 0 1 0 0 0 1 -7.000488 -5.324799 -12.5 0.5 1.5 4
9 0 1 0 0 0 1 0 0 0 1 -14.00049 -10.8248 -16.5 1.5 2 1
9 0 1 0 0 0 1 0 0 0 1 -21.50049 -42.3248 -16 4 1.5 0.5
9 0 1 0 0 0 1 0 0 0 1 -59.50049 -69.3248 -19 12 0.5 0.5
9 0 1 0 0 0 1 0 0 0 1 -80.50049 -47.8248 -16 6 1 0.5
9 0 1 0 0 0 1 0 0 0 1 -113.0005 -5.324799 -12.5 0.5 1.5 4
9 0 1 0 0 0 1 0 0 0 1 -114.5005 -38.8248 -16 3 2 0.5
9 0 1 0 0 0 1 0 0 0 1 -158.0005 13.1752 -17 1.5 4 0.5
9 0 1 0 0 0 1 0 0 0 1 -74.00049 -84.3248 -93 11.5 0.5 0.5
9 0 1 0 0 0 1 0 0 0 1 74.99951 13.6752 -77 3.5 0.5 1.5
9 0 1 0 0 0 1 0 0 0 1 74.99951 13.6752 -43 3.5 0.5 1.5
9 0 1 0 0 0 1 0 0 0 1 7.999512 -80.3248 -59 1.5 0.5 3.5
9 0 1 0 0 0 1 0 0 0 1 -59.00049 -94.3248 -44 3.5 0.5 1.5
9 0 1 0 0 0 1 0 0 0 1 -60.00049 -78.3248 -24 10.5 0.5 0.5
9 0 1 0 0 0 1 0 0 0 1 -60.00049 -93.3248 -79 10.5 0.5 0.5
9 0 1 0 0 0 1 0 0 0 1 -96.00049 -2.324799 -16 0.5 10.5 0.5
9 0 1 0 0 0 1 0 0 0 1 -94.00049 -32.3248 -17 3.5 1.5 0.5
9 0 1 0 0 0 1 0 0 0 1 -98.00049 -16.3248 -16 0.5 3.5 1.5
9 0 1 0 0 0 1 0 0 0 1 -128.0005 -80.3248 -59 1.5 0.5 3.5
9 0 1 0 0 0 1 0 0 0 1 -193.0005 16.6752 -77 0.5 3.5 1.5
9 0 1 0 0 0 1 0 0 0 1 -193.0005 16.6752 -43 0.5 3.5 1.5
9 0 1 0 0 0 1 0 0 0 1 12.99951 7.675201 -14.5 2.5 0.5 2
9 0 1 0 0 0 1 0 0 0 1 -15.00049 -1.824799 -15 0.5 10 0.5
9 0 1 0 0 0 1 0 0 0 1 -26.00049 -1.824799 -14 0.5 10 0.5
9 0 1 0 0 0 1 0 0 0 1 -39.50049 -83.8248 -93 5 1 0.5
9 0 1 0 0 0 1 0 0 0 1 -77.00049 -95.3248 -53.5 2.5 0.5 2
9 0 1 0 0 0 1 0 0 0 1 -77.50049 -36.8248 -17 5 1 0.5
9 0 1 0 0 0 1 0 0 0 1 -94.00049 -1.824799 -14 0.5 10 0.5
9 0 1 0 0 0 1 0 0 0 1 -95.00049 -1.824799 -15 0.5 10 0.5
9 0 1 0 0 0 1 0 0 0 1 -102.5005 -12.3248 -16.5 5 0.5 1
9 0 1 0 0 0 1 0 0 0 1 -129.5005 -79.3248 -59.5 1 0.5 5
9 0 1 0 0 0 1 0 0 0 1 -133.0005 7.675201 -14.5 2.5 0.5 2
9 0 1 0 0 0 1 0 0 0 1 -133.5005 -21.3248 -16 2 2.5 0.5
9 0 1 0 0 0 1 0 0 0 1 81.99951 19.6752 -55 0.5 0.5 9.5
9 0 1 0 0 0 1 0 0 0 1 -15.00049 -1.324799 -6 0.5 9.5 0.5
9 0 1 0 0 0 1 0 0 0 1 -59.00049 -81.3248 -26 9.5 0.5 0.5
9 0 1 0 0 0 1 0 0 0 1 -95.00049 -1.324799 -5 0.5 9.5 0.5
9 0 1 0 0 0 1 0 0 0 1 -105.0005 -1.324799 -6 0.5 9.5 0.5
9 0 1 0 0 0 1 0 0 0 1 81.49951 16.6752 -77 1 1.5 1.5
9 0 1 0 0 0 1 0 0 0 1 81.49951 16.6752 -43 1 1.5 1.5
9 0 1 0 0 0 1 0 0 0 1 -43.50049 -95.3248 -53 3 0.5 1.5
9 0 1 0 0 0 1 0 0 0 1 -53.50049 -95.3248 -48 3 0.5 1.5
9 0 1 0 0 0 1 0 0 0 1 -60.00049 -79.8248 -25 4.5 1 0.5
9 0 1 0 0 0 1 0 0 0 1 -60.00049 -92.3248 -40.5 4.5 0.5 1
9 0 1 0 0 0 1 0 0 0 1 -60.00049 -93.3248 -42.5 4.5 0.5 1
9 0 1 0 0 0 1 0 0 0 1 -66.50049 -95.3248 -48 3 0.5 1.5
9 0 1 0 0 0 1 0 0 0 1 -139.5005 -3.324799 -16 1 4.5 0.5
9 0 1 0 0 0 1 0 0 0 1 -60.00049 -58.3248 -16 8.5 0.5 0.5
9 0 1 0 0 0 1 0 0 0 1 -60.00049 -90.3248 -36 8.5 0.5 0.5
9 0 1 0 0 0 1 0 0 0 1 -105.0005 -0.3247986 -15 0.5 8.5 0.5
9 0 1 0 0 0 1 0 0 0 1 38.49951 14.1752 -17 1 4 0.5
9 0 1 0 0 0 1 0 0 0 1 36.49951 22.1752 -16 2 2 0.5
9 0 1 0 0 0 1 0 0 0 1 1.499512 -39.8248 -17 2 2 0.5
9 0 1 0 0 0 1 0 0 0 1 -25.00049 0.1752014 -5 0.5 8 0.5
9 0 1 0 0 0 1 0 0 0 1 -46.50049 -96.3248 -65.5 2 0.5 2
9 0 1 0 0 0 1 0 0 0 1 -59.50049 -88.3248 -33.5 4 0.5 1
9 0 1 0 0 0 1 0 0 0 1 -59.50049 -92.3248 -81 8 0.5 0.5
9 0 1 0 0 0 1 0 0 0 1 -59.50049 -94.3248 -77 8 0.5 0.5
9 0 1 0 0 0 1 0 0 0 1 -109.5005 -22.8248 -17 2 2 0.5
9 0 1 0 0 0 1 0 0 0 1 -121.5005 -39.8248 -17 2 2 0.5
9 0 1 0 0 0 1 0 0 0 1 30.99951 6.675201 -16 1.5 2.5 0.5
9 0 1 0 0 0 1 0 0 0 1 10.99951 -16.3248 -16 1.5 2.5 0.5
9 0 1 0 0 0 1 0 0 0 1 -4.000488 -7.324799 -6 1.5 0.5 2.5
9 0 1 0 0 0 1 0 0 0 1 -10.00049 -22.3248 -17 2.5 1.5 0.5
9 0 1 0 0 0 1 0 0 0 1 -39.00049 -95.3248 -67 2.5 0.5 1.5
9 0 1 0 0 0 1 0 0 0 1 -59.00049 -85.3248 -30 7.5 0.5 0.5
9 0 1 0 0 0 1 0 0 0 1 -60.00049 -86.3248 -31 7.5 0.5 0.5
9 0 1 0 0 0 1 0 0 0 1 -62.00049 -84.3248 -29 7.5 0.5 0.5
9 0 1 0 0 0 1 0 0 0 1 -81.00049 -95.3248 -67 2.5 0.5 1.5
9 0 1 0 0 0 1 0 0 0 1 -116.0005 -7.324799 -6 1.5 0.5 2.5
9 0 1 0 0 0 1 0 0 0 1 -131.0005 -16.3248 -16 1.5 2.5 0.5
9 0 1 0 0 0 1 0 0 0 1 25.49951 11.6752 -16 1 3.5 0.5
9 0 1 0 0 0 1 0 0 0 1 9.499512 -79.3248 -59 1 0.5 3.5
9 0 1 0 0 0 1 0 0 0 1 -26.00049 -55.8248 -17 3.5 1 0.5
9 0 1 0 0 0 1 0 0 0 1 -38.00049 -64.8248 -18 3.5 1 0.5
9 0 1 0 0 0 1 0 0 0 1 -60.00049 -63.3248 -17.5 3.5 0.5 1
9 0 1 0 0 0 1 0 0 0 1 -60.00049 -74.8248 -22 3.5 1 0.5
9 0 1 0 0 0 1 0 0 0 1 -60.00049 -91.3248 -38.5 3.5 0.5 1
9 0 1 0 0 0 1 0 0 0 1 -61.00049 -89.3248 -34.5 3.5 0.5 1
9 0 1 0 0 0 1 0 0 0 1 -82.50049 -83.3248 -93 7 0.5 0.5
9 0 1 0 0 0 1 0 0 0 1 -94.00049 -55.8248 -17 3.5 1 0.5
9 0 1 0 0 0 1 0 0 0 1 -61.00049 -96.3248 -50 6.5 0.5 0.5
9 0 1 0 0 0 1 0 0 0 1 -140.0005 18.6752 -17 6.5 0.5 0.5
9 0 1 0 0 0 1 0 0 0 1 83.99951 20.1752 -77 0.5 2 1.5
9 0 1 0 0 0 1 0 0 0 1 25.49951 -5.824799 -16 1 3 0.5
9 0 1 0 0 0 1 0 0 0 1 20.49951 0.1752014 -16 1 3 0.5
9 0 1 0 0 0 1 0 0 0 1 18.49951 -4.824799 -16 1 3 0.5
9 0 1 0 0 0 1 0 0 0 1 10.49951 -32.3248 -17 2 1.5 0.5
9 0 1 0 0 0 1 0 0 0 1 8.499512 -79.3248 -66.5 1 0.5 3
9 0 1 0 0 0 1 0 0 0 1 7.499512 -78.3248 -47.5 1 0.5 3
9 0 1 0 0 0 1 0 0 0 1 7.499512 -79.3248 -52.5 1 0.5 3
9 0 1 0 0 0 1 0 0 0 1 4.499512 7.675201 -8.5 3 0.5 1
9 0 1 0 0 0 1 0 0 0 1 2.999512 -25.8248 -16 1.5 2 0.5
9 0 1 0 0 0 1 0 0 0 1 -0.5004883 -35.8248 -16 3 1 0.5
9 0 1 0 0 0 1 0 0 0 1 -18.50049 -12.3248 -16.5 3 0.5 1
9 0 1 0 0 0 1 0 0 0 1 -22.00049 -19.8248 -16.5 0.5 3 1
9 0 1 0 0 0 1 0 0 0 1 -25.50049 -80.8248 -93 3 1 0.5
9 0 1 0 0 0 1 0 0 0 1 -31.50049 -94.3248 -58.5 1 0.5 3
9 0 1 0 0 0 1 0 0 0 1 -45.50049 -86.3248 -91 2 0.5 1.5
9 0 1 0 0 0 1 0 0 0 1 -47.50049 -95.3248 -50.5 3 0.5 1
9 0 1 0 0 0 1 0 0 0 1 -51.50049 -97.3248 -58.5 1 0.5 3
9 0 1 0 0 0 1 0 0 0 1 -60.50049 -87.3248 -32.5 3 0.5 1
9 0 1 0 0 0 1 0 0 0 1 -59.50049 -95.3248 -74 6 0.5 0.5
9 0 1 0 0 0 1 0 0 0 1 -68.50049 -97.3248 -58.5 1 0.5 3
9 0 1 0 0 0 1 0 0 0 1 -69.50049 -96.3248 -67 6 0.5 0.5
9 0 1 0 0 0 1 0 0 0 1 -74.50049 -86.3248 -91 2 0.5 1.5
9 0 1 0 0 0 1 0 0 0 1 -76.50049 -95.3248 -69 2 0.5 1.5
9 0 1 0 0 0 1 0 0 0 1 -83.50049 -95.3248 -62.5 1 0.5 3
9 0 1 0 0 0 1 0 0 0 1 -82.50049 -64.8248 -18 3 1 0.5
9 0 1 0 0 0 1 0 0 0 1 -94.50049 -80.8248 -93 3 1 0.5
9 0 1 0 0 0 1 0 0 0 1 -98.00049 -13.3248 -12.5 0.5 1.5 2
9 0 1 0 0 0 1 0 0 0 1 -116.5005 -16.3248 -17 2 1.5 0.5
9 0 1 0 0 0 1 0 0 0 1 -123.0005 7.675201 -7.5 1.5 0.5 2
9 0 1 0 0 0 1 0 0 0 1 -122.5005 -26.3248 -16 2 1.5 0.5
9 0 1 0 0 0 1 0 0 0 1 -127.5005 -78.3248 -47.5 1 0.5 3
9 0 1 0 0 0 1 0 0 0 1 -127.5005 -79.3248 -52.5 1 0.5 3
9 0 1 0 0 0 1 0 0 0 1 -136.0005 -26.8248 -17 1.5 2 0.5
9 0 1 0 0 0 1 0 0 0 1 -140.5005 -12.8248 -16 1 3 0.5
9 0 1 0 0 0 1 0 0 0 1 -156.5005 21.1752 -16 1 3 0.5
9 0 1 0 0 0 1 0 0 0 1 -183.5005 16.1752 -93 1 3 0.5
9 0 1 0 0 0 1 0 0 0 1 -197.5005 14.1752 -77 1 1 1.5
9 0 1 0 0 0 1 0 0 0 1 -197.5005 14.1752 -43 1 1 1.5
9 0 1 0 0 0 1 0 0 0 1 -204.0005 20.1752 -43 0.5 2 1.5
9 0 1 0 0 0 1 0 0 0 1 63.49951 15.6752 -93 1 2.5 0.5
9 0 1 0 0 0 1 0 0 0 1 22.49951 -19.3248 -17 1 2.5 0.5
9 0 1 0 0 0 1 0 0 0 1 17.99951 -24.8248 -17 2.5 1 0.5
9 0 1 0 0 0 1 0 0 0 1 4.999512 6.675201 -11.5 0.5 0.5 5
9 0 1 0 0 0 1 0 0 0 1 -11.50049 7.675201 -3 5 0.5 0.5
9 0 1 0 0 0 1 0 0 0 1 -24.00049 -30.8248 -17 2.5 1 0.5
9 0 1 0 0 0 1 0 0 0 1 -28.50049 -93.3248 -57 1 0.5 2.5
9 0 1 0 0 0 1 0 0 0 1 -35.00049 -34.8248 -17 2.5 1 0.5
9 0 1 0 0 0 1 0 0 0 1 -36.50049 -95.3248 -62 1 0.5 2.5
9 0 1 0 0 0 1 0 0 0 1 -39.00049 -94.3248 -50.5 2.5 0.5 1
9 0 1 0 0 0 1 0 0 0 1 -49.00049 -96.3248 -53.5 2.5 0.5 1
9 0 1 0 0 0 1 0 0 0 1 -52.50049 -37.3248 -17 5 0.5 0.5
9 0 1 0 0 0 1 0 0 0 1 -58.00049 -76.8248 -23 2.5 1 0.5
9 0 1 0 0 0 1 0 0 0 1 -60.00049 -68.3248 -18.5 2.5 0.5 1
9 0 1 0 0 0 1 0 0 0 1 -59.50049 -73.3248 -21 5 0.5 0.5
9 0 1 0 0 0 1 0 0 0 1 -60.50049 -83.3248 -28 5 0.5 0.5
9 0 1 0 0 0 1 0 0 0 1 -77.50049 -96.3248 -58 1 0.5 2.5
9 0 1 0 0 0 1 0 0 0 1 -77.00049 -65.8248 -18 2.5 1 0.5
9 0 1 0 0 0 1 0 0 0 1 -76.50049 -85.3248 -93 5 0.5 0.5
9 0 1 0 0 0 1 0 0 0 1 -81.00049 -94.3248 -50.5 2.5 0.5 1
9 0 1 0 0 0 1 0 0 0 1 -88.00049 -94.3248 -60.5 0.5 0.5 5
9 0 1 0 0 0 1 0 0 0 1 -91.50049 -93.3248 -57 1 0.5 2.5
9 0 1 0 0 0 1 0 0 0 1 -125.0005 6.675201 -11.5 0.5 0.5 5
9 0 1 0 0 0 1 0 0 0 1 -128.5005 -79.3248 -67 1 0.5 2.5
9 0 1 0 0 0 1 0 0 0 1 -178.5005 -2.324799 -93 1 2.5 0.5
9 0 1 0 0 0 1 0 0 0 1 -181.5005 7.675201 -93 1 2.5 0.5
9 0 1 0 0 0 1 0 0 0 1 -192.0005 15.6752 -77.5 0.5 2.5 1
9 0 1 0 0 0 1 0 0 0 1 83.99951 20.6752 -43 0.5 1.5 1.5
9 0 1 0 0 0 1 0 0 0 1 20.99951 -13.3248 -16 1.5 1.5 0.5
9 0 1 0 0 0 1 0 0 0 1 -5.000488 -54.3248 -18 1.5 1.5 0.5
9 0 1 0 0 0 1 0 0 0 1 -17.00049 -13.3248 -17 4.5 0.5 0.5
9 0 1 0 0 0 1 0 0 0 1 -60.00049 -95.3248 -54 1.5 0.5 1.5
9 0 1 0 0 0 1 0 0 0 1 -60.00049 -71.3248 -20 4.5 0.5 0.5
9 0 1 0 0 0 1 0 0 0 1 -60.00049 -82.3248 -27 4.5 0.5 0.5
9 0 1 0 0 0 1 0 0 0 1 -60.00049 -91.3248 -83 4.5 0.5 0.5
9 0 1 0 0 0 1 0 0 0 1 -65.00049 -94.3248 -76 4.5 0.5 0.5
9 0 1 0 0 0 1 0 0 0 1 -72.00049 -95.3248 -50 1.5 0.5 1.5
9 0 1 0 0 0 1 0 0 0 1 -88.00049 -82.3248 -93 4.5 0.5 0.5
9 0 1 0 0 0 1 0 0 0 1 -96.00049 -7.324799 -15 0.5 4.5 0.5
9 0 1 0 0 0 1 0 0 0 1 -106.0005 7.675201 -4 1.5 0.5 1.5
9 0 1 0 0 0 1 0 0 0 1 -103.0005 -13.3248 -17 4.5 0.5 0.5
9 0 1 0 0 0 1 0 0 0 1 -118.0005 -29.3248 -16 1.5 1.5 0.5
9 0 1 0 0 0 1 0 0 0 1 -130.0005 -33.3248 -17 1.5 1.5 0.5
9 0 1 0 0 0 1 0 0 0 1 -192.0005 14.6752 -43 0.5 1.5 1.5
9 0 1 0 0 0 1 0 0 0 1 -204.0005 20.6752 -77 0.5 1.5 1.5
9 0 1 0 0 0 1 0 0 0 1 79.49951 21.6752 -72.5 1 0.5 2
9 0 1 0 0 0 1 0 0 0 1 72.99951 20.1752 -77.5 0.5 2 1
9 0 1 0 0 0 1 0 0 0 1 71.99951 16.1752 -77.5 0.5 2 1
9 0 1 0 0 0 1 0 0 0 1 62.49951 11.1752 -93 1 2 0.5
9 0 1 0 0 0 1 0 0 0 1 60.49951 4.175201 -93 1 2 0.5
9 0 1 0 0 0 1 0 0 0 1 35.49951 18.1752 -16 1 2 0.5
9 0 1 0 0 0 1 0 0 0 1 31.49951 -4.824799 -17 1 2 0.5
9 0 1 0 0 0 1 0 0 0 1 9.499512 -78.3248 -53.5 1 0.5 2
9 0 1 0 0 0 1 0 0 0 1 8.499512 -6.824799 -17 1 2 0.5
9 0 1 0 0 0 1 0 0 0 1 8.499512 -77.3248 -46.5 1 0.5 2
9 0 1 0 0 0 1 0 0 0 1 -6.000488 -6.324799 -12.5 0.5 0.5 4
9 0 1 0 0 0 1 0 0 0 1 -6.500488 -45.8248 -17 2 1 0.5
9 0 1 0 0 0 1 0 0 0 1 -13.50049 -76.8248 -93 2 1 0.5
9 0 1 0 0 0 1 0 0 0 1 -15.50049 -51.8248 -17 2 1 0.5
9 0 1 0 0 0 1 0 0 0 1 -23.50049 -92.3248 -58.5 1 0.5 2
9 0 1 0 0 0 1 0 0 0 1 -30.50049 -81.8248 -93 2 1 0.5
9 0 1 0 0 0 1 0 0 0 1 -33.50049 -94.3248 -55.5 1 0.5 2
9 0 1 0 0 0 1 0 0 0 1 -41.50049 -94.3248 -48.5 2 0.5 1
9 0 1 0 0 0 1 0 0 0 1 -43.50049 -65.8248 -18 2 1 0.5
9 0 1 0 0 0 1 0 0 0 1 -42.50049 -85.3248 -93 4 0.5 0.5
9 0 1 0 0 0 1 0 0 0 1 -52.50049 -96.3248 -67 4 0.5 0.5
9 0 1 0 0 0 1 0 0 0 1 -71.50049 -96.3248 -53.5 2 0.5 1
9 0 1 0 0 0 1 0 0 0 1 -83.50049 -94.3248 -52.5 2 0.5 1
9 0 1 0 0 0 1 0 0 0 1 -86.50049 -94.3248 -56.5 1 0.5 2
9 0 1 0 0 0 1 0 0 0 1 -92.50049 -43.8248 -16 2 1 0.5
9 0 1 0 0 0 1 0 0 0 1 -96.50049 -92.3248 -58.5 1 0.5 2
9 0 1 0 0 0 1 0 0 0 1 -100.5005 -39.8248 -16 2 1 0.5
9 0 1 0 0 0 1 0 0 0 1 -103.5005 -77.8248 -93 2 1 0.5
9 0 1 0 0 0 1 0 0 0 1 -114.0005 -6.324799 -12.5 0.5 0.5 4
9 0 1 0 0 0 1 0 0 0 1 -123.5005 -32.8248 -16 1 2 0.5
9 0 1 0 0 0 1 0 0 0 1 -128.5005 -6.824799 -17 1 2 0.5
9 0 1 0 0 0 1 0 0 0 1 -128.5005 -77.3248 -46.5 1 0.5 2
9 0 1 0 0 0 1 0 0 0 1 -129.5005 -78.3248 -54.5 1 0.5 2
9 0 1 0 0 0 1 0 0 0 1 -137.5005 -5.824799 -16 1 2 0.5
9 0 1 0 0 0 1 0 0 0 1 -144.5005 10.1752 -16 1 2 0.5
9 0 1 0 0 0 1 0 0 0 1 -145.5005 -14.8248 -17 1 2 0.5
9 0 1 0 0 0 1 0 0 0 1 -149.5005 2.175201 -16 1 2 0.5
9 0 1 0 0 0 1 0 0 0 1 -153.5005 -0.8247986 -17 1 2 0.5
9 0 1 0 0 0 1 0 0 0 1 -200.5005 21.6752 -72.5 1 0.5 2
9 0 1 0 0 0 1 0 0 0 1 29.99951 17.6752 -17 3.5 0.5 0.5
9 0 1 0 0 0 1 0 0 0 1 9.999512 -78.3248 -66 0.5 0.5 3.5
9 0 1 0 0 0 1 0 0 0 1 -15.00049 0.6752014 -5 0.5 3.5 0.5
9 0 1 0 0 0 1 0 0 0 1 -21.00049 -79.3248 -93 3.5 0.5 0.5
9 0 1 0 0 0 1 0 0 0 1 -32.00049 -63.3248 -18 3.5 0.5 0.5
9 0 1 0 0 0 1 0 0 0 1 -36.00049 -46.3248 -16 3.5 0.5 0.5
9 0 1 0 0 0 1 0 0 0 1 -48.00049 -84.3248 -93 3.5 0.5 0.5
9 0 1 0 0 0 1 0 0 0 1 -60.00049 -64.3248 -18 3.5 0.5 0.5
9 0 1 0 0 0 1 0 0 0 1 -60.00049 -96.3248 -71 3.5 0.5 0.5
9 0 1 0 0 0 1 0 0 0 1 -66.00049 -94.3248 -44 3.5 0.5 0.5
9 0 1 0 0 0 1 0 0 0 1 -68.00049 -80.3248 -25 3.5 0.5 0.5
9 0 1 0 0 0 1 0 0 0 1 -71.00049 -48.3248 -16 3.5 0.5 0.5
9 0 1 0 0 0 1 0 0 0 1 -83.00049 -46.3248 -16 3.5 0.5 0.5
9 0 1 0 0 0 1 0 0 0 1 -95.00049 -8.324799 -14 0.5 3.5 0.5
9 0 1 0 0 0 1 0 0 0 1 -99.00049 -79.3248 -93 3.5 0.5 0.5
9 0 1 0 0 0 1 0 0 0 1 -130.0005 -78.3248 -66 0.5 0.5 3.5
9 0 1 0 0 0 1 0 0 0 1 75.49951 23.6752 -43 1 0.5 1.5
9 0 1 0 0 0 1 0 0 0 1 72.99951 19.6752 -42.5 0.5 1.5 1
9 0 1 0 0 0 1 0 0 0 1 71.99951 15.6752 -42.5 0.5 1.5 1
9 0 1 0 0 0 1 0 0 0 1 64.99951 16.6752 -91.5 0.5 1.5 1
9 0 1 0 0 0 1 0 0 0 1 64.49951 19.6752 -93 1 1.5 0.5
9 0 1 0 0 0 1 0 0 0 1 61.49951 7.675201 -93 1 1.5 0.5
9 0 1 0 0 0 1 0 0 0 1 59.49951 0.6752014 -93 1 1.5 0.5
9 0 1 0 0 0 1 0 0 0 1 58.49951 -2.324799 -93 1 1.5 0.5
9 0 1 0 0 0 1 0 0 0 1 56.49951 -7.324799 -93 1 1.5 0.5
9 0 1 0 0 0 1 0 0 0 1 18.49951 7.675201 -16 3 0.5 0.5
9 0 1 0 0 0 1 0 0 0 1 16.49951 -27.3248 -17 1 1.5 0.5
9 0 1 0 0 0 1 0 0 0 1 14.99951 -60.8248 -93 1.5 1 0.5
9 0 1 0 0 0 1 0 0 0 1 12.99951 11.1752 -17 0.5 3 0.5
9 0 1 0 0 0 1 0 0 0 1 11.99951 -24.8248 -16 1.5 1 0.5
9 0 1 0 0 0 1 0 0 0 1 8.999512 -78.3248 -69.5 0.5 0.5 3
9 0 1 0 0 0 1 0 0 0 1 8.999512 -77.8248 -50 0.5 1 1.5
9 0 1 0 0 0 1 0 0 0 1 8.499512 -18.3248 -16 1 1.5 0.5
9 0 1 0 0 0 1 0 0 0 1 5.999512 -30.8248 -16 1.5 1 0.5
9 0 1 0 0 0 1 0 0 0 1 4.999512 -67.8248 -93 1.5 1 0.5
9 0 1 0 0 0 1 0 0 0 1 2.999512 7.675201 -6.5 1.5 0.5 1
9 0 1 0 0 0 1 0 0 0 1 1.999512 -69.8248 -93 1.5 1 0.5
9 0 1 0 0 0 1 0 0 0 1 -2.000488 -37.8248 -16 1.5 1 0.5
9 0 1 0 0 0 1 0 0 0 1 -2.000488 -71.8248 -93 1.5 1 0.5
9 0 1 0 0 0 1 0 0 0 1 -3.500488 -15.3248 -17 1 1.5 0.5
9 0 1 0 0 0 1 0 0 0 1 -9.000488 -74.8248 -93 1.5 1 0.5
9 0 1 0 0 0 1 0 0 0 1 -13.00049 -10.3248 -14.5 0.5 1.5 1
9 0 1 0 0 0 1 0 0 0 1 -13.50049 7.675201 -5 1 0.5 1.5
9 0 1 0 0 0 1 0 0 0 1 -14.50049 -89.3248 -57 1 0.5 1.5
9 0 1 0 0 0 1 0 0 0 1 -17.00049 -47.8248 -16 1.5 1 0.5
9 0 1 0 0 0 1 0 0 0 1 -17.00049 -77.8248 -93 1.5 1 0.5
9 0 1 0 0 0 1 0 0 0 1 -18.50049 -39.3248 -16 1 1.5 0.5
9 0 1 0 0 0 1 0 0 0 1 -19.50049 -91.3248 -58 1 0.5 1.5
9 0 1 0 0 0 1 0 0 0 1 -22.00049 -12.8248 -11 0.5 1 1.5
9 0 1 0 0 0 1 0 0 0 1 -21.00049 -91.3248 -55.5 1.5 0.5 1
9 0 1 0 0 0 1 0 0 0 1 -25.50049 -92.3248 -55 1 0.5 1.5
9 0 1 0 0 0 1 0 0 0 1 -29.50049 -93.3248 -67 1 0.5 1.5
9 0 1 0 0 0 1 0 0 0 1 -30.50049 -93.3248 -54 1 0.5 1.5
9 0 1 0 0 0 1 0 0 0 1 -30.50049 -53.3248 -16 3 0.5 0.5
9 0 1 0 0 0 1 0 0 0 1 -35.50049 -94.3248 -53 1 0.5 1.5
9 0 1 0 0 0 1 0 0 0 1 -37.50049 -85.3248 -91 1 0.5 1.5
9 0 1 0 0 0 1 0 0 0 1 -41.50049 -95.3248 -56 1 0.5 1.5
9 0 1 0 0 0 1 0 0 0 1 -42.00049 -96.3248 -58.5 0.5 0.5 3
9 0 1 0 0 0 1 0 0 0 1 -43.00049 -95.3248 -68.5 1.5 0.5 1
9 0 1 0 0 0 1 0 0 0 1 -46.00049 -95.3248 -70.5 1.5 0.5 1
9 0 1 0 0 0 1 0 0 0 1 -49.00049 -96.3248 -58.5 1.5 0.5 1
9 0 1 0 0 0 1 0 0 0 1 -49.50049 -48.3248 -16 3 0.5 0.5
9 0 1 0 0 0 1 0 0 0 1 -52.50049 -92.3248 -40 3 0.5 0.5
9 0 1 0 0 0 1 0 0 0 1 -52.50049 -94.3248 -44 3 0.5 0.5
9 0 1 0 0 0 1 0 0 0 1 -60.50049 -90.3248 -37 3 0.5 0.5
9 0 1 0 0 0 1 0 0 0 1 -66.50049 -63.3248 -17 3 0.5 0.5
9 0 1 0 0 0 1 0 0 0 1 -67.50049 -92.3248 -40 3 0.5 0.5
9 0 1 0 0 0 1 0 0 0 1 -71.00049 -96.3248 -58.5 1.5 0.5 1
9 0 1 0 0 0 1 0 0 0 1 -78.00049 -94.3248 -48.5 1.5 0.5 1
9 0 1 0 0 0 1 0 0 0 1 -86.00049 -94.3248 -67.5 1.5 0.5 1
9 0 1 0 0 0 1 0 0 0 1 -88.00049 -53.8248 -16 1.5 1 0.5
9 0 1 0 0 0 1 0 0 0 1 -88.50049 -93.3248 -53 1 0.5 1.5
9 0 1 0 0 0 1 0 0 0 1 -89.00049 -32.8248 -17 1.5 1 0.5
9 0 1 0 0 0 1 0 0 0 1 -90.50049 -93.3248 -67 1 0.5 1.5
9 0 1 0 0 0 1 0 0 0 1 -93.50049 -92.3248 -54 1 0.5 1.5
9 0 1 0 0 0 1 0 0 0 1 -98.00049 -21.3248 -16.5 0.5 1.5 1
9 0 1 0 0 0 1 0 0 0 1 -98.50049 -91.3248 -55 1 0.5 1.5
9 0 1 0 0 0 1 0 0 0 1 -100.5005 -91.3248 -58 1 0.5 1.5
9 0 1 0 0 0 1 0 0 0 1 -103.5005 -52.3248 -17 1 1.5 0.5
9 0 1 0 0 0 1 0 0 0 1 -106.0005 -23.8248 -17 1.5 1 0.5
9 0 1 0 0 0 1 0 0 0 1 -107.0005 -76.8248 -93 1.5 1 0.5
9 0 1 0 0 0 1 0 0 0 1 -111.0005 -74.8248 -93 1.5 1 0.5
9 0 1 0 0 0 1 0 0 0 1 -110.5005 7.675201 -3 3 0.5 0.5
9 0 1 0 0 0 1 0 0 0 1 -115.0005 -45.8248 -17 1.5 1 0.5
9 0 1 0 0 0 1 0 0 0 1 -116.0005 -72.8248 -93 1.5 1 0.5
9 0 1 0 0 0 1 0 0 0 1 -120.0005 -70.8248 -93 1.5 1 0.5
9 0 1 0 0 0 1 0 0 0 1 -126.0005 7.675201 -8.5 1.5 0.5 1
9 0 1 0 0 0 1 0 0 0 1 -128.0005 -18.8248 -16 1.5 1 0.5
9 0 1 0 0 0 1 0 0 0 1 -129.0005 -78.3248 -69.5 0.5 0.5 3
9 0 1 0 0 0 1 0 0 0 1 -129.0005 -77.8248 -50 0.5 1 1.5
9 0 1 0 0 0 1 0 0 0 1 -132.5005 9.675201 -17 1 1.5 0.5
9 0 1 0 0 0 1 0 0 0 1 -137.0005 7.675201 -15.5 1.5 0.5 1
9 0 1 0 0 0 1 0 0 0 1 -141.5005 -21.3248 -17 1 1.5 0.5
9 0 1 0 0 0 1 0 0 0 1 -142.5005 -11.3248 -16 1 1.5 0.5
9 0 1 0 0 0 1 0 0 0 1 -153.0005 10.1752 -16 0.5 3 0.5
9 0 1 0 0 0 1 0 0 0 1 -157.0005 6.175201 -17 0.5 3 0.5
9 0 1 0 0 0 1 0 0 0 1 -170.5005 -20.3248 -93 1 1.5 0.5
9 0 1 0 0 0 1 0 0 0 1 -175.5005 -9.324799 -93 1 1.5 0.5
9 0 1 0 0 0 1 0 0 0 1 -179.5005 1.675201 -93 1 1.5 0.5
9 0 1 0 0 0 1 0 0 0 1 -182.5005 11.6752 -93 1 1.5 0.5
9 0 1 0 0 0 1 0 0 0 1 -185.0005 16.1752 -91 0.5 1 1.5
9 0 1 0 0 0 1 0 0 0 1 -195.0005 23.6752 -42.5 1.5 0.5 1
9 0 1 0 0 0 1 0 0 0 1 -199.5005 14.6752 -77 1 0.5 1.5
9 0 1 0 0 0 1 0 0 0 1 -199.5005 14.6752 -43 1 0.5 1.5
9 0 1 0 0 0 1 0 0 0 1 39.99951 15.6752 -17 0.5 2.5 0.5
9 0 1 0 0 0 1 0 0 0 1 25.99951 17.6752 -16 0.5 2.5 0.5
9 0 1 0 0 0 1 0 0 0 1 7.999512 -78.3248 -72 0.5 0.5 2.5
9 0 1 0 0 0 1 0 0 0 1 -5.000488 6.675201 -6 0.5 0.5 2.5
9 0 1 0 0 0 1 0 0 0 1 -11.00049 -88.3248 -59 0.5 0.5 2.5
9 0 1 0 0 0 1 0 0 0 1 -35.00049 -95.3248 -58 0.5 0.5 2.5
9 0 1 0 0 0 1 0 0 0 1 -40.00049 -92.3248 -78 2.5 0.5 0.5
9 0 1 0 0 0 1 0 0 0 1 -48.00049 -92.3248 -41 2.5 0.5 0.5
9 0 1 0 0 0 1 0 0 0 1 -48.00049 -96.3248 -68 2.5 0.5 0.5
9 0 1 0 0 0 1 0 0 0 1 -49.00049 -93.3248 -43 2.5 0.5 0.5
9 0 1 0 0 0 1 0 0 0 1 -49.00049 -94.3248 -45 2.5 0.5 0.5
9 0 1 0 0 0 1 0 0 0 1 -53.00049 -93.3248 -42 2.5 0.5 0.5
9 0 1 0 0 0 1 0 0 0 1 -56.00049 -97.3248 -54 2.5 0.5 0.5
9 0 1 0 0 0 1 0 0 0 1 -60.00049 -77.3248 -24 2.5 0.5 0.5
9 0 1 0 0 0 1 0 0 0 1 -60.00049 -94.3248 -46 2.5 0.5 0.5
9 0 1 0 0 0 1 0 0 0 1 -67.00049 -93.3248 -42 2.5 0.5 0.5
9 0 1 0 0 0 1 0 0 0 1 -71.00049 -94.3248 -45 2.5 0.5 0.5
9 0 1 0 0 0 1 0 0 0 1 -72.00049 -93.3248 -43 2.5 0.5 0.5
9 0 1 0 0 0 1 0 0 0 1 -72.00049 -96.3248 -68 2.5 0.5 0.5
9 0 1 0 0 0 1 0 0 0 1 -76.00049 -92.3248 -79 2.5 0.5 0.5
9 0 1 0 0 0 1 0 0 0 1 -80.00049 -56.3248 -16 2.5 0.5 0.5
9 0 1 0 0 0 1 0 0 0 1 -85.00049 -95.3248 -58 0.5 0.5 2.5
9 0 1 0 0 0 1 0 0 0 1 -89.00049 -94.3248 -59 0.5 0.5 2.5
9 0 1 0 0 0 1 0 0 0 1 -90.00049 -93.3248 -55 0.5 0.5 2.5
9 0 1 0 0 0 1 0 0 0 1 -89.00049 -63.3248 -18 2.5 0.5 0.5
9 0 1 0 0 0 1 0 0 0 1 -95.00049 -92.3248 -56 0.5 0.5 2.5
9 0 1 0 0 0 1 0 0 0 1 -109.0005 -88.3248 -59 0.5 0.5 2.5
9 0 1 0 0 0 1 0 0 0 1 -115.0005 6.675201 -6 0.5 0.5 2.5
9 0 1 0 0 0 1 0 0 0 1 -152.0005 17.6752 -17 2.5 0.5 0.5
9 0 1 0 0 0 1 0 0 0 1 -160.0005 15.6752 -17 0.5 2.5 0.5
9 0 1 0 0 0 1 0 0 0 1 57.49951 -4.824799 -93 1 1 0.5
9 0 1 0 0 0 1 0 0 0 1 55.49951 -9.824799 -93 1 1 0.5
9 0 1 0 0 0 1 0 0 0 1 54.49951 -11.8248 -93 1 1 0.5
9 0 1 0 0 0 1 0 0 0 1 53.49951 -13.8248 -93 1 1 0.5
9 0 1 0 0 0 1 0 0 0 1 52.49951 -15.8248 -93 1 1 0.5
9 0 1 0 0 0 1 0 0 0 1 51.49951 -17.8248 -93 1 1 0.5
9 0 1 0 0 0 1 0 0 0 1 49.49951 -21.8248 -93 1 1 0.5
9 0 1 0 0 0 1 0 0 0 1 48.49951 -23.8248 -93 1 1 0.5
9 0 1 0 0 0 1 0 0 0 1 46.49951 -26.8248 -93 1 1 0.5
9 0 1 0 0 0 1 0 0 0 1 44.49951 -29.8248 -93 1 1 0.5
9 0 1 0 0 0 1 0 0 0 1 42.49951 -32.8248 -93 1 1 0.5
9 0 1 0 0 0 1 0 0 0 1 40.49951 -35.8248 -93 1 1 0.5
9 0 1 0 0 0 1 0 0 0 1 37.99951 8.175201 -17 0.5 2 0.5
9 0 1 0 0 0 1 0 0 0 1 38.49951 -37.8248 -93 1 1 0.5
9 0 1 0 0 0 1 0 0 0 1 36.49951 -40.8248 -93 1 1 0.5
9 0 1 0 0 0 1 0 0 0 1 35.49951 2.175201 -17 1 1 0.5
9 0 1 0 0 0 1 0 0 0 1 34.49951 -42.8248 -93 1 1 0.5
9 0 1 0 0 0 1 0 0 0 1 31.49951 -45.8248 -93 1 1 0.5
9 0 1 0 0 0 1 0 0 0 1 30.49951 3.175201 -16 1 1 0.5
9 0 1 0 0 0 1 0 0 0 1 29.49951 -48.8248 -93 1 1 0.5
9 0 1 0 0 0 1 0 0 0 1 27.49951 -12.8248 -17 1 1 0.5
9 0 1 0 0 0 1 0 0 0 1 23.99951 10.1752 -16 0.5 2 0.5
9 0 1 0 0 0 1 0 0 0 1 24.49951 -52.8248 -93 1 1 0.5
9 0 1 0 0 0 1 0 0 0 1 19.49951 -56.8248 -93 1 1 0.5
9 0 1 0 0 0 1 0 0 0 1 16.99951 -5.824799 -16 0.5 2 0.5
9 0 1 0 0 0 1 0 0 0 1 16.49951 -19.8248 -16 1 1 0.5
9 0 1 0 0 0 1 0 0 0 1 11.49951 -12.8248 -16 1 1 0.5
9 0 1 0 0 0 1 0 0 0 1 12.49951 -62.3248 -93 2 0.5 0.5
9 0 1 0 0 0 1 0 0 0 1 10.49951 -63.8248 -93 1 1 0.5
9 0 1 0 0 0 1 0 0 0 1 9.999512 -77.3248 -52.5 0.5 0.5 2
9 0 1 0 0 0 1 0 0 0 1 9.499512 -34.8248 -17 1 1 0.5
9 0 1 0 0 0 1 0 0 0 1 8.999512 -76.3248 -45.5 0.5 0.5 2
9 0 1 0 0 0 1 0 0 0 1 8.499512 -65.3248 -93 2 0.5 0.5
9 0 1 0 0 0 1 0 0 0 1 7.499512 -79.3248 -70.5 1 0.5 1
9 0 1 0 0 0 1 0 0 0 1 7.499512 -80.3248 -63.5 1 0.5 1
9 0 1 0 0 0 1 0 0 0 1 6.499512 -76.3248 -79.5 1 0.5 1
9 0 1 0 0 0 1 0 0 0 1 6.499512 -77.3248 -77.5 1 0.5 1
9 0 1 0 0 0 1 0 0 0 1 5.999512 -78.3248 -46.5 0.5 0.5 2
9 0 1 0 0 0 1 0 0 0 1 4.499512 -38.8248 -17 1 1 0.5
9 0 1 0 0 0 1 0 0 0 1 0.4995117 -26.8248 -16 1 1 0.5
9 0 1 0 0 0 1 0 0 0 1 -0.5004883 -62.8248 -23 1 1 0.5
9 0 1 0 0 0 1 0 0 0 1 -3.000488 -84.3248 -67.5 0.5 0.5 2
9 0 1 0 0 0 1 0 0 0 1 -3.500488 -55.8248 -19 1 1 0.5
9 0 1 0 0 0 1 0 0 0 1 -4.500488 -30.8248 -16 1 1 0.5
9 0 1 0 0 0 1 0 0 0 1 -4.500488 -72.8248 -93 1 1 0.5
9 0 1 0 0 0 1 0 0 0 1 -6.500488 -51.8248 -17 1 1 0.5
9 0 1 0 0 0 1 0 0 0 1 -6.500488 -73.8248 -93 1 1 0.5
9 0 1 0 0 0 1 0 0 0 1 -6.500488 -41.3248 -16 2 0.5 0.5
9 0 1 0 0 0 1 0 0 0 1 -8.500488 -19.8248 -17 1 1 0.5
9 0 1 0 0 0 1 0 0 0 1 -9.500488 -33.8248 -16 1 1 0.5
9 0 1 0 0 0 1 0 0 0 1 -11.50049 -43.8248 -15 1 1 0.5
9 0 1 0 0 0 1 0 0 0 1 -12.00049 -88.3248 -56.5 0.5 0.5 2
9 0 1 0 0 0 1 0 0 0 1 -13.00049 -41.8248 -15 0.5 2 0.5
9 0 1 0 0 0 1 0 0 0 1 -15.50049 -89.3248 -54.5 1 0.5 1
9 0 1 0 0 0 1 0 0 0 1 -19.50049 -90.3248 -52.5 1 0.5 1
9 0 1 0 0 0 1 0 0 0 1 -22.50049 -28.8248 -17 1 1 0.5
9 0 1 0 0 0 1 0 0 0 1 -22.50049 -91.3248 -68.5 1 0.5 1
9 0 1 0 0 0 1 0 0 0 1 -22.50049 -50.3248 -16 2 0.5 0.5
9 0 1 0 0 0 1 0 0 0 1 -23.50049 -91.3248 -52.5 1 0.5 1
9 0 1 0 0 0 1 0 0 0 1 -25.00049 -92.3248 -66.5 0.5 0.5 2
9 0 1 0 0 0 1 0 0 0 1 -24.50049 -12.3248 -16 2 0.5 0.5
9 0 1 0 0 0 1 0 0 0 1 -26.50049 -42.8248 -16 1 1 0.5
9 0 1 0 0 0 1 0 0 0 1 -26.50049 -92.3248 -68.5 1 0.5 1
9 0 1 0 0 0 1 0 0 0 1 -27.00049 -92.3248 -53.5 0.5 0.5 2
9 0 1 0 0 0 1 0 0 0 1 -27.00049 -93.3248 -58.5 0.5 0.5 2
9 0 1 0 0 0 1 0 0 0 1 -26.50049 -62.3248 -18 2 0.5 0.5
9 0 1 0 0 0 1 0 0 0 1 -27.50049 -57.3248 -17 2 0.5 0.5
9 0 1 0 0 0 1 0 0 0 1 -29.50049 -83.3248 -91.5 1 0.5 1
9 0 1 0 0 0 1 0 0 0 1 -33.00049 -94.3248 -66.5 0.5 0.5 2
9 0 1 0 0 0 1 0 0 0 1 -32.50049 -83.3248 -93 2 0.5 0.5
9 0 1 0 0 0 1 0 0 0 1 -33.50049 -84.3248 -91.5 1 0.5 1
9 0 1 0 0 0 1 0 0 0 1 -33.50049 -93.3248 -50.5 1 0.5 1
9 0 1 0 0 0 1 0 0 0 1 -34.50049 -94.3248 -68.5 1 0.5 1
9 0 1 0 0 0 1 0 0 0 1 -36.50049 -60.3248 -17 2 0.5 0.5
9 0 1 0 0 0 1 0 0 0 1 -39.50049 -95.3248 -53.5 1 0.5 1
9 0 1 0 0 0 1 0 0 0 1 -39.50049 -35.3248 -17 2 0.5 0.5
9 0 1 0 0 0 1 0 0 0 1 -41.50049 -56.3248 -16 2 0.5 0.5
9 0 1 0 0 0 1 0 0 0 1 -43.50049 -92.3248 -79 2 0.5 0.5
9 0 1 0 0 0 1 0 0 0 1 -45.50049 -96.3248 -54.5 1 0.5 1
9 0 1 0 0 0 1 0 0 0 1 -45.50049 -93.3248 -77 2 0.5 0.5
9 0 1 0 0 0 1 0 0 0 1 -46.50049 -88.3248 -34 2 0.5 0.5
9 0 1 0 0 0 1 0 0 0 1 -48.50049 -95.3248 -49 2 0.5 0.5
9 0 1 0 0 0 1 0 0 0 1 -53.50049 -80.3248 -25 2 0.5 0.5
9 0 1 0 0 0 1 0 0 0 1 -54.50049 -63.3248 -17 2 0.5 0.5
9 0 1 0 0 0 1 0 0 0 1 -54.50049 -91.3248 -38 2 0.5 0.5
9 0 1 0 0 0 1 0 0 0 1 -55.50049 -96.3248 -58.5 1 0.5 1
9 0 1 0 0 0 1 0 0 0 1 -62.50049 -76.3248 -23 2 0.5 0.5
9 0 1 0 0 0 1 0 0 0 1 -64.50049 -96.3248 -58.5 1 0.5 1
9 0 1 0 0 0 1 0 0 0 1 -65.50049 -87.3248 -32 2 0.5 0.5
9 0 1 0 0 0 1 0 0 0 1 -65.50049 -91.3248 -38 2 0.5 0.5
9 0 1 0 0 0 1 0 0 0 1 -70.50049 -37.3248 -17 2 0.5 0.5
9 0 1 0 0 0 1 0 0 0 1 -70.50049 -96.3248 -66 2 0.5 0.5
9 0 1 0 0 0 1 0 0 0 1 -72.50049 -92.3248 -80 2 0.5 0.5
9 0 1 0 0 0 1 0 0 0 1 -73.50049 -95.3248 -52.5 1 0.5 1
9 0 1 0 0 0 1 0 0 0 1 -73.50049 -88.3248 -34 2 0.5 0.5
9 0 1 0 0 0 1 0 0 0 1 -74.50049 -95.3248 -50.5 1 0.5 1
9 0 1 0 0 0 1 0 0 0 1 -74.50049 -93.3248 -77 2 0.5 0.5
9 0 1 0 0 0 1 0 0 0 1 -76.50049 -93.3248 -44 2 0.5 0.5
9 0 1 0 0 0 1 0 0 0 1 -77.50049 -92.3248 -42 2 0.5 0.5
9 0 1 0 0 0 1 0 0 0 1 -78.50049 -95.3248 -56.5 1 0.5 1
9 0 1 0 0 0 1 0 0 0 1 -80.50049 -95.3248 -53.5 1 0.5 1
9 0 1 0 0 0 1 0 0 0 1 -80.50049 -35.3248 -17 2 0.5 0.5
9 0 1 0 0 0 1 0 0 0 1 -81.50049 -85.3248 -91.5 1 0.5 1
9 0 1 0 0 0 1 0 0 0 1 -80.50049 -92.3248 -78 2 0.5 0.5
9 0 1 0 0 0 1 0 0 0 1 -89.50049 -81.3248 -93 2 0.5 0.5
9 0 1 0 0 0 1 0 0 0 1 -90.50049 -83.3248 -91.5 1 0.5 1
9 0 1 0 0 0 1 0 0 0 1 -91.50049 -57.8248 -17 1 1 0.5
9 0 1 0 0 0 1 0 0 0 1 -93.00049 -93.3248 -58.5 0.5 0.5 2
9 0 1 0 0 0 1 0 0 0 1 -93.50049 -92.3248 -68.5 1 0.5 1
9 0 1 0 0 0 1 0 0 0 1 -93.50049 -62.3248 -18 2 0.5 0.5
9 0 1 0 0 0 1 0 0 0 1 -95.50049 -30.3248 -17 2 0.5 0.5
9 0 1 0 0 0 1 0 0 0 1 -96.50049 -50.8248 -16 1 1 0.5
9 0 1 0 0 0 1 0 0 0 1 -96.50049 -91.3248 -52.5 1 0.5 1
9 0 1 0 0 0 1 0 0 0 1 -98.00049 -15.8248 -13.5 0.5 1 1
9 0 1 0 0 0 1 0 0 0 1 -97.50049 -90.3248 -48.5 1 0.5 1
9 0 1 0 0 0 1 0 0 0 1 -97.50049 -91.3248 -68.5 1 0.5 1
9 0 1 0 0 0 1 0 0 0 1 -99.50049 -90.3248 -51.5 1 0.5 1
9 0 1 0 0 0 1 0 0 0 1 -99.50049 -60.3248 -18 2 0.5 0.5
9 0 1 0 0 0 1 0 0 0 1 -103.0005 -90.3248 -57.5 0.5 0.5 2
9 0 1 0 0 0 1 0 0 0 1 -103.5005 -47.8248 -16 1 1 0.5
9 0 1 0 0 0 1 0 0 0 1 -105.5005 -89.3248 -56.5 1 0.5 1
9 0 1 0 0 0 1 0 0 0 1 -107.0005 -41.8248 -15 0.5 2 0.5
9 0 1 0 0 0 1 0 0 0 1 -106.5005 -88.3248 -53.5 1 0.5 1
9 0 1 0 0 0 1 0 0 0 1 -106.5005 -51.3248 -17 2 0.5 0.5
9 0 1 0 0 0 1 0 0 0 1 -108.5005 -43.8248 -15 1 1 0.5
9 0 1 0 0 0 1 0 0 0 1 -110.5005 -34.3248 -16 2 0.5 0.5
9 0 1 0 0 0 1 0 0 0 1 -112.5005 -41.8248 -16 1 1 0.5
9 0 1 0 0 0 1 0 0 0 1 -113.5005 -51.8248 -17 1 1 0.5
9 0 1 0 0 0 1 0 0 0 1 -113.5005 -73.8248 -93 1 1 0.5
9 0 1 0 0 0 1 0 0 0 1 -113.5005 -54.3248 -18 2 0.5 0.5
9 0 1 0 0 0 1 0 0 0 1 -115.5005 -56.3248 -19 2 0.5 0.5
9 0 1 0 0 0 1 0 0 0 1 -117.5005 -13.8248 -17 1 1 0.5
9 0 1 0 0 0 1 0 0 0 1 -118.5005 -37.8248 -16 1 1 0.5
9 0 1 0 0 0 1 0 0 0 1 -119.5005 -62.8248 -23 1 1 0.5
9 0 1 0 0 0 1 0 0 0 1 -122.5005 -69.8248 -93 1 1 0.5
9 0 1 0 0 0 1 0 0 0 1 -123.5005 -23.8248 -16 1 1 0.5
9 0 1 0 0 0 1 0 0 0 1 -124.5005 -38.8248 -17 1 1 0.5
9 0 1 0 0 0 1 0 0 0 1 -124.5005 -67.8248 -93 1 1 0.5
9 0 1 0 0 0 1 0 0 0 1 -125.5005 -31.8248 -16 1 1 0.5
9 0 1 0 0 0 1 0 0 0 1 -125.5005 -78.3248 -45.5 1 0.5 1
9 0 1 0 0 0 1 0 0 0 1 -126.5005 -66.8248 -93 1 1 0.5
9 0 1 0 0 0 1 0 0 0 1 -126.5005 -76.3248 -79.5 1 0.5 1
9 0 1 0 0 0 1 0 0 0 1 -126.5005 -77.3248 -77.5 1 0.5 1
9 0 1 0 0 0 1 0 0 0 1 -127.0005 -79.3248 -69.5 0.5 0.5 2
9 0 1 0 0 0 1 0 0 0 1 -128.0005 -78.3248 -72.5 0.5 0.5 2
9 0 1 0 0 0 1 0 0 0 1 -127.5005 -80.3248 -63.5 1 0.5 1
9 0 1 0 0 0 1 0 0 0 1 -129.0005 -76.3248 -45.5 0.5 0.5 2
9 0 1 0 0 0 1 0 0 0 1 -128.5005 -65.3248 -93 2 0.5 0.5
9 0 1 0 0 0 1 0 0 0 1 -130.5005 -63.8248 -93 1 1 0.5
9 0 1 0 0 0 1 0 0 0 1 -131.5005 -12.8248 -16 1 1 0.5
9 0 1 0 0 0 1 0 0 0 1 -132.5005 -24.8248 -16 1 1 0.5
9 0 1 0 0 0 1 0 0 0 1 -133.5005 -61.8248 -93 1 1 0.5
9 0 1 0 0 0 1 0 0 0 1 -135.5005 -60.8248 -93 1 1 0.5
9 0 1 0 0 0 1 0 0 0 1 -136.5005 -19.8248 -16 1 1 0.5
9 0 1 0 0 0 1 0 0 0 1 -139.5005 -56.8248 -93 1 1 0.5
9 0 1 0 0 0 1 0 0 0 1 -144.5005 -52.8248 -93 1 1 0.5
9 0 1 0 0 0 1 0 0 0 1 -146.0005 -6.824799 -16 0.5 2 0.5
9 0 1 0 0 0 1 0 0 0 1 -146.5005 -50.8248 -93 1 1 0.5
9 0 1 0 0 0 1 0 0 0 1 -149.5005 -48.8248 -93 1 1 0.5
9 0 1 0 0 0 1 0 0 0 1 -153.5005 -43.8248 -93 1 1 0.5
9 0 1 0 0 0 1 0 0 0 1 -158.0005 22.1752 -16 0.5 2 0.5
9 0 1 0 0 0 1 0 0 0 1 -158.5005 -37.8248 -93 1 1 0.5
9 0 1 0 0 0 1 0 0 0 1 -160.5005 -35.8248 -93 1 1 0.5
9 0 1 0 0 0 1 0 0 0 1 -162.5005 -32.8248 -93 1 1 0.5
9 0 1 0 0 0 1 0 0 0 1 -164.5005 -29.8248 -93 1 1 0.5
9 0 1 0 0 0 1 0 0 0 1 -166.5005 -26.8248 -93 1 1 0.5
9 0 1 0 0 0 1 0 0 0 1 -167.5005 -24.8248 -93 1 1 0.5
9 0 1 0 0 0 1 0 0 0 1 -169.0005 -22.8248 -93 0.5 2 0.5
9 0 1 0 0 0 1 0 0 0 1 -171.5005 -17.8248 -93 1 1 0.5
9 0 1 0 0 0 1 0 0 0 1 -172.5005 -15.8248 -93 1 1 0.5
9 0 1 0 0 0 1 0 0 0 1 -173.5005 -13.8248 -93 1 1 0.5
9 0 1 0 0 0 1 0 0 0 1 -174.5005 -11.8248 -93 1 1 0.5
9 0 1 0 0 0 1 0 0 0 1 -176.5005 -6.824799 -93 1 1 0.5
9 0 1 0 0 0 1 0 0 0 1 -180.5005 4.175201 -93 1 1 0.5
9 0 1 0 0 0 1 0 0 0 1 -184.0005 11.1752 -91.5 0.5 1 1
9 0 1 0 0 0 1 0 0 0 1 -184.5005 20.1752 -93 1 1 0.5
9 0 1 0 0 0 1 0 0 0 1 -193.0005 21.1752 -77.5 0.5 1 1
9 0 1 0 0 0 1 0 0 0 1 82.99951 17.6752 -77 0.5 0.5 1.5
9 0 1 0 0 0 1 0 0 0 1 82.99951 17.6752 -43 0.5 0.5 1.5
9 0 1 0 0 0 1 0 0 0 1 77.99951 19.6752 -49 0.5 0.5 1.5
9 0 1 0 0 0 1 0 0 0 1 70.99951 13.6752 -78 0.5 1.5 0.5
9 0 1 0 0 0 1 0 0 0 1 70.99951 13.6752 -42 0.5 1.5 0.5
9 0 1 0 0 0 1 0 0 0 1 65.99951 -13.3248 -55 0.5 0.5 1.5
9 0 1 0 0 0 1 0 0 0 1 65.99951 -14.3248 -57 0.5 0.5 1.5
9 0 1 0 0 0 1 0 0 0 1 63.99951 11.6752 -91 0.5 0.5 1.5
9 0 1 0 0 0 1 0 0 0 1 63.99951 -18.3248 -56 0.5 0.5 1.5
9 0 1 0 0 0 1 0 0 0 1 62.99951 -19.3248 -54 0.5 0.5 1.5
9 0 1 0 0 0 1 0 0 0 1 60.99951 0.6752014 -91 0.5 0.5 1.5
9 0 1 0 0 0 1 0 0 0 1 59.99951 -26.3248 -56 0.5 0.5 1.5
9 0 1 0 0 0 1 0 0 0 1 59.99951 -27.3248 -58 0.5 0.5 1.5
9 0 1 0 0 0 1 0 0 0 1 58.99951 -27.3248 -54 0.5 0.5 1.5
9 0 1 0 0 0 1 0 0 0 1 57.99951 -30.3248 -58 0.5 0.5 1.5
9 0 1 0 0 0 1 0 0 0 1 56.99951 -30.3248 -68 0.5 0.5 1.5
9 0 1 0 0 0 1 0 0 0 1 56.99951 -30.3248 -54 0.5 0.5 1.5
9 0 1 0 0 0 1 0 0 0 1 54.99951 -34.3248 -56 0.5 0.5 1.5
9 0 1 0 0 0 1 0 0 0 1 43.99951 10.6752 -18 0.5 1.5 0.5
9 0 1 0 0 0 1 0 0 0 1 43.99951 -49.3248 -57 0.5 0.5 1.5
9 0 1 0 0 0 1 0 0 0 1 42.99951 7.675201 -18 0.5 1.5 0.5
9 0 1 0 0 0 1 0 0 0 1 41.99951 4.675201 -18 0.5 1.5 0.5
9 0 1 0 0 0 1 0 0 0 1 38.99951 -2.324799 -18 0.5 1.5 0.5
9 0 1 0 0 0 1 0 0 0 1 34.99951 14.6752 -16 0.5 1.5 0.5
9 0 1 0 0 0 1 0 0 0 1 30.99951 -8.324799 -17 0.5 1.5 0.5
9 0 1 0 0 0 1 0 0 0 1 27.99951 8.675201 -16 1.5 0.5 0.5
9 0 1 0 0 0 1 0 0 0 1 26.99951 -4.324799 -16 0.5 1.5 0.5
9 0 1 0 0 0 1 0 0 0 1 23.99951 -18.3248 -17 0.5 1.5 0.5
9 0 1 0 0 0 1 0 0 0 1 22.99951 -54.3248 -93 1.5 0.5 0.5
9 0 1 0 0 0 1 0 0 0 1 18.99951 -0.3247986 -16 0.5 1.5 0.5
9 0 1 0 0 0 1 0 0 0 1 16.99951 7.675201 -15 1.5 0.5 0.5
9 0 1 0 0 0 1 0 0 0 1 16.99951 -59.3248 -93 1.5 0.5 0.5
9 0 1 0 0 0 1 0 0 0 1 11.99951 9.675201 -17 0.5 1.5 0.5
9 0 1 0 0 0 1 0 0 0 1 11.99951 7.675201 -12 1.5 0.5 0.5
9 0 1 0 0 0 1 0 0 0 1 9.999512 -78.3248 -57 0.5 0.5 1.5
9 0 1 0 0 0 1 0 0 0 1 8.999512 -3.324799 -17 0.5 1.5 0.5
9 0 1 0 0 0 1 0 0 0 1 8.999512 -79.3248 -54 0.5 0.5 1.5
9 0 1 0 0 0 1 0 0 0 1 7.999512 -75.3248 -79 0.5 0.5 1.5
9 0 1 0 0 0 1 0 0 0 1 6.999512 -66.3248 -93 1.5 0.5 0.5
9 0 1 0 0 0 1 0 0 0 1 5.999512 -79.3248 -51 0.5 0.5 1.5
9 0 1 0 0 0 1 0 0 0 1 5.999512 -8.324799 -17 1.5 0.5 0.5
9 0 1 0 0 0 1 0 0 0 1 4.999512 -73.3248 -35 0.5 0.5 1.5
9 0 1 0 0 0 1 0 0 0 1 0.9995117 -66.3248 -26 1.5 0.5 0.5
9 0 1 0 0 0 1 0 0 0 1 0.9995117 -67.3248 -27 1.5 0.5 0.5
9 0 1 0 0 0 1 0 0 0 1 -3.000488 -83.3248 -50 0.5 0.5 1.5
9 0 1 0 0 0 1 0 0 0 1 -3.000488 -84.3248 -55 0.5 0.5 1.5
9 0 1 0 0 0 1 0 0 0 1 -3.000488 -45.3248 -17 1.5 0.5 0.5
9 0 1 0 0 0 1 0 0 0 1 -4.000488 -84.3248 -53 0.5 0.5 1.5
9 0 1 0 0 0 1 0 0 0 1 -4.000488 -85.3248 -57 0.5 0.5 1.5
9 0 1 0 0 0 1 0 0 0 1 -5.000488 -85.3248 -55 0.5 0.5 1.5
9 0 1 0 0 0 1 0 0 0 1 -6.000488 -86.3248 -58 0.5 0.5 1.5
9 0 1 0 0 0 1 0 0 0 1 -7.000488 -85.3248 -51 0.5 0.5 1.5
9 0 1 0 0 0 1 0 0 0 1 -7.000488 -86.3248 -56 0.5 0.5 1.5
9 0 1 0 0 0 1 0 0 0 1 -9.000488 -87.3248 -57 0.5 0.5 1.5
9 0 1 0 0 0 1 0 0 0 1 -10.00049 -87.3248 -55 0.5 0.5 1.5
9 0 1 0 0 0 1 0 0 0 1 -11.00049 -77.3248 -91 0.5 0.5 1.5
9 0 1 0 0 0 1 0 0 0 1 -11.00049 -87.3248 -53 0.5 0.5 1.5
9 0 1 0 0 0 1 0 0 0 1 -13.00049 -88.3248 -55 0.5 0.5 1.5
9 0 1 0 0 0 1 0 0 0 1 -14.00049 -10.3248 -15 0.5 1.5 0.5
9 0 1 0 0 0 1 0 0 0 1 -14.00049 -88.3248 -53 0.5 0.5 1.5
9 0 1 0 0 0 1 0 0 0 1 -15.00049 -9.324799 -5 0.5 1.5 0.5
9 0 1 0 0 0 1 0 0 0 1 -15.00049 -89.3248 -66 0.5 0.5 1.5
9 0 1 0 0 0 1 0 0 0 1 -17.00049 -89.3248 -52 0.5 0.5 1.5
9 0 1 0 0 0 1 0 0 0 1 -18.00049 -32.3248 -16 0.5 1.5 0.5
9 0 1 0 0 0 1 0 0 0 1 -18.00049 -45.3248 -16 0.5 1.5 0.5
9 0 1 0 0 0 1 0 0 0 1 -18.00049 -90.3248 -55 0.5 0.5 1.5
9 0 1 0 0 0 1 0 0 0 1 -19.00049 -59.3248 -18 1.5 0.5 0.5
9 0 1 0 0 0 1 0 0 0 1 -20.00049 -89.3248 -47 0.5 0.5 1.5
9 0 1 0 0 0 1 0 0 0 1 -21.00049 -91.3248 -66 0.5 0.5 1.5
9 0 1 0 0 0 1 0 0 0 1 -22.00049 -18.3248 -15 0.5 1.5 0.5
9 0 1 0 0 0 1 0 0 0 1 -21.00049 -40.3248 -16 1.5 0.5 0.5
9 0 1 0 0 0 1 0 0 0 1 -21.00049 -80.3248 -93 1.5 0.5 0.5
9 0 1 0 0 0 1 0 0 0 1 -22.00049 -91.3248 -54 1.5 0.5 0.5
9 0 1 0 0 0 1 0 0 0 1 -24.00049 -90.3248 -47 0.5 0.5 1.5
9 0 1 0 0 0 1 0 0 0 1 -25.00049 -82.3248 -91 0.5 0.5 1.5
9 0 1 0 0 0 1 0 0 0 1 -28.00049 -92.3248 -52 0.5 0.5 1.5
9 0 1 0 0 0 1 0 0 0 1 -28.00049 -31.3248 -17 1.5 0.5 0.5
9 0 1 0 0 0 1 0 0 0 1 -31.00049 -93.3248 -69 1.5 0.5 0.5
9 0 1 0 0 0 1 0 0 0 1 -32.00049 -93.3248 -53 0.5 0.5 1.5
9 0 1 0 0 0 1 0 0 0 1 -32.00049 -94.3248 -63 0.5 0.5 1.5
9 0 1 0 0 0 1 0 0 0 1 -32.00049 -54.3248 -16 1.5 0.5 0.5
9 0 1 0 0 0 1 0 0 0 1 -33.00049 -64.3248 -18 1.5 0.5 0.5
9 0 1 0 0 0 1 0 0 0 1 -34.00049 -45.3248 -16 1.5 0.5 0.5
9 0 1 0 0 0 1 0 0 0 1 -34.00049 -82.3248 -93 1.5 0.5 0.5
9 0 1 0 0 0 1 0 0 0 1 -36.00049 -91.3248 -79 1.5 0.5 0.5
9 0 1 0 0 0 1 0 0 0 1 -36.00049 -94.3248 -70 1.5 0.5 0.5
9 0 1 0 0 0 1 0 0 0 1 -38.00049 -94.3248 -71 1.5 0.5 0.5
9 0 1 0 0 0 1 0 0 0 1 -38.00049 -94.3248 -52 1.5 0.5 0.5
9 0 1 0 0 0 1 0 0 0 1 -38.00049 -95.3248 -65 1.5 0.5 0.5
9 0 1 0 0 0 1 0 0 0 1 -39.00049 -91.3248 -80 1.5 0.5 0.5
9 0 1 0 0 0 1 0 0 0 1 -41.00049 -68.3248 -19 1.5 0.5 0.5
9 0 1 0 0 0 1 0 0 0 1 -44.00049 -79.3248 -25 1.5 0.5 0.5
9 0 1 0 0 0 1 0 0 0 1 -44.00049 -91.3248 -81 1.5 0.5 0.5
9 0 1 0 0 0 1 0 0 0 1 -44.00049 -94.3248 -47 1.5 0.5 0.5
9 0 1 0 0 0 1 0 0 0 1 -45.00049 -87.3248 -33 1.5 0.5 0.5
9 0 1 0 0 0 1 0 0 0 1 -46.00049 -94.3248 -46 1.5 0.5 0.5
9 0 1 0 0 0 1 0 0 0 1 -48.00049 -92.3248 -80 1.5 0.5 0.5
9 0 1 0 0 0 1 0 0 0 1 -49.00049 -93.3248 -78 1.5 0.5 0.5
9 0 1 0 0 0 1 0 0 0 1 -50.00049 -97.3248 -57 0.5 0.5 1.5
9 0 1 0 0 0 1 0 0 0 1 -50.00049 -96.3248 -66 1.5 0.5 0.5
9 0 1 0 0 0 1 0 0 0 1 -51.00049 -94.3248 -76 1.5 0.5 0.5
9 0 1 0 0 0 1 0 0 0 1 -52.00049 -97.3248 -63 0.5 0.5 1.5
9 0 1 0 0 0 1 0 0 0 1 -55.00049 -95.3248 -46 1.5 0.5 0.5
9 0 1 0 0 0 1 0 0 0 1 -56.00049 -96.3248 -65 0.5 0.5 1.5
9 0 1 0 0 0 1 0 0 0 1 -56.00049 -68.3248 -18 1.5 0.5 0.5
9 0 1 0 0 0 1 0 0 0 1 -56.00049 -87.3248 -32 1.5 0.5 0.5
9 0 1 0 0 0 1 0 0 0 1 -60.00049 -70.3248 -20 1.5 0.5 0.5
9 0 1 0 0 0 1 0 0 0 1 -60.00049 -86.3248 -32 1.5 0.5 0.5
9 0 1 0 0 0 1 0 0 0 1 -64.00049 -96.3248 -65 0.5 0.5 1.5
9 0 1 0 0 0 1 0 0 0 1 -64.00049 -68.3248 -18 1.5 0.5 0.5
9 0 1 0 0 0 1 0 0 0 1 -65.00049 -95.3248 -46 1.5 0.5 0.5
9 0 1 0 0 0 1 0 0 0 1 -68.00049 -97.3248 -63 0.5 0.5 1.5
9 0 1 0 0 0 1 0 0 0 1 -70.00049 -95.3248 -49 0.5 0.5 1.5
9 0 1 0 0 0 1 0 0 0 1 -70.00049 -97.3248 -57 0.5 0.5 1.5
9 0 1 0 0 0 1 0 0 0 1 -71.00049 -93.3248 -78 1.5 0.5 0.5
9 0 1 0 0 0 1 0 0 0 1 -72.00049 -92.3248 -41 1.5 0.5 0.5
9 0 1 0 0 0 1 0 0 0 1 -74.00049 -95.3248 -70 0.5 0.5 1.5
9 0 1 0 0 0 1 0 0 0 1 -75.00049 -87.3248 -33 1.5 0.5 0.5
9 0 1 0 0 0 1 0 0 0 1 -76.00049 -91.3248 -81 1.5 0.5 0.5
9 0 1 0 0 0 1 0 0 0 1 -76.00049 -94.3248 -47 1.5 0.5 0.5
9 0 1 0 0 0 1 0 0 0 1 -77.00049 -96.3248 -62 0.5 0.5 1.5
9 0 1 0 0 0 1 0 0 0 1 -82.00049 -94.3248 -71 1.5 0.5 0.5
9 0 1 0 0 0 1 0 0 0 1 -84.00049 -91.3248 -79 1.5 0.5 0.5
9 0 1 0 0 0 1 0 0 0 1 -85.00049 -94.3248 -55 0.5 0.5 1.5
9 0 1 0 0 0 1 0 0 0 1 -85.00049 -45.3248 -16 1.5 0.5 0.5
9 0 1 0 0 0 1 0 0 0 1 -87.00049 -93.3248 -51 0.5 0.5 1.5
9 0 1 0 0 0 1 0 0 0 1 -87.00049 -64.3248 -18 1.5 0.5 0.5
9 0 1 0 0 0 1 0 0 0 1 -89.00049 -44.3248 -16 1.5 0.5 0.5
9 0 1 0 0 0 1 0 0 0 1 -91.00049 -53.3248 -16 1.5 0.5 0.5
9 0 1 0 0 0 1 0 0 0 1 -92.00049 -92.3248 -52 0.5 0.5 1.5
9 0 1 0 0 0 1 0 0 0 1 -95.00049 -82.3248 -91 0.5 0.5 1.5
9 0 1 0 0 0 1 0 0 0 1 -95.00049 -92.3248 -66 0.5 0.5 1.5
9 0 1 0 0 0 1 0 0 0 1 -97.00049 -61.3248 -18 1.5 0.5 0.5
9 0 1 0 0 0 1 0 0 0 1 -99.00049 -91.3248 -66 0.5 0.5 1.5
9 0 1 0 0 0 1 0 0 0 1 -99.00049 -55.3248 -17 1.5 0.5 0.5
9 0 1 0 0 0 1 0 0 0 1 -99.00049 -80.3248 -93 1.5 0.5 0.5
9 0 1 0 0 0 1 0 0 0 1 -102.0005 -32.3248 -16 0.5 1.5 0.5
9 0 1 0 0 0 1 0 0 0 1 -101.0005 -59.3248 -18 1.5 0.5 0.5
9 0 1 0 0 0 1 0 0 0 1 -102.0005 -90.3248 -55 0.5 0.5 1.5
9 0 1 0 0 0 1 0 0 0 1 -103.0005 -89.3248 -52 0.5 0.5 1.5
9 0 1 0 0 0 1 0 0 0 1 -104.0005 -89.3248 -54 0.5 0.5 1.5
9 0 1 0 0 0 1 0 0 0 1 -105.0005 -9.324799 -5 0.5 1.5 0.5
9 0 1 0 0 0 1 0 0 0 1 -107.0005 -10.3248 -14 0.5 1.5 0.5
9 0 1 0 0 0 1 0 0 0 1 -108.0005 -88.3248 -57 0.5 0.5 1.5
9 0 1 0 0 0 1 0 0 0 1 -109.0005 -87.3248 -53 0.5 0.5 1.5
9 0 1 0 0 0 1 0 0 0 1 -110.0005 -87.3248 -55 0.5 0.5 1.5
9 0 1 0 0 0 1 0 0 0 1 -111.0005 -87.3248 -57 0.5 0.5 1.5
9 0 1 0 0 0 1 0 0 0 1 -113.0005 -86.3248 -56 0.5 0.5 1.5
9 0 1 0 0 0 1 0 0 0 1 -115.0005 -85.3248 -55 0.5 0.5 1.5
9 0 1 0 0 0 1 0 0 0 1 -115.0005 -55.3248 -18 1.5 0.5 0.5
9 0 1 0 0 0 1 0 0 0 1 -116.0005 -84.3248 -53 0.5 0.5 1.5
9 0 1 0 0 0 1 0 0 0 1 -116.0005 -85.3248 -57 0.5 0.5 1.5
9 0 1 0 0 0 1 0 0 0 1 -116.0005 -58.3248 -20 1.5 0.5 0.5
9 0 1 0 0 0 1 0 0 0 1 -117.0005 -84.3248 -55 0.5 0.5 1.5
9 0 1 0 0 0 1 0 0 0 1 -118.0005 -61.3248 -22 1.5 0.5 0.5
9 0 1 0 0 0 1 0 0 0 1 -120.0005 -83.3248 -57 0.5 0.5 1.5
9 0 1 0 0 0 1 0 0 0 1 -120.0005 -64.3248 -24 1.5 0.5 0.5
9 0 1 0 0 0 1 0 0 0 1 -121.0005 -66.3248 -26 1.5 0.5 0.5
9 0 1 0 0 0 1 0 0 0 1 -121.0005 -67.3248 -27 1.5 0.5 0.5
9 0 1 0 0 0 1 0 0 0 1 -124.0005 -72.3248 -33 1.5 0.5 0.5
9 0 1 0 0 0 1 0 0 0 1 -124.0005 -74.3248 -36 1.5 0.5 0.5
9 0 1 0 0 0 1 0 0 0 1 -126.0005 -79.3248 -51 0.5 0.5 1.5
9 0 1 0 0 0 1 0 0 0 1 -126.0005 -8.324799 -17 1.5 0.5 0.5
9 0 1 0 0 0 1 0 0 0 1 -127.0005 -77.3248 -44 0.5 0.5 1.5
9 0 1 0 0 0 1 0 0 0 1 -128.0005 -75.3248 -79 0.5 0.5 1.5
9 0 1 0 0 0 1 0 0 0 1 -128.0005 -78.3248 -52 0.5 0.5 1.5
9 0 1 0 0 0 1 0 0 0 1 -129.0005 -3.324799 -17 0.5 1.5 0.5
9 0 1 0 0 0 1 0 0 0 1 -130.0005 -77.3248 -69 0.5 0.5 1.5
9 0 1 0 0 0 1 0 0 0 1 -130.0005 -77.3248 -52 0.5 0.5 1.5
9 0 1 0 0 0 1 0 0 0 1 -133.0005 12.6752 -17 0.5 1.5 0.5
9 0 1 0 0 0 1 0 0 0 1 -132.0005 7.675201 -12 1.5 0.5 0.5
9 0 1 0 0 0 1 0 0 0 1 -137.0005 -59.3248 -93 1.5 0.5 0.5
9 0 1 0 0 0 1 0 0 0 1 -139.0005 -25.3248 -17 1.5 0.5 0.5
9 0 1 0 0 0 1 0 0 0 1 -145.0005 13.6752 -16 0.5 1.5 0.5
9 0 1 0 0 0 1 0 0 0 1 -150.0005 -9.324799 -17 0.5 1.5 0.5
9 0 1 0 0 0 1 0 0 0 1 -154.0005 11.6752 -16 0.5 1.5 0.5
9 0 1 0 0 0 1 0 0 0 1 -158.0005 7.675201 -17 0.5 1.5 0.5
9 0 1 0 0 0 1 0 0 0 1 -162.0005 4.675201 -18 0.5 1.5 0.5
9 0 1 0 0 0 1 0 0 0 1 -163.0005 7.675201 -18 0.5 1.5 0.5
9 0 1 0 0 0 1 0 0 0 1 -165.0005 13.6752 -18 0.5 1.5 0.5
9 0 1 0 0 0 1 0 0 0 1 -177.0005 -30.3248 -68 0.5 0.5 1.5
9 0 1 0 0 0 1 0 0 0 1 -179.0005 -27.3248 -54 0.5 0.5 1.5
9 0 1 0 0 0 1 0 0 0 1 -180.0005 -26.3248 -56 0.5 0.5 1.5
9 0 1 0 0 0 1 0 0 0 1 -183.0005 -19.3248 -54 0.5 0.5 1.5
9 0 1 0 0 0 1 0 0 0 1 -184.0005 -18.3248 -56 0.5 0.5 1.5
9 0 1 0 0 0 1 0 0 0 1 -186.0005 20.6752 -91 0.5 0.5 1.5
9 0 1 0 0 0 1 0 0 0 1 -186.0005 -14.3248 -57 0.5 0.5 1.5
9 0 1 0 0 0 1 0 0 0 1 -189.0005 -6.324799 -58 0.5 0.5 1.5
9 0 1 0 0 0 1 0 0 0 1 -191.0005 13.6752 -78 0.5 1.5 0.5
9 0 1 0 0 0 1 0 0 0 1 -191.0005 13.6752 -42 0.5 1.5 0.5
9 0 1 0 0 0 1 0 0 0 1 -192.0005 14.6752 -76 0.5 1.5 0.5
9 0 1 0 0 0 1 0 0 0 1 -193.0005 21.6752 -42 0.5 1.5 0.5
9 0 1 0 0 0 1 0 0 0 1 -203.0005 17.6752 -77 0.5 0.5 1.5
9 0 1 0 0 0 1 0 0 0 1 -203.0005 17.6752 -43 0.5 0.5 1.5
