9 0 1 0 0 0 1 0 0 0 1 30 -2 -70 3.35 0.5 3.35
9 0 1 0 0 0 1 0 0 0 1 50 -2 -70 3.35 0.5 3.35
9 0 1 0 0 0 1 0 0 0 1 30 -2 -50 3.35 0.5 3.35
9 0 1 0 0 0 1 0 0 0 1 50 -2 -50 3.35 0.5 3.35
9 0 1 0 0 0 1 0 0 0 1 30 -2 -30 3.35 0.5 3.35
9 0 1 0 0 0 1 0 0 0 1 50 -2 -30 3.35 0.5 3.35
9 0 1 0 0 0 1 0 0 0 1 30 -2 -10 3.35 0.5 3.35
9 0 1 0 0 0 1 0 0 0 1 50 -2 -10 3.35 0.5 3.35
9 0 1 0 0 0 1 0 0 0 1 70 -2 -30 3.35 0.5 3.35
9 0 1 0 0 0 1 0 0 0 1 90 -2 -30 3.35 0.5 3.35
9 0 1 0 0 0 1 0 0 0 1 70 -2 -10 3.35 0.5 3.35
9 0 1 0 0 0 1 0 0 0 1 90 -2 -10 3.35 0.5 3.35
9 0 1 0 0 0 1 0 0 0 1 70 -2 -70 3.35 0.5 3.35
9 0 1 0 0 0 1 0 0 0 1 90 -2 -70 3.35 0.5 3.35
9 0 1 0 0 0 1 0 0 0 1 70 -2 -50 3.35 0.5 3.35
9 0 1 0 0 0 1 0 0 0 1 90 -2 -50 3.35 0.5 3.35
9 0 1 0 0 0 1 0 0 0 1 30 -2 10 3.35 0.5 3.35
9 0 1 0 0 0 1 0 0 0 1 50 -2 10 3.35 0.5 3.35
9 0 1 0 0 0 1 0 0 0 1 30 -2 30 3.35 0.5 3.35
9 0 1 0 0 0 1 0 0 0 1 50 -2 30 3.35 0.5 3.35
9 0 1 0 0 0 1 0 0 0 1 30 -2 50 3.35 0.5 3.35
9 0 1 0 0 0 1 0 0 0 1 50 -2 50 3.35 0.5 3.35
9 0 1 0 0 0 1 0 0 0 1 30 -2 70 3.35 0.5 3.35
9 0 1 0 0 0 1 0 0 0 1 50 -2 70 3.35 0.5 3.35
9 0 1 0 0 0 1 0 0 0 1 70 -2 50 3.35 0.5 3.35
9 0 1 0 0 0 1 0 0 0 1 90 -2 50 3.35 0.5 3.35
9 0 1 0 0 0 1 0 0 0 1 70 -2 70 3.35 0.5 3.35
9 0 1 0 0 0 1 0 0 0 1 90 -2 70 3.35 0.5 3.35
9 0 1 0 0 0 1 0 0 0 1 70 -2 10 3.35 0.5 3.35
9 0 1 0 0 0 1 0 0 0 1 90 -2 10 3.35 0.5 3.35
9 0 1 0 0 0 1 0 0 0 1 70 -2 30 3.35 0.5 3.35
9 0 1 0 0 0 1 0 0 0 1 90 -2 30 3.35 0.5 3.35
9 0 1 0 0 0 1 0 0 0 1 110 -2 -70 3.35 0.5 3.35
9 0 1 0 0 0 1 0 0 0 1 130 -2 -70 3.35 0.5 3.35
9 0 1 0 0 0 1 0 0 0 1 110 -2 -50 3.35 0.5 3.35
9 0 1 0 0 0 1 0 0 0 1 130 -2 -50 3.35 0.5 3.35
9 0 1 0 0 0 1 0 0 0 1 110 -2 -30 3.35 0.5 3.35
9 0 1 0 0 0 1 0 0 0 1 130 -2 -30 3.35 0.5 3.35
9 0 1 0 0 0 1 0 0 0 1 110 -2 -10 3.35 0.5 3.35
9 0 1 0 0 0 1 0 0 0 1 130 -2 -10 3.35 0.5 3.35
9 0 1 0 0 0 1 0 0 0 1 150 -2 -30 3.35 0.5 3.35
9 0 1 0 0 0 1 0 0 0 1 170 -2 -30 3.35 0.5 3.35
9 0 1 0 0 0 1 0 0 0 1 150 -2 -10 3.35 0.5 3.35
9 0 1 0 0 0 1 0 0 0 1 170 -2 -10 3.35 0.5 3.35
9 0 1 0 0 0 1 0 0 0 1 150 -2 -70 3.35 0.5 3.35
9 0 1 0 0 0 1 0 0 0 1 170 -2 -70 3.35 0.5 3.35
9 0 1 0 0 0 1 0 0 0 1 150 -2 -50 3.35 0.5 3.35
9 0 1 0 0 0 1 0 0 0 1 170 -2 -50 3.35 0.5 3.35
9 0 1 0 0 0 1 0 0 0 1 110 -2 10 3.35 0.5 3.35
9 0 1 0 0 0 1 0 0 0 1 130 -2 10 3.35 0.5 3.35
9 0 1 0 0 0 1 0 0 0 1 110 -2 30 3.35 0.5 3.35
9 0 1 0 0 0 1 0 0 0 1 130 -2 30 3.35 0.5 3.35
9 0 1 0 0 0 1 0 0 0 1 110 -2 50 3.35 0.5 3.35
9 0 1 0 0 0 1 0 0 0 1 130 -2 50 3.35 0.5 3.35
9 0 1 0 0 0 1 0 0 0 1 110 -2 70 3.35 0.5 3.35
9 0 1 0 0 0 1 0 0 0 1 130 -2 70 3.35 0.5 3.35
9 0 1 0 0 0 1 0 0 0 1 150 -2 50 3.35 0.5 3.35
9 0 1 0 0 0 1 0 0 0 1 170 -2 50 3.35 0.5 3.35
9 0 1 0 0 0 1 0 0 0 1 150 -2 70 3.35 0.5 3.35
9 0 1 0 0 0 1 0 0 0 1 170 -2 70 3.35 0.5 3.35
9 0 1 0 0 0 1 0 0 0 1 150 -2 10 3.35 0.5 3.35
9 0 1 0 0 0 1 0 0 0 1 170 -2 10 3.35 0.5 3.35
9 0 1 0 0 0 1 0 0 0 1 150 -2 30 3.35 0.5 3.35
9 0 1 0 0 0 1 0 0 0 1 170 -2 30 3.35 0.5 3.35
9 0 1 0 0 0 1 0 0 0 1 -170 -2 -70 3.35 0.5 3.35
9 0 1 0 0 0 1 0 0 0 1 -150 -2 -70 3.35 0.5 3.35
9 0 1 0 0 0 1 0 0 0 1 -170 -2 -50 3.35 0.5 3.35
9 0 1 0 0 0 1 0 0 0 1 -150 -2 -50 3.35 0.5 3.35
9 0 1 0 0 0 1 0 0 0 1 -170 -2 -30 3.35 0.5 3.35
9 0 1 0 0 0 1 0 0 0 1 -150 -2 -30 3.35 0.5 3.35
9 0 1 0 0 0 1 0 0 0 1 -170 -2 -10 3.35 0.5 3.35
9 0 1 0 0 0 1 0 0 0 1 -150 -2 -10 3.35 0.5 3.35
9 0 1 0 0 0 1 0 0 0 1 -130 -2 -30 3.35 0.5 3.35
9 0 1 0 0 0 1 0 0 0 1 -110 -2 -30 3.35 0.5 3.35
9 0 1 0 0 0 1 0 0 0 1 -130 -2 -10 3.35 0.5 3.35
9 0 1 0 0 0 1 0 0 0 1 -110 -2 -10 3.35 0.5 3.35
9 0 1 0 0 0 1 0 0 0 1 -130 -2 -70 3.35 0.5 3.35
9 0 1 0 0 0 1 0 0 0 1 -110 -2 -70 3.35 0.5 3.35
9 0 1 0 0 0 1 0 0 0 1 -130 -2 -50 3.35 0.5 3.35
9 0 1 0 0 0 1 0 0 0 1 -110 -2 -50 3.35 0.5 3.35
9 0 1 0 0 0 1 0 0 0 1 -170 -2 10 3.35 0.5 3.35
9 0 1 0 0 0 1 0 0 0 1 -150 -2 10 3.35 0.5 3.35
9 0 1 0 0 0 1 0 0 0 1 -170 -2 30 3.35 0.5 3.35
9 0 1 0 0 0 1 0 0 0 1 -150 -2 30 3.35 0.5 3.35
9 0 1 0 0 0 1 0 0 0 1 -170 -2 50 3.35 0.5 3.35
9 0 1 0 0 0 1 0 0 0 1 -150 -2 50 3.35 0.5 3.35
9 0 1 0 0 0 1 0 0 0 1 -170 -2 70 3.35 0.5 3.35
9 0 1 0 0 0 1 0 0 0 1 -150 -2 70 3.35 0.5 3.35
9 0 1 0 0 0 1 0 0 0 1 -130 -2 50 3.35 0.5 3.35
9 0 1 0 0 0 1 0 0 0 1 -110 -2 50 3.35 0.5 3.35
9 0 1 0 0 0 1 0 0 0 1 -130 -2 70 3.35 0.5 3.35
9 0 1 0 0 0 1 0 0 0 1 -110 -2 70 3.35 0.5 3.35
9 0 1 0 0 0 1 0 0 0 1 -130 -2 10 3.35 0.5 3.35
9 0 1 0 0 0 1 0 0 0 1 -110 -2 10 3.35 0.5 3.35
9 0 1 0 0 0 1 0 0 0 1 -130 -2 30 3.35 0.5 3.35
9 0 1 0 0 0 1 0 0 0 1 -110 -2 30 3.35 0.5 3.35
9 0 1 0 0 0 1 0 0 0 1 -90 -2 -70 3.35 0.5 3.35
9 0 1 0 0 0 1 0 0 0 1 -70 -2 -70 3.35 0.5 3.35
9 0 1 0 0 0 1 0 0 0 1 -90 -2 -50 3.35 0.5 3.35
9 0 1 0 0 0 1 0 0 0 1 -70 -2 -50 3.35 0.5 3.35
9 0 1 0 0 0 1 0 0 0 1 -90 -2 -30 3.35 0.5 3.35
9 0 1 0 0 0 1 0 0 0 1 -70 -2 -30 3.35 0.5 3.35
9 0 1 0 0 0 1 0 0 0 1 -90 -2 -10 3.35 0.5 3.35
9 0 1 0 0 0 1 0 0 0 1 -70 -2 -10 3.35 0.5 3.35
9 0 1 0 0 0 1 0 0 0 1 -50 -2 -30 3.35 0.5 3.35
9 0 1 0 0 0 1 0 0 0 1 -30 -2 -30 3.35 0.5 3.35
9 0 1 0 0 0 1 0 0 0 1 -50 -2 -10 3.35 0.5 3.35
9 0 1 0 0 0 1 0 0 0 1 -30 -2 -10 3.35 0.5 3.35
9 0 1 0 0 0 1 0 0 0 1 -50 -2 -70 3.35 0.5 3.35
9 0 1 0 0 0 1 0 0 0 1 -30 -2 -70 3.35 0.5 3.35
9 0 1 0 0 0 1 0 0 0 1 -50 -2 -50 3.35 0.5 3.35
9 0 1 0 0 0 1 0 0 0 1 -30 -2 -50 3.35 0.5 3.35
9 0 1 0 0 0 1 0 0 0 1 -90 -2 10 3.35 0.5 3.35
9 0 1 0 0 0 1 0 0 0 1 -70 -2 10 3.35 0.5 3.35
9 0 1 0 0 0 1 0 0 0 1 -90 -2 30 3.35 0.5 3.35
9 0 1 0 0 0 1 0 0 0 1 -70 -2 30 3.35 0.5 3.35
9 0 1 0 0 0 1 0 0 0 1 -90 -2 50 3.35 0.5 3.35
9 0 1 0 0 0 1 0 0 0 1 -70 -2 50 3.35 0.5 3.35
9 0 1 0 0 0 1 0 0 0 1 -90 -2 70 3.35 0.5 3.35
9 0 1 0 0 0 1 0 0 0 1 -70 -2 70 3.35 0.5 3.35
9 0 1 0 0 0 1 0 0 0 1 -50 -2 50 3.35 0.5 3.35
9 0 1 0 0 0 1 0 0 0 1 -30 -2 50 3.35 0.5 3.35
9 0 1 0 0 0 1 0 0 0 1 -50 -2 70 3.35 0.5 3.35
9 0 1 0 0 0 1 0 0 0 1 -30 -2 70 3.35 0.5 3.35
9 0 1 0 0 0 1 0 0 0 1 -50 -2 10 3.35 0.5 3.35
9 0 1 0 0 0 1 0 0 0 1 -30 -2 10 3.35 0.5 3.35
9 0 1 0 0 0 1 0 0 0 1 -50 -2 30 3.35 0.5 3.35
9 0 1 0 0 0 1 0 0 0 1 -30 -2 30 3.35 0.5 3.35
9 0 1 0 0 0 1 0 0 0 1 10 -2 70 3.35 0.5 3.35
9 0 1 0 0 0 1 0 0 0 1 10 -2 50 3.35 0.5 3.35
9 0 1 0 0 0 1 0 0 0 1 10 -2 30 3.35 0.5 3.35
9 0 1 0 0 0 1 0 0 0 1 10 -2 10 3.35 0.5 3.35
9 0 1 0 0 0 1 0 0 0 1 10 -2 -10 3.35 0.5 3.35
9 0 1 0 0 0 1 0 0 0 1 10 -2 -30 3.35 0.5 3.35
9 0 1 0 0 0 1 0 0 0 1 10 -2 -50 3.35 0.5 3.35
9 0 1 0 0 0 1 0 0 0 1 10 -2 -70 3.35 0.5 3.35
9 0 1 0 0 0 1 0 0 0 1 -10 -2 70 3.35 0.5 3.35
9 0 1 0 0 0 1 0 0 0 1 -10 -2 50 3.35 0.5 3.35
9 0 1 0 0 0 1 0 0 0 1 -10 -2 30 3.35 0.5 3.35
9 0 1 0 0 0 1 0 0 0 1 -10 -2 10 3.35 0.5 3.35
9 0 1 0 0 0 1 0 0 0 1 -10 -2 -10 3.35 0.5 3.35
9 0 1 0 0 0 1 0 0 0 1 -10 -2 -30 3.35 0.5 3.35
9 0 1 0 0 0 1 0 0 0 1 -10 -2 -50 3.35 0.5 3.35
9 0 1 0 0 0 1 0 0 0 1 -10 -2 -70 3.35 0.5 3.35
9 0 1 0 0 0 1 0 0 0 1 -110 -2 90 3.35 0.5 3.35
9 0 1 0 0 0 1 0 0 0 1 -90 -2 90 3.35 0.5 3.35
9 0 1 0 0 0 1 0 0 0 1 -70 -2 90 3.35 0.5 3.35
9 0 1 0 0 0 1 0 0 0 1 -50 -2 90 3.35 0.5 3.35
9 0 1 0 0 0 1 0 0 0 1 -30 -2 90 3.35 0.5 3.35
9 0 1 0 0 0 1 0 0 0 1 -10 -2 90 3.35 0.5 3.35
9 0 1 0 0 0 1 0 0 0 1 10 -2 90 3.35 0.5 3.35
9 0 1 0 0 0 1 0 0 0 1 30 -2 90 3.35 0.5 3.35
9 0 1 0 0 0 1 0 0 0 1 50 -2 90 3.35 0.5 3.35
9 0 1 0 0 0 1 0 0 0 1 70 -2 90 3.35 0.5 3.35
9 0 1 0 0 0 1 0 0 0 1 90 -2 90 3.35 0.5 3.35
9 0 1 0 0 0 1 0 0 0 1 110 -2 90 3.35 0.5 3.35
9 0 1 0 0 0 1 0 0 0 1 -110 -2 -90 3.35 0.5 3.35
9 0 1 0 0 0 1 0 0 0 1 -90 -2 -90 3.35 0.5 3.35
9 0 1 0 0 0 1 0 0 0 1 -70 -2 -90 3.35 0.5 3.35
9 0 1 0 0 0 1 0 0 0 1 -50 -2 -90 3.35 0.5 3.35
9 0 1 0 0 0 1 0 0 0 1 -30 -2 -90 3.35 0.5 3.35
9 0 1 0 0 0 1 0 0 0 1 -10 -2 -90 3.35 0.5 3.35
9 0 1 0 0 0 1 0 0 0 1 10 -2 -90 3.35 0.5 3.35
9 0 1 0 0 0 1 0 0 0 1 30 -2 -90 3.35 0.5 3.35
9 0 1 0 0 0 1 0 0 0 1 50 -2 -90 3.35 0.5 3.35
9 0 1 0 0 0 1 0 0 0 1 70 -2 -90 3.35 0.5 3.35
9 0 1 0 0 0 1 0 0 0 1 90 -2 -90 3.35 0.5 3.35
9 0 1 0 0 0 1 0 0 0 1 110 -2 -90 3.35 0.5 3.35
9 0 1 0 0 0 1 0 0 0 1 -50 -2 110 3.35 0.5 3.35
9 0 1 0 0 0 1 0 0 0 1 -30 -2 110 3.35 0.5 3.35
9 0 1 0 0 0 1 0 0 0 1 -10 -2 110 3.35 0.5 3.35
9 0 1 0 0 0 1 0 0 0 1 10 -2 110 3.35 0.5 3.35
9 0 1 0 0 0 1 0 0 0 1 30 -2 110 3.35 0.5 3.35
9 0 1 0 0 0 1 0 0 0 1 50 -2 110 3.35 0.5 3.35
9 0 1 0 0 0 1 0 0 0 1 -50 -2 -110 3.35 0.5 3.35
9 0 1 0 0 0 1 0 0 0 1 -30 -2 -110 3.35 0.5 3.35
9 0 1 0 0 0 1 0 0 0 1 -10 -2 -110 3.35 0.5 3.35
9 0 1 0 0 0 1 0 0 0 1 10 -2 -110 3.35 0.5 3.35
9 0 1 0 0 0 1 0 0 0 1 30 -2 -110 3.35 0.5 3.35
9 0 1 0 0 0 1 0 0 0 1 50 -2 -110 3.35 0.5 3.35
9 0 1 0 0 0 1 0 0 0 1 0 2 44 178.5 0.5 35
9 0 1 0 0 0 1 0 0 0 1 0 2 -52 130.5 0.5 43
9 0 1 0 0 0 1 0 0 0 1 0 2 94 88.5 0.5 15
9 0 1 0 0 0 1 0 0 0 1 154.5 2 -35 24 0.5 44
9 0 1 0 0 0 1 0 0 0 1 -154.5 2 -35 24 0.5 44
9 0 1 0 0 0 1 0 0 0 1 0 2 -109.5 43.5 0.5 14.5
9 0 1 0 0 0 1 0 0 0 1 80 2 0 50.5 0.5 9
9 0 1 0 0 0 1 0 0 0 1 -80 2 0 50.5 0.5 9
9 0 1 0 0 0 1 0 0 0 1 0 2 116.5 43.5 0.5 7.5
9 0 1 0 0 0 1 0 0 0 1 111 2 86.5 22.5 0.5 7.5
9 0 1 0 0 0 1 0 0 0 1 -111 2 86.5 22.5 0.5 7.5
9 0 1 0 0 0 1 0 0 0 1 178 4.5 0 0.5 2 79
9 0 1 0 0 0 1 0 0 0 1 -178 4.5 0 0.5 2 79
9 0 1 0 0 0 1 0 0 0 1 66 2 -102 22.5 0.5 7
9 0 1 0 0 0 1 0 0 0 1 -64.5 2 -102.5 21 0.5 7.5
9 0 1 0 0 0 1 0 0 0 1 0 2 127.5 22.5 0.5 3.5
9 0 1 0 0 0 1 0 0 0 1 0 2 -128.5 16.5 0.5 4.5
9 0 1 0 0 0 1 0 0 0 1 142.5 2 -83 12 0.5 4
9 0 1 0 0 0 1 0 0 0 1 -142.5 2 -83 12 0.5 4
9 0 1 0 0 0 1 0 0 0 1 145.5 2 82.5 12 0.5 3.5
9 0 1 0 0 0 1 0 0 0 1 100.5 2 97.5 12 0.5 3.5
9 0 1 0 0 0 1 0 0 0 1 55.5 2 -112.5 12 0.5 3.5
9 0 1 0 0 0 1 0 0 0 1 55.5 2 112.5 12 0.5 3.5
9 0 1 0 0 0 1 0 0 0 1 -54 2 113 10.5 0.5 4
9 0 1 0 0 0 1 0 0 0 1 -96 2 -99 10.5 0.5 4
9 0 1 0 0 0 1 0 0 0 1 -99 2 98 10.5 0.5 4
9 0 1 0 0 0 1 0 0 0 1 -144 2 83 10.5 0.5 4
9 0 1 0 0 0 1 0 0 0 1 99 2 -98.5 10.5 0.5 3.5
9 0 1 0 0 0 1 0 0 0 1 -54 2 -113.5 10.5 0.5 3.5
9 0 1 0 0 0 1 0 0 0 1 0 2 133 10.5 0.5 2
9 0 1 0 0 0 1 0 0 0 1 0 6 18.5 35.5 0.5 0.5
9 0 1 0 0 0 1 0 0 0 1 24 2 -126 7.5 0.5 2
9 0 1 0 0 0 1 0 0 0 1 -22.5 2 -126.5 6 0.5 2.5
9 0 1 0 0 0 1 0 0 0 1 160.5 2 -81 6 0.5 2
9 0 1 0 0 0 1 0 0 0 1 139.5 2 88 6 0.5 2
9 0 1 0 0 0 1 0 0 0 1 136.5 2 -89 6 0.5 2
9 0 1 0 0 0 1 0 0 0 1 94.5 2 103 6 0.5 2
9 0 1 0 0 0 1 0 0 0 1 49.5 2 -118 6 0.5 2
9 0 1 0 0 0 1 0 0 0 1 49.5 2 118 6 0.5 2
9 0 1 0 0 0 1 0 0 0 1 -70.5 2 111 6 0.5 2
9 0 1 0 0 0 1 0 0 0 1 -112.5 2 -97 6 0.5 2
9 0 1 0 0 0 1 0 0 0 1 -115.5 2 96 6 0.5 2
9 0 1 0 0 0 1 0 0 0 1 -136.5 2 -89 6 0.5 2
9 0 1 0 0 0 1 0 0 0 1 -160.5 2 -81 6 0.5 2
9 0 1 0 0 0 1 0 0 0 1 -160.5 2 81 6 0.5 2
9 0 1 0 0 0 1 0 0 0 1 0 2 -134.5 7.5 0.5 1.5
9 0 1 0 0 0 1 0 0 0 1 163.5 2 80.5 6 0.5 1.5
9 0 1 0 0 0 1 0 0 0 1 118.5 2 95.5 6 0.5 1.5
9 0 1 0 0 0 1 0 0 0 1 115.5 2 -96.5 6 0.5 1.5
9 0 1 0 0 0 1 0 0 0 1 94.5 2 -103.5 6 0.5 1.5
9 0 1 0 0 0 1 0 0 0 1 73.5 2 -110.5 6 0.5 1.5
9 0 1 0 0 0 1 0 0 0 1 73.5 2 110.5 6 0.5 1.5
9 0 1 0 0 0 1 0 0 0 1 28.5 2 125.5 6 0.5 1.5
9 0 1 0 0 0 1 0 0 0 1 -27 2 126 4.5 0.5 2
9 0 1 0 0 0 1 0 0 0 1 -48 2 -119 4.5 0.5 2
9 0 1 0 0 0 1 0 0 0 1 -48 2 119 4.5 0.5 2
9 0 1 0 0 0 1 0 0 0 1 -69 2 -112 4.5 0.5 2
9 0 1 0 0 0 1 0 0 0 1 -90 2 -105 4.5 0.5 2
9 0 1 0 0 0 1 0 0 0 1 -93 2 104 4.5 0.5 2
9 0 1 0 0 0 1 0 0 0 1 -138 2 89 4.5 0.5 2
9 0 1 0 0 0 1 0 0 0 1 21 2 -129 4.5 0.5 1
9 0 1 0 0 0 1 0 0 0 1 10 2 0 0.5 0.5 9
9 0 1 0 0 0 1 0 0 0 1 0 2 136 4.5 0.5 1
9 0 1 0 0 0 1 0 0 0 1 -10 2 0 0.5 0.5 9
9 0 1 0 0 0 1 0 0 0 1 -31.5 2 -125.5 3 0.5 1.5
9 0 1 0 0 0 1 0 0 0 1 0 4 -137.5 1.5 2.5 0.5
9 0 1 0 0 0 1 0 0 0 1 0 4 137.5 1.5 2.5 0.5
9 0 1 0 0 0 1 0 0 0 1 169.5 2 -80 3 0.5 1
9 0 1 0 0 0 1 0 0 0 1 160.5 2 83 3 0.5 1
9 0 1 0 0 0 1 0 0 0 1 157.5 2 -84 3 0.5 1
9 0 1 0 0 0 1 0 0 0 1 148.5 2 87 3 0.5 1
9 0 1 0 0 0 1 0 0 0 1 145.5 2 -88 3 0.5 1
9 0 1 0 0 0 1 0 0 0 1 136.5 2 91 3 0.5 1
9 0 1 0 0 0 1 0 0 0 1 133.5 2 -92 3 0.5 1
9 0 1 0 0 0 1 0 0 0 1 115.5 2 98 3 0.5 1
9 0 1 0 0 0 1 0 0 0 1 112.5 2 -99 3 0.5 1
9 0 1 0 0 0 1 0 0 0 1 103.5 2 102 3 0.5 1
9 0 1 0 0 0 1 0 0 0 1 91.5 2 -106 3 0.5 1
9 0 1 0 0 0 1 0 0 0 1 91.5 2 106 3 0.5 1
9 0 1 0 0 0 1 0 0 0 1 70.5 2 -113 3 0.5 1
9 0 1 0 0 0 1 0 0 0 1 70.5 2 113 3 0.5 1
9 0 1 0 0 0 1 0 0 0 1 58.5 2 -117 3 0.5 1
9 0 1 0 0 0 1 0 0 0 1 58.5 2 117 3 0.5 1
9 0 1 0 0 0 1 0 0 0 1 46.5 2 -121 3 0.5 1
9 0 1 0 0 0 1 0 0 0 1 46.5 2 121 3 0.5 1
9 0 1 0 0 0 1 0 0 0 1 34.5 2 -125 3 0.5 1
9 0 1 0 0 0 1 0 0 0 1 25.5 2 128 3 0.5 1
9 0 1 0 0 0 1 0 0 0 1 13.5 2 132 3 0.5 1
9 0 1 0 0 0 1 0 0 0 1 -13.5 2 132 3 0.5 1
9 0 1 0 0 0 1 0 0 0 1 -19.5 2 -130 3 0.5 1
9 0 1 0 0 0 1 0 0 0 1 -34.5 2 125 3 0.5 1
9 0 1 0 0 0 1 0 0 0 1 -55.5 2 -118 3 0.5 1
9 0 1 0 0 0 1 0 0 0 1 -55.5 2 118 3 0.5 1
9 0 1 0 0 0 1 0 0 0 1 -67.5 2 114 3 0.5 1
9 0 1 0 0 0 1 0 0 0 1 -76.5 2 -111 3 0.5 1
9 0 1 0 0 0 1 0 0 0 1 -79.5 2 110 3 0.5 1
9 0 1 0 0 0 1 0 0 0 1 -97.5 2 -104 3 0.5 1
9 0 1 0 0 0 1 0 0 0 1 -100.5 2 103 3 0.5 1
9 0 1 0 0 0 1 0 0 0 1 -109.5 2 -100 3 0.5 1
9 0 1 0 0 0 1 0 0 0 1 -112.5 2 99 3 0.5 1
9 0 1 0 0 0 1 0 0 0 1 -121.5 2 -96 3 0.5 1
9 0 1 0 0 0 1 0 0 0 1 -124.5 2 95 3 0.5 1
9 0 1 0 0 0 1 0 0 0 1 -133.5 2 -92 3 0.5 1
9 0 1 0 0 0 1 0 0 0 1 -145.5 2 -88 3 0.5 1
9 0 1 0 0 0 1 0 0 0 1 -145.5 2 88 3 0.5 1
9 0 1 0 0 0 1 0 0 0 1 -157.5 2 -84 3 0.5 1
9 0 1 0 0 0 1 0 0 0 1 -157.5 2 84 3 0.5 1
9 0 1 0 0 0 1 0 0 0 1 -169.5 2 -80 3 0.5 1
9 0 1 0 0 0 1 0 0 0 1 -169.5 2 80 3 0.5 1
9 0 1 0 0 0 1 0 0 0 1 0 2 -136.5 4.5 0.5 0.5
9 0 1 0 0 0 1 0 0 0 1 172.5 2 79.5 3 0.5 0.5
9 0 1 0 0 0 1 0 0 0 1 127.5 2 94.5 3 0.5 0.5
9 0 1 0 0 0 1 0 0 0 1 124.5 2 -95.5 3 0.5 0.5
9 0 1 0 0 0 1 0 0 0 1 103.5 2 -102.5 3 0.5 0.5
9 0 1 0 0 0 1 0 0 0 1 82.5 2 -109.5 3 0.5 0.5
9 0 1 0 0 0 1 0 0 0 1 82.5 2 109.5 3 0.5 0.5
9 0 1 0 0 0 1 0 0 0 1 37.5 2 124.5 3 0.5 0.5
9 0 1 0 0 0 1 0 0 0 1 28.5 2 -7.5 1 0.5 1.5
9 0 1 0 0 0 1 0 0 0 1 28.5 2 7.5 1 0.5 1.5
9 0 1 0 0 0 1 0 0 0 1 19.5 2 -130.5 3 0.5 0.5
9 0 1 0 0 0 1 0 0 0 1 12 2 -8 1.5 0.5 1
9 0 1 0 0 0 1 0 0 0 1 12 2 8 1.5 0.5 1
9 0 1 0 0 0 1 0 0 0 1 10.5 2 -133.5 3 0.5 0.5
9 0 1 0 0 0 1 0 0 0 1 8.5 2 -7.5 1 0.5 1.5
9 0 1 0 0 0 1 0 0 0 1 8.5 2 7.5 1 0.5 1.5
9 0 1 0 0 0 1 0 0 0 1 -8 2 -8 1.5 0.5 1
9 0 1 0 0 0 1 0 0 0 1 -8 2 8 1.5 0.5 1
9 0 1 0 0 0 1 0 0 0 1 -9 2 -134 1.5 0.5 1
9 0 1 0 0 0 1 0 0 0 1 -11.5 2 -7.5 1 0.5 1.5
9 0 1 0 0 0 1 0 0 0 1 -11.5 2 7.5 1 0.5 1.5
9 0 1 0 0 0 1 0 0 0 1 -24 2 129 1.5 0.5 1
9 0 1 0 0 0 1 0 0 0 1 -28 2 -8 1.5 0.5 1
9 0 1 0 0 0 1 0 0 0 1 -28 2 8 1.5 0.5 1
9 0 1 0 0 0 1 0 0 0 1 -36 2 -125 1.5 0.5 1
9 0 1 0 0 0 1 0 0 0 1 -45 2 -122 1.5 0.5 1
9 0 1 0 0 0 1 0 0 0 1 -45 2 122 1.5 0.5 1
9 0 1 0 0 0 1 0 0 0 1 -66 2 -115 1.5 0.5 1
9 0 1 0 0 0 1 0 0 0 1 -87 2 -108 1.5 0.5 1
9 0 1 0 0 0 1 0 0 0 1 -90 2 107 1.5 0.5 1
9 0 1 0 0 0 1 0 0 0 1 -135 2 92 1.5 0.5 1
9 0 1 0 0 0 1 0 0 0 1 142 4 90.5 0.5 2.5 0.5
9 0 1 0 0 0 1 0 0 0 1 142 4.5 -90.5 0.5 2 0.5
9 0 1 0 0 0 1 0 0 0 1 -142 4.5 -90.5 0.5 2 0.5
9 0 1 0 0 0 1 0 0 0 1 -142 4.5 90.5 0.5 2 0.5
9 0 1 0 0 0 1 0 0 0 1 174 2 -79.5 1.5 0.5 0.5
9 0 1 0 0 0 1 0 0 0 1 171 2 80.5 1.5 0.5 0.5
9 0 1 0 0 0 1 0 0 0 1 168 2 -81.5 1.5 0.5 0.5
9 0 1 0 0 0 1 0 0 0 1 165 2 82.5 1.5 0.5 0.5
9 0 1 0 0 0 1 0 0 0 1 162 2 -83.5 1.5 0.5 0.5
9 0 1 0 0 0 1 0 0 0 1 159 2 84.5 1.5 0.5 0.5
9 0 1 0 0 0 1 0 0 0 1 156 2 -85.5 1.5 0.5 0.5
9 0 1 0 0 0 1 0 0 0 1 153 2 86.5 1.5 0.5 0.5
9 0 1 0 0 0 1 0 0 0 1 150 2 -87.5 1.5 0.5 0.5
9 0 1 0 0 0 1 0 0 0 1 147 2 88.5 1.5 0.5 0.5
9 0 1 0 0 0 1 0 0 0 1 144 2 -89.5 1.5 0.5 0.5
9 0 1 0 0 0 1 0 0 0 1 138 2 -91.5 1.5 0.5 0.5
9 0 1 0 0 0 1 0 0 0 1 135 2 92.5 1.5 0.5 0.5
9 0 1 0 0 0 1 0 0 0 1 132 2 -93.5 1.5 0.5 0.5
9 0 1 0 0 0 1 0 0 0 1 126 2 95.5 1.5 0.5 0.5
9 0 1 0 0 0 1 0 0 0 1 123 2 -96.5 1.5 0.5 0.5
9 0 1 0 0 0 1 0 0 0 1 120 2 97.5 1.5 0.5 0.5
9 0 1 0 0 0 1 0 0 0 1 117 2 -98.5 1.5 0.5 0.5
9 0 1 0 0 0 1 0 0 0 1 114 2 99.5 1.5 0.5 0.5
9 0 1 0 0 0 1 0 0 0 1 111 2 -100.5 1.5 0.5 0.5
9 0 1 0 0 0 1 0 0 0 1 108 2 101.5 1.5 0.5 0.5
9 0 1 0 0 0 1 0 0 0 1 102 2 -103.5 1.5 0.5 0.5
9 0 1 0 0 0 1 0 0 0 1 102 2 103.5 1.5 0.5 0.5
9 0 1 0 0 0 1 0 0 0 1 96 2 -105.5 1.5 0.5 0.5
9 0 1 0 0 0 1 0 0 0 1 96 2 105.5 1.5 0.5 0.5
9 0 1 0 0 0 1 0 0 0 1 90 2 -107.5 1.5 0.5 0.5
9 0 1 0 0 0 1 0 0 0 1 90 2 107.5 1.5 0.5 0.5
9 0 1 0 0 0 1 0 0 0 1 81 2 -110.5 1.5 0.5 0.5
9 0 1 0 0 0 1 0 0 0 1 81 2 110.5 1.5 0.5 0.5
9 0 1 0 0 0 1 0 0 0 1 75 2 -112.5 1.5 0.5 0.5
9 0 1 0 0 0 1 0 0 0 1 75 2 112.5 1.5 0.5 0.5
9 0 1 0 0 0 1 0 0 0 1 69 2 -114.5 1.5 0.5 0.5
9 0 1 0 0 0 1 0 0 0 1 69 2 114.5 1.5 0.5 0.5
9 0 1 0 0 0 1 0 0 0 1 63 2 -116.5 1.5 0.5 0.5
9 0 1 0 0 0 1 0 0 0 1 63 2 116.5 1.5 0.5 0.5
9 0 1 0 0 0 1 0 0 0 1 57 2 -118.5 1.5 0.5 0.5
9 0 1 0 0 0 1 0 0 0 1 57 2 118.5 1.5 0.5 0.5
9 0 1 0 0 0 1 0 0 0 1 51 2 -120.5 1.5 0.5 0.5
9 0 1 0 0 0 1 0 0 0 1 51 2 120.5 1.5 0.5 0.5
9 0 1 0 0 0 1 0 0 0 1 45 2 -122.5 1.5 0.5 0.5
9 0 1 0 0 0 1 0 0 0 1 45 2 122.5 1.5 0.5 0.5
9 0 1 0 0 0 1 0 0 0 1 39 2 -124.5 1.5 0.5 0.5
9 0 1 0 0 0 1 0 0 0 1 36 2 125.5 1.5 0.5 0.5
9 0 1 0 0 0 1 0 0 0 1 33 2 -126.5 1.5 0.5 0.5
9 0 1 0 0 0 1 0 0 0 1 30 2 127.5 1.5 0.5 0.5
9 0 1 0 0 0 1 0 0 0 1 27 2 -128.5 1.5 0.5 0.5
9 0 1 0 0 0 1 0 0 0 1 24 2 129.5 1.5 0.5 0.5
9 0 1 0 0 0 1 0 0 0 1 18 2 -131.5 1.5 0.5 0.5
9 0 1 0 0 0 1 0 0 0 1 18 2 131.5 1.5 0.5 0.5
9 0 1 0 0 0 1 0 0 0 1 11 2 -5.5 0.5 0.5 1.5
9 0 1 0 0 0 1 0 0 0 1 11 2 5.5 0.5 0.5 1.5
9 0 1 0 0 0 1 0 0 0 1 12 2 133.5 1.5 0.5 0.5
9 0 1 0 0 0 1 0 0 0 1 9 2 -134.5 1.5 0.5 0.5
9 0 1 0 0 0 1 0 0 0 1 6 2 135.5 1.5 0.5 0.5
9 0 1 0 0 0 1 0 0 0 1 -6 2 135.5 1.5 0.5 0.5
9 0 1 0 0 0 1 0 0 0 1 -9 2 -5.5 0.5 0.5 1.5
9 0 1 0 0 0 1 0 0 0 1 -9 2 5.5 0.5 0.5 1.5
9 0 1 0 0 0 1 0 0 0 1 -12 2 -133.5 1.5 0.5 0.5
9 0 1 0 0 0 1 0 0 0 1 -12 2 133.5 1.5 0.5 0.5
9 0 1 0 0 0 1 0 0 0 1 -18 2 -131.5 1.5 0.5 0.5
9 0 1 0 0 0 1 0 0 0 1 -18 2 131.5 1.5 0.5 0.5
9 0 1 0 0 0 1 0 0 0 1 -24 2 -129.5 1.5 0.5 0.5
9 0 1 0 0 0 1 0 0 0 1 -27 2 128.5 1.5 0.5 0.5
9 0 1 0 0 0 1 0 0 0 1 -29 2 -5.5 0.5 0.5 1.5
9 0 1 0 0 0 1 0 0 0 1 -29 2 5.5 0.5 0.5 1.5
9 0 1 0 0 0 1 0 0 0 1 -30 2 -127.5 1.5 0.5 0.5
9 0 1 0 0 0 1 0 0 0 1 -33 2 126.5 1.5 0.5 0.5
9 0 1 0 0 0 1 0 0 0 1 -39 2 -124.5 1.5 0.5 0.5
9 0 1 0 0 0 1 0 0 0 1 -39 2 124.5 1.5 0.5 0.5
9 0 1 0 0 0 1 0 0 0 1 -48 2 -121.5 1.5 0.5 0.5
9 0 1 0 0 0 1 0 0 0 1 -48 2 121.5 1.5 0.5 0.5
9 0 1 0 0 0 1 0 0 0 1 -54 2 -119.5 1.5 0.5 0.5
9 0 1 0 0 0 1 0 0 0 1 -54 2 119.5 1.5 0.5 0.5
9 0 1 0 0 0 1 0 0 0 1 -60 2 -117.5 1.5 0.5 0.5
9 0 1 0 0 0 1 0 0 0 1 -60 2 117.5 1.5 0.5 0.5
9 0 1 0 0 0 1 0 0 0 1 -66 2 115.5 1.5 0.5 0.5
9 0 1 0 0 0 1 0 0 0 1 -69 2 -114.5 1.5 0.5 0.5
9 0 1 0 0 0 1 0 0 0 1 -72 2 113.5 1.5 0.5 0.5
9 0 1 0 0 0 1 0 0 0 1 -75 2 -112.5 1.5 0.5 0.5
9 0 1 0 0 0 1 0 0 0 1 -78 2 111.5 1.5 0.5 0.5
9 0 1 0 0 0 1 0 0 0 1 -81 2 -110.5 1.5 0.5 0.5
9 0 1 0 0 0 1 0 0 0 1 -84 2 109.5 1.5 0.5 0.5
9 0 1 0 0 0 1 0 0 0 1 -90 2 -107.5 1.5 0.5 0.5
9 0 1 0 0 0 1 0 0 0 1 -93 2 106.5 1.5 0.5 0.5
9 0 1 0 0 0 1 0 0 0 1 -96 2 -105.5 1.5 0.5 0.5
9 0 1 0 0 0 1 0 0 0 1 -99 2 104.5 1.5 0.5 0.5
9 0 1 0 0 0 1 0 0 0 1 -102 2 -103.5 1.5 0.5 0.5
9 0 1 0 0 0 1 0 0 0 1 -105 2 102.5 1.5 0.5 0.5
9 0 1 0 0 0 1 0 0 0 1 -108 2 -101.5 1.5 0.5 0.5
9 0 1 0 0 0 1 0 0 0 1 -111 2 100.5 1.5 0.5 0.5
9 0 1 0 0 0 1 0 0 0 1 -114 2 -99.5 1.5 0.5 0.5
9 0 1 0 0 0 1 0 0 0 1 -117 2 98.5 1.5 0.5 0.5
9 0 1 0 0 0 1 0 0 0 1 -120 2 -97.5 1.5 0.5 0.5
9 0 1 0 0 0 1 0 0 0 1 -123 2 96.5 1.5 0.5 0.5
9 0 1 0 0 0 1 0 0 0 1 -126 2 -95.5 1.5 0.5 0.5
9 0 1 0 0 0 1 0 0 0 1 -129 2 94.5 1.5 0.5 0.5
9 0 1 0 0 0 1 0 0 0 1 -132 2 -93.5 1.5 0.5 0.5
9 0 1 0 0 0 1 0 0 0 1 -138 2 -91.5 1.5 0.5 0.5
9 0 1 0 0 0 1 0 0 0 1 -138 2 91.5 1.5 0.5 0.5
9 0 1 0 0 0 1 0 0 0 1 -144 2 -89.5 1.5 0.5 0.5
9 0 1 0 0 0 1 0 0 0 1 -144 2 89.5 1.5 0.5 0.5
9 0 1 0 0 0 1 0 0 0 1 -150 2 -87.5 1.5 0.5 0.5
9 0 1 0 0 0 1 0 0 0 1 -150 2 87.5 1.5 0.5 0.5
9 0 1 0 0 0 1 0 0 0 1 -156 2 -85.5 1.5 0.5 0.5
9 0 1 0 0 0 1 0 0 0 1 -156 2 85.5 1.5 0.5 0.5
9 0 1 0 0 0 1 0 0 0 1 -162 2 -83.5 1.5 0.5 0.5
9 0 1 0 0 0 1 0 0 0 1 -162 2 83.5 1.5 0.5 0.5
9 0 1 0 0 0 1 0 0 0 1 -168 2 -81.5 1.5 0.5 0.5
9 0 1 0 0 0 1 0 0 0 1 -168 2 81.5 1.5 0.5 0.5
9 0 1 0 0 0 1 0 0 0 1 -174 2 -79.5 1.5 0.5 0.5
9 0 1 0 0 0 1 0 0 0 1 -174 2 79.5 1.5 0.5 0.5
