9 0 1 0 0 0 1 0 0 0 1 -0.004049301 45 0 1.5 49.5 1.5
9 0 1 0 0 0 1 0 0 0 1 1.995951 36.5 0 0.5 58 0.5
9 0 1 0 0 0 1 0 0 0 1 -2.004049 36.5 0 0.5 58 0.5
9 0 1 0 0 0 1 0 0 0 1 -0.004049301 47 -2 0.5 47.5 0.5
9 0 1 0 0 0 1 0 0 0 1 -0.004049301 47 2 0.5 47.5 0.5
9 0 1 0 0 0 1 0 0 0 1 -0.004049301 -15.5 0 1.5 11 0.5
9 0 1 0 0 0 1 0 0 0 1 -3.004049 -13 0 0.5 3.5 0.5
9 0 1 0 0 0 1 0 0 0 1 2.995951 -13.5 0 0.5 3 0.5
9 0 1 0 0 0 1 0 0 0 1 -0.004049301 -29 0 0.5 2.5 0.5
9 0 1 0 0 0 1 0 0 0 1 -0.004049301 95 0 1.5 0.5 0.5
