9 0 1 0 0 0 1 0 0 0 1 0.5 13.5 0 6.5 2 4.5
9 0 1 0 0 0 1 0 0 0 1 0.5 0 13.5 6.5 4.5 2
9 0 1 0 0 0 1 0 0 0 1 0.5 -13.5 0 6.5 2 4.5
9 0 1 0 0 0 1 0 0 0 1 0 0 -13.5 6 4.5 2
9 0 1 0 0 0 1 0 0 0 1 0 0 9.5 2 10.5 2
9 0 1 0 0 0 1 0 0 0 1 0 -0.5 -9.5 2 10 2
9 0 1 0 0 0 1 0 0 0 1 0 9.5 0 2 2 7.5
9 0 1 0 0 0 1 0 0 0 1 0 -9.5 0 2 2 7.5
9 0 1 0 0 0 1 0 0 0 1 0.5 12.5 -6.5 6.5 1 2
9 0 1 0 0 0 1 0 0 0 1 0.5 12.5 6.5 6.5 1 2
9 0 1 0 0 0 1 0 0 0 1 0.5 6.5 12.5 6.5 2 1
9 0 1 0 0 0 1 0 0 0 1 0.5 -6.5 -12.5 6.5 2 1
9 0 1 0 0 0 1 0 0 0 1 0.5 -6.5 12.5 6.5 2 1
9 0 1 0 0 0 1 0 0 0 1 0.5 -12.5 -6.5 6.5 1 2
9 0 1 0 0 0 1 0 0 0 1 0.5 -12.5 6.5 6.5 1 2
9 0 1 0 0 0 1 0 0 0 1 0 6.5 -12.5 6 2 1
9 0 1 0 0 0 1 0 0 0 1 0.5 10.5 -9 6.5 1 1.5
9 0 1 0 0 0 1 0 0 0 1 -2.5 0 10.5 0.5 11.5 1
9 0 1 0 0 0 1 0 0 0 1 2.5 -0.5 10.5 0.5 11 1
9 0 1 0 0 0 1 0 0 0 1 -2.5 -1 -10.5 0.5 10.5 1
9 0 1 0 0 0 1 0 0 0 1 4.5 -8.5 -10.5 2.5 2 1
9 0 1 0 0 0 1 0 0 0 1 2.5 -10.5 0 0.5 1 9.5
9 0 1 0 0 0 1 0 0 0 1 -2.5 -10.5 0 0.5 1 9.5
9 0 1 0 0 0 1 0 0 0 1 6.5 1.5 -13 0.5 6 1.5
9 0 1 0 0 0 1 0 0 0 1 2.5 10.5 1 0.5 1 8.5
9 0 1 0 0 0 1 0 0 0 1 -2.5 10.5 1 0.5 1 8.5
9 0 1 0 0 0 1 0 0 0 1 5 10.5 8.5 2 1 2
9 0 1 0 0 0 1 0 0 0 1 5 -8.5 10.5 2 2 1
9 0 1 0 0 0 1 0 0 0 1 2.5 1.5 -10.5 0.5 8 1
9 0 1 0 0 0 1 0 0 0 1 -4.5 10.5 9 1.5 1 2.5
9 0 1 0 0 0 1 0 0 0 1 -4.5 -9 -10.5 1.5 2.5 1
9 0 1 0 0 0 1 0 0 0 1 -4.5 -9 10.5 1.5 2.5 1
9 0 1 0 0 0 1 0 0 0 1 0.5 14 -5.5 6.5 0.5 1
9 0 1 0 0 0 1 0 0 0 1 0.5 14 5.5 6.5 0.5 1
9 0 1 0 0 0 1 0 0 0 1 0.5 5.5 14 6.5 1 0.5
9 0 1 0 0 0 1 0 0 0 1 0.5 -5.5 -14 6.5 1 0.5
9 0 1 0 0 0 1 0 0 0 1 0.5 -5.5 14 6.5 1 0.5
9 0 1 0 0 0 1 0 0 0 1 0.5 -14 -5.5 6.5 0.5 1
9 0 1 0 0 0 1 0 0 0 1 0.5 -14 5.5 6.5 0.5 1
9 0 1 0 0 0 1 0 0 0 1 5 8 -10.5 2 1.5 1
9 0 1 0 0 0 1 0 0 0 1 5 8 10.5 2 1.5 1
9 0 1 0 0 0 1 0 0 0 1 5 -10.5 -8 2 1 1.5
9 0 1 0 0 0 1 0 0 0 1 5 -10.5 8 2 1 1.5
9 0 1 0 0 0 1 0 0 0 1 0 5.5 -14 6 1 0.5
9 0 1 0 0 0 1 0 0 0 1 -4.5 8 -10.5 1.5 1.5 1
9 0 1 0 0 0 1 0 0 0 1 -4.5 8 10.5 1.5 1.5 1
9 0 1 0 0 0 1 0 0 0 1 -4.5 -10.5 -8 1.5 1 1.5
9 0 1 0 0 0 1 0 0 0 1 0 7 -5.5 2 0.5 2
9 0 1 0 0 0 1 0 0 0 1 0 7 5.5 2 0.5 2
9 0 1 0 0 0 1 0 0 0 1 0 -5.5 -7 2 2 0.5
9 0 1 0 0 0 1 0 0 0 1 0 -5.5 7 2 2 0.5
9 0 1 0 0 0 1 0 0 0 1 -4.5 -11 7 1.5 0.5 2.5
9 0 1 0 0 0 1 0 0 0 1 0.5 12 -9 6.5 0.5 0.5
9 0 1 0 0 0 1 0 0 0 1 0.5 12 9 6.5 0.5 0.5
9 0 1 0 0 0 1 0 0 0 1 0.5 9 12 6.5 0.5 0.5
9 0 1 0 0 0 1 0 0 0 1 0.5 -9 -12 6.5 0.5 0.5
9 0 1 0 0 0 1 0 0 0 1 0.5 -9 12 6.5 0.5 0.5
9 0 1 0 0 0 1 0 0 0 1 0.5 -12 -9 6.5 0.5 0.5
9 0 1 0 0 0 1 0 0 0 1 0.5 -12 9 6.5 0.5 0.5
9 0 1 0 0 0 1 0 0 0 1 5 11 -6 2 0.5 1.5
9 0 1 0 0 0 1 0 0 0 1 4 16 0 2 0.5 1.5
9 0 1 0 0 0 1 0 0 0 1 4 0 -16 2 1.5 0.5
9 0 1 0 0 0 1 0 0 0 1 4 0 16 2 1.5 0.5
9 0 1 0 0 0 1 0 0 0 1 4 -16 0 2 0.5 1.5
9 0 1 0 0 0 1 0 0 0 1 0 11 9 2 0.5 1.5
9 0 1 0 0 0 1 0 0 0 1 0 5 -7 2 1.5 0.5
9 0 1 0 0 0 1 0 0 0 1 0 5 7 2 1.5 0.5
9 0 1 0 0 0 1 0 0 0 1 0 -7 -5 2 0.5 1.5
9 0 1 0 0 0 1 0 0 0 1 0 -7 5 2 0.5 1.5
9 0 1 0 0 0 1 0 0 0 1 0 -11 -9 2 0.5 1.5
9 0 1 0 0 0 1 0 0 0 1 0 -11 9 2 0.5 1.5
9 0 1 0 0 0 1 0 0 0 1 -4 16 0 2 0.5 1.5
9 0 1 0 0 0 1 0 0 0 1 0 10 -11 6 0.5 0.5
9 0 1 0 0 0 1 0 0 0 1 0 9 -12 6 0.5 0.5
9 0 1 0 0 0 1 0 0 0 1 -4 0 -16 2 1.5 0.5
9 0 1 0 0 0 1 0 0 0 1 -4 0 16 2 1.5 0.5
9 0 1 0 0 0 1 0 0 0 1 -4 -16 0 2 0.5 1.5
9 0 1 0 0 0 1 0 0 0 1 6.5 -0.5 -15 0.5 5 0.5
9 0 1 0 0 0 1 0 0 0 1 2.5 8 -8 0.5 1.5 1.5
9 0 1 0 0 0 1 0 0 0 1 2.5 8 8 0.5 1.5 1.5
9 0 1 0 0 0 1 0 0 0 1 2.5 -8 -8 0.5 1.5 1.5
9 0 1 0 0 0 1 0 0 0 1 2.5 -8 8 0.5 1.5 1.5
9 0 1 0 0 0 1 0 0 0 1 -4.5 11 -6 1.5 0.5 1.5
9 0 1 0 0 0 1 0 0 0 1 -4.5 -10 8 1.5 0.5 1.5
9 0 1 0 0 0 1 0 0 0 1 5 11 5.5 2 0.5 1
9 0 1 0 0 0 1 0 0 0 1 5 10 11.5 2 0.5 1
9 0 1 0 0 0 1 0 0 0 1 5 5.5 -11 2 1 0.5
9 0 1 0 0 0 1 0 0 0 1 5 5.5 11 2 1 0.5
9 0 1 0 0 0 1 0 0 0 1 5 -5.5 -11 2 1 0.5
9 0 1 0 0 0 1 0 0 0 1 5 -5.5 11 2 1 0.5
9 0 1 0 0 0 1 0 0 0 1 5 -11 -5.5 2 0.5 1
9 0 1 0 0 0 1 0 0 0 1 5 -11 5.5 2 0.5 1
9 0 1 0 0 0 1 0 0 0 1 5 -11.5 10 2 1 0.5
9 0 1 0 0 0 1 0 0 0 1 4 -11 -10.5 2 0.5 1
9 0 1 0 0 0 1 0 0 0 1 -2.5 8.5 -7.5 0.5 1 2
9 0 1 0 0 0 1 0 0 0 1 -2.5 8.5 7.5 0.5 1 2
9 0 1 0 0 0 1 0 0 0 1 -2.5 -7.5 -8.5 0.5 2 1
9 0 1 0 0 0 1 0 0 0 1 -2.5 -7.5 8.5 0.5 2 1
9 0 1 0 0 0 1 0 0 0 1 -4.5 11 5.5 1.5 0.5 1
9 0 1 0 0 0 1 0 0 0 1 -4.5 5.5 -11 1.5 1 0.5
9 0 1 0 0 0 1 0 0 0 1 -4.5 5.5 11 1.5 1 0.5
9 0 1 0 0 0 1 0 0 0 1 -4.5 -5.5 -11 1.5 1 0.5
9 0 1 0 0 0 1 0 0 0 1 -4.5 -5.5 11 1.5 1 0.5
9 0 1 0 0 0 1 0 0 0 1 -4.5 -11 -5.5 1.5 0.5 1
9 0 1 0 0 0 1 0 0 0 1 4.5 15 -5 2.5 0.5 0.5
9 0 1 0 0 0 1 0 0 0 1 4.5 14 -7 2.5 0.5 0.5
9 0 1 0 0 0 1 0 0 0 1 4.5 14 7 2.5 0.5 0.5
9 0 1 0 0 0 1 0 0 0 1 4.5 12 -10 2.5 0.5 0.5
9 0 1 0 0 0 1 0 0 0 1 4.5 7 14 2.5 0.5 0.5
9 0 1 0 0 0 1 0 0 0 1 4.5 5 15 2.5 0.5 0.5
9 0 1 0 0 0 1 0 0 0 1 4.5 -7 -14 2.5 0.5 0.5
9 0 1 0 0 0 1 0 0 0 1 4.5 -7 14 2.5 0.5 0.5
9 0 1 0 0 0 1 0 0 0 1 4.5 -10 -12 2.5 0.5 0.5
9 0 1 0 0 0 1 0 0 0 1 4.5 -14 -7 2.5 0.5 0.5
9 0 1 0 0 0 1 0 0 0 1 4.5 -14 7 2.5 0.5 0.5
9 0 1 0 0 0 1 0 0 0 1 4.5 -15 5 2.5 0.5 0.5
9 0 1 0 0 0 1 0 0 0 1 -3.5 15 -5 2.5 0.5 0.5
9 0 1 0 0 0 1 0 0 0 1 -3.5 14 -7 2.5 0.5 0.5
9 0 1 0 0 0 1 0 0 0 1 -3.5 14 7 2.5 0.5 0.5
9 0 1 0 0 0 1 0 0 0 1 -3.5 12 -10 2.5 0.5 0.5
9 0 1 0 0 0 1 0 0 0 1 -3.5 10 12 2.5 0.5 0.5
9 0 1 0 0 0 1 0 0 0 1 -3.5 7 -14 2.5 0.5 0.5
9 0 1 0 0 0 1 0 0 0 1 -3.5 7 14 2.5 0.5 0.5
9 0 1 0 0 0 1 0 0 0 1 -3.5 5 15 2.5 0.5 0.5
9 0 1 0 0 0 1 0 0 0 1 -3.5 -5 -15 2.5 0.5 0.5
9 0 1 0 0 0 1 0 0 0 1 -3.5 -7 -14 2.5 0.5 0.5
9 0 1 0 0 0 1 0 0 0 1 -3.5 -7 14 2.5 0.5 0.5
9 0 1 0 0 0 1 0 0 0 1 -3.5 -10 -12 2.5 0.5 0.5
9 0 1 0 0 0 1 0 0 0 1 -3.5 -12 10 2.5 0.5 0.5
9 0 1 0 0 0 1 0 0 0 1 -3.5 -14 -7 2.5 0.5 0.5
9 0 1 0 0 0 1 0 0 0 1 -3.5 -14 7 2.5 0.5 0.5
9 0 1 0 0 0 1 0 0 0 1 -3.5 -15 5 2.5 0.5 0.5
9 0 1 0 0 0 1 0 0 0 1 5 10 -7 2 0.5 0.5
9 0 1 0 0 0 1 0 0 0 1 5 9 -9 2 0.5 0.5
9 0 1 0 0 0 1 0 0 0 1 5 9 9 2 0.5 0.5
9 0 1 0 0 0 1 0 0 0 1 5 -9 -9 2 0.5 0.5
9 0 1 0 0 0 1 0 0 0 1 5 -9 9 2 0.5 0.5
9 0 1 0 0 0 1 0 0 0 1 4 15 5 2 0.5 0.5
9 0 1 0 0 0 1 0 0 0 1 4 12 10 2 0.5 0.5
9 0 1 0 0 0 1 0 0 0 1 4 11 -11 2 0.5 0.5
9 0 1 0 0 0 1 0 0 0 1 4 11 11 2 0.5 0.5
9 0 1 0 0 0 1 0 0 0 1 4 10 -12 2 0.5 0.5
9 0 1 0 0 0 1 0 0 0 1 4 7 -14 2 0.5 0.5
9 0 1 0 0 0 1 0 0 0 1 4 5 -15 2 0.5 0.5
9 0 1 0 0 0 1 0 0 0 1 4 -5 -15 2 0.5 0.5
9 0 1 0 0 0 1 0 0 0 1 4 -5 15 2 0.5 0.5
9 0 1 0 0 0 1 0 0 0 1 4 -10 12 2 0.5 0.5
9 0 1 0 0 0 1 0 0 0 1 4 -12 -10 2 0.5 0.5
9 0 1 0 0 0 1 0 0 0 1 4 -15 -5 2 0.5 0.5
9 0 1 0 0 0 1 0 0 0 1 0 6 -6 2 0.5 0.5
9 0 1 0 0 0 1 0 0 0 1 0 6 6 2 0.5 0.5
9 0 1 0 0 0 1 0 0 0 1 0 -6 -6 2 0.5 0.5
9 0 1 0 0 0 1 0 0 0 1 0 -6 6 2 0.5 0.5
9 0 1 0 0 0 1 0 0 0 1 -2.5 6.5 -8.5 0.5 1 1
9 0 1 0 0 0 1 0 0 0 1 -2.5 6.5 8.5 0.5 1 1
9 0 1 0 0 0 1 0 0 0 1 -2.5 -8.5 -6.5 0.5 1 1
9 0 1 0 0 0 1 0 0 0 1 -2.5 -8.5 6.5 0.5 1 1
9 0 1 0 0 0 1 0 0 0 1 -4 9 -8.5 1 0.5 1
9 0 1 0 0 0 1 0 0 0 1 -4 8.5 9 1 1 0.5
9 0 1 0 0 0 1 0 0 0 1 -4 -8.5 -9 1 1 0.5
9 0 1 0 0 0 1 0 0 0 1 -4 -9 8.5 1 0.5 1
9 0 1 0 0 0 1 0 0 0 1 -4 15 5 2 0.5 0.5
9 0 1 0 0 0 1 0 0 0 1 -4 12 10 2 0.5 0.5
9 0 1 0 0 0 1 0 0 0 1 -4 11 -11 2 0.5 0.5
9 0 1 0 0 0 1 0 0 0 1 -4 10 -12 2 0.5 0.5
9 0 1 0 0 0 1 0 0 0 1 -4 5 -15 2 0.5 0.5
9 0 1 0 0 0 1 0 0 0 1 -4 -5 15 2 0.5 0.5
9 0 1 0 0 0 1 0 0 0 1 -4 -10 12 2 0.5 0.5
9 0 1 0 0 0 1 0 0 0 1 -4 -12 -10 2 0.5 0.5
9 0 1 0 0 0 1 0 0 0 1 -4 -15 -5 2 0.5 0.5
9 0 1 0 0 0 1 0 0 0 1 4.5 -11 11 1.5 0.5 0.5
9 0 1 0 0 0 1 0 0 0 1 2.5 9 -5 0.5 0.5 1.5
9 0 1 0 0 0 1 0 0 0 1 2.5 9 5 0.5 0.5 1.5
9 0 1 0 0 0 1 0 0 0 1 2.5 5 -9 0.5 1.5 0.5
9 0 1 0 0 0 1 0 0 0 1 2.5 5 9 0.5 1.5 0.5
9 0 1 0 0 0 1 0 0 0 1 2.5 -5 -9 0.5 1.5 0.5
9 0 1 0 0 0 1 0 0 0 1 2.5 -5 9 0.5 1.5 0.5
9 0 1 0 0 0 1 0 0 0 1 2.5 -9 -5 0.5 0.5 1.5
9 0 1 0 0 0 1 0 0 0 1 2.5 -9 5 0.5 0.5 1.5
9 0 1 0 0 0 1 0 0 0 1 -4.5 10 -7 1.5 0.5 0.5
