9 0 1 0 0 0 1 0 0 0 1 172 44 65.89999 0.5 51.5 41
9 0 1 0 0 0 1 0 0 0 1 -172 44 65.89999 0.5 51.5 41
9 0 1 0 0 0 1 0 0 0 1 0 -2 146.4 165.5 5.5 0.5
9 0 1 0 0 0 1 0 0 0 1 180 102.5 -5.100006 0.5 55 13
9 0 1 0 0 0 1 0 0 0 1 -180 102.5 -5.100006 0.5 55 13
9 0 1 0 0 0 1 0 0 0 1 0 151 26.89999 188.5 0.5 3
9 0 1 0 0 0 1 0 0 0 1 0 149.5 30.39999 180.5 1 1.5
9 0 1 0 0 0 1 0 0 0 1 -0.5 8.5 145.4 173 2 0.5
9 0 1 0 0 0 1 0 0 0 1 172 111 52.39999 0.5 15.5 21.5
9 0 1 0 0 0 1 0 0 0 1 -172 111 52.39999 0.5 15.5 21.5
9 0 1 0 0 0 1 0 0 0 1 0 -5.5 147.4 165.5 2 0.5
9 0 1 0 0 0 1 0 0 0 1 172 36 17.39999 0.5 43.5 7.5
9 0 1 0 0 0 1 0 0 0 1 -172 36 17.39999 0.5 43.5 7.5
9 0 1 0 0 0 1 0 0 0 1 0 163 -6.600006 188.5 0.5 1.5
9 0 1 0 0 0 1 0 0 0 1 0 162 -4.600006 188.5 0.5 1.5
9 0 1 0 0 0 1 0 0 0 1 0 161 -1.600006 188.5 0.5 1.5
9 0 1 0 0 0 1 0 0 0 1 172 27 120.4 0.5 37.5 7.5
9 0 1 0 0 0 1 0 0 0 1 -172 27 120.4 0.5 37.5 7.5
9 0 1 0 0 0 1 0 0 0 1 0 160 0.3999939 180.5 0.5 1.5
9 0 1 0 0 0 1 0 0 0 1 70 176 -15.60001 25.5 10.5 0.5
9 0 1 0 0 0 1 0 0 0 1 -70.5 176 -15.60001 25 10.5 0.5
9 0 1 0 0 0 1 0 0 0 1 0 181 -26.60001 24.5 10.5 0.5
9 0 1 0 0 0 1 0 0 0 1 141 173.5 -7.600006 25.5 10 0.5
9 0 1 0 0 0 1 0 0 0 1 -141 173.5 -7.600006 25.5 10 0.5
9 0 1 0 0 0 1 0 0 0 1 0 164 -9.100006 115.5 0.5 2
9 0 1 0 0 0 1 0 0 0 1 0 159 2.899994 188.5 0.5 1
9 0 1 0 0 0 1 0 0 0 1 -4 158 5.899994 184.5 0.5 1
9 0 1 0 0 0 1 0 0 0 1 -4 150 27.89999 184.5 0.5 1
9 0 1 0 0 0 1 0 0 0 1 -4 148.5 32.39999 184.5 1 0.5
9 0 1 0 0 0 1 0 0 0 1 0 166 -13.60001 117.5 0.5 1.5
9 0 1 0 0 0 1 0 0 0 1 0 165 -11.60001 117.5 0.5 1.5
9 0 1 0 0 0 1 0 0 0 1 11 25.5 141.4 162.5 1 0.5
9 0 1 0 0 0 1 0 0 0 1 180 56.5 -24.10001 0.5 26 6
9 0 1 0 0 0 1 0 0 0 1 -180 56.5 -24.10001 0.5 26 6
9 0 1 0 0 0 1 0 0 0 1 175.5 -7 59.39999 3 0.5 50.5
9 0 1 0 0 0 1 0 0 0 1 0 18.5 143.4 151.5 1 0.5
9 0 1 0 0 0 1 0 0 0 1 0 14.5 144.4 151.5 1 0.5
9 0 1 0 0 0 1 0 0 0 1 -175.5 -7 59.39999 3 0.5 50.5
9 0 1 0 0 0 1 0 0 0 1 173.5 -1 120.4 1 9.5 7.5
9 0 1 0 0 0 1 0 0 0 1 -173.5 -1 120.4 1 9.5 7.5
9 0 1 0 0 0 1 0 0 0 1 180 131.5 14.39999 0.5 21 6.5
9 0 1 0 0 0 1 0 0 0 1 -180 131.5 14.39999 0.5 21 6.5
9 0 1 0 0 0 1 0 0 0 1 187.5 166 8.899994 1 6.5 9
9 0 1 0 0 0 1 0 0 0 1 -187.5 166 8.899994 1 6.5 9
9 0 1 0 0 0 1 0 0 0 1 -172 11.5 136.9 0.5 19 6
9 0 1 0 0 0 1 0 0 0 1 45.5 173 -6.600006 1 6.5 8.5
9 0 1 0 0 0 1 0 0 0 1 -45.5 173 -6.600006 1 6.5 8.5
9 0 1 0 0 0 1 0 0 0 1 116.5 169 2.899994 1 5.5 10
9 0 1 0 0 0 1 0 0 0 1 -116.5 169 2.899994 1 5.5 10
9 0 1 0 0 0 1 0 0 0 1 172 50 109.9 0.5 35.5 3
9 0 1 0 0 0 1 0 0 0 1 -172 50 109.9 0.5 35.5 3
9 0 1 0 0 0 1 0 0 0 1 172 7.5 137.9 0.5 15 7
9 0 1 0 0 0 1 0 0 0 1 45 183.5 -25.60001 1.5 5 6.5
9 0 1 0 0 0 1 0 0 0 1 -45 183.5 -25.60001 1.5 5 6.5
9 0 1 0 0 0 1 0 0 0 1 0 157 8.399994 188.5 0.5 0.5
9 0 1 0 0 0 1 0 0 0 1 0 156 10.39999 188.5 0.5 0.5
9 0 1 0 0 0 1 0 0 0 1 0 155 13.39999 188.5 0.5 0.5
9 0 1 0 0 0 1 0 0 0 1 0 170.5 -24.10001 46.5 1 1
9 0 1 0 0 0 1 0 0 0 1 0 169.5 -22.10001 46.5 1 1
9 0 1 0 0 0 1 0 0 0 1 0 168 -18.10001 46.5 0.5 2
9 0 1 0 0 0 1 0 0 0 1 0 148 31.39999 180.5 0.5 0.5
9 0 1 0 0 0 1 0 0 0 1 116 178.5 -14.10001 1.5 5 6
9 0 1 0 0 0 1 0 0 0 1 -116 178.5 -14.10001 1.5 5 6
9 0 1 0 0 0 1 0 0 0 1 0 167 -16.10001 44.5 0.5 2
9 0 1 0 0 0 1 0 0 0 1 0 139 49.39999 173.5 0.5 0.5
9 0 1 0 0 0 1 0 0 0 1 11 35 138.4 162.5 0.5 0.5
9 0 1 0 0 0 1 0 0 0 1 0 68 123.4 151.5 0.5 0.5
9 0 1 0 0 0 1 0 0 0 1 0 43 135.4 151.5 0.5 0.5
9 0 1 0 0 0 1 0 0 0 1 0 29 140.4 151.5 0.5 0.5
9 0 1 0 0 0 1 0 0 0 1 0 22 142.4 151.5 0.5 0.5
9 0 1 0 0 0 1 0 0 0 1 172 132 44.39999 0.5 5.5 13.5
9 0 1 0 0 0 1 0 0 0 1 -172 132 44.39999 0.5 5.5 13.5
9 0 1 0 0 0 1 0 0 0 1 180 29 -14.10001 0.5 18.5 4
9 0 1 0 0 0 1 0 0 0 1 -180 29 -14.10001 0.5 18.5 4
9 0 1 0 0 0 1 0 0 0 1 26.5 146 35.39999 146 0.5 0.5
9 0 1 0 0 0 1 0 0 0 1 172 104 82.39999 0.5 8.5 8.5
9 0 1 0 0 0 1 0 0 0 1 -172 104 82.39999 0.5 8.5 8.5
9 0 1 0 0 0 1 0 0 0 1 187 174.5 -4.100006 1.5 6 4
9 0 1 0 0 0 1 0 0 0 1 -187 174.5 -4.100006 1.5 6 4
9 0 1 0 0 0 1 0 0 0 1 95 180 -24.60001 0.5 7.5 8.5
9 0 1 0 0 0 1 0 0 0 1 24 185 -36.60001 0.5 7.5 8.5
9 0 1 0 0 0 1 0 0 0 1 -24 185 -36.60001 0.5 7.5 8.5
9 0 1 0 0 0 1 0 0 0 1 -95 180 -24.60001 0.5 7.5 8.5
9 0 1 0 0 0 1 0 0 0 1 177 188 -36.60001 11.5 5.5 0.5
9 0 1 0 0 0 1 0 0 0 1 35 198 -60.60001 11.5 5.5 0.5
9 0 1 0 0 0 1 0 0 0 1 -35 198 -60.60001 11.5 5.5 0.5
9 0 1 0 0 0 1 0 0 0 1 -177 188 -36.60001 11.5 5.5 0.5
9 0 1 0 0 0 1 0 0 0 1 0 163 -8.600006 117.5 0.5 0.5
9 0 1 0 0 0 1 0 0 0 1 106 193.5 -49.60001 11.5 5 0.5
9 0 1 0 0 0 1 0 0 0 1 -106 193.5 -49.60001 11.5 5 0.5
9 0 1 0 0 0 1 0 0 0 1 61 144 39.39999 113.5 0.5 0.5
9 0 1 0 0 0 1 0 0 0 1 172 33.5 132.9 0.5 11 5
9 0 1 0 0 0 1 0 0 0 1 188 176.5 -15.60001 0.5 7 7.5
9 0 1 0 0 0 1 0 0 0 1 166 176.5 -15.60001 0.5 7 7.5
9 0 1 0 0 0 1 0 0 0 1 -166 176.5 -15.60001 0.5 7 7.5
9 0 1 0 0 0 1 0 0 0 1 -188 176.5 -15.60001 0.5 7 7.5
9 0 1 0 0 0 1 0 0 0 1 172 108 26.89999 0.5 12.5 4
9 0 1 0 0 0 1 0 0 0 1 -172 108 26.89999 0.5 12.5 4
9 0 1 0 0 0 1 0 0 0 1 -53 141 45.39999 98.5 0.5 0.5
9 0 1 0 0 0 1 0 0 0 1 46 166.5 8.899994 0.5 7 7
9 0 1 0 0 0 1 0 0 0 1 -46 166.5 8.899994 0.5 7 7
9 0 1 0 0 0 1 0 0 0 1 175.5 58.5 7.399994 4 12 0.5
9 0 1 0 0 0 1 0 0 0 1 169.5 5.5 146.9 4 6 1
9 0 1 0 0 0 1 0 0 0 1 -169.5 5.5 146.9 4 6 1
9 0 1 0 0 0 1 0 0 0 1 -175.5 58.5 7.399994 4 12 0.5
9 0 1 0 0 0 1 0 0 0 1 0 169 -20.10001 46.5 0.5 1
9 0 1 0 0 0 1 0 0 0 1 180 97 -21.10001 0.5 14.5 3
9 0 1 0 0 0 1 0 0 0 1 -180 97 -21.10001 0.5 14.5 3
9 0 1 0 0 0 1 0 0 0 1 94.5 142 43.39999 80 0.5 0.5
9 0 1 0 0 0 1 0 0 0 1 -173 21 138.9 0.5 9.5 4
9 0 1 0 0 0 1 0 0 0 1 172 87.5 20.39999 0.5 8 4.5
9 0 1 0 0 0 1 0 0 0 1 -172 87.5 20.39999 0.5 8 4.5
9 0 1 0 0 0 1 0 0 0 1 -172 39.5 131.9 0.5 9 4
9 0 1 0 0 0 1 0 0 0 1 -172.5 140.5 40.89999 1 3 6
9 0 1 0 0 0 1 0 0 0 1 177 167.5 -17.60001 11.5 1 1.5
9 0 1 0 0 0 1 0 0 0 1 106 170.5 -24.60001 11.5 1 1.5
9 0 1 0 0 0 1 0 0 0 1 35 176.5 -38.60001 11.5 1 1.5
9 0 1 0 0 0 1 0 0 0 1 -35 176.5 -38.60001 11.5 1 1.5
9 0 1 0 0 0 1 0 0 0 1 -106 170.5 -24.60001 11.5 1 1.5
9 0 1 0 0 0 1 0 0 0 1 -177 167.5 -17.60001 11.5 1 1.5
9 0 1 0 0 0 1 0 0 0 1 180 101 11.39999 0.5 9.5 3.5
9 0 1 0 0 0 1 0 0 0 1 -180 101 11.39999 0.5 9.5 3.5
9 0 1 0 0 0 1 0 0 0 1 106.5 173.5 -31.60001 11 1 1.5
9 0 1 0 0 0 1 0 0 0 1 35.5 178.5 -43.60001 11 1 1.5
9 0 1 0 0 0 1 0 0 0 1 -35.5 178.5 -43.60001 11 1 1.5
9 0 1 0 0 0 1 0 0 0 1 -106.5 173.5 -31.60001 11 1 1.5
9 0 1 0 0 0 1 0 0 0 1 -86.5 143 41.39999 65 0.5 0.5
9 0 1 0 0 0 1 0 0 0 1 180 140 23.89999 0.5 10.5 3
9 0 1 0 0 0 1 0 0 0 1 173 22 137.9 0.5 10.5 3
9 0 1 0 0 0 1 0 0 0 1 -180 140 23.89999 0.5 10.5 3
9 0 1 0 0 0 1 0 0 0 1 181 135 -15.60001 0.5 12.5 2.5
9 0 1 0 0 0 1 0 0 0 1 -181 135 -15.60001 0.5 12.5 2.5
9 0 1 0 0 0 1 0 0 0 1 95 189 -39.60001 0.5 5.5 5.5
9 0 1 0 0 0 1 0 0 0 1 -95 189 -39.60001 0.5 5.5 5.5
9 0 1 0 0 0 1 0 0 0 1 168.5 -1.5 148.4 5 6 0.5
9 0 1 0 0 0 1 0 0 0 1 -168.5 -1.5 148.4 5 6 0.5
9 0 1 0 0 0 1 0 0 0 1 24 195 -52.60001 0.5 4.5 6.5
9 0 1 0 0 0 1 0 0 0 1 -24 195 -52.60001 0.5 4.5 6.5
9 0 1 0 0 0 1 0 0 0 1 106 172 -28.60001 11.5 0.5 2.5
9 0 1 0 0 0 1 0 0 0 1 106 168 -18.60001 11.5 0.5 2.5
9 0 1 0 0 0 1 0 0 0 1 35 174 -32.60001 11.5 0.5 2.5
9 0 1 0 0 0 1 0 0 0 1 -35 174 -32.60001 11.5 0.5 2.5
9 0 1 0 0 0 1 0 0 0 1 -106 168 -18.60001 11.5 0.5 2.5
9 0 1 0 0 0 1 0 0 0 1 187.5 159.5 19.89999 1 7 2
9 0 1 0 0 0 1 0 0 0 1 176 177.5 -10.60001 3.5 8 0.5
9 0 1 0 0 0 1 0 0 0 1 172.5 139.5 41.89999 1 2 7
9 0 1 0 0 0 1 0 0 0 1 116.5 170 -12.10001 1 3.5 4
9 0 1 0 0 0 1 0 0 0 1 45.5 174.5 -19.60001 1 4 3.5
9 0 1 0 0 0 1 0 0 0 1 -45.5 174.5 -19.60001 1 4 3.5
9 0 1 0 0 0 1 0 0 0 1 -116.5 170 -12.10001 1 3.5 4
9 0 1 0 0 0 1 0 0 0 1 -176 177.5 -10.60001 3.5 8 0.5
9 0 1 0 0 0 1 0 0 0 1 -187.5 159.5 19.89999 1 7 2
9 0 1 0 0 0 1 0 0 0 1 188 184.5 -28.60001 0.5 5 5.5
9 0 1 0 0 0 1 0 0 0 1 177.5 164 -9.600006 11 0.5 2.5
9 0 1 0 0 0 1 0 0 0 1 166 184.5 -28.60001 0.5 5 5.5
9 0 1 0 0 0 1 0 0 0 1 -166 184.5 -28.60001 0.5 5 5.5
9 0 1 0 0 0 1 0 0 0 1 -188 184.5 -28.60001 0.5 5 5.5
9 0 1 0 0 0 1 0 0 0 1 -177.5 164 -9.600006 11 0.5 2.5
9 0 1 0 0 0 1 0 0 0 1 166 173 -3.100006 0.5 6.5 4
9 0 1 0 0 0 1 0 0 0 1 -166 173 -3.100006 0.5 6.5 4
9 0 1 0 0 0 1 0 0 0 1 141.5 169 -21.60001 17 0.5 1.5
9 0 1 0 0 0 1 0 0 0 1 141.5 168 -19.60001 17 0.5 1.5
9 0 1 0 0 0 1 0 0 0 1 70.5 173 -30.60001 17 0.5 1.5
9 0 1 0 0 0 1 0 0 0 1 70.5 172 -28.60001 17 0.5 1.5
9 0 1 0 0 0 1 0 0 0 1 70.5 171 -26.60001 17 0.5 1.5
9 0 1 0 0 0 1 0 0 0 1 70.5 170 -24.60001 17 0.5 1.5
9 0 1 0 0 0 1 0 0 0 1 100.5 38 137.4 51 0.5 0.5
9 0 1 0 0 0 1 0 0 0 1 -70.5 173 -30.60001 17 0.5 1.5
9 0 1 0 0 0 1 0 0 0 1 -70.5 172 -28.60001 17 0.5 1.5
9 0 1 0 0 0 1 0 0 0 1 -70.5 171 -26.60001 17 0.5 1.5
9 0 1 0 0 0 1 0 0 0 1 -70.5 170 -24.60001 17 0.5 1.5
9 0 1 0 0 0 1 0 0 0 1 -141.5 169 -21.60001 17 0.5 1.5
9 0 1 0 0 0 1 0 0 0 1 -141.5 168 -19.60001 17 0.5 1.5
9 0 1 0 0 0 1 0 0 0 1 -168.5 20 143.9 5 2.5 1
9 0 1 0 0 0 1 0 0 0 1 0 178 -41.60001 16.5 0.5 1.5
9 0 1 0 0 0 1 0 0 0 1 0 177 -39.60001 16.5 0.5 1.5
9 0 1 0 0 0 1 0 0 0 1 0 176 -37.60001 16.5 0.5 1.5
9 0 1 0 0 0 1 0 0 0 1 0 175 -35.60001 16.5 0.5 1.5
9 0 1 0 0 0 1 0 0 0 1 0 174 -33.60001 16.5 0.5 1.5
9 0 1 0 0 0 1 0 0 0 1 0 173 -31.60001 16.5 0.5 1.5
9 0 1 0 0 0 1 0 0 0 1 117 160 15.89999 0.5 3.5 7
9 0 1 0 0 0 1 0 0 0 1 -117 160 15.89999 0.5 3.5 7
9 0 1 0 0 0 1 0 0 0 1 172.5 75.5 115.9 1 4 3
9 0 1 0 0 0 1 0 0 0 1 -167.5 27.5 141.9 4 3 1
9 0 1 0 0 0 1 0 0 0 1 -172 70.5 116.9 0.5 6 4
9 0 1 0 0 0 1 0 0 0 1 0 171 -25.60001 46.5 0.5 0.5
9 0 1 0 0 0 1 0 0 0 1 177 188 -39.10001 11.5 0.5 2
9 0 1 0 0 0 1 0 0 0 1 177 168.5 -20.10001 11.5 1 1
9 0 1 0 0 0 1 0 0 0 1 177 166.5 -15.10001 11.5 1 1
9 0 1 0 0 0 1 0 0 0 1 177 165.5 -13.10001 11.5 1 1
9 0 1 0 0 0 1 0 0 0 1 106 169.5 -22.10001 11.5 1 1
9 0 1 0 0 0 1 0 0 0 1 35 175.5 -36.10001 11.5 1 1
9 0 1 0 0 0 1 0 0 0 1 35 173 -30.10001 11.5 0.5 2
9 0 1 0 0 0 1 0 0 0 1 -35 175.5 -36.10001 11.5 1 1
9 0 1 0 0 0 1 0 0 0 1 -35 173 -30.10001 11.5 0.5 2
9 0 1 0 0 0 1 0 0 0 1 -106 172 -28.10001 11.5 0.5 2
9 0 1 0 0 0 1 0 0 0 1 -106 169.5 -22.10001 11.5 1 1
9 0 1 0 0 0 1 0 0 0 1 -177 168.5 -20.10001 11.5 1 1
9 0 1 0 0 0 1 0 0 0 1 -177 166.5 -15.10001 11.5 1 1
9 0 1 0 0 0 1 0 0 0 1 -177 165.5 -13.10001 11.5 1 1
9 0 1 0 0 0 1 0 0 0 1 187 175 2.899994 1.5 2.5 3
9 0 1 0 0 0 1 0 0 0 1 180 25.5 -22.60001 0.5 5 4.5
9 0 1 0 0 0 1 0 0 0 1 172.5 129 62.39999 1 2.5 4.5
9 0 1 0 0 0 1 0 0 0 1 172.5 102 94.39999 1 4.5 2.5
9 0 1 0 0 0 1 0 0 0 1 116.5 177 -2.600006 1 2.5 4.5
9 0 1 0 0 0 1 0 0 0 1 34.5 188 -34.60001 3 7.5 0.5
9 0 1 0 0 0 1 0 0 0 1 -34.5 188 -34.60001 3 7.5 0.5
9 0 1 0 0 0 1 0 0 0 1 -0.5 166 -15.60001 45 0.5 0.5
9 0 1 0 0 0 1 0 0 0 1 -116.5 177 -2.600006 1 2.5 4.5
9 0 1 0 0 0 1 0 0 0 1 -172.5 129 62.39999 1 2.5 4.5
9 0 1 0 0 0 1 0 0 0 1 -180 25.5 -22.60001 0.5 5 4.5
9 0 1 0 0 0 1 0 0 0 1 -187 175 2.899994 1.5 2.5 3
9 0 1 0 0 0 1 0 0 0 1 169 143.5 42.89999 5.5 1 2
9 0 1 0 0 0 1 0 0 0 1 106.5 193 -52.10001 11 0.5 2
9 0 1 0 0 0 1 0 0 0 1 35.5 198 -63.10001 11 0.5 2
9 0 1 0 0 0 1 0 0 0 1 35.5 177.5 -41.10001 11 1 1
9 0 1 0 0 0 1 0 0 0 1 35.5 172 -28.10001 11 0.5 2
9 0 1 0 0 0 1 0 0 0 1 -35.5 198 -63.10001 11 0.5 2
9 0 1 0 0 0 1 0 0 0 1 -35.5 177.5 -41.10001 11 1 1
9 0 1 0 0 0 1 0 0 0 1 -35.5 172 -28.10001 11 0.5 2
9 0 1 0 0 0 1 0 0 0 1 -106.5 193 -52.10001 11 0.5 2
9 0 1 0 0 0 1 0 0 0 1 -177.5 188 -39.10001 11 0.5 2
9 0 1 0 0 0 1 0 0 0 1 108 48 133.4 43.5 0.5 0.5
9 0 1 0 0 0 1 0 0 0 1 6 48 133.4 43.5 0.5 0.5
9 0 1 0 0 0 1 0 0 0 1 -96 48 133.4 43.5 0.5 0.5
9 0 1 0 0 0 1 0 0 0 1 -172.5 101 94.89999 1 3.5 3
9 0 1 0 0 0 1 0 0 0 1 173 135 49.89999 0.5 2.5 8
9 0 1 0 0 0 1 0 0 0 1 168.5 26.5 142.4 5 4 0.5
9 0 1 0 0 0 1 0 0 0 1 167.5 20 143.9 4 2.5 1
9 0 1 0 0 0 1 0 0 0 1 105.5 167 -16.10001 10 0.5 2
9 0 1 0 0 0 1 0 0 0 1 -105.5 167 -16.10001 10 0.5 2
9 0 1 0 0 0 1 0 0 0 1 -168.5 140.5 48.89999 5 1 2
9 0 1 0 0 0 1 0 0 0 1 -173 135 49.89999 0.5 2.5 8
9 0 1 0 0 0 1 0 0 0 1 -168.5 42.5 136.9 5 2 1
9 0 1 0 0 0 1 0 0 0 1 -168.5 36.5 138.9 5 2 1
9 0 1 0 0 0 1 0 0 0 1 46 159 19.39999 0.5 5.5 3.5
9 0 1 0 0 0 1 0 0 0 1 -46 159 19.39999 0.5 5.5 3.5
9 0 1 0 0 0 1 0 0 0 1 105 183 -23.60001 2.5 7.5 0.5
9 0 1 0 0 0 1 0 0 0 1 -105 183 -23.60001 2.5 7.5 0.5
9 0 1 0 0 0 1 0 0 0 1 0 168 -20.60001 36.5 0.5 0.5
9 0 1 0 0 0 1 0 0 0 1 172 68 117.9 0.5 3.5 5
9 0 1 0 0 0 1 0 0 0 1 168 42 136.9 3.5 2.5 1
9 0 1 0 0 0 1 0 0 0 1 115 181.5 -20.60001 2.5 7 0.5
9 0 1 0 0 0 1 0 0 0 1 -115 181.5 -20.60001 2.5 7 0.5
9 0 1 0 0 0 1 0 0 0 1 106 176 -35.60001 11.5 0.5 1.5
9 0 1 0 0 0 1 0 0 0 1 -106 176 -35.60001 11.5 0.5 1.5
9 0 1 0 0 0 1 0 0 0 1 141.5 170 -23.10001 17 0.5 1
9 0 1 0 0 0 1 0 0 0 1 141.5 167 -17.10001 17 0.5 1
9 0 1 0 0 0 1 0 0 0 1 141.5 166 -15.10001 17 0.5 1
9 0 1 0 0 0 1 0 0 0 1 141.5 165 -13.10001 17 0.5 1
9 0 1 0 0 0 1 0 0 0 1 70.5 194.5 -54.60001 17 1 0.5
9 0 1 0 0 0 1 0 0 0 1 70.5 174 -32.10001 17 0.5 1
9 0 1 0 0 0 1 0 0 0 1 70.5 169 -22.10001 17 0.5 1
9 0 1 0 0 0 1 0 0 0 1 70.5 168 -20.10001 17 0.5 1
9 0 1 0 0 0 1 0 0 0 1 -70.5 194.5 -54.60001 17 1 0.5
9 0 1 0 0 0 1 0 0 0 1 -70.5 174 -32.10001 17 0.5 1
9 0 1 0 0 0 1 0 0 0 1 -70.5 169 -22.10001 17 0.5 1
9 0 1 0 0 0 1 0 0 0 1 -70.5 168 -20.10001 17 0.5 1
9 0 1 0 0 0 1 0 0 0 1 -141.5 170 -23.10001 17 0.5 1
9 0 1 0 0 0 1 0 0 0 1 -141.5 167 -17.10001 17 0.5 1
9 0 1 0 0 0 1 0 0 0 1 -141.5 166 -15.10001 17 0.5 1
9 0 1 0 0 0 1 0 0 0 1 -141.5 165 -13.10001 17 0.5 1
9 0 1 0 0 0 1 0 0 0 1 172 3.5 108.4 0.5 11 1.5
9 0 1 0 0 0 1 0 0 0 1 35.5 180 -45.60001 11 0.5 1.5
9 0 1 0 0 0 1 0 0 0 1 0 180 -45.10001 16.5 0.5 1
9 0 1 0 0 0 1 0 0 0 1 0 179 -43.10001 16.5 0.5 1
9 0 1 0 0 0 1 0 0 0 1 -35.5 180 -45.60001 11 0.5 1.5
9 0 1 0 0 0 1 0 0 0 1 -172 3.5 108.4 0.5 11 1.5
9 0 1 0 0 0 1 0 0 0 1 -169 144.5 40.39999 5.5 1 1.5
9 0 1 0 0 0 1 0 0 0 1 25 185 -29.60001 0.5 6.5 2.5
9 0 1 0 0 0 1 0 0 0 1 -25 185 -29.60001 0.5 6.5 2.5
9 0 1 0 0 0 1 0 0 0 1 167.5 141.5 46.89999 4 1 2
9 0 1 0 0 0 1 0 0 0 1 45.5 181.5 -11.10001 1 2 4
9 0 1 0 0 0 1 0 0 0 1 -45.5 181.5 -11.10001 1 2 4
9 0 1 0 0 0 1 0 0 0 1 -167.5 142.5 44.89999 4 1 2
9 0 1 0 0 0 1 0 0 0 1 -120 145 37.39999 31.5 0.5 0.5
9 0 1 0 0 0 1 0 0 0 1 180 159.5 -10.60001 0.5 2 7.5
9 0 1 0 0 0 1 0 0 0 1 172 115.5 78.89999 0.5 3 5
9 0 1 0 0 0 1 0 0 0 1 168.5 134.5 59.39999 5 1 1.5
9 0 1 0 0 0 1 0 0 0 1 168.5 132.5 62.39999 5 1 1.5
9 0 1 0 0 0 1 0 0 0 1 168.5 122.5 76.39999 5 1 1.5
9 0 1 0 0 0 1 0 0 0 1 168.5 58 129.9 5 1.5 1
9 0 1 0 0 0 1 0 0 0 1 168.5 54 131.9 5 1.5 1
9 0 1 0 0 0 1 0 0 0 1 168.5 38.5 138.4 5 3 0.5
9 0 1 0 0 0 1 0 0 0 1 168.5 35.5 139.4 5 3 0.5
9 0 1 0 0 0 1 0 0 0 1 96.5 181 -20.10001 1 7.5 1
9 0 1 0 0 0 1 0 0 0 1 -96.5 181 -20.10001 1 7.5 1
9 0 1 0 0 0 1 0 0 0 1 -172 115.5 78.89999 0.5 3 5
9 0 1 0 0 0 1 0 0 0 1 -168.5 134.5 59.39999 5 1 1.5
9 0 1 0 0 0 1 0 0 0 1 -168.5 132.5 62.39999 5 1 1.5
9 0 1 0 0 0 1 0 0 0 1 -168.5 122.5 76.39999 5 1 1.5
9 0 1 0 0 0 1 0 0 0 1 -168.5 58 129.9 5 1.5 1
9 0 1 0 0 0 1 0 0 0 1 -168.5 54 131.9 5 1.5 1
9 0 1 0 0 0 1 0 0 0 1 -180 159.5 -10.60001 0.5 2 7.5
9 0 1 0 0 0 1 0 0 0 1 81.5 140 47.39999 29 0.5 0.5
9 0 1 0 0 0 1 0 0 0 1 -20.5 140 47.39999 29 0.5 0.5
9 0 1 0 0 0 1 0 0 0 1 -122.5 140 47.39999 29 0.5 0.5
9 0 1 0 0 0 1 0 0 0 1 187.5 158.5 10.89999 1 1 7
9 0 1 0 0 0 1 0 0 0 1 173 15.5 142.9 0.5 7 2
9 0 1 0 0 0 1 0 0 0 1 172 59.5 8.899994 0.5 14 1
9 0 1 0 0 0 1 0 0 0 1 116.5 161.5 5.399994 1 2 3.5
9 0 1 0 0 0 1 0 0 0 1 45.5 164.5 -1.600006 1 2 3.5
9 0 1 0 0 0 1 0 0 0 1 -45.5 164.5 -1.600006 1 2 3.5
9 0 1 0 0 0 1 0 0 0 1 -116.5 161.5 5.399994 1 2 3.5
9 0 1 0 0 0 1 0 0 0 1 -172 59.5 8.899994 0.5 14 1
9 0 1 0 0 0 1 0 0 0 1 -187.5 157.5 14.39999 1 2 3.5
9 0 1 0 0 0 1 0 0 0 1 169 145 39.39999 5.5 0.5 2.5
9 0 1 0 0 0 1 0 0 0 1 185.5 168 4.399994 1 4.5 1.5
9 0 1 0 0 0 1 0 0 0 1 180.5 116 -19.60001 1 4.5 1.5
9 0 1 0 0 0 1 0 0 0 1 173 85 108.9 0.5 4.5 3
9 0 1 0 0 0 1 0 0 0 1 169 109 91.89999 4.5 1.5 1
9 0 1 0 0 0 1 0 0 0 1 168 47 134.9 4.5 1.5 1
9 0 1 0 0 0 1 0 0 0 1 116 185 -17.10001 1.5 1.5 3
9 0 1 0 0 0 1 0 0 0 1 45.5 183 -17.60001 1 4.5 1.5
9 0 1 0 0 0 1 0 0 0 1 45 190 -29.10001 1.5 1.5 3
9 0 1 0 0 0 1 0 0 0 1 -45 190 -29.10001 1.5 1.5 3
9 0 1 0 0 0 1 0 0 0 1 -45.5 183 -17.60001 1 4.5 1.5
9 0 1 0 0 0 1 0 0 0 1 -116 185 -17.10001 1.5 1.5 3
9 0 1 0 0 0 1 0 0 0 1 -169 88 110.9 4.5 1.5 1
9 0 1 0 0 0 1 0 0 0 1 -180.5 116 -19.60001 1 4.5 1.5
9 0 1 0 0 0 1 0 0 0 1 -185.5 168 4.399994 1 4.5 1.5
9 0 1 0 0 0 1 0 0 0 1 167 176 -6.100006 0.5 6.5 2
9 0 1 0 0 0 1 0 0 0 1 -172 22 129.4 0.5 8.5 1.5
9 0 1 0 0 0 1 0 0 0 1 173 39.5 135.4 0.5 5 2.5
9 0 1 0 0 0 1 0 0 0 1 -173 90.5 104.4 0.5 5 2.5
9 0 1 0 0 0 1 0 0 0 1 173 95 100.4 0.5 3.5 3.5
9 0 1 0 0 0 1 0 0 0 1 71 167 -14.60001 24.5 0.5 0.5
9 0 1 0 0 0 1 0 0 0 1 -71 167 -14.60001 24.5 0.5 0.5
9 0 1 0 0 0 1 0 0 0 1 -173 80 112.4 0.5 3.5 3.5
9 0 1 0 0 0 1 0 0 0 1 188 166.5 -6.100006 0.5 2 6
9 0 1 0 0 0 1 0 0 0 1 172 126.5 28.89999 0.5 6 2
9 0 1 0 0 0 1 0 0 0 1 172 101.5 20.89999 0.5 6 2
9 0 1 0 0 0 1 0 0 0 1 169.5 -3.5 147.4 4 3 0.5
9 0 1 0 0 0 1 0 0 0 1 167.5 136.5 56.39999 4 1 1.5
9 0 1 0 0 0 1 0 0 0 1 167.5 130.5 65.39999 4 1 1.5
9 0 1 0 0 0 1 0 0 0 1 167.5 112.5 88.39999 4 1 1.5
9 0 1 0 0 0 1 0 0 0 1 -167 175.5 -6.100006 0.5 6 2
9 0 1 0 0 0 1 0 0 0 1 -167.5 136.5 56.39999 4 1 1.5
9 0 1 0 0 0 1 0 0 0 1 -167.5 130.5 65.39999 4 1 1.5
9 0 1 0 0 0 1 0 0 0 1 -167.5 94 105.9 4 1.5 1
9 0 1 0 0 0 1 0 0 0 1 -167.5 47 134.9 4 1.5 1
9 0 1 0 0 0 1 0 0 0 1 -172 126.5 28.89999 0.5 6 2
9 0 1 0 0 0 1 0 0 0 1 -172 101.5 20.89999 0.5 6 2
9 0 1 0 0 0 1 0 0 0 1 -169.5 -3.5 147.4 4 3 0.5
9 0 1 0 0 0 1 0 0 0 1 -188 166.5 -6.100006 0.5 2 6
9 0 1 0 0 0 1 0 0 0 1 106 180 -40.10001 11.5 0.5 1
9 0 1 0 0 0 1 0 0 0 1 106 179 -39.10001 11.5 0.5 1
9 0 1 0 0 0 1 0 0 0 1 106 178 -38.10001 11.5 0.5 1
9 0 1 0 0 0 1 0 0 0 1 106 177 -37.10001 11.5 0.5 1
9 0 1 0 0 0 1 0 0 0 1 106 175 -34.10001 11.5 0.5 1
9 0 1 0 0 0 1 0 0 0 1 106 171 -27.10001 11.5 0.5 1
9 0 1 0 0 0 1 0 0 0 1 106 169 -20.10001 11.5 0.5 1
9 0 1 0 0 0 1 0 0 0 1 35 184 -50.10001 11.5 0.5 1
9 0 1 0 0 0 1 0 0 0 1 35 183 -49.10001 11.5 0.5 1
9 0 1 0 0 0 1 0 0 0 1 35 182 -48.10001 11.5 0.5 1
9 0 1 0 0 0 1 0 0 0 1 35 181 -47.10001 11.5 0.5 1
9 0 1 0 0 0 1 0 0 0 1 35 175 -34.10001 11.5 0.5 1
9 0 1 0 0 0 1 0 0 0 1 -35 184 -50.10001 11.5 0.5 1
9 0 1 0 0 0 1 0 0 0 1 -35 183 -49.10001 11.5 0.5 1
9 0 1 0 0 0 1 0 0 0 1 -35 182 -48.10001 11.5 0.5 1
9 0 1 0 0 0 1 0 0 0 1 -35 181 -47.10001 11.5 0.5 1
9 0 1 0 0 0 1 0 0 0 1 -35 175 -34.10001 11.5 0.5 1
9 0 1 0 0 0 1 0 0 0 1 -106 180 -40.10001 11.5 0.5 1
9 0 1 0 0 0 1 0 0 0 1 -106 179 -39.10001 11.5 0.5 1
9 0 1 0 0 0 1 0 0 0 1 -106 178 -38.10001 11.5 0.5 1
9 0 1 0 0 0 1 0 0 0 1 -106 177 -37.10001 11.5 0.5 1
9 0 1 0 0 0 1 0 0 0 1 -106 175 -34.10001 11.5 0.5 1
9 0 1 0 0 0 1 0 0 0 1 -106 171 -27.10001 11.5 0.5 1
9 0 1 0 0 0 1 0 0 0 1 -106 169 -20.10001 11.5 0.5 1
9 0 1 0 0 0 1 0 0 0 1 -172 4 143.9 0.5 11.5 1
9 0 1 0 0 0 1 0 0 0 1 114 176 -7.600006 1.5 7.5 0.5
9 0 1 0 0 0 1 0 0 0 1 -114 176 -7.600006 1.5 7.5 0.5
9 0 1 0 0 0 1 0 0 0 1 176.5 165 -11.10001 11 0.5 1
9 0 1 0 0 0 1 0 0 0 1 106.5 173 -29.10001 11 0.5 1
9 0 1 0 0 0 1 0 0 0 1 -106.5 173 -29.10001 11 0.5 1
9 0 1 0 0 0 1 0 0 0 1 -169 145.5 37.89999 5.5 1 1
9 0 1 0 0 0 1 0 0 0 1 -176.5 165 -11.10001 11 0.5 1
9 0 1 0 0 0 1 0 0 0 1 185 175.5 -6.600006 0.5 7 1.5
9 0 1 0 0 0 1 0 0 0 1 177 171 -23.10001 10.5 0.5 1
9 0 1 0 0 0 1 0 0 0 1 177 170 -22.10001 10.5 0.5 1
9 0 1 0 0 0 1 0 0 0 1 170 75 119.9 3.5 1.5 1
9 0 1 0 0 0 1 0 0 0 1 168 94 105.9 3.5 1.5 1
9 0 1 0 0 0 1 0 0 0 1 117 167 15.89999 0.5 3.5 3
9 0 1 0 0 0 1 0 0 0 1 24 187.5 -48.60001 0.5 3 3.5
9 0 1 0 0 0 1 0 0 0 1 -24 187.5 -48.60001 0.5 3 3.5
9 0 1 0 0 0 1 0 0 0 1 -116.5 170 14.39999 1 3.5 1.5
9 0 1 0 0 0 1 0 0 0 1 -168 111 89.89999 3.5 1.5 1
9 0 1 0 0 0 1 0 0 0 1 -173 73.5 117.4 0.5 3 3.5
9 0 1 0 0 0 1 0 0 0 1 -173 41.5 134.4 0.5 7 1.5
9 0 1 0 0 0 1 0 0 0 1 -185 175.5 -6.600006 0.5 7 1.5
9 0 1 0 0 0 1 0 0 0 1 -177 171 -23.10001 10.5 0.5 1
9 0 1 0 0 0 1 0 0 0 1 -177 170 -22.10001 10.5 0.5 1
9 0 1 0 0 0 1 0 0 0 1 184.5 150 29.39999 4 0.5 2.5
9 0 1 0 0 0 1 0 0 0 1 181 106.5 -22.10001 0.5 5 2
9 0 1 0 0 0 1 0 0 0 1 173 124.5 68.89999 0.5 2 5
9 0 1 0 0 0 1 0 0 0 1 172 142.5 32.89999 0.5 5 2
9 0 1 0 0 0 1 0 0 0 1 172 48.5 130.4 0.5 4 2.5
9 0 1 0 0 0 1 0 0 0 1 168.5 120.5 78.89999 5 1 1
9 0 1 0 0 0 1 0 0 0 1 168.5 91.5 107.9 5 1 1
9 0 1 0 0 0 1 0 0 0 1 168.5 82.5 114.9 5 1 1
9 0 1 0 0 0 1 0 0 0 1 168.5 72.5 121.9 5 1 1
9 0 1 0 0 0 1 0 0 0 1 168.5 65.5 125.9 5 1 1
9 0 1 0 0 0 1 0 0 0 1 168.5 60.5 128.4 5 2 0.5
9 0 1 0 0 0 1 0 0 0 1 168.5 24.5 143.4 5 2 0.5
9 0 1 0 0 0 1 0 0 0 1 168.5 12.5 145.4 5 2 0.5
9 0 1 0 0 0 1 0 0 0 1 95 192.5 -47.10001 0.5 5 2
9 0 1 0 0 0 1 0 0 0 1 45.5 175.5 4.399994 1 2 2.5
9 0 1 0 0 0 1 0 0 0 1 -45.5 175.5 4.399994 1 2 2.5
9 0 1 0 0 0 1 0 0 0 1 -95 192.5 -47.10001 0.5 5 2
9 0 1 0 0 0 1 0 0 0 1 -172 142.5 32.89999 0.5 5 2
9 0 1 0 0 0 1 0 0 0 1 -173 124.5 68.89999 0.5 2 5
9 0 1 0 0 0 1 0 0 0 1 -168.5 120.5 78.89999 5 1 1
9 0 1 0 0 0 1 0 0 0 1 -168.5 109.5 91.89999 5 1 1
9 0 1 0 0 0 1 0 0 0 1 -168.5 97.5 102.9 5 1 1
9 0 1 0 0 0 1 0 0 0 1 -168.5 91.5 107.9 5 1 1
9 0 1 0 0 0 1 0 0 0 1 -168.5 80.5 116.4 5 2 0.5
9 0 1 0 0 0 1 0 0 0 1 -168.5 78.5 117.9 5 1 1
9 0 1 0 0 0 1 0 0 0 1 -168.5 72.5 121.9 5 1 1
9 0 1 0 0 0 1 0 0 0 1 -168.5 65.5 125.9 5 1 1
9 0 1 0 0 0 1 0 0 0 1 -168.5 60.5 128.4 5 2 0.5
9 0 1 0 0 0 1 0 0 0 1 -168.5 39.5 137.9 5 1 1
9 0 1 0 0 0 1 0 0 0 1 -168.5 24.5 143.4 5 2 0.5
9 0 1 0 0 0 1 0 0 0 1 -168.5 12.5 145.4 5 2 0.5
9 0 1 0 0 0 1 0 0 0 1 -181 106.5 -22.10001 0.5 5 2
9 0 1 0 0 0 1 0 0 0 1 177 199 -53.10001 9.5 0.5 1
9 0 1 0 0 0 1 0 0 0 1 106 205 -66.10001 9.5 0.5 1
9 0 1 0 0 0 1 0 0 0 1 -106 205 -66.10001 9.5 0.5 1
9 0 1 0 0 0 1 0 0 0 1 -177 199 -53.10001 9.5 0.5 1
9 0 1 0 0 0 1 0 0 0 1 188 154.5 24.89999 0.5 3 3
9 0 1 0 0 0 1 0 0 0 1 180 87 9.899994 0.5 4.5 2
9 0 1 0 0 0 1 0 0 0 1 180 41.5 -8.600006 0.5 6 1.5
9 0 1 0 0 0 1 0 0 0 1 173 143 36.89999 1.5 1.5 2
9 0 1 0 0 0 1 0 0 0 1 169 102.5 97.89999 4.5 1 1
9 0 1 0 0 0 1 0 0 0 1 168 97.5 102.9 4.5 1 1
9 0 1 0 0 0 1 0 0 0 1 168 89.5 109.9 4.5 1 1
9 0 1 0 0 0 1 0 0 0 1 168 30.5 140.4 4.5 2 0.5
9 0 1 0 0 0 1 0 0 0 1 168.5 28.5 141.4 5 2 0.5
9 0 1 0 0 0 1 0 0 0 1 117 155 21.89999 0.5 1.5 6
9 0 1 0 0 0 1 0 0 0 1 24 194.5 -41.60001 0.5 2 4.5
9 0 1 0 0 0 1 0 0 0 1 -24 194.5 -41.60001 0.5 2 4.5
9 0 1 0 0 0 1 0 0 0 1 -117 155 21.89999 0.5 1.5 6
9 0 1 0 0 0 1 0 0 0 1 -168 82.5 114.9 4.5 1 1
9 0 1 0 0 0 1 0 0 0 1 -180 87 9.899994 0.5 4.5 2
9 0 1 0 0 0 1 0 0 0 1 -180 41.5 -8.600006 0.5 6 1.5
9 0 1 0 0 0 1 0 0 0 1 -188 154.5 24.89999 0.5 3 3
9 0 1 0 0 0 1 0 0 0 1 173 109 88.39999 0.5 3.5 2.5
9 0 1 0 0 0 1 0 0 0 1 46 176 -26.60001 0.5 2.5 3.5
9 0 1 0 0 0 1 0 0 0 1 -46 176 -26.60001 0.5 2.5 3.5
9 0 1 0 0 0 1 0 0 0 1 -173 109 88.39999 0.5 3.5 2.5
9 0 1 0 0 0 1 0 0 0 1 163 14.5 144.4 8.5 1 0.5
9 0 1 0 0 0 1 0 0 0 1 141.5 191 -46.60001 17 0.5 0.5
9 0 1 0 0 0 1 0 0 0 1 141.5 172 -26.60001 17 0.5 0.5
9 0 1 0 0 0 1 0 0 0 1 141.5 164 -11.60001 17 0.5 0.5
9 0 1 0 0 0 1 0 0 0 1 70.5 176 -35.60001 17 0.5 0.5
9 0 1 0 0 0 1 0 0 0 1 70.5 175 -33.60001 17 0.5 0.5
9 0 1 0 0 0 1 0 0 0 1 -70.5 176 -35.60001 17 0.5 0.5
9 0 1 0 0 0 1 0 0 0 1 -70.5 175 -33.60001 17 0.5 0.5
9 0 1 0 0 0 1 0 0 0 1 -141.5 191 -46.60001 17 0.5 0.5
9 0 1 0 0 0 1 0 0 0 1 -141.5 172 -26.60001 17 0.5 0.5
9 0 1 0 0 0 1 0 0 0 1 -141.5 164 -11.60001 17 0.5 0.5
9 0 1 0 0 0 1 0 0 0 1 -163 14.5 144.4 8.5 1 0.5
9 0 1 0 0 0 1 0 0 0 1 180 88 -25.60001 0.5 5.5 1.5
9 0 1 0 0 0 1 0 0 0 1 169 146 37.39999 5.5 0.5 1.5
9 0 1 0 0 0 1 0 0 0 1 95 189 -28.60001 0.5 1.5 5.5
9 0 1 0 0 0 1 0 0 0 1 0 199 -65.60001 16.5 0.5 0.5
9 0 1 0 0 0 1 0 0 0 1 0 181 -46.60001 16.5 0.5 0.5
9 0 1 0 0 0 1 0 0 0 1 -95 189 -28.60001 0.5 1.5 5.5
9 0 1 0 0 0 1 0 0 0 1 -169 144 43.39999 5.5 0.5 1.5
9 0 1 0 0 0 1 0 0 0 1 -180 88 -25.60001 0.5 5.5 1.5
9 0 1 0 0 0 1 0 0 0 1 187.5 173.5 9.899994 1 1 4
9 0 1 0 0 0 1 0 0 0 1 173 67.5 120.9 0.5 4 2
9 0 1 0 0 0 1 0 0 0 1 173.5 172 -24.10001 8 0.5 1
9 0 1 0 0 0 1 0 0 0 1 167.5 140.5 49.89999 4 1 1
9 0 1 0 0 0 1 0 0 0 1 167.5 126 71.89999 4 0.5 2
9 0 1 0 0 0 1 0 0 0 1 167.5 124.5 73.89999 4 1 1
9 0 1 0 0 0 1 0 0 0 1 167.5 118.5 80.89999 4 1 1
9 0 1 0 0 0 1 0 0 0 1 167.5 117.5 82.89999 4 1 1
9 0 1 0 0 0 1 0 0 0 1 167.5 111 89.89999 4 0.5 2
9 0 1 0 0 0 1 0 0 0 1 167.5 79.5 116.9 4 1 1
9 0 1 0 0 0 1 0 0 0 1 167.5 77.5 118.4 4 2 0.5
9 0 1 0 0 0 1 0 0 0 1 167.5 63.5 126.9 4 1 1
9 0 1 0 0 0 1 0 0 0 1 164.5 7.5 146.9 1 4 1
9 0 1 0 0 0 1 0 0 0 1 -164.5 7.5 146.9 1 4 1
9 0 1 0 0 0 1 0 0 0 1 -167.5 126 71.89999 4 0.5 2
9 0 1 0 0 0 1 0 0 0 1 -167.5 124.5 73.89999 4 1 1
9 0 1 0 0 0 1 0 0 0 1 -167.5 118.5 80.89999 4 1 1
9 0 1 0 0 0 1 0 0 0 1 -167.5 117.5 82.89999 4 1 1
9 0 1 0 0 0 1 0 0 0 1 -167.5 76.5 118.9 4 1 1
9 0 1 0 0 0 1 0 0 0 1 -167.5 74.5 120.4 4 2 0.5
9 0 1 0 0 0 1 0 0 0 1 -167.5 63.5 126.9 4 1 1
9 0 1 0 0 0 1 0 0 0 1 -167.5 30.5 140.4 4 2 0.5
9 0 1 0 0 0 1 0 0 0 1 -172.5 34.5 136.9 1 4 1
9 0 1 0 0 0 1 0 0 0 1 -173.5 172 -24.10001 8 0.5 1
9 0 1 0 0 0 1 0 0 0 1 -187.5 173.5 9.899994 1 1 4
9 0 1 0 0 0 1 0 0 0 1 -184.5 149.5 30.89999 4 1 1
9 0 1 0 0 0 1 0 0 0 1 180 143.5 28.39999 0.5 5 1.5
9 0 1 0 0 0 1 0 0 0 1 180 124.5 22.39999 0.5 5 1.5
9 0 1 0 0 0 1 0 0 0 1 178.5 169 8.399994 1 7.5 0.5
9 0 1 0 0 0 1 0 0 0 1 181.5 23 7.399994 5 1.5 0.5
9 0 1 0 0 0 1 0 0 0 1 181.5 3 7.399994 5 1.5 0.5
9 0 1 0 0 0 1 0 0 0 1 181.5 -17 127.4 5 1.5 0.5
9 0 1 0 0 0 1 0 0 0 1 178.5 37 7.399994 5 1.5 0.5
9 0 1 0 0 0 1 0 0 0 1 178.5 17 7.399994 5 1.5 0.5
9 0 1 0 0 0 1 0 0 0 1 174 -11.5 120.4 0.5 1 7.5
9 0 1 0 0 0 1 0 0 0 1 173.5 169 8.399994 1 7.5 0.5
9 0 1 0 0 0 1 0 0 0 1 168.5 129 67.39999 5 1.5 0.5
9 0 1 0 0 0 1 0 0 0 1 168.5 108 93.39999 5 1.5 0.5
9 0 1 0 0 0 1 0 0 0 1 168.5 49 133.4 5 1.5 0.5
9 0 1 0 0 0 1 0 0 0 1 146 171 -25.10001 7.5 0.5 1
9 0 1 0 0 0 1 0 0 0 1 117 196.5 -52.60001 0.5 3 2.5
9 0 1 0 0 0 1 0 0 0 1 116.5 176 4.399994 1 1.5 2.5
9 0 1 0 0 0 1 0 0 0 1 105.5 174 -3.600006 1 7.5 0.5
9 0 1 0 0 0 1 0 0 0 1 95 178 -14.10001 0.5 7.5 1
9 0 1 0 0 0 1 0 0 0 1 43 186 -31.10001 0.5 7.5 1
9 0 1 0 0 0 1 0 0 0 1 34.5 179 -14.60001 1 7.5 0.5
9 0 1 0 0 0 1 0 0 0 1 26 186 -31.10001 0.5 7.5 1
9 0 1 0 0 0 1 0 0 0 1 25 182 -22.10001 0.5 7.5 1
9 0 1 0 0 0 1 0 0 0 1 -25 182 -22.10001 0.5 7.5 1
9 0 1 0 0 0 1 0 0 0 1 -26 186 -31.10001 0.5 7.5 1
9 0 1 0 0 0 1 0 0 0 1 -34.5 179 -14.60001 1 7.5 0.5
9 0 1 0 0 0 1 0 0 0 1 -42.5 186 -31.60001 1 7.5 0.5
9 0 1 0 0 0 1 0 0 0 1 -95 178 -14.10001 0.5 7.5 1
9 0 1 0 0 0 1 0 0 0 1 -105.5 174 -3.600006 1 7.5 0.5
9 0 1 0 0 0 1 0 0 0 1 -114 181 -19.10001 0.5 7.5 1
9 0 1 0 0 0 1 0 0 0 1 -117 196.5 -52.60001 0.5 3 2.5
9 0 1 0 0 0 1 0 0 0 1 -116.5 176 4.399994 1 1.5 2.5
9 0 1 0 0 0 1 0 0 0 1 -146 171 -25.10001 7.5 0.5 1
9 0 1 0 0 0 1 0 0 0 1 -168.5 129 67.39999 5 1.5 0.5
9 0 1 0 0 0 1 0 0 0 1 -168.5 113 88.39999 5 0.5 1.5
9 0 1 0 0 0 1 0 0 0 1 -168.5 108 93.39999 5 1.5 0.5
9 0 1 0 0 0 1 0 0 0 1 -173 94.5 99.39999 0.5 3 2.5
9 0 1 0 0 0 1 0 0 0 1 -168.5 90 109.4 5 1.5 0.5
9 0 1 0 0 0 1 0 0 0 1 -173.5 169 8.399994 1 7.5 0.5
9 0 1 0 0 0 1 0 0 0 1 -174 -11.5 120.4 0.5 1 7.5
9 0 1 0 0 0 1 0 0 0 1 -178.5 169 8.399994 1 7.5 0.5
9 0 1 0 0 0 1 0 0 0 1 -180 143.5 28.39999 0.5 5 1.5
9 0 1 0 0 0 1 0 0 0 1 -180 124.5 22.39999 0.5 5 1.5
9 0 1 0 0 0 1 0 0 0 1 -178.5 37 7.399994 5 1.5 0.5
9 0 1 0 0 0 1 0 0 0 1 -178.5 17 7.399994 5 1.5 0.5
9 0 1 0 0 0 1 0 0 0 1 -181.5 23 7.399994 5 1.5 0.5
9 0 1 0 0 0 1 0 0 0 1 -181.5 3 7.399994 5 1.5 0.5
9 0 1 0 0 0 1 0 0 0 1 -181.5 -17 127.4 5 1.5 0.5
9 0 1 0 0 0 1 0 0 0 1 188 185.5 -19.60001 0.5 2 3.5
9 0 1 0 0 0 1 0 0 0 1 188 177.5 -26.60001 0.5 2 3.5
9 0 1 0 0 0 1 0 0 0 1 187.5 156.5 14.39999 1 1 3.5
9 0 1 0 0 0 1 0 0 0 1 177 46.5 5.899994 3.5 1 1
9 0 1 0 0 0 1 0 0 0 1 177 44.5 7.399994 3.5 2 0.5
9 0 1 0 0 0 1 0 0 0 1 173 130.5 54.39999 0.5 2 3.5
9 0 1 0 0 0 1 0 0 0 1 173 61 125.9 0.5 3.5 2
9 0 1 0 0 0 1 0 0 0 1 166 185.5 -19.60001 0.5 2 3.5
9 0 1 0 0 0 1 0 0 0 1 166 177.5 -26.60001 0.5 2 3.5
9 0 1 0 0 0 1 0 0 0 1 116 160 10.89999 0.5 3.5 2
9 0 1 0 0 0 1 0 0 0 1 114 180.5 -19.10001 0.5 7 1
9 0 1 0 0 0 1 0 0 0 1 96 180.5 -18.10001 0.5 7 1
9 0 1 0 0 0 1 0 0 0 1 46 155 24.89999 0.5 3.5 2
9 0 1 0 0 0 1 0 0 0 1 43.5 180.5 -18.60001 1 7 0.5
9 0 1 0 0 0 1 0 0 0 1 39.5 171 -27.10001 7 0.5 1
9 0 1 0 0 0 1 0 0 0 1 -43 180.5 -19.10001 0.5 7 1
9 0 1 0 0 0 1 0 0 0 1 -39.5 171 -27.10001 7 0.5 1
9 0 1 0 0 0 1 0 0 0 1 -46 155 24.89999 0.5 3.5 2
9 0 1 0 0 0 1 0 0 0 1 -96 180.5 -18.10001 0.5 7 1
9 0 1 0 0 0 1 0 0 0 1 -116 160 10.89999 0.5 3.5 2
9 0 1 0 0 0 1 0 0 0 1 -166 185.5 -19.60001 0.5 2 3.5
9 0 1 0 0 0 1 0 0 0 1 -166 177.5 -26.60001 0.5 2 3.5
9 0 1 0 0 0 1 0 0 0 1 -168 104.5 95.89999 3.5 1 1
9 0 1 0 0 0 1 0 0 0 1 -173 130.5 54.39999 0.5 2 3.5
9 0 1 0 0 0 1 0 0 0 1 -173 67 120.9 0.5 3.5 2
9 0 1 0 0 0 1 0 0 0 1 -173 61 125.9 0.5 3.5 2
9 0 1 0 0 0 1 0 0 0 1 -177 46.5 5.899994 3.5 1 1
9 0 1 0 0 0 1 0 0 0 1 -177 44.5 7.399994 3.5 2 0.5
9 0 1 0 0 0 1 0 0 0 1 -188 185.5 -19.60001 0.5 2 3.5
9 0 1 0 0 0 1 0 0 0 1 -188 177.5 -26.60001 0.5 2 3.5
9 0 1 0 0 0 1 0 0 0 1 180 106 16.39999 0.5 4.5 1.5
9 0 1 0 0 0 1 0 0 0 1 172 84 14.39999 0.5 4.5 1.5
9 0 1 0 0 0 1 0 0 0 1 172 18 129.4 0.5 4.5 1.5
9 0 1 0 0 0 1 0 0 0 1 168 96 104.4 4.5 0.5 1.5
9 0 1 0 0 0 1 0 0 0 1 168 87 111.4 4.5 1.5 0.5
9 0 1 0 0 0 1 0 0 0 1 95 182 -37.60001 0.5 1.5 4.5
9 0 1 0 0 0 1 0 0 0 1 63 165 -9.600006 13.5 0.5 0.5
9 0 1 0 0 0 1 0 0 0 1 -63 165 -9.600006 13.5 0.5 0.5
9 0 1 0 0 0 1 0 0 0 1 -95 182 -37.60001 0.5 1.5 4.5
9 0 1 0 0 0 1 0 0 0 1 -172 84 14.39999 0.5 4.5 1.5
9 0 1 0 0 0 1 0 0 0 1 -180 106 16.39999 0.5 4.5 1.5
9 0 1 0 0 0 1 0 0 0 1 180 18 -20.60001 0.5 2.5 2.5
9 0 1 0 0 0 1 0 0 0 1 46 202 -64.60001 0.5 2.5 2.5
9 0 1 0 0 0 1 0 0 0 1 -46 202 -64.60001 0.5 2.5 2.5
9 0 1 0 0 0 1 0 0 0 1 -180 18 -20.60001 0.5 2.5 2.5
9 0 1 0 0 0 1 0 0 0 1 186 168.5 1.399994 0.5 4 1.5
9 0 1 0 0 0 1 0 0 0 1 184.5 149 31.39999 4 0.5 1.5
9 0 1 0 0 0 1 0 0 0 1 181 135.5 -12.10001 0.5 6 1
9 0 1 0 0 0 1 0 0 0 1 176.5 146 31.39999 4 1.5 0.5
9 0 1 0 0 0 1 0 0 0 1 173 88.5 103.9 0.5 3 2
9 0 1 0 0 0 1 0 0 0 1 174 -7 134.9 1.5 0.5 4
9 0 1 0 0 0 1 0 0 0 1 172.5 120 75.89999 1 1.5 2
9 0 1 0 0 0 1 0 0 0 1 172.5 54.5 129.4 1 2 1.5
9 0 1 0 0 0 1 0 0 0 1 167.5 147 34.39999 4 0.5 1.5
9 0 1 0 0 0 1 0 0 0 1 167.5 44 135.4 4 1.5 0.5
9 0 1 0 0 0 1 0 0 0 1 -166 190.5 -39.10001 0.5 3 2
9 0 1 0 0 0 1 0 0 0 1 -167.5 147 34.39999 4 0.5 1.5
9 0 1 0 0 0 1 0 0 0 1 -167.5 96 104.4 4 1.5 0.5
9 0 1 0 0 0 1 0 0 0 1 -167.5 49 133.4 4 1.5 0.5
9 0 1 0 0 0 1 0 0 0 1 -167.5 44 135.4 4 1.5 0.5
9 0 1 0 0 0 1 0 0 0 1 -167.5 23 142.4 4 1.5 0.5
9 0 1 0 0 0 1 0 0 0 1 -172 52.5 129.4 0.5 4 1.5
9 0 1 0 0 0 1 0 0 0 1 -172.5 120 75.89999 1 1.5 2
9 0 1 0 0 0 1 0 0 0 1 -170.5 106.5 94.89999 3 1 1
9 0 1 0 0 0 1 0 0 0 1 -173 10 140.9 0.5 1.5 4
9 0 1 0 0 0 1 0 0 0 1 -174 142.5 40.89999 0.5 1 6
9 0 1 0 0 0 1 0 0 0 1 -174 -7 134.9 1.5 0.5 4
9 0 1 0 0 0 1 0 0 0 1 -176.5 146 31.39999 4 1.5 0.5
9 0 1 0 0 0 1 0 0 0 1 -181 135.5 -12.10001 0.5 6 1
9 0 1 0 0 0 1 0 0 0 1 -186 168.5 1.399994 0.5 4 1.5
9 0 1 0 0 0 1 0 0 0 1 177 179 -32.60001 11.5 0.5 0.5
9 0 1 0 0 0 1 0 0 0 1 177 178 -31.60001 11.5 0.5 0.5
9 0 1 0 0 0 1 0 0 0 1 177 177 -30.60001 11.5 0.5 0.5
9 0 1 0 0 0 1 0 0 0 1 177 175 -27.60001 11.5 0.5 0.5
9 0 1 0 0 0 1 0 0 0 1 177 174 -26.60001 11.5 0.5 0.5
9 0 1 0 0 0 1 0 0 0 1 177 173 -25.60001 11.5 0.5 0.5
9 0 1 0 0 0 1 0 0 0 1 177 169 -21.60001 11.5 0.5 0.5
9 0 1 0 0 0 1 0 0 0 1 177 166 -16.60001 11.5 0.5 0.5
9 0 1 0 0 0 1 0 0 0 1 177 163 -8.600006 11.5 0.5 0.5
9 0 1 0 0 0 1 0 0 0 1 106 183 -43.60001 11.5 0.5 0.5
9 0 1 0 0 0 1 0 0 0 1 106 182 -42.60001 11.5 0.5 0.5
9 0 1 0 0 0 1 0 0 0 1 106 174 -33.60001 11.5 0.5 0.5
9 0 1 0 0 0 1 0 0 0 1 35 188 -54.60001 11.5 0.5 0.5
9 0 1 0 0 0 1 0 0 0 1 35 187 -53.60001 11.5 0.5 0.5
9 0 1 0 0 0 1 0 0 0 1 35 186 -52.60001 11.5 0.5 0.5
9 0 1 0 0 0 1 0 0 0 1 35 179 -45.60001 11.5 0.5 0.5
9 0 1 0 0 0 1 0 0 0 1 -35 188 -54.60001 11.5 0.5 0.5
9 0 1 0 0 0 1 0 0 0 1 -35 187 -53.60001 11.5 0.5 0.5
9 0 1 0 0 0 1 0 0 0 1 -35 186 -52.60001 11.5 0.5 0.5
9 0 1 0 0 0 1 0 0 0 1 -35 179 -45.60001 11.5 0.5 0.5
9 0 1 0 0 0 1 0 0 0 1 -106 183 -43.60001 11.5 0.5 0.5
9 0 1 0 0 0 1 0 0 0 1 -106 182 -42.60001 11.5 0.5 0.5
9 0 1 0 0 0 1 0 0 0 1 -106 174 -33.60001 11.5 0.5 0.5
9 0 1 0 0 0 1 0 0 0 1 -106 172 -30.60001 11.5 0.5 0.5
9 0 1 0 0 0 1 0 0 0 1 -177 179 -32.60001 11.5 0.5 0.5
9 0 1 0 0 0 1 0 0 0 1 -177 178 -31.60001 11.5 0.5 0.5
9 0 1 0 0 0 1 0 0 0 1 -177 177 -30.60001 11.5 0.5 0.5
9 0 1 0 0 0 1 0 0 0 1 -177 175 -27.60001 11.5 0.5 0.5
9 0 1 0 0 0 1 0 0 0 1 -177 174 -26.60001 11.5 0.5 0.5
9 0 1 0 0 0 1 0 0 0 1 -177 173 -25.60001 11.5 0.5 0.5
9 0 1 0 0 0 1 0 0 0 1 -177 169 -21.60001 11.5 0.5 0.5
9 0 1 0 0 0 1 0 0 0 1 -177 166 -16.60001 11.5 0.5 0.5
9 0 1 0 0 0 1 0 0 0 1 -177 163 -8.600006 11.5 0.5 0.5
9 0 1 0 0 0 1 0 0 0 1 188 187 -35.10001 0.5 5.5 1
9 0 1 0 0 0 1 0 0 0 1 166 187 -35.10001 0.5 5.5 1
9 0 1 0 0 0 1 0 0 0 1 169 143 45.89999 5.5 0.5 1
9 0 1 0 0 0 1 0 0 0 1 106.5 184 -44.60001 11 0.5 0.5
9 0 1 0 0 0 1 0 0 0 1 106.5 181 -41.60001 11 0.5 0.5
9 0 1 0 0 0 1 0 0 0 1 106.5 166 -15.60001 11 0.5 0.5
9 0 1 0 0 0 1 0 0 0 1 35.5 191 -58.60001 11 0.5 0.5
9 0 1 0 0 0 1 0 0 0 1 35.5 185 -51.60001 11 0.5 0.5
9 0 1 0 0 0 1 0 0 0 1 -35.5 191 -58.60001 11 0.5 0.5
9 0 1 0 0 0 1 0 0 0 1 -35.5 185 -51.60001 11 0.5 0.5
9 0 1 0 0 0 1 0 0 0 1 -106.5 184 -44.60001 11 0.5 0.5
9 0 1 0 0 0 1 0 0 0 1 -106.5 181 -41.60001 11 0.5 0.5
9 0 1 0 0 0 1 0 0 0 1 -106.5 166 -15.60001 11 0.5 0.5
9 0 1 0 0 0 1 0 0 0 1 -166 187 -35.10001 0.5 5.5 1
9 0 1 0 0 0 1 0 0 0 1 -172 96.5 96.39999 0.5 1 5.5
9 0 1 0 0 0 1 0 0 0 1 -173 85 107.9 0.5 5.5 1
9 0 1 0 0 0 1 0 0 0 1 -169 142 47.89999 5.5 0.5 1
9 0 1 0 0 0 1 0 0 0 1 -188 187 -35.10001 0.5 5.5 1
9 0 1 0 0 0 1 0 0 0 1 187 165 -1.600006 0.5 3.5 1.5
9 0 1 0 0 0 1 0 0 0 1 173 115 82.39999 0.5 3.5 1.5
9 0 1 0 0 0 1 0 0 0 1 177 176 -29.60001 10.5 0.5 0.5
9 0 1 0 0 0 1 0 0 0 1 162 183 -21.60001 0.5 0.5 10.5
9 0 1 0 0 0 1 0 0 0 1 121 183 -21.60001 0.5 0.5 10.5
9 0 1 0 0 0 1 0 0 0 1 116 170 14.39999 0.5 3.5 1.5
9 0 1 0 0 0 1 0 0 0 1 107 165 -13.60001 10.5 0.5 0.5
9 0 1 0 0 0 1 0 0 0 1 91 186 -29.60001 0.5 0.5 10.5
9 0 1 0 0 0 1 0 0 0 1 50 186 -29.60001 0.5 0.5 10.5
9 0 1 0 0 0 1 0 0 0 1 46 158 12.39999 0.5 1.5 3.5
9 0 1 0 0 0 1 0 0 0 1 20 191 -40.60001 0.5 0.5 10.5
9 0 1 0 0 0 1 0 0 0 1 -20 191 -40.60001 0.5 0.5 10.5
9 0 1 0 0 0 1 0 0 0 1 -44 177 -21.60001 0.5 1.5 3.5
9 0 1 0 0 0 1 0 0 0 1 -46 158 12.39999 0.5 1.5 3.5
9 0 1 0 0 0 1 0 0 0 1 -50 186 -29.60001 0.5 0.5 10.5
9 0 1 0 0 0 1 0 0 0 1 -91 186 -29.60001 0.5 0.5 10.5
9 0 1 0 0 0 1 0 0 0 1 -107 165 -13.60001 10.5 0.5 0.5
9 0 1 0 0 0 1 0 0 0 1 -117 167 17.39999 0.5 3.5 1.5
9 0 1 0 0 0 1 0 0 0 1 -121 183 -21.60001 0.5 0.5 10.5
9 0 1 0 0 0 1 0 0 0 1 -162 183 -21.60001 0.5 0.5 10.5
9 0 1 0 0 0 1 0 0 0 1 -173 115 82.39999 0.5 3.5 1.5
9 0 1 0 0 0 1 0 0 0 1 -177 176 -29.60001 10.5 0.5 0.5
9 0 1 0 0 0 1 0 0 0 1 -187 165 -1.600006 0.5 3.5 1.5
9 0 1 0 0 0 1 0 0 0 1 188 191 -39.10001 0.5 2.5 2
9 0 1 0 0 0 1 0 0 0 1 180.5 125.5 -18.60001 1 5 0.5
9 0 1 0 0 0 1 0 0 0 1 180 8.5 -12.60001 0.5 2 2.5
9 0 1 0 0 0 1 0 0 0 1 172 27.5 138.9 0.5 5 1
9 0 1 0 0 0 1 0 0 0 1 166 191 -39.10001 0.5 2.5 2
9 0 1 0 0 0 1 0 0 0 1 168.5 139 50.89999 5 0.5 1
9 0 1 0 0 0 1 0 0 0 1 168.5 138 51.89999 5 0.5 1
9 0 1 0 0 0 1 0 0 0 1 168.5 81 115.9 5 0.5 1
9 0 1 0 0 0 1 0 0 0 1 168.5 68.5 123.4 5 1 0.5
9 0 1 0 0 0 1 0 0 0 1 168.5 56.5 131.4 5 1 0.5
9 0 1 0 0 0 1 0 0 0 1 168.5 45.5 136.4 5 1 0.5
9 0 1 0 0 0 1 0 0 0 1 168.5 18.5 145.4 5 1 0.5
9 0 1 0 0 0 1 0 0 0 1 117 171.5 -18.60001 0.5 2 2.5
9 0 1 0 0 0 1 0 0 0 1 116.5 162.5 -0.6000061 1 1 2.5
9 0 1 0 0 0 1 0 0 0 1 45.5 180.5 -4.600006 1 1 2.5
9 0 1 0 0 0 1 0 0 0 1 45.5 165.5 -7.600006 1 1 2.5
9 0 1 0 0 0 1 0 0 0 1 35.5 209 -76.60001 10 0.5 0.5
9 0 1 0 0 0 1 0 0 0 1 -35.5 209 -76.60001 10 0.5 0.5
9 0 1 0 0 0 1 0 0 0 1 -45 176.5 -15.60001 0.5 10 0.5
9 0 1 0 0 0 1 0 0 0 1 -45.5 180.5 -4.600006 1 1 2.5
9 0 1 0 0 0 1 0 0 0 1 -45.5 165.5 -7.600006 1 1 2.5
9 0 1 0 0 0 1 0 0 0 1 -117 171.5 -18.60001 0.5 2 2.5
9 0 1 0 0 0 1 0 0 0 1 -116.5 162.5 -0.6000061 1 1 2.5
9 0 1 0 0 0 1 0 0 0 1 -168.5 139 50.89999 5 0.5 1
9 0 1 0 0 0 1 0 0 0 1 -168.5 138 51.89999 5 0.5 1
9 0 1 0 0 0 1 0 0 0 1 -168.5 102.5 98.39999 5 1 0.5
9 0 1 0 0 0 1 0 0 0 1 -168.5 68.5 123.4 5 1 0.5
9 0 1 0 0 0 1 0 0 0 1 -168.5 56.5 131.4 5 1 0.5
9 0 1 0 0 0 1 0 0 0 1 -168.5 51.5 132.4 5 1 0.5
9 0 1 0 0 0 1 0 0 0 1 -168.5 45.5 136.4 5 1 0.5
9 0 1 0 0 0 1 0 0 0 1 -168.5 33.5 139.4 5 1 0.5
9 0 1 0 0 0 1 0 0 0 1 -168.5 18.5 145.4 5 1 0.5
9 0 1 0 0 0 1 0 0 0 1 -168.5 16.5 144.4 5 1 0.5
9 0 1 0 0 0 1 0 0 0 1 -180 8.5 -12.60001 0.5 2 2.5
9 0 1 0 0 0 1 0 0 0 1 -180.5 125.5 -18.60001 1 5 0.5
9 0 1 0 0 0 1 0 0 0 1 -188 191 -39.10001 0.5 2.5 2
9 0 1 0 0 0 1 0 0 0 1 106 204 -65.60001 9.5 0.5 0.5
9 0 1 0 0 0 1 0 0 0 1 -24 181 -25.60001 0.5 9.5 0.5
9 0 1 0 0 0 1 0 0 0 1 -106 204 -65.60001 9.5 0.5 0.5
9 0 1 0 0 0 1 0 0 0 1 187 181.5 -6.600006 1.5 1 1.5
9 0 1 0 0 0 1 0 0 0 1 181 119.5 -16.60001 0.5 3 1.5
9 0 1 0 0 0 1 0 0 0 1 172.5 100 98.39999 1 1.5 1.5
9 0 1 0 0 0 1 0 0 0 1 172 96.5 96.39999 0.5 1 5.5
9 0 1 0 0 0 1 0 0 0 1 170 106 94.89999 1.5 1.5 1
9 0 1 0 0 0 1 0 0 0 1 166 168 -11.10001 0.5 1.5 3
9 0 1 0 0 0 1 0 0 0 1 159 18.5 143.4 4.5 1 0.5
9 0 1 0 0 0 1 0 0 0 1 115 172 -11.10001 0.5 1.5 3
9 0 1 0 0 0 1 0 0 0 1 108.5 174 -4.600006 1 4.5 0.5
9 0 1 0 0 0 1 0 0 0 1 46 167.5 17.39999 0.5 3 1.5
9 0 1 0 0 0 1 0 0 0 1 45 189.5 -24.60001 1.5 1 1.5
9 0 1 0 0 0 1 0 0 0 1 44 177 -22.10001 0.5 1.5 3
9 0 1 0 0 0 1 0 0 0 1 24 176 -30.10001 0.5 1.5 3
9 0 1 0 0 0 1 0 0 0 1 -24 176 -30.10001 0.5 1.5 3
9 0 1 0 0 0 1 0 0 0 1 -45 189.5 -24.60001 1.5 1 1.5
9 0 1 0 0 0 1 0 0 0 1 -46 167.5 17.39999 0.5 3 1.5
9 0 1 0 0 0 1 0 0 0 1 -108.5 174 -4.600006 1 4.5 0.5
9 0 1 0 0 0 1 0 0 0 1 -115 172 -11.10001 0.5 1.5 3
9 0 1 0 0 0 1 0 0 0 1 -159 25.5 141.4 4.5 1 0.5
9 0 1 0 0 0 1 0 0 0 1 -159 18.5 143.4 4.5 1 0.5
9 0 1 0 0 0 1 0 0 0 1 -166 168 -11.10001 0.5 1.5 3
9 0 1 0 0 0 1 0 0 0 1 -168 146 35.89999 4.5 0.5 1
9 0 1 0 0 0 1 0 0 0 1 -168 70.5 122.4 4.5 1 0.5
9 0 1 0 0 0 1 0 0 0 1 -172.5 104 91.39999 1 4.5 0.5
9 0 1 0 0 0 1 0 0 0 1 -181 119.5 -16.60001 0.5 3 1.5
9 0 1 0 0 0 1 0 0 0 1 -187 181.5 -6.600006 1.5 1 1.5
9 0 1 0 0 0 1 0 0 0 1 172 30 1.399994 0.5 0.5 8.5
9 0 1 0 0 0 1 0 0 0 1 172 10 1.399994 0.5 0.5 8.5
9 0 1 0 0 0 1 0 0 0 1 163 140 47.39999 8.5 0.5 0.5
9 0 1 0 0 0 1 0 0 0 1 163 38 137.4 8.5 0.5 0.5
9 0 1 0 0 0 1 0 0 0 1 163 22 142.4 8.5 0.5 0.5
9 0 1 0 0 0 1 0 0 0 1 -163 143 41.39999 8.5 0.5 0.5
9 0 1 0 0 0 1 0 0 0 1 -163 141 45.39999 8.5 0.5 0.5
9 0 1 0 0 0 1 0 0 0 1 -172 30 1.399994 0.5 0.5 8.5
9 0 1 0 0 0 1 0 0 0 1 -172 10 1.399994 0.5 0.5 8.5
9 0 1 0 0 0 1 0 0 0 1 181 151.5 -17.10001 0.5 4 1
9 0 1 0 0 0 1 0 0 0 1 180 153.5 11.89999 0.5 1 4
9 0 1 0 0 0 1 0 0 0 1 173 78.5 110.9 0.5 2 2
9 0 1 0 0 0 1 0 0 0 1 172.5 103.5 91.39999 1 4 0.5
9 0 1 0 0 0 1 0 0 0 1 167.5 104.5 96.39999 4 1 0.5
9 0 1 0 0 0 1 0 0 0 1 167.5 70.5 122.4 4 1 0.5
9 0 1 0 0 0 1 0 0 0 1 167.5 61.5 127.4 4 1 0.5
9 0 1 0 0 0 1 0 0 0 1 167.5 55.5 130.4 4 1 0.5
9 0 1 0 0 0 1 0 0 0 1 167.5 51.5 132.4 4 1 0.5
9 0 1 0 0 0 1 0 0 0 1 167.5 16.5 144.4 4 1 0.5
9 0 1 0 0 0 1 0 0 0 1 131.5 171 -25.10001 4 0.5 1
9 0 1 0 0 0 1 0 0 0 1 117 152.5 25.89999 0.5 1 4
9 0 1 0 0 0 1 0 0 0 1 116.5 180.5 -5.100006 1 1 2
9 0 1 0 0 0 1 0 0 0 1 110 182.5 -22.60001 0.5 8 0.5
9 0 1 0 0 0 1 0 0 0 1 98 181.5 -20.60001 0.5 8 0.5
9 0 1 0 0 0 1 0 0 0 1 25 204.5 -67.10001 0.5 2 2
9 0 1 0 0 0 1 0 0 0 1 24 200.5 -56.10001 0.5 1 4
9 0 1 0 0 0 1 0 0 0 1 24 182.5 -25.60001 0.5 8 0.5
9 0 1 0 0 0 1 0 0 0 1 -24 200.5 -56.10001 0.5 1 4
9 0 1 0 0 0 1 0 0 0 1 -25 204.5 -67.10001 0.5 2 2
9 0 1 0 0 0 1 0 0 0 1 -98 181.5 -20.60001 0.5 8 0.5
9 0 1 0 0 0 1 0 0 0 1 -110 182.5 -22.60001 0.5 8 0.5
9 0 1 0 0 0 1 0 0 0 1 -116.5 180.5 -5.100006 1 1 2
9 0 1 0 0 0 1 0 0 0 1 -117 152.5 25.89999 0.5 1 4
9 0 1 0 0 0 1 0 0 0 1 -131.5 171 -25.10001 4 0.5 1
9 0 1 0 0 0 1 0 0 0 1 -167.5 103.5 97.39999 4 1 0.5
9 0 1 0 0 0 1 0 0 0 1 -167.5 61.5 127.4 4 1 0.5
9 0 1 0 0 0 1 0 0 0 1 -167.5 55.5 130.4 4 1 0.5
9 0 1 0 0 0 1 0 0 0 1 -172.5 99.5 98.89999 1 2 1
9 0 1 0 0 0 1 0 0 0 1 -180 153.5 11.89999 0.5 1 4
9 0 1 0 0 0 1 0 0 0 1 -181 151.5 -17.10001 0.5 4 1
9 0 1 0 0 0 1 0 0 0 1 -187.5 158.5 8.899994 1 1 2
9 0 1 0 0 0 1 0 0 0 1 185 175 4.399994 0.5 2.5 1.5
9 0 1 0 0 0 1 0 0 0 1 184 176 -7.600006 0.5 7.5 0.5
9 0 1 0 0 0 1 0 0 0 1 184 170 5.399994 0.5 7.5 0.5
9 0 1 0 0 0 1 0 0 0 1 173 142 46.39999 1.5 0.5 2.5
9 0 1 0 0 0 1 0 0 0 1 168 176 -7.600006 0.5 7.5 0.5
9 0 1 0 0 0 1 0 0 0 1 114 176 -8.600006 0.5 7.5 0.5
9 0 1 0 0 0 1 0 0 0 1 96 200 -56.60001 0.5 2.5 1.5
9 0 1 0 0 0 1 0 0 0 1 96 177 -10.60001 0.5 7.5 0.5
9 0 1 0 0 0 1 0 0 0 1 95 171 -18.60001 0.5 1.5 2.5
9 0 1 0 0 0 1 0 0 0 1 43 181 -19.60001 0.5 7.5 0.5
9 0 1 0 0 0 1 0 0 0 1 42 186 -31.60001 0.5 7.5 0.5
9 0 1 0 0 0 1 0 0 0 1 39 187 -33.60001 0.5 7.5 0.5
9 0 1 0 0 0 1 0 0 0 1 38 179 -15.60001 0.5 7.5 0.5
9 0 1 0 0 0 1 0 0 0 1 31 179 -15.60001 0.5 7.5 0.5
9 0 1 0 0 0 1 0 0 0 1 -31 179 -15.60001 0.5 7.5 0.5
9 0 1 0 0 0 1 0 0 0 1 -38 179 -15.60001 0.5 7.5 0.5
9 0 1 0 0 0 1 0 0 0 1 -39 187 -33.60001 0.5 7.5 0.5
9 0 1 0 0 0 1 0 0 0 1 -43 186 -30.60001 0.5 7.5 0.5
9 0 1 0 0 0 1 0 0 0 1 -95 171 -18.60001 0.5 1.5 2.5
9 0 1 0 0 0 1 0 0 0 1 -96 200 -56.60001 0.5 2.5 1.5
9 0 1 0 0 0 1 0 0 0 1 -96 177 -10.60001 0.5 7.5 0.5
9 0 1 0 0 0 1 0 0 0 1 -114 176 -8.600006 0.5 7.5 0.5
9 0 1 0 0 0 1 0 0 0 1 -168 176 -7.600006 0.5 7.5 0.5
9 0 1 0 0 0 1 0 0 0 1 -172 79 114.4 0.5 2.5 1.5
9 0 1 0 0 0 1 0 0 0 1 -184 176 -7.600006 0.5 7.5 0.5
9 0 1 0 0 0 1 0 0 0 1 -184 170 5.399994 0.5 7.5 0.5
9 0 1 0 0 0 1 0 0 0 1 -185 175 4.399994 0.5 2.5 1.5
9 0 1 0 0 0 1 0 0 0 1 176 168.5 9.399994 0.5 7 0.5
9 0 1 0 0 0 1 0 0 0 1 180.5 180 -33.60001 7 0.5 0.5
9 0 1 0 0 0 1 0 0 0 1 173 27.5 134.4 0.5 7 0.5
9 0 1 0 0 0 1 0 0 0 1 172.5 3 145.4 1 3.5 0.5
9 0 1 0 0 0 1 0 0 0 1 172.5 -4 146.4 1 3.5 0.5
9 0 1 0 0 0 1 0 0 0 1 172.5 165 -14.60001 7 0.5 0.5
9 0 1 0 0 0 1 0 0 0 1 164.5 0 147.4 1 3.5 0.5
9 0 1 0 0 0 1 0 0 0 1 102 174.5 -4.600006 0.5 7 0.5
9 0 1 0 0 0 1 0 0 0 1 95 196 -51.10001 0.5 3.5 1
9 0 1 0 0 0 1 0 0 0 1 45 166.5 2.399994 0.5 7 0.5
9 0 1 0 0 0 1 0 0 0 1 24 184.5 -27.60001 0.5 7 0.5
9 0 1 0 0 0 1 0 0 0 1 8.5 165 -9.600006 7 0.5 0.5
9 0 1 0 0 0 1 0 0 0 1 -24 184.5 -27.60001 0.5 7 0.5
9 0 1 0 0 0 1 0 0 0 1 -45 166.5 2.399994 0.5 7 0.5
9 0 1 0 0 0 1 0 0 0 1 -95 196 -51.10001 0.5 3.5 1
9 0 1 0 0 0 1 0 0 0 1 -102 174.5 -4.600006 0.5 7 0.5
9 0 1 0 0 0 1 0 0 0 1 -125.5 112 87.39999 7 0.5 0.5
9 0 1 0 0 0 1 0 0 0 1 -164.5 0 147.4 1 3.5 0.5
9 0 1 0 0 0 1 0 0 0 1 -172 -0.5 145.4 0.5 7 0.5
9 0 1 0 0 0 1 0 0 0 1 -173 27.5 134.4 0.5 7 0.5
9 0 1 0 0 0 1 0 0 0 1 -172.5 -4 146.4 1 3.5 0.5
9 0 1 0 0 0 1 0 0 0 1 -176 168.5 9.399994 0.5 7 0.5
9 0 1 0 0 0 1 0 0 0 1 -172.5 165 -14.60001 7 0.5 0.5
9 0 1 0 0 0 1 0 0 0 1 -180.5 180 -33.60001 7 0.5 0.5
9 0 1 0 0 0 1 0 0 0 1 180 100 -24.60001 0.5 6.5 0.5
9 0 1 0 0 0 1 0 0 0 1 182 151 30.39999 6.5 0.5 0.5
9 0 1 0 0 0 1 0 0 0 1 171 168 7.399994 0.5 6.5 0.5
9 0 1 0 0 0 1 0 0 0 1 145 138 51.39999 6.5 0.5 0.5
9 0 1 0 0 0 1 0 0 0 1 43 138 51.39999 6.5 0.5 0.5
9 0 1 0 0 0 1 0 0 0 1 -59 138 51.39999 6.5 0.5 0.5
9 0 1 0 0 0 1 0 0 0 1 -171 168 7.399994 0.5 6.5 0.5
9 0 1 0 0 0 1 0 0 0 1 -180 100 -24.60001 0.5 6.5 0.5
9 0 1 0 0 0 1 0 0 0 1 -182 151 30.39999 6.5 0.5 0.5
9 0 1 0 0 0 1 0 0 0 1 188 159.5 23.39999 0.5 2 1.5
9 0 1 0 0 0 1 0 0 0 1 187.5 175.5 7.399994 1 1 1.5
9 0 1 0 0 0 1 0 0 0 1 187.5 168 18.89999 1 1.5 1
9 0 1 0 0 0 1 0 0 0 1 187.5 154.5 16.39999 1 1 1.5
9 0 1 0 0 0 1 0 0 0 1 187 178.5 0.8999939 1.5 1 1
9 0 1 0 0 0 1 0 0 0 1 185 160 -0.1000061 1.5 0.5 2
9 0 1 0 0 0 1 0 0 0 1 183.5 158 5.899994 3 0.5 1
9 0 1 0 0 0 1 0 0 0 1 180.5 114.5 -21.60001 1 3 0.5
9 0 1 0 0 0 1 0 0 0 1 180 79.5 8.899994 0.5 3 1
9 0 1 0 0 0 1 0 0 0 1 173 136.5 38.89999 0.5 1 3
9 0 1 0 0 0 1 0 0 0 1 173 111.5 84.89999 0.5 3 1
9 0 1 0 0 0 1 0 0 0 1 173 93.5 105.4 0.5 2 1.5
9 0 1 0 0 0 1 0 0 0 1 173 10 138.9 0.5 1.5 2
9 0 1 0 0 0 1 0 0 0 1 173 142.5 39.89999 1.5 1 1
9 0 1 0 0 0 1 0 0 0 1 172 135.5 29.89999 0.5 3 1
9 0 1 0 0 0 1 0 0 0 1 172.5 132.5 59.39999 1 1 1.5
9 0 1 0 0 0 1 0 0 0 1 172 123.5 25.89999 0.5 3 1
9 0 1 0 0 0 1 0 0 0 1 172 110.5 21.89999 0.5 3 1
9 0 1 0 0 0 1 0 0 0 1 172 98.5 17.89999 0.5 3 1
9 0 1 0 0 0 1 0 0 0 1 172 87 108.9 0.5 1.5 2
9 0 1 0 0 0 1 0 0 0 1 172.5 66 123.9 1 1.5 1
9 0 1 0 0 0 1 0 0 0 1 173.5 161 -3.600006 6 0.5 0.5
9 0 1 0 0 0 1 0 0 0 1 166.5 114 85.89999 3 0.5 1
9 0 1 0 0 0 1 0 0 0 1 165 75.5 119.9 1.5 1 1
9 0 1 0 0 0 1 0 0 0 1 145.5 33 139.4 6 0.5 0.5
9 0 1 0 0 0 1 0 0 0 1 116.5 165 -9.100006 1 1.5 1
9 0 1 0 0 0 1 0 0 0 1 116 187 -18.10001 1.5 0.5 2
9 0 1 0 0 0 1 0 0 0 1 116 184.5 -13.10001 1.5 1 1
9 0 1 0 0 0 1 0 0 0 1 95 191.5 -31.10001 0.5 1 3
9 0 1 0 0 0 1 0 0 0 1 95 179 -35.10001 0.5 1.5 2
9 0 1 0 0 0 1 0 0 0 1 45.5 184.5 -13.60001 1 1 1.5
9 0 1 0 0 0 1 0 0 0 1 45.5 169.5 -17.60001 1 1 1.5
9 0 1 0 0 0 1 0 0 0 1 45 192.5 -31.10001 1.5 1 1
9 0 1 0 0 0 1 0 0 0 1 29.5 192 -59.60001 6 0.5 0.5
9 0 1 0 0 0 1 0 0 0 1 -29.5 192 -59.60001 6 0.5 0.5
9 0 1 0 0 0 1 0 0 0 1 -45 192.5 -31.10001 1.5 1 1
9 0 1 0 0 0 1 0 0 0 1 -45.5 184.5 -13.60001 1 1 1.5
9 0 1 0 0 0 1 0 0 0 1 -45.5 169.5 -17.60001 1 1 1.5
9 0 1 0 0 0 1 0 0 0 1 -95 191.5 -31.10001 0.5 1 3
9 0 1 0 0 0 1 0 0 0 1 -95 179 -35.10001 0.5 1.5 2
9 0 1 0 0 0 1 0 0 0 1 -116 187 -18.10001 1.5 0.5 2
9 0 1 0 0 0 1 0 0 0 1 -116 184.5 -13.10001 1.5 1 1
9 0 1 0 0 0 1 0 0 0 1 -116.5 165 -9.100006 1 1.5 1
9 0 1 0 0 0 1 0 0 0 1 -165.5 106 94.39999 2 1.5 0.5
9 0 1 0 0 0 1 0 0 0 1 -166.5 114 85.89999 3 0.5 1
9 0 1 0 0 0 1 0 0 0 1 -172 135.5 29.89999 0.5 3 1
9 0 1 0 0 0 1 0 0 0 1 -172 123.5 25.89999 0.5 3 1
9 0 1 0 0 0 1 0 0 0 1 -172 110.5 21.89999 0.5 3 1
9 0 1 0 0 0 1 0 0 0 1 -172 98.5 17.89999 0.5 3 1
9 0 1 0 0 0 1 0 0 0 1 -169.5 83.5 113.4 3 1 0.5
9 0 1 0 0 0 1 0 0 0 1 -172 66 122.9 0.5 1.5 2
9 0 1 0 0 0 1 0 0 0 1 -173 136.5 38.89999 0.5 1 3
9 0 1 0 0 0 1 0 0 0 1 -172.5 132.5 59.39999 1 1 1.5
9 0 1 0 0 0 1 0 0 0 1 -173 111.5 84.89999 0.5 3 1
9 0 1 0 0 0 1 0 0 0 1 -173 54.5 129.4 0.5 2 1.5
9 0 1 0 0 0 1 0 0 0 1 -172.5 31.5 139.4 1 1 1.5
9 0 1 0 0 0 1 0 0 0 1 -173 144 36.89999 1.5 0.5 2
9 0 1 0 0 0 1 0 0 0 1 -173.5 161 -3.600006 6 0.5 0.5
9 0 1 0 0 0 1 0 0 0 1 -180 79.5 8.899994 0.5 3 1
9 0 1 0 0 0 1 0 0 0 1 -180.5 114.5 -21.60001 1 3 0.5
9 0 1 0 0 0 1 0 0 0 1 -183.5 160 0.8999939 3 0.5 1
9 0 1 0 0 0 1 0 0 0 1 -187 178.5 0.8999939 1.5 1 1
9 0 1 0 0 0 1 0 0 0 1 -187.5 175.5 7.399994 1 1 1.5
9 0 1 0 0 0 1 0 0 0 1 -187.5 168 18.89999 1 1.5 1
9 0 1 0 0 0 1 0 0 0 1 -188 159.5 23.39999 0.5 2 1.5
9 0 1 0 0 0 1 0 0 0 1 -187.5 154.5 16.39999 1 1 1.5
9 0 1 0 0 0 1 0 0 0 1 188 169 -13.60001 0.5 0.5 5.5
9 0 1 0 0 0 1 0 0 0 1 185 173 -4.600006 0.5 5.5 0.5
9 0 1 0 0 0 1 0 0 0 1 181 171 7.399994 0.5 5.5 0.5
9 0 1 0 0 0 1 0 0 0 1 175 162 -6.600006 5.5 0.5 0.5
9 0 1 0 0 0 1 0 0 0 1 169 144 40.39999 5.5 0.5 0.5
9 0 1 0 0 0 1 0 0 0 1 107 165 -9.600006 5.5 0.5 0.5
9 0 1 0 0 0 1 0 0 0 1 -7 165 -9.600006 5.5 0.5 0.5
9 0 1 0 0 0 1 0 0 0 1 -107 165 -9.600006 5.5 0.5 0.5
9 0 1 0 0 0 1 0 0 0 1 -175 162 -6.600006 5.5 0.5 0.5
9 0 1 0 0 0 1 0 0 0 1 -181 171 7.399994 0.5 5.5 0.5
9 0 1 0 0 0 1 0 0 0 1 -185 173 -4.600006 0.5 5.5 0.5
9 0 1 0 0 0 1 0 0 0 1 -188 169 -13.60001 0.5 0.5 5.5
9 0 1 0 0 0 1 0 0 0 1 188 190.5 -31.60001 0.5 1 2.5
9 0 1 0 0 0 1 0 0 0 1 188 163.5 -2.600006 0.5 1 2.5
9 0 1 0 0 0 1 0 0 0 1 187 196.5 -46.60001 0.5 1 2.5
9 0 1 0 0 0 1 0 0 0 1 180 158.5 -0.6000061 0.5 1 2.5
9 0 1 0 0 0 1 0 0 0 1 182.5 165 -9.600006 5 0.5 0.5
9 0 1 0 0 0 1 0 0 0 1 173 121.5 71.39999 0.5 1 2.5
9 0 1 0 0 0 1 0 0 0 1 173 117 79.89999 0.5 2.5 1
9 0 1 0 0 0 1 0 0 0 1 173 69 117.9 0.5 2.5 1
9 0 1 0 0 0 1 0 0 0 1 172.5 82 113.4 1 2.5 0.5
9 0 1 0 0 0 1 0 0 0 1 167 196.5 -46.60001 0.5 1 2.5
9 0 1 0 0 0 1 0 0 0 1 171.5 188 -41.60001 5 0.5 0.5
9 0 1 0 0 0 1 0 0 0 1 169 109.5 90.39999 2.5 1 0.5
9 0 1 0 0 0 1 0 0 0 1 169 94.5 104.4 2.5 1 0.5
9 0 1 0 0 0 1 0 0 0 1 166 180.5 -4.600006 0.5 1 2.5
9 0 1 0 0 0 1 0 0 0 1 168.5 136 58.39999 5 0.5 0.5
9 0 1 0 0 0 1 0 0 0 1 168.5 134 61.39999 5 0.5 0.5
9 0 1 0 0 0 1 0 0 0 1 168.5 132 64.39999 5 0.5 0.5
9 0 1 0 0 0 1 0 0 0 1 168.5 128 68.39999 5 0.5 0.5
9 0 1 0 0 0 1 0 0 0 1 168.5 127 69.39999 5 0.5 0.5
9 0 1 0 0 0 1 0 0 0 1 168.5 124 75.39999 5 0.5 0.5
9 0 1 0 0 0 1 0 0 0 1 168.5 123 74.39999 5 0.5 0.5
9 0 1 0 0 0 1 0 0 0 1 168.5 122 78.39999 5 0.5 0.5
9 0 1 0 0 0 1 0 0 0 1 168.5 120 80.39999 5 0.5 0.5
9 0 1 0 0 0 1 0 0 0 1 168.5 115 84.39999 5 0.5 0.5
9 0 1 0 0 0 1 0 0 0 1 166 106.5 94.39999 2.5 1 0.5
9 0 1 0 0 0 1 0 0 0 1 166 105.5 95.39999 2.5 1 0.5
9 0 1 0 0 0 1 0 0 0 1 168.5 104 97.39999 5 0.5 0.5
9 0 1 0 0 0 1 0 0 0 1 168.5 99 100.4 5 0.5 0.5
9 0 1 0 0 0 1 0 0 0 1 168.5 97 104.4 5 0.5 0.5
9 0 1 0 0 0 1 0 0 0 1 168.5 93 107.4 5 0.5 0.5
9 0 1 0 0 0 1 0 0 0 1 168.5 91 109.4 5 0.5 0.5
9 0 1 0 0 0 1 0 0 0 1 168.5 90 108.4 5 0.5 0.5
9 0 1 0 0 0 1 0 0 0 1 168.5 82 116.4 5 0.5 0.5
9 0 1 0 0 0 1 0 0 0 1 168.5 77 119.4 5 0.5 0.5
9 0 1 0 0 0 1 0 0 0 1 168.5 74 121.4 5 0.5 0.5
9 0 1 0 0 0 1 0 0 0 1 168.5 73 120.4 5 0.5 0.5
9 0 1 0 0 0 1 0 0 0 1 168.5 60 129.4 5 0.5 0.5
9 0 1 0 0 0 1 0 0 0 1 158 32.5 139.4 2.5 1 0.5
9 0 1 0 0 0 1 0 0 0 1 117 159 23.89999 0.5 2.5 1
9 0 1 0 0 0 1 0 0 0 1 116.5 159 6.399994 1 0.5 2.5
9 0 1 0 0 0 1 0 0 0 1 95 195.5 -42.60001 0.5 1 2.5
9 0 1 0 0 0 1 0 0 0 1 46 205.5 -66.60001 0.5 1 2.5
9 0 1 0 0 0 1 0 0 0 1 45 177.5 -25.60001 0.5 1 2.5
9 0 1 0 0 0 1 0 0 0 1 45.5 162 -0.6000061 1 0.5 2.5
9 0 1 0 0 0 1 0 0 0 1 29 177.5 -16.60001 0.5 5 0.5
9 0 1 0 0 0 1 0 0 0 1 27 188.5 -31.60001 0.5 5 0.5
9 0 1 0 0 0 1 0 0 0 1 26 178.5 -19.60001 0.5 5 0.5
9 0 1 0 0 0 1 0 0 0 1 -26 178.5 -19.60001 0.5 5 0.5
9 0 1 0 0 0 1 0 0 0 1 -21.5 165 -9.600006 5 0.5 0.5
9 0 1 0 0 0 1 0 0 0 1 -27 188.5 -31.60001 0.5 5 0.5
9 0 1 0 0 0 1 0 0 0 1 -29 177.5 -16.60001 0.5 5 0.5
9 0 1 0 0 0 1 0 0 0 1 -31.5 162 -2.600006 5 0.5 0.5
9 0 1 0 0 0 1 0 0 0 1 -44.5 178 -27.60001 1 0.5 2.5
9 0 1 0 0 0 1 0 0 0 1 -46 205.5 -66.60001 0.5 1 2.5
9 0 1 0 0 0 1 0 0 0 1 -45.5 162 -0.6000061 1 0.5 2.5
9 0 1 0 0 0 1 0 0 0 1 -95 195.5 -42.60001 0.5 1 2.5
9 0 1 0 0 0 1 0 0 0 1 -116.5 159 6.399994 1 0.5 2.5
9 0 1 0 0 0 1 0 0 0 1 -117 159 23.89999 0.5 2.5 1
9 0 1 0 0 0 1 0 0 0 1 -166 180.5 -4.600006 0.5 1 2.5
9 0 1 0 0 0 1 0 0 0 1 -167 196.5 -46.60001 0.5 1 2.5
9 0 1 0 0 0 1 0 0 0 1 -166 111.5 88.39999 2.5 1 0.5
9 0 1 0 0 0 1 0 0 0 1 -169 125 71.89999 2.5 0.5 1
9 0 1 0 0 0 1 0 0 0 1 -172 88 107.9 0.5 2.5 1
9 0 1 0 0 0 1 0 0 0 1 -168.5 136 58.39999 5 0.5 0.5
9 0 1 0 0 0 1 0 0 0 1 -168.5 134 61.39999 5 0.5 0.5
9 0 1 0 0 0 1 0 0 0 1 -168.5 132 64.39999 5 0.5 0.5
9 0 1 0 0 0 1 0 0 0 1 -168.5 128 68.39999 5 0.5 0.5
9 0 1 0 0 0 1 0 0 0 1 -168.5 127 69.39999 5 0.5 0.5
9 0 1 0 0 0 1 0 0 0 1 -168.5 124 75.39999 5 0.5 0.5
9 0 1 0 0 0 1 0 0 0 1 -168.5 123 74.39999 5 0.5 0.5
9 0 1 0 0 0 1 0 0 0 1 -168.5 122 78.39999 5 0.5 0.5
9 0 1 0 0 0 1 0 0 0 1 -173 121.5 71.39999 0.5 1 2.5
9 0 1 0 0 0 1 0 0 0 1 -168.5 120 80.39999 5 0.5 0.5
9 0 1 0 0 0 1 0 0 0 1 -168.5 119 79.39999 5 0.5 0.5
9 0 1 0 0 0 1 0 0 0 1 -168.5 115 84.39999 5 0.5 0.5
9 0 1 0 0 0 1 0 0 0 1 -168.5 111 91.39999 5 0.5 0.5
9 0 1 0 0 0 1 0 0 0 1 -168.5 108 92.39999 5 0.5 0.5
9 0 1 0 0 0 1 0 0 0 1 -172.5 105 94.39999 1 0.5 2.5
9 0 1 0 0 0 1 0 0 0 1 -168.5 99 100.4 5 0.5 0.5
9 0 1 0 0 0 1 0 0 0 1 -168.5 98 101.4 5 0.5 0.5
9 0 1 0 0 0 1 0 0 0 1 -168.5 96 103.4 5 0.5 0.5
9 0 1 0 0 0 1 0 0 0 1 -168.5 96 105.4 5 0.5 0.5
9 0 1 0 0 0 1 0 0 0 1 -168.5 93 107.4 5 0.5 0.5
9 0 1 0 0 0 1 0 0 0 1 -168.5 90 110.4 5 0.5 0.5
9 0 1 0 0 0 1 0 0 0 1 -168.5 86 111.4 5 0.5 0.5
9 0 1 0 0 0 1 0 0 0 1 -168.5 80 117.4 5 0.5 0.5
9 0 1 0 0 0 1 0 0 0 1 -168.5 74 121.4 5 0.5 0.5
9 0 1 0 0 0 1 0 0 0 1 -168.5 60 129.4 5 0.5 0.5
9 0 1 0 0 0 1 0 0 0 1 -168.5 41 138.4 5 0.5 0.5
9 0 1 0 0 0 1 0 0 0 1 -171.5 188 -41.60001 5 0.5 0.5
9 0 1 0 0 0 1 0 0 0 1 -180 158.5 -0.6000061 0.5 1 2.5
9 0 1 0 0 0 1 0 0 0 1 -187 196.5 -46.60001 0.5 1 2.5
9 0 1 0 0 0 1 0 0 0 1 -182.5 165 -9.600006 5 0.5 0.5
9 0 1 0 0 0 1 0 0 0 1 -188 190.5 -31.60001 0.5 1 2.5
9 0 1 0 0 0 1 0 0 0 1 -188 163.5 -2.600006 0.5 1 2.5
9 0 1 0 0 0 1 0 0 0 1 -186 160 -1.100006 2.5 0.5 1
9 0 1 0 0 0 1 0 0 0 1 181 174 -9.600006 0.5 4.5 0.5
9 0 1 0 0 0 1 0 0 0 1 174 141 38.39999 0.5 0.5 4.5
9 0 1 0 0 0 1 0 0 0 1 173 46 134.4 0.5 1.5 1.5
9 0 1 0 0 0 1 0 0 0 1 176 123 24.39999 4.5 0.5 0.5
9 0 1 0 0 0 1 0 0 0 1 176 95 15.39999 4.5 0.5 0.5
9 0 1 0 0 0 1 0 0 0 1 172 32 8.399994 0.5 1.5 1.5
9 0 1 0 0 0 1 0 0 0 1 172 28 8.399994 0.5 1.5 1.5
9 0 1 0 0 0 1 0 0 0 1 172 12 8.399994 0.5 1.5 1.5
9 0 1 0 0 0 1 0 0 0 1 172 8 8.399994 0.5 1.5 1.5
9 0 1 0 0 0 1 0 0 0 1 168 119 79.39999 4.5 0.5 0.5
9 0 1 0 0 0 1 0 0 0 1 168 113 86.39999 4.5 0.5 0.5
9 0 1 0 0 0 1 0 0 0 1 168 98 101.4 4.5 0.5 0.5
9 0 1 0 0 0 1 0 0 0 1 168 89 111.4 4.5 0.5 0.5
9 0 1 0 0 0 1 0 0 0 1 159 138 51.39999 4.5 0.5 0.5
9 0 1 0 0 0 1 0 0 0 1 159 68 123.4 4.5 0.5 0.5
9 0 1 0 0 0 1 0 0 0 1 159 48 133.4 4.5 0.5 0.5
9 0 1 0 0 0 1 0 0 0 1 159 43 135.4 4.5 0.5 0.5
9 0 1 0 0 0 1 0 0 0 1 159 29 140.4 4.5 0.5 0.5
9 0 1 0 0 0 1 0 0 0 1 141 167 -18.60001 4.5 0.5 0.5
9 0 1 0 0 0 1 0 0 0 1 117 172 14.39999 0.5 1.5 1.5
9 0 1 0 0 0 1 0 0 0 1 96 202 -59.60001 0.5 1.5 1.5
9 0 1 0 0 0 1 0 0 0 1 -17 162 -2.600006 4.5 0.5 0.5
9 0 1 0 0 0 1 0 0 0 1 -44 183 -18.60001 0.5 4.5 0.5
9 0 1 0 0 0 1 0 0 0 1 -96 202 -59.60001 0.5 1.5 1.5
9 0 1 0 0 0 1 0 0 0 1 -117 165 14.39999 0.5 1.5 1.5
9 0 1 0 0 0 1 0 0 0 1 -141 167 -18.60001 4.5 0.5 0.5
9 0 1 0 0 0 1 0 0 0 1 -159 145 37.39999 4.5 0.5 0.5
9 0 1 0 0 0 1 0 0 0 1 -159 140 47.39999 4.5 0.5 0.5
9 0 1 0 0 0 1 0 0 0 1 -159 138 51.39999 4.5 0.5 0.5
9 0 1 0 0 0 1 0 0 0 1 -159 68 123.4 4.5 0.5 0.5
9 0 1 0 0 0 1 0 0 0 1 -159 48 133.4 4.5 0.5 0.5
9 0 1 0 0 0 1 0 0 0 1 -159 43 135.4 4.5 0.5 0.5
9 0 1 0 0 0 1 0 0 0 1 -159 35 138.4 4.5 0.5 0.5
9 0 1 0 0 0 1 0 0 0 1 -159 29 140.4 4.5 0.5 0.5
9 0 1 0 0 0 1 0 0 0 1 -159 22 142.4 4.5 0.5 0.5
9 0 1 0 0 0 1 0 0 0 1 -172 32 8.399994 0.5 1.5 1.5
9 0 1 0 0 0 1 0 0 0 1 -172 28 8.399994 0.5 1.5 1.5
9 0 1 0 0 0 1 0 0 0 1 -172 12 8.399994 0.5 1.5 1.5
9 0 1 0 0 0 1 0 0 0 1 -172 8 8.399994 0.5 1.5 1.5
9 0 1 0 0 0 1 0 0 0 1 -174 141 38.39999 0.5 0.5 4.5
9 0 1 0 0 0 1 0 0 0 1 -176 123 24.39999 4.5 0.5 0.5
9 0 1 0 0 0 1 0 0 0 1 -176 95 15.39999 4.5 0.5 0.5
9 0 1 0 0 0 1 0 0 0 1 -181 174 -9.600006 0.5 4.5 0.5
9 0 1 0 0 0 1 0 0 0 1 188 184.5 -14.10001 0.5 1 2
9 0 1 0 0 0 1 0 0 0 1 188 173.5 -24.10001 0.5 2 1
9 0 1 0 0 0 1 0 0 0 1 186.5 168 -5.100006 1 0.5 2
9 0 1 0 0 0 1 0 0 0 1 184.5 148 32.39999 4 0.5 0.5
9 0 1 0 0 0 1 0 0 0 1 181 109.5 -19.10001 0.5 2 1
9 0 1 0 0 0 1 0 0 0 1 180 162.5 -11.10001 0.5 1 2
9 0 1 0 0 0 1 0 0 0 1 180 127.5 24.89999 0.5 2 1
9 0 1 0 0 0 1 0 0 0 1 180.5 122.5 -19.60001 1 2 0.5
9 0 1 0 0 0 1 0 0 0 1 180 84.5 -28.10001 0.5 2 1
9 0 1 0 0 0 1 0 0 0 1 180 33.5 -9.100006 0.5 2 1
9 0 1 0 0 0 1 0 0 0 1 173 131.5 48.89999 0.5 1 2
9 0 1 0 0 0 1 0 0 0 1 173 125.5 61.89999 0.5 1 2
9 0 1 0 0 0 1 0 0 0 1 176.5 73 8.399994 4 0.5 0.5
9 0 1 0 0 0 1 0 0 0 1 173 33.5 136.9 0.5 1 2
9 0 1 0 0 0 1 0 0 0 1 172.5 140.5 49.89999 1 1 1
9 0 1 0 0 0 1 0 0 0 1 175.5 92 14.39999 4 0.5 0.5
9 0 1 0 0 0 1 0 0 0 1 172.5 80 115.9 1 0.5 2
9 0 1 0 0 0 1 0 0 0 1 172.5 -11 125.9 1 0.5 2
9 0 1 0 0 0 1 0 0 0 1 169.5 137 53.89999 2 0.5 1
9 0 1 0 0 0 1 0 0 0 1 166 190.5 -32.10001 0.5 1 2
9 0 1 0 0 0 1 0 0 0 1 166 184.5 -14.10001 0.5 1 2
9 0 1 0 0 0 1 0 0 0 1 167.5 142 44.39999 4 0.5 0.5
9 0 1 0 0 0 1 0 0 0 1 167.5 140 48.39999 4 0.5 0.5
9 0 1 0 0 0 1 0 0 0 1 167.5 135 57.39999 4 0.5 0.5
9 0 1 0 0 0 1 0 0 0 1 167.5 133 60.39999 4 0.5 0.5
9 0 1 0 0 0 1 0 0 0 1 167.5 131 63.39999 4 0.5 0.5
9 0 1 0 0 0 1 0 0 0 1 167.5 129 66.39999 4 0.5 0.5
9 0 1 0 0 0 1 0 0 0 1 167.5 125 72.39999 4 0.5 0.5
9 0 1 0 0 0 1 0 0 0 1 167.5 121 77.39999 4 0.5 0.5
9 0 1 0 0 0 1 0 0 0 1 167.5 116 83.39999 4 0.5 0.5
9 0 1 0 0 0 1 0 0 0 1 167.5 112 90.39999 4 0.5 0.5
9 0 1 0 0 0 1 0 0 0 1 167.5 101 99.39999 4 0.5 0.5
9 0 1 0 0 0 1 0 0 0 1 167.5 92 106.4 4 0.5 0.5
9 0 1 0 0 0 1 0 0 0 1 167.5 88 110.4 4 0.5 0.5
9 0 1 0 0 0 1 0 0 0 1 167.5 85 112.4 4 0.5 0.5
9 0 1 0 0 0 1 0 0 0 1 167.5 84 113.4 4 0.5 0.5
9 0 1 0 0 0 1 0 0 0 1 167.5 78 117.4 4 0.5 0.5
9 0 1 0 0 0 1 0 0 0 1 167.5 67 124.4 4 0.5 0.5
9 0 1 0 0 0 1 0 0 0 1 164 42.5 136.9 0.5 2 1
9 0 1 0 0 0 1 0 0 0 1 167.5 39 137.4 4 0.5 0.5
9 0 1 0 0 0 1 0 0 0 1 154.5 167 -18.60001 4 0.5 0.5
9 0 1 0 0 0 1 0 0 0 1 128.5 167 -18.60001 4 0.5 0.5
9 0 1 0 0 0 1 0 0 0 1 117 165.5 19.89999 0.5 2 1
9 0 1 0 0 0 1 0 0 0 1 116.5 175.5 7.899994 1 1 1
9 0 1 0 0 0 1 0 0 0 1 110.5 185 -45.60001 4 0.5 0.5
9 0 1 0 0 0 1 0 0 0 1 102.5 177 -35.60001 4 0.5 0.5
9 0 1 0 0 0 1 0 0 0 1 46 174.5 8.899994 0.5 1 2
9 0 1 0 0 0 1 0 0 0 1 46 153.5 27.89999 0.5 2 1
9 0 1 0 0 0 1 0 0 0 1 28.5 171 -26.60001 4 0.5 0.5
9 0 1 0 0 0 1 0 0 0 1 24 197.5 -44.10001 0.5 1 2
9 0 1 0 0 0 1 0 0 0 1 24 193.5 -35.10001 0.5 1 2
9 0 1 0 0 0 1 0 0 0 1 24 189.5 -54.10001 0.5 1 2
9 0 1 0 0 0 1 0 0 0 1 -24 197.5 -44.10001 0.5 1 2
9 0 1 0 0 0 1 0 0 0 1 -24 193.5 -35.10001 0.5 1 2
9 0 1 0 0 0 1 0 0 0 1 -24 189.5 -54.10001 0.5 1 2
9 0 1 0 0 0 1 0 0 0 1 -28.5 171 -26.60001 4 0.5 0.5
9 0 1 0 0 0 1 0 0 0 1 -45.5 175.5 7.899994 1 1 1
9 0 1 0 0 0 1 0 0 0 1 -46 153.5 27.89999 0.5 2 1
9 0 1 0 0 0 1 0 0 0 1 -102.5 177 -35.60001 4 0.5 0.5
9 0 1 0 0 0 1 0 0 0 1 -110.5 185 -45.60001 4 0.5 0.5
9 0 1 0 0 0 1 0 0 0 1 -116.5 175.5 7.899994 1 1 1
9 0 1 0 0 0 1 0 0 0 1 -117 165.5 19.89999 0.5 2 1
9 0 1 0 0 0 1 0 0 0 1 -128.5 167 -18.60001 4 0.5 0.5
9 0 1 0 0 0 1 0 0 0 1 -154.5 167 -18.60001 4 0.5 0.5
9 0 1 0 0 0 1 0 0 0 1 -166 190.5 -32.10001 0.5 1 2
9 0 1 0 0 0 1 0 0 0 1 -166 184.5 -14.10001 0.5 1 2
9 0 1 0 0 0 1 0 0 0 1 -165.5 66.5 124.4 2 1 0.5
9 0 1 0 0 0 1 0 0 0 1 -167.5 143 42.39999 4 0.5 0.5
9 0 1 0 0 0 1 0 0 0 1 -167.5 141 46.39999 4 0.5 0.5
9 0 1 0 0 0 1 0 0 0 1 -167.5 137 54.39999 4 0.5 0.5
9 0 1 0 0 0 1 0 0 0 1 -167.5 135 57.39999 4 0.5 0.5
9 0 1 0 0 0 1 0 0 0 1 -167.5 133 60.39999 4 0.5 0.5
9 0 1 0 0 0 1 0 0 0 1 -167.5 131 63.39999 4 0.5 0.5
9 0 1 0 0 0 1 0 0 0 1 -167.5 129 66.39999 4 0.5 0.5
9 0 1 0 0 0 1 0 0 0 1 -167.5 121 77.39999 4 0.5 0.5
9 0 1 0 0 0 1 0 0 0 1 -167.5 116 83.39999 4 0.5 0.5
9 0 1 0 0 0 1 0 0 0 1 -167.5 101 99.39999 4 0.5 0.5
9 0 1 0 0 0 1 0 0 0 1 -167.5 92 106.4 4 0.5 0.5
9 0 1 0 0 0 1 0 0 0 1 -167.5 90 108.4 4 0.5 0.5
9 0 1 0 0 0 1 0 0 0 1 -167.5 85 112.4 4 0.5 0.5
9 0 1 0 0 0 1 0 0 0 1 -167.5 81 115.4 4 0.5 0.5
9 0 1 0 0 0 1 0 0 0 1 -167.5 75 119.4 4 0.5 0.5
9 0 1 0 0 0 1 0 0 0 1 -167.5 38 137.4 4 0.5 0.5
9 0 1 0 0 0 1 0 0 0 1 -172 90.5 14.89999 0.5 2 1
9 0 1 0 0 0 1 0 0 0 1 -172.5 138.5 47.89999 1 1 1
9 0 1 0 0 0 1 0 0 0 1 -173 131.5 48.89999 0.5 1 2
9 0 1 0 0 0 1 0 0 0 1 -173 125.5 61.89999 0.5 1 2
9 0 1 0 0 0 1 0 0 0 1 -173 117.5 78.89999 0.5 1 2
9 0 1 0 0 0 1 0 0 0 1 -173 84.5 110.9 0.5 1 2
9 0 1 0 0 0 1 0 0 0 1 -172.5 77 117.9 1 0.5 2
9 0 1 0 0 0 1 0 0 0 1 -173 68.5 117.9 0.5 2 1
9 0 1 0 0 0 1 0 0 0 1 -173 63.5 123.4 0.5 4 0.5
9 0 1 0 0 0 1 0 0 0 1 -172.5 49.5 132.9 1 1 1
9 0 1 0 0 0 1 0 0 0 1 -173 13.5 143.9 0.5 2 1
9 0 1 0 0 0 1 0 0 0 1 -172.5 -11 125.9 1 0.5 2
9 0 1 0 0 0 1 0 0 0 1 -180 162.5 -11.10001 0.5 1 2
9 0 1 0 0 0 1 0 0 0 1 -176.5 126 25.39999 4 0.5 0.5
9 0 1 0 0 0 1 0 0 0 1 -180 84.5 -28.10001 0.5 2 1
9 0 1 0 0 0 1 0 0 0 1 -176.5 73 8.399994 4 0.5 0.5
9 0 1 0 0 0 1 0 0 0 1 -180 33.5 -9.100006 0.5 2 1
9 0 1 0 0 0 1 0 0 0 1 -180.5 122.5 -19.60001 1 2 0.5
9 0 1 0 0 0 1 0 0 0 1 -181 109.5 -19.10001 0.5 2 1
9 0 1 0 0 0 1 0 0 0 1 -186 167.5 -2.100006 0.5 1 2
9 0 1 0 0 0 1 0 0 0 1 -188 184.5 -14.10001 0.5 1 2
9 0 1 0 0 0 1 0 0 0 1 -188 173.5 -24.10001 0.5 2 1
9 0 1 0 0 0 1 0 0 0 1 -184.5 150 29.39999 4 0.5 0.5
9 0 1 0 0 0 1 0 0 0 1 181 136 -10.60001 0.5 3.5 0.5
9 0 1 0 0 0 1 0 0 0 1 180 145 30.39999 0.5 3.5 0.5
9 0 1 0 0 0 1 0 0 0 1 180 27 -27.60001 0.5 3.5 0.5
9 0 1 0 0 0 1 0 0 0 1 177 47 4.399994 3.5 0.5 0.5
9 0 1 0 0 0 1 0 0 0 1 177 45 6.399994 3.5 0.5 0.5
9 0 1 0 0 0 1 0 0 0 1 176 126 25.39999 3.5 0.5 0.5
9 0 1 0 0 0 1 0 0 0 1 173 -7 142.4 0.5 0.5 3.5
9 0 1 0 0 0 1 0 0 0 1 175 104 18.39999 3.5 0.5 0.5
9 0 1 0 0 0 1 0 0 0 1 175 98 16.39999 3.5 0.5 0.5
9 0 1 0 0 0 1 0 0 0 1 172 -4 145.4 0.5 3.5 0.5
9 0 1 0 0 0 1 0 0 0 1 170 108 94.39999 3.5 0.5 0.5
9 0 1 0 0 0 1 0 0 0 1 169 164 -12.60001 3.5 0.5 0.5
9 0 1 0 0 0 1 0 0 0 1 168 32 139.4 3.5 0.5 0.5
9 0 1 0 0 0 1 0 0 0 1 117 199 -55.60001 0.5 3.5 0.5
9 0 1 0 0 0 1 0 0 0 1 44 159 4.399994 3.5 0.5 0.5
9 0 1 0 0 0 1 0 0 0 1 43 192 -59.60001 3.5 0.5 0.5
9 0 1 0 0 0 1 0 0 0 1 43 178 -39.60001 3.5 0.5 0.5
9 0 1 0 0 0 1 0 0 0 1 37 183 -15.60001 0.5 3.5 0.5
9 0 1 0 0 0 1 0 0 0 1 24 196 -59.60001 0.5 3.5 0.5
9 0 1 0 0 0 1 0 0 0 1 -24 196 -59.60001 0.5 3.5 0.5
9 0 1 0 0 0 1 0 0 0 1 -37 183 -15.60001 0.5 3.5 0.5
9 0 1 0 0 0 1 0 0 0 1 -43 192 -59.60001 3.5 0.5 0.5
9 0 1 0 0 0 1 0 0 0 1 -43 178 -39.60001 3.5 0.5 0.5
9 0 1 0 0 0 1 0 0 0 1 -44 159 4.399994 3.5 0.5 0.5
9 0 1 0 0 0 1 0 0 0 1 -117 199 -55.60001 0.5 3.5 0.5
9 0 1 0 0 0 1 0 0 0 1 -127 161 -3.600006 3.5 0.5 0.5
9 0 1 0 0 0 1 0 0 0 1 -148 112 87.39999 3.5 0.5 0.5
9 0 1 0 0 0 1 0 0 0 1 -169 164 -12.60001 3.5 0.5 0.5
9 0 1 0 0 0 1 0 0 0 1 -170 108 94.39999 3.5 0.5 0.5
9 0 1 0 0 0 1 0 0 0 1 -173 3 145.4 0.5 3.5 0.5
9 0 1 0 0 0 1 0 0 0 1 -173 -7 142.4 0.5 0.5 3.5
9 0 1 0 0 0 1 0 0 0 1 -175 104 18.39999 3.5 0.5 0.5
9 0 1 0 0 0 1 0 0 0 1 -175 98 16.39999 3.5 0.5 0.5
9 0 1 0 0 0 1 0 0 0 1 -176 92 14.39999 3.5 0.5 0.5
9 0 1 0 0 0 1 0 0 0 1 -180 145 30.39999 0.5 3.5 0.5
9 0 1 0 0 0 1 0 0 0 1 -177 47 4.399994 3.5 0.5 0.5
9 0 1 0 0 0 1 0 0 0 1 -177 45 6.399994 3.5 0.5 0.5
9 0 1 0 0 0 1 0 0 0 1 -180 27 -27.60001 0.5 3.5 0.5
9 0 1 0 0 0 1 0 0 0 1 -181 136 -10.60001 0.5 3.5 0.5
9 0 1 0 0 0 1 0 0 0 1 187 181 -4.100006 1.5 0.5 1
9 0 1 0 0 0 1 0 0 0 1 187 178 2.899994 1.5 0.5 1
9 0 1 0 0 0 1 0 0 0 1 186 167.5 -1.600006 0.5 1 1.5
9 0 1 0 0 0 1 0 0 0 1 184 170.5 -6.600006 0.5 3 0.5
9 0 1 0 0 0 1 0 0 0 1 185 36.5 7.399994 1.5 1 0.5
9 0 1 0 0 0 1 0 0 0 1 185 16.5 7.399994 1.5 1 0.5
9 0 1 0 0 0 1 0 0 0 1 184.5 172 -24.60001 3 0.5 0.5
9 0 1 0 0 0 1 0 0 0 1 182 160 0.8999939 1.5 0.5 1
9 0 1 0 0 0 1 0 0 0 1 181 149 -15.10001 0.5 1.5 1
9 0 1 0 0 0 1 0 0 0 1 181 115 -17.10001 0.5 1.5 1
9 0 1 0 0 0 1 0 0 0 1 181 103.5 -24.60001 0.5 3 0.5
9 0 1 0 0 0 1 0 0 0 1 181 100.5 -22.60001 0.5 1 1.5
9 0 1 0 0 0 1 0 0 0 1 180 137 27.89999 0.5 1.5 1
9 0 1 0 0 0 1 0 0 0 1 180 118 21.89999 0.5 1.5 1
9 0 1 0 0 0 1 0 0 0 1 180.5 113 -22.60001 1 1.5 0.5
9 0 1 0 0 0 1 0 0 0 1 180 109 18.89999 0.5 1.5 1
9 0 1 0 0 0 1 0 0 0 1 180 100 15.89999 0.5 1.5 1
9 0 1 0 0 0 1 0 0 0 1 180 90 12.89999 0.5 1.5 1
9 0 1 0 0 0 1 0 0 0 1 180 14.5 -19.60001 0.5 1 1.5
9 0 1 0 0 0 1 0 0 0 1 180 5.5 -11.60001 0.5 1 1.5
9 0 1 0 0 0 1 0 0 0 1 175 23.5 7.399994 1.5 1 0.5
9 0 1 0 0 0 1 0 0 0 1 174 -13.5 126.4 0.5 1 1.5
9 0 1 0 0 0 1 0 0 0 1 175 -16.5 127.4 1.5 1 0.5
9 0 1 0 0 0 1 0 0 0 1 173 104.5 89.39999 0.5 1 1.5
9 0 1 0 0 0 1 0 0 0 1 175.5 101 17.39999 3 0.5 0.5
9 0 1 0 0 0 1 0 0 0 1 173 96 95.89999 0.5 1.5 1
9 0 1 0 0 0 1 0 0 0 1 173 90.5 100.4 0.5 1 1.5
9 0 1 0 0 0 1 0 0 0 1 173 62 122.9 0.5 1.5 1
9 0 1 0 0 0 1 0 0 0 1 173 51.5 131.4 0.5 1 1.5
9 0 1 0 0 0 1 0 0 0 1 173 142 41.89999 1.5 0.5 1
9 0 1 0 0 0 1 0 0 0 1 172.5 113 88.39999 1 0.5 1.5
9 0 1 0 0 0 1 0 0 0 1 172 91.5 15.39999 0.5 3 0.5
9 0 1 0 0 0 1 0 0 0 1 172 82.5 12.39999 0.5 3 0.5
9 0 1 0 0 0 1 0 0 0 1 172 25.5 140.4 0.5 3 0.5
9 0 1 0 0 0 1 0 0 0 1 174.5 -7 8.399994 3 0.5 0.5
9 0 1 0 0 0 1 0 0 0 1 168 180.5 -6.600006 0.5 3 0.5
9 0 1 0 0 0 1 0 0 0 1 166 174.5 -24.60001 0.5 1 1.5
9 0 1 0 0 0 1 0 0 0 1 166 165 -9.100006 0.5 1.5 1
9 0 1 0 0 0 1 0 0 0 1 166 165 -6.100006 0.5 1.5 1
9 0 1 0 0 0 1 0 0 0 1 140.5 32 139.4 3 0.5 0.5
9 0 1 0 0 0 1 0 0 0 1 138.5 66 124.4 3 0.5 0.5
9 0 1 0 0 0 1 0 0 0 1 131.5 32 139.4 3 0.5 0.5
9 0 1 0 0 0 1 0 0 0 1 116 202.5 -60.60001 0.5 1 1.5
9 0 1 0 0 0 1 0 0 0 1 116.5 180 -1.600006 1 0.5 1.5
9 0 1 0 0 0 1 0 0 0 1 116 170 16.89999 0.5 1.5 1
9 0 1 0 0 0 1 0 0 0 1 116.5 167 -17.60001 1 0.5 1.5
9 0 1 0 0 0 1 0 0 0 1 116 184 -11.10001 1.5 0.5 1
9 0 1 0 0 0 1 0 0 0 1 112.5 66 124.4 3 0.5 0.5
9 0 1 0 0 0 1 0 0 0 1 96 184.5 -16.60001 0.5 3 0.5
9 0 1 0 0 0 1 0 0 0 1 86.5 165 -13.60001 3 0.5 0.5
9 0 1 0 0 0 1 0 0 0 1 86.5 66 124.4 3 0.5 0.5
9 0 1 0 0 0 1 0 0 0 1 82.5 165 -9.600006 3 0.5 0.5
9 0 1 0 0 0 1 0 0 0 1 77.5 66 124.4 3 0.5 0.5
9 0 1 0 0 0 1 0 0 0 1 51.5 66 124.4 3 0.5 0.5
9 0 1 0 0 0 1 0 0 0 1 46 172.5 -24.60001 0.5 1 1.5
9 0 1 0 0 0 1 0 0 0 1 46 166 19.89999 0.5 1.5 1
9 0 1 0 0 0 1 0 0 0 1 46 160 23.89999 0.5 1.5 1
9 0 1 0 0 0 1 0 0 0 1 45 192 -29.10001 1.5 0.5 1
9 0 1 0 0 0 1 0 0 0 1 45 189 -22.10001 1.5 0.5 1
9 0 1 0 0 0 1 0 0 0 1 42.5 32 139.4 3 0.5 0.5
9 0 1 0 0 0 1 0 0 0 1 33.5 32 139.4 3 0.5 0.5
9 0 1 0 0 0 1 0 0 0 1 25 201 -66.10001 0.5 1.5 1
9 0 1 0 0 0 1 0 0 0 1 24 200.5 -61.60001 0.5 3 0.5
9 0 1 0 0 0 1 0 0 0 1 24 183.5 -46.60001 0.5 1 1.5
9 0 1 0 0 0 1 0 0 0 1 25.5 66 124.4 3 0.5 0.5
9 0 1 0 0 0 1 0 0 0 1 11.5 161 -3.600006 3 0.5 0.5
9 0 1 0 0 0 1 0 0 0 1 -8.5 66 124.4 3 0.5 0.5
9 0 1 0 0 0 1 0 0 0 1 -24 200.5 -61.60001 0.5 3 0.5
9 0 1 0 0 0 1 0 0 0 1 -24 183.5 -46.60001 0.5 1 1.5
9 0 1 0 0 0 1 0 0 0 1 -25 201 -66.10001 0.5 1.5 1
9 0 1 0 0 0 1 0 0 0 1 -33.5 161 -3.600006 3 0.5 0.5
9 0 1 0 0 0 1 0 0 0 1 -38.5 156 11.39999 3 0.5 0.5
9 0 1 0 0 0 1 0 0 0 1 -45 177 -24.10001 0.5 1.5 1
9 0 1 0 0 0 1 0 0 0 1 -45 192 -29.10001 1.5 0.5 1
9 0 1 0 0 0 1 0 0 0 1 -45 189 -22.10001 1.5 0.5 1
9 0 1 0 0 0 1 0 0 0 1 -45.5 172 -24.60001 1 0.5 1.5
9 0 1 0 0 0 1 0 0 0 1 -46 166 19.89999 0.5 1.5 1
9 0 1 0 0 0 1 0 0 0 1 -46 160 23.89999 0.5 1.5 1
9 0 1 0 0 0 1 0 0 0 1 -51.5 66 124.4 3 0.5 0.5
9 0 1 0 0 0 1 0 0 0 1 -55.5 32 139.4 3 0.5 0.5
9 0 1 0 0 0 1 0 0 0 1 -64.5 32 139.4 3 0.5 0.5
9 0 1 0 0 0 1 0 0 0 1 -77.5 66 124.4 3 0.5 0.5
9 0 1 0 0 0 1 0 0 0 1 -82.5 165 -9.600006 3 0.5 0.5
9 0 1 0 0 0 1 0 0 0 1 -86.5 165 -13.60001 3 0.5 0.5
9 0 1 0 0 0 1 0 0 0 1 -96 184.5 -16.60001 0.5 3 0.5
9 0 1 0 0 0 1 0 0 0 1 -103.5 66 124.4 3 0.5 0.5
9 0 1 0 0 0 1 0 0 0 1 -112.5 66 124.4 3 0.5 0.5
9 0 1 0 0 0 1 0 0 0 1 -116 202.5 -60.60001 0.5 1 1.5
9 0 1 0 0 0 1 0 0 0 1 -116 170 16.89999 0.5 1.5 1
9 0 1 0 0 0 1 0 0 0 1 -116 184 -11.10001 1.5 0.5 1
9 0 1 0 0 0 1 0 0 0 1 -116.5 180 -1.600006 1 0.5 1.5
9 0 1 0 0 0 1 0 0 0 1 -114.5 167 -18.60001 3 0.5 0.5
9 0 1 0 0 0 1 0 0 0 1 -129.5 66 124.4 3 0.5 0.5
9 0 1 0 0 0 1 0 0 0 1 -138.5 112 87.39999 3 0.5 0.5
9 0 1 0 0 0 1 0 0 0 1 -138.5 66 124.4 3 0.5 0.5
9 0 1 0 0 0 1 0 0 0 1 -162.5 32 139.4 3 0.5 0.5
9 0 1 0 0 0 1 0 0 0 1 -166 174.5 -24.60001 0.5 1 1.5
9 0 1 0 0 0 1 0 0 0 1 -166 165 -9.100006 0.5 1.5 1
9 0 1 0 0 0 1 0 0 0 1 -166 165 -6.100006 0.5 1.5 1
9 0 1 0 0 0 1 0 0 0 1 -172 82.5 12.39999 0.5 3 0.5
9 0 1 0 0 0 1 0 0 0 1 -173 104.5 89.39999 0.5 1 1.5
9 0 1 0 0 0 1 0 0 0 1 -173 96 95.89999 0.5 1.5 1
9 0 1 0 0 0 1 0 0 0 1 -173 90.5 100.4 0.5 1 1.5
9 0 1 0 0 0 1 0 0 0 1 -172.5 87 109.4 1 1.5 0.5
9 0 1 0 0 0 1 0 0 0 1 -173 84.5 105.4 0.5 1 1.5
9 0 1 0 0 0 1 0 0 0 1 -173 75.5 112.4 0.5 1 1.5
9 0 1 0 0 0 1 0 0 0 1 -172.5 51 131.4 1 1.5 0.5
9 0 1 0 0 0 1 0 0 0 1 -174 -13.5 126.4 0.5 1 1.5
9 0 1 0 0 0 1 0 0 0 1 -175 23.5 7.399994 1.5 1 0.5
9 0 1 0 0 0 1 0 0 0 1 -175 -16.5 127.4 1.5 1 0.5
9 0 1 0 0 0 1 0 0 0 1 -174.5 -7 8.399994 3 0.5 0.5
9 0 1 0 0 0 1 0 0 0 1 -175.5 101 17.39999 3 0.5 0.5
9 0 1 0 0 0 1 0 0 0 1 -180 137 27.89999 0.5 1.5 1
9 0 1 0 0 0 1 0 0 0 1 -180 128 24.89999 0.5 1.5 1
9 0 1 0 0 0 1 0 0 0 1 -180 118 21.89999 0.5 1.5 1
9 0 1 0 0 0 1 0 0 0 1 -180 109 18.89999 0.5 1.5 1
9 0 1 0 0 0 1 0 0 0 1 -180 100 15.89999 0.5 1.5 1
9 0 1 0 0 0 1 0 0 0 1 -180 90 12.89999 0.5 1.5 1
9 0 1 0 0 0 1 0 0 0 1 -180 14.5 -19.60001 0.5 1 1.5
9 0 1 0 0 0 1 0 0 0 1 -180 5.5 -11.60001 0.5 1 1.5
9 0 1 0 0 0 1 0 0 0 1 -181 149 -15.10001 0.5 1.5 1
9 0 1 0 0 0 1 0 0 0 1 -181 115 -17.10001 0.5 1.5 1
9 0 1 0 0 0 1 0 0 0 1 -180.5 113 -22.60001 1 1.5 0.5
9 0 1 0 0 0 1 0 0 0 1 -181 103.5 -24.60001 0.5 3 0.5
9 0 1 0 0 0 1 0 0 0 1 -181 100.5 -22.60001 0.5 1 1.5
9 0 1 0 0 0 1 0 0 0 1 -184 170.5 -6.600006 0.5 3 0.5
9 0 1 0 0 0 1 0 0 0 1 -185 36.5 7.399994 1.5 1 0.5
9 0 1 0 0 0 1 0 0 0 1 -185 16.5 7.399994 1.5 1 0.5
9 0 1 0 0 0 1 0 0 0 1 -184.5 172 -24.60001 3 0.5 0.5
9 0 1 0 0 0 1 0 0 0 1 -186 168 -6.100006 1.5 0.5 1
9 0 1 0 0 0 1 0 0 0 1 -187 181 -4.100006 1.5 0.5 1
9 0 1 0 0 0 1 0 0 0 1 -187 178 2.899994 1.5 0.5 1
9 0 1 0 0 0 1 0 0 0 1 -187.5 159 5.399994 1 0.5 1.5
9 0 1 0 0 0 1 0 0 0 1 186 163 -9.600006 2.5 0.5 0.5
9 0 1 0 0 0 1 0 0 0 1 186 162 -6.600006 2.5 0.5 0.5
9 0 1 0 0 0 1 0 0 0 1 186 161 -3.600006 2.5 0.5 0.5
9 0 1 0 0 0 1 0 0 0 1 186 159 1.399994 2.5 0.5 0.5
9 0 1 0 0 0 1 0 0 0 1 186 157 7.399994 2.5 0.5 0.5
9 0 1 0 0 0 1 0 0 0 1 185 176 -28.60001 2.5 0.5 0.5
9 0 1 0 0 0 1 0 0 0 1 180 155 10.39999 0.5 0.5 2.5
9 0 1 0 0 0 1 0 0 0 1 177 157 7.399994 2.5 0.5 0.5
9 0 1 0 0 0 1 0 0 0 1 176 -7 4.399994 2.5 0.5 0.5
9 0 1 0 0 0 1 0 0 0 1 173 128 55.39999 0.5 0.5 2.5
9 0 1 0 0 0 1 0 0 0 1 173 83 112.4 0.5 2.5 0.5
9 0 1 0 0 0 1 0 0 0 1 174 110 20.39999 2.5 0.5 0.5
9 0 1 0 0 0 1 0 0 0 1 172 -5 9.399994 0.5 2.5 0.5
9 0 1 0 0 0 1 0 0 0 1 172 165 -9.600006 2.5 0.5 0.5
9 0 1 0 0 0 1 0 0 0 1 170 45 134.4 2.5 0.5 0.5
9 0 1 0 0 0 1 0 0 0 1 169 176 -28.60001 2.5 0.5 0.5
9 0 1 0 0 0 1 0 0 0 1 169 103 96.39999 2.5 0.5 0.5
9 0 1 0 0 0 1 0 0 0 1 169 64 125.4 2.5 0.5 0.5
9 0 1 0 0 0 1 0 0 0 1 166 169 -16.60001 0.5 0.5 2.5
9 0 1 0 0 0 1 0 0 0 1 164 66 124.4 2.5 0.5 0.5
9 0 1 0 0 0 1 0 0 0 1 163 105 94.39999 2.5 0.5 0.5
9 0 1 0 0 0 1 0 0 0 1 159 64 125.4 2.5 0.5 0.5
9 0 1 0 0 0 1 0 0 0 1 159 40 136.4 2.5 0.5 0.5
9 0 1 0 0 0 1 0 0 0 1 156 171 -24.60001 2.5 0.5 0.5
9 0 1 0 0 0 1 0 0 0 1 155 66 124.4 2.5 0.5 0.5
9 0 1 0 0 0 1 0 0 0 1 149 32 139.4 2.5 0.5 0.5
9 0 1 0 0 0 1 0 0 0 1 147 66 124.4 2.5 0.5 0.5
9 0 1 0 0 0 1 0 0 0 1 145 105 94.39999 2.5 0.5 0.5
9 0 1 0 0 0 1 0 0 0 1 141 40 136.4 2.5 0.5 0.5
9 0 1 0 0 0 1 0 0 0 1 137 105 94.39999 2.5 0.5 0.5
9 0 1 0 0 0 1 0 0 0 1 137 87 110.4 2.5 0.5 0.5
9 0 1 0 0 0 1 0 0 0 1 133 64 125.4 2.5 0.5 0.5
9 0 1 0 0 0 1 0 0 0 1 133 40 136.4 2.5 0.5 0.5
9 0 1 0 0 0 1 0 0 0 1 131 101 98.39999 2.5 0.5 0.5
9 0 1 0 0 0 1 0 0 0 1 129 66 124.4 2.5 0.5 0.5
9 0 1 0 0 0 1 0 0 0 1 128 105 94.39999 2.5 0.5 0.5
9 0 1 0 0 0 1 0 0 0 1 123 32 139.4 2.5 0.5 0.5
9 0 1 0 0 0 1 0 0 0 1 121 66 124.4 2.5 0.5 0.5
9 0 1 0 0 0 1 0 0 0 1 117 156 13.39999 0.5 0.5 2.5
9 0 1 0 0 0 1 0 0 0 1 119 105 94.39999 2.5 0.5 0.5
9 0 1 0 0 0 1 0 0 0 1 115 40 136.4 2.5 0.5 0.5
9 0 1 0 0 0 1 0 0 0 1 111 105 94.39999 2.5 0.5 0.5
9 0 1 0 0 0 1 0 0 0 1 111 87 110.4 2.5 0.5 0.5
9 0 1 0 0 0 1 0 0 0 1 105 101 98.39999 2.5 0.5 0.5
9 0 1 0 0 0 1 0 0 0 1 103 66 124.4 2.5 0.5 0.5
9 0 1 0 0 0 1 0 0 0 1 102 105 94.39999 2.5 0.5 0.5
9 0 1 0 0 0 1 0 0 0 1 101 137 53.39999 2.5 0.5 0.5
9 0 1 0 0 0 1 0 0 0 1 95 172 -23.60001 0.5 0.5 2.5
9 0 1 0 0 0 1 0 0 0 1 95 66 124.4 2.5 0.5 0.5
9 0 1 0 0 0 1 0 0 0 1 93 165 -9.600006 2.5 0.5 0.5
9 0 1 0 0 0 1 0 0 0 1 93 161 -3.600006 2.5 0.5 0.5
9 0 1 0 0 0 1 0 0 0 1 93 105 94.39999 2.5 0.5 0.5
9 0 1 0 0 0 1 0 0 0 1 89 40 136.4 2.5 0.5 0.5
9 0 1 0 0 0 1 0 0 0 1 85 105 94.39999 2.5 0.5 0.5
9 0 1 0 0 0 1 0 0 0 1 85 87 110.4 2.5 0.5 0.5
9 0 1 0 0 0 1 0 0 0 1 79 101 98.39999 2.5 0.5 0.5
9 0 1 0 0 0 1 0 0 0 1 75 165 -13.60001 2.5 0.5 0.5
9 0 1 0 0 0 1 0 0 0 1 71 40 136.4 2.5 0.5 0.5
9 0 1 0 0 0 1 0 0 0 1 69 100 99.39999 2.5 0.5 0.5
9 0 1 0 0 0 1 0 0 0 1 69 66 124.4 2.5 0.5 0.5
9 0 1 0 0 0 1 0 0 0 1 67 105 94.39999 2.5 0.5 0.5
9 0 1 0 0 0 1 0 0 0 1 63 40 136.4 2.5 0.5 0.5
9 0 1 0 0 0 1 0 0 0 1 61 66 124.4 2.5 0.5 0.5
9 0 1 0 0 0 1 0 0 0 1 59 105 94.39999 2.5 0.5 0.5
9 0 1 0 0 0 1 0 0 0 1 59 87 110.4 2.5 0.5 0.5
9 0 1 0 0 0 1 0 0 0 1 56 169 -23.60001 2.5 0.5 0.5
9 0 1 0 0 0 1 0 0 0 1 53 101 98.39999 2.5 0.5 0.5
9 0 1 0 0 0 1 0 0 0 1 46 201 -61.60001 0.5 2.5 0.5
9 0 1 0 0 0 1 0 0 0 1 46 156 13.39999 0.5 0.5 2.5
9 0 1 0 0 0 1 0 0 0 1 44 178 -27.60001 0.5 0.5 2.5
9 0 1 0 0 0 1 0 0 0 1 45 40 136.4 2.5 0.5 0.5
9 0 1 0 0 0 1 0 0 0 1 44 101 98.39999 2.5 0.5 0.5
9 0 1 0 0 0 1 0 0 0 1 43 100 99.39999 2.5 0.5 0.5
9 0 1 0 0 0 1 0 0 0 1 43 66 124.4 2.5 0.5 0.5
9 0 1 0 0 0 1 0 0 0 1 38 185 -50.60001 2.5 0.5 0.5
9 0 1 0 0 0 1 0 0 0 1 36 40 136.4 2.5 0.5 0.5
9 0 1 0 0 0 1 0 0 0 1 35 165 -9.600006 2.5 0.5 0.5
9 0 1 0 0 0 1 0 0 0 1 35 66 124.4 2.5 0.5 0.5
9 0 1 0 0 0 1 0 0 0 1 27 101 98.39999 2.5 0.5 0.5
9 0 1 0 0 0 1 0 0 0 1 26 173 -32.60001 2.5 0.5 0.5
9 0 1 0 0 0 1 0 0 0 1 25 165 -9.600006 2.5 0.5 0.5
9 0 1 0 0 0 1 0 0 0 1 25 32 139.4 2.5 0.5 0.5
9 0 1 0 0 0 1 0 0 0 1 24 87 110.4 2.5 0.5 0.5
9 0 1 0 0 0 1 0 0 0 1 21 64 125.4 2.5 0.5 0.5
9 0 1 0 0 0 1 0 0 0 1 19 40 136.4 2.5 0.5 0.5
9 0 1 0 0 0 1 0 0 0 1 17 106 93.39999 2.5 0.5 0.5
9 0 1 0 0 0 1 0 0 0 1 17 66 124.4 2.5 0.5 0.5
9 0 1 0 0 0 1 0 0 0 1 9 66 124.4 2.5 0.5 0.5
9 0 1 0 0 0 1 0 0 0 1 8 106 93.39999 2.5 0.5 0.5
9 0 1 0 0 0 1 0 0 0 1 8 100 99.39999 2.5 0.5 0.5
9 0 1 0 0 0 1 0 0 0 1 7 87 110.4 2.5 0.5 0.5
9 0 1 0 0 0 1 0 0 0 1 1 40 136.4 2.5 0.5 0.5
9 0 1 0 0 0 1 0 0 0 1 0 106 93.39999 2.5 0.5 0.5
9 0 1 0 0 0 1 0 0 0 1 0 66 124.4 2.5 0.5 0.5
9 0 1 0 0 0 1 0 0 0 1 -7 40 136.4 2.5 0.5 0.5
9 0 1 0 0 0 1 0 0 0 1 -9 106 93.39999 2.5 0.5 0.5
9 0 1 0 0 0 1 0 0 0 1 -9 100 99.39999 2.5 0.5 0.5
9 0 1 0 0 0 1 0 0 0 1 -17 106 93.39999 2.5 0.5 0.5
9 0 1 0 0 0 1 0 0 0 1 -17 66 124.4 2.5 0.5 0.5
9 0 1 0 0 0 1 0 0 0 1 -19 87 110.4 2.5 0.5 0.5
9 0 1 0 0 0 1 0 0 0 1 -25 101 98.39999 2.5 0.5 0.5
9 0 1 0 0 0 1 0 0 0 1 -25 40 136.4 2.5 0.5 0.5
9 0 1 0 0 0 1 0 0 0 1 -26 173 -32.60001 2.5 0.5 0.5
9 0 1 0 0 0 1 0 0 0 1 -26 106 93.39999 2.5 0.5 0.5
9 0 1 0 0 0 1 0 0 0 1 -26 66 124.4 2.5 0.5 0.5
9 0 1 0 0 0 1 0 0 0 1 -27 159 4.399994 2.5 0.5 0.5
9 0 1 0 0 0 1 0 0 0 1 -31 64 125.4 2.5 0.5 0.5
9 0 1 0 0 0 1 0 0 0 1 -33 40 136.4 2.5 0.5 0.5
9 0 1 0 0 0 1 0 0 0 1 -35 165 -9.600006 2.5 0.5 0.5
9 0 1 0 0 0 1 0 0 0 1 -35 106 93.39999 2.5 0.5 0.5
9 0 1 0 0 0 1 0 0 0 1 -35 100 99.39999 2.5 0.5 0.5
9 0 1 0 0 0 1 0 0 0 1 -35 66 124.4 2.5 0.5 0.5
9 0 1 0 0 0 1 0 0 0 1 -38 185 -50.60001 2.5 0.5 0.5
9 0 1 0 0 0 1 0 0 0 1 -44 175 -20.60001 0.5 0.5 2.5
9 0 1 0 0 0 1 0 0 0 1 -43 106 93.39999 2.5 0.5 0.5
9 0 1 0 0 0 1 0 0 0 1 -43 66 124.4 2.5 0.5 0.5
9 0 1 0 0 0 1 0 0 0 1 -46 201 -61.60001 0.5 2.5 0.5
9 0 1 0 0 0 1 0 0 0 1 -46 174 11.39999 0.5 0.5 2.5
9 0 1 0 0 0 1 0 0 0 1 -46 173 -25.60001 0.5 0.5 2.5
9 0 1 0 0 0 1 0 0 0 1 -46 156 13.39999 0.5 0.5 2.5
9 0 1 0 0 0 1 0 0 0 1 -45 87 110.4 2.5 0.5 0.5
9 0 1 0 0 0 1 0 0 0 1 -51 101 98.39999 2.5 0.5 0.5
9 0 1 0 0 0 1 0 0 0 1 -51 40 136.4 2.5 0.5 0.5
9 0 1 0 0 0 1 0 0 0 1 -56 169 -23.60001 2.5 0.5 0.5
9 0 1 0 0 0 1 0 0 0 1 -57 64 125.4 2.5 0.5 0.5
9 0 1 0 0 0 1 0 0 0 1 -61 100 99.39999 2.5 0.5 0.5
9 0 1 0 0 0 1 0 0 0 1 -61 66 124.4 2.5 0.5 0.5
9 0 1 0 0 0 1 0 0 0 1 -63 87 110.4 2.5 0.5 0.5
9 0 1 0 0 0 1 0 0 0 1 -69 66 124.4 2.5 0.5 0.5
9 0 1 0 0 0 1 0 0 0 1 -73 32 139.4 2.5 0.5 0.5
9 0 1 0 0 0 1 0 0 0 1 -75 165 -13.60001 2.5 0.5 0.5
9 0 1 0 0 0 1 0 0 0 1 -77 101 98.39999 2.5 0.5 0.5
9 0 1 0 0 0 1 0 0 0 1 -77 40 136.4 2.5 0.5 0.5
9 0 1 0 0 0 1 0 0 0 1 -82 32 139.4 2.5 0.5 0.5
9 0 1 0 0 0 1 0 0 0 1 -87 106 93.39999 2.5 0.5 0.5
9 0 1 0 0 0 1 0 0 0 1 -87 100 99.39999 2.5 0.5 0.5
9 0 1 0 0 0 1 0 0 0 1 -87 66 124.4 2.5 0.5 0.5
9 0 1 0 0 0 1 0 0 0 1 -89 87 110.4 2.5 0.5 0.5
9 0 1 0 0 0 1 0 0 0 1 -95 172 -23.60001 0.5 0.5 2.5
9 0 1 0 0 0 1 0 0 0 1 -93 165 -9.600006 2.5 0.5 0.5
9 0 1 0 0 0 1 0 0 0 1 -95 106 93.39999 2.5 0.5 0.5
9 0 1 0 0 0 1 0 0 0 1 -95 66 124.4 2.5 0.5 0.5
9 0 1 0 0 0 1 0 0 0 1 -95 40 136.4 2.5 0.5 0.5
9 0 1 0 0 0 1 0 0 0 1 -103 101 98.39999 2.5 0.5 0.5
9 0 1 0 0 0 1 0 0 0 1 -103 40 136.4 2.5 0.5 0.5
9 0 1 0 0 0 1 0 0 0 1 -104 106 93.39999 2.5 0.5 0.5
9 0 1 0 0 0 1 0 0 0 1 -111 101 98.39999 2.5 0.5 0.5
9 0 1 0 0 0 1 0 0 0 1 -113 106 93.39999 2.5 0.5 0.5
9 0 1 0 0 0 1 0 0 0 1 -113 100 99.39999 2.5 0.5 0.5
9 0 1 0 0 0 1 0 0 0 1 -117 156 13.39999 0.5 0.5 2.5
9 0 1 0 0 0 1 0 0 0 1 -115 87 110.4 2.5 0.5 0.5
9 0 1 0 0 0 1 0 0 0 1 -118 161 -3.600006 2.5 0.5 0.5
9 0 1 0 0 0 1 0 0 0 1 -121 106 93.39999 2.5 0.5 0.5
9 0 1 0 0 0 1 0 0 0 1 -121 66 124.4 2.5 0.5 0.5
9 0 1 0 0 0 1 0 0 0 1 -121 40 136.4 2.5 0.5 0.5
9 0 1 0 0 0 1 0 0 0 1 -130 106 93.39999 2.5 0.5 0.5
9 0 1 0 0 0 1 0 0 0 1 -137 101 98.39999 2.5 0.5 0.5
9 0 1 0 0 0 1 0 0 0 1 -139 106 93.39999 2.5 0.5 0.5
9 0 1 0 0 0 1 0 0 0 1 -139 100 99.39999 2.5 0.5 0.5
9 0 1 0 0 0 1 0 0 0 1 -141 87 110.4 2.5 0.5 0.5
9 0 1 0 0 0 1 0 0 0 1 -147 106 93.39999 2.5 0.5 0.5
9 0 1 0 0 0 1 0 0 0 1 -147 66 124.4 2.5 0.5 0.5
9 0 1 0 0 0 1 0 0 0 1 -147 40 136.4 2.5 0.5 0.5
9 0 1 0 0 0 1 0 0 0 1 -156 171 -24.60001 2.5 0.5 0.5
9 0 1 0 0 0 1 0 0 0 1 -163 101 98.39999 2.5 0.5 0.5
9 0 1 0 0 0 1 0 0 0 1 -166 169 -16.60001 0.5 0.5 2.5
9 0 1 0 0 0 1 0 0 0 1 -165 40 136.4 2.5 0.5 0.5
9 0 1 0 0 0 1 0 0 0 1 -168 180 -6.600006 0.5 2.5 0.5
9 0 1 0 0 0 1 0 0 0 1 -169 176 -28.60001 2.5 0.5 0.5
9 0 1 0 0 0 1 0 0 0 1 -169 109 90.39999 2.5 0.5 0.5
9 0 1 0 0 0 1 0 0 0 1 -169 103 96.39999 2.5 0.5 0.5
9 0 1 0 0 0 1 0 0 0 1 -169 64 125.4 2.5 0.5 0.5
9 0 1 0 0 0 1 0 0 0 1 -172 -5 9.399994 0.5 2.5 0.5
9 0 1 0 0 0 1 0 0 0 1 -173 139 34.39999 0.5 2.5 0.5
9 0 1 0 0 0 1 0 0 0 1 -173 128 55.39999 0.5 0.5 2.5
9 0 1 0 0 0 1 0 0 0 1 -171 113 86.39999 2.5 0.5 0.5
9 0 1 0 0 0 1 0 0 0 1 -171 107 92.39999 2.5 0.5 0.5
9 0 1 0 0 0 1 0 0 0 1 -171 71 121.4 2.5 0.5 0.5
9 0 1 0 0 0 1 0 0 0 1 -172 165 -9.600006 2.5 0.5 0.5
9 0 1 0 0 0 1 0 0 0 1 -174 110 20.39999 2.5 0.5 0.5
9 0 1 0 0 0 1 0 0 0 1 -176 -7 4.399994 2.5 0.5 0.5
9 0 1 0 0 0 1 0 0 0 1 -177 157 7.399994 2.5 0.5 0.5
9 0 1 0 0 0 1 0 0 0 1 -180 155 10.39999 0.5 0.5 2.5
9 0 1 0 0 0 1 0 0 0 1 -185 176 -28.60001 2.5 0.5 0.5
9 0 1 0 0 0 1 0 0 0 1 -186 163 -9.600006 2.5 0.5 0.5
9 0 1 0 0 0 1 0 0 0 1 -186 162 -6.600006 2.5 0.5 0.5
9 0 1 0 0 0 1 0 0 0 1 -186 161 -3.600006 2.5 0.5 0.5
9 0 1 0 0 0 1 0 0 0 1 -186 159 1.399994 2.5 0.5 0.5
9 0 1 0 0 0 1 0 0 0 1 -186 158 4.399994 2.5 0.5 0.5
9 0 1 0 0 0 1 0 0 0 1 -186 157 7.399994 2.5 0.5 0.5
9 0 1 0 0 0 1 0 0 0 1 188 168 -14.10001 0.5 0.5 2
9 0 1 0 0 0 1 0 0 0 1 188 153.5 28.39999 0.5 2 0.5
9 0 1 0 0 0 1 0 0 0 1 187 194.5 -45.10001 0.5 1 1
9 0 1 0 0 0 1 0 0 0 1 187.5 175 9.899994 1 0.5 1
9 0 1 0 0 0 1 0 0 0 1 187.5 173 14.89999 1 0.5 1
9 0 1 0 0 0 1 0 0 0 1 187.5 160 -1.100006 1 0.5 1
9 0 1 0 0 0 1 0 0 0 1 187.5 157 9.899994 1 0.5 1
9 0 1 0 0 0 1 0 0 0 1 186.5 183 -7.600006 2 0.5 0.5
9 0 1 0 0 0 1 0 0 0 1 180 95.5 -25.60001 0.5 2 0.5
9 0 1 0 0 0 1 0 0 0 1 180 46.5 -6.100006 0.5 1 1
9 0 1 0 0 0 1 0 0 0 1 180 19.5 -24.10001 0.5 1 1
9 0 1 0 0 0 1 0 0 0 1 180 9.5 -16.10001 0.5 1 1
9 0 1 0 0 0 1 0 0 0 1 178.5 158 4.399994 2 0.5 0.5
9 0 1 0 0 0 1 0 0 0 1 178.5 42 7.399994 2 0.5 0.5
9 0 1 0 0 0 1 0 0 0 1 177.5 163 -9.600006 2 0.5 0.5
9 0 1 0 0 0 1 0 0 0 1 176 -7 132.9 0.5 0.5 2
9 0 1 0 0 0 1 0 0 0 1 174 -13.5 113.9 0.5 1 1
9 0 1 0 0 0 1 0 0 0 1 173 138.5 34.39999 0.5 2 0.5
9 0 1 0 0 0 1 0 0 0 1 173 135 39.89999 0.5 0.5 2
9 0 1 0 0 0 1 0 0 0 1 173 118 76.89999 0.5 0.5 2
9 0 1 0 0 0 1 0 0 0 1 173 84.5 104.9 0.5 1 1
9 0 1 0 0 0 1 0 0 0 1 173 75.5 111.9 0.5 1 1
9 0 1 0 0 0 1 0 0 0 1 173 70.5 115.9 0.5 1 1
9 0 1 0 0 0 1 0 0 0 1 173 57 126.9 0.5 0.5 2
9 0 1 0 0 0 1 0 0 0 1 173 8.5 145.4 0.5 2 0.5
9 0 1 0 0 0 1 0 0 0 1 172.5 138 49.89999 1 0.5 1
9 0 1 0 0 0 1 0 0 0 1 172.5 127 67.89999 1 0.5 1
9 0 1 0 0 0 1 0 0 0 1 172.5 124.5 74.39999 1 1 0.5
9 0 1 0 0 0 1 0 0 0 1 172 113.5 84.89999 0.5 1 1
9 0 1 0 0 0 1 0 0 0 1 172.5 107 94.89999 1 0.5 1
9 0 1 0 0 0 1 0 0 0 1 172 98 98.89999 0.5 0.5 2
9 0 1 0 0 0 1 0 0 0 1 172.5 72.5 119.4 1 1 0.5
9 0 1 0 0 0 1 0 0 0 1 172 35.5 9.399994 0.5 2 0.5
9 0 1 0 0 0 1 0 0 0 1 172 24.5 9.399994 0.5 2 0.5
9 0 1 0 0 0 1 0 0 0 1 172.5 23.5 141.4 1 1 0.5
9 0 1 0 0 0 1 0 0 0 1 172 15.5 9.399994 0.5 2 0.5
9 0 1 0 0 0 1 0 0 0 1 172 4.5 9.399994 0.5 2 0.5
9 0 1 0 0 0 1 0 0 0 1 172.5 -12 126.9 1 0.5 1
9 0 1 0 0 0 1 0 0 0 1 171 108.5 83.89999 0.5 1 1
9 0 1 0 0 0 1 0 0 0 1 171 106.5 85.89999 0.5 1 1
9 0 1 0 0 0 1 0 0 0 1 169.5 110 89.39999 2 0.5 0.5
9 0 1 0 0 0 1 0 0 0 1 169.5 104 95.39999 2 0.5 0.5
9 0 1 0 0 0 1 0 0 0 1 167 194.5 -45.10001 0.5 1 1
9 0 1 0 0 0 1 0 0 0 1 167 168.5 -6.100006 0.5 1 1
9 0 1 0 0 0 1 0 0 0 1 166 190 -28.10001 0.5 0.5 2
9 0 1 0 0 0 1 0 0 0 1 166.5 162 -2.600006 2 0.5 0.5
9 0 1 0 0 0 1 0 0 0 1 165.5 137 54.39999 2 0.5 0.5
9 0 1 0 0 0 1 0 0 0 1 165.5 125 71.39999 2 0.5 0.5
9 0 1 0 0 0 1 0 0 0 1 164 109.5 91.89999 0.5 1 1
9 0 1 0 0 0 1 0 0 0 1 165.5 107 92.39999 2 0.5 0.5
9 0 1 0 0 0 1 0 0 0 1 165.5 101 98.39999 2 0.5 0.5
9 0 1 0 0 0 1 0 0 0 1 164.5 100 99.89999 1 0.5 1
9 0 1 0 0 0 1 0 0 0 1 164 94.5 105.9 0.5 1 1
9 0 1 0 0 0 1 0 0 0 1 165.5 61 129.4 2 0.5 0.5
9 0 1 0 0 0 1 0 0 0 1 163.5 87 110.4 2 0.5 0.5
9 0 1 0 0 0 1 0 0 0 1 160.5 137 53.39999 2 0.5 0.5
9 0 1 0 0 0 1 0 0 0 1 158.5 161 -3.600006 2 0.5 0.5
9 0 1 0 0 0 1 0 0 0 1 150.5 161 -3.600006 2 0.5 0.5
9 0 1 0 0 0 1 0 0 0 1 146.5 100 99.39999 2 0.5 0.5
9 0 1 0 0 0 1 0 0 0 1 144.5 83 113.4 2 0.5 0.5
9 0 1 0 0 0 1 0 0 0 1 143.5 161 -3.600006 2 0.5 0.5
9 0 1 0 0 0 1 0 0 0 1 136.5 161 -3.600006 2 0.5 0.5
9 0 1 0 0 0 1 0 0 0 1 135.5 137 53.39999 2 0.5 0.5
9 0 1 0 0 0 1 0 0 0 1 134.5 71 121.4 2 0.5 0.5
9 0 1 0 0 0 1 0 0 0 1 130.5 162 -2.600006 2 0.5 0.5
9 0 1 0 0 0 1 0 0 0 1 129.5 100 99.39999 2 0.5 0.5
9 0 1 0 0 0 1 0 0 0 1 129.5 80 115.4 2 0.5 0.5
9 0 1 0 0 0 1 0 0 0 1 128.5 161 -3.600006 2 0.5 0.5
9 0 1 0 0 0 1 0 0 0 1 128.5 87 110.4 2 0.5 0.5
9 0 1 0 0 0 1 0 0 0 1 126.5 137 53.39999 2 0.5 0.5
9 0 1 0 0 0 1 0 0 0 1 124.5 64 125.4 2 0.5 0.5
9 0 1 0 0 0 1 0 0 0 1 123.5 40 136.4 2 0.5 0.5
9 0 1 0 0 0 1 0 0 0 1 120.5 100 99.39999 2 0.5 0.5
9 0 1 0 0 0 1 0 0 0 1 119.5 162 -2.600006 2 0.5 0.5
9 0 1 0 0 0 1 0 0 0 1 119.5 161 -3.600006 2 0.5 0.5
9 0 1 0 0 0 1 0 0 0 1 117 200.5 -54.10001 0.5 1 1
9 0 1 0 0 0 1 0 0 0 1 117 157.5 25.89999 0.5 1 1
9 0 1 0 0 0 1 0 0 0 1 118.5 83 113.4 2 0.5 0.5
9 0 1 0 0 0 1 0 0 0 1 116 203.5 -63.10001 0.5 1 1
9 0 1 0 0 0 1 0 0 0 1 116.5 182 -6.100006 1 0.5 1
9 0 1 0 0 0 1 0 0 0 1 116.5 178 2.899994 1 0.5 1
9 0 1 0 0 0 1 0 0 0 1 116.5 175 9.899994 1 0.5 1
9 0 1 0 0 0 1 0 0 0 1 116.5 166 -11.10001 1 0.5 1
9 0 1 0 0 0 1 0 0 0 1 116.5 163 -4.100006 1 0.5 1
9 0 1 0 0 0 1 0 0 0 1 116.5 161 0.8999939 1 0.5 1
9 0 1 0 0 0 1 0 0 0 1 116.5 158 7.899994 1 0.5 1
9 0 1 0 0 0 1 0 0 0 1 115.5 173 -17.10001 1 0.5 1
9 0 1 0 0 0 1 0 0 0 1 115 172.5 -15.10001 0.5 1 1
9 0 1 0 0 0 1 0 0 0 1 115.5 188 -19.60001 2 0.5 0.5
9 0 1 0 0 0 1 0 0 0 1 113.5 167 -18.60001 2 0.5 0.5
9 0 1 0 0 0 1 0 0 0 1 113.5 101 98.39999 2 0.5 0.5
9 0 1 0 0 0 1 0 0 0 1 109.5 137 53.39999 2 0.5 0.5
9 0 1 0 0 0 1 0 0 0 1 108.5 71 121.4 2 0.5 0.5
9 0 1 0 0 0 1 0 0 0 1 107.5 64 125.4 2 0.5 0.5
9 0 1 0 0 0 1 0 0 0 1 106.5 167 -18.60001 2 0.5 0.5
9 0 1 0 0 0 1 0 0 0 1 106.5 40 136.4 2 0.5 0.5
9 0 1 0 0 0 1 0 0 0 1 103.5 100 99.39999 2 0.5 0.5
9 0 1 0 0 0 1 0 0 0 1 103.5 80 115.4 2 0.5 0.5
9 0 1 0 0 0 1 0 0 0 1 102.5 161 -3.600006 2 0.5 0.5
9 0 1 0 0 0 1 0 0 0 1 102.5 87 110.4 2 0.5 0.5
9 0 1 0 0 0 1 0 0 0 1 98.5 64 125.4 2 0.5 0.5
9 0 1 0 0 0 1 0 0 0 1 97.5 40 136.4 2 0.5 0.5
9 0 1 0 0 0 1 0 0 0 1 95 188.5 -22.10001 0.5 1 1
9 0 1 0 0 0 1 0 0 0 1 95 186.5 -46.10001 0.5 1 1
9 0 1 0 0 0 1 0 0 0 1 95 185.5 -33.60001 0.5 2 0.5
9 0 1 0 0 0 1 0 0 0 1 96.5 101 98.39999 2 0.5 0.5
9 0 1 0 0 0 1 0 0 0 1 94.5 100 99.39999 2 0.5 0.5
9 0 1 0 0 0 1 0 0 0 1 93.5 87 110.4 2 0.5 0.5
9 0 1 0 0 0 1 0 0 0 1 92.5 83 113.4 2 0.5 0.5
9 0 1 0 0 0 1 0 0 0 1 91.5 71 121.4 2 0.5 0.5
9 0 1 0 0 0 1 0 0 0 1 87.5 101 98.39999 2 0.5 0.5
9 0 1 0 0 0 1 0 0 0 1 83.5 161 -3.600006 2 0.5 0.5
9 0 1 0 0 0 1 0 0 0 1 81.5 64 125.4 2 0.5 0.5
9 0 1 0 0 0 1 0 0 0 1 80.5 74 119.4 2 0.5 0.5
9 0 1 0 0 0 1 0 0 0 1 80.5 40 136.4 2 0.5 0.5
9 0 1 0 0 0 1 0 0 0 1 77.5 100 99.39999 2 0.5 0.5
9 0 1 0 0 0 1 0 0 0 1 77.5 80 115.4 2 0.5 0.5
9 0 1 0 0 0 1 0 0 0 1 76.5 105 94.39999 2 0.5 0.5
9 0 1 0 0 0 1 0 0 0 1 76.5 87 110.4 2 0.5 0.5
9 0 1 0 0 0 1 0 0 0 1 75.5 137 53.39999 2 0.5 0.5
9 0 1 0 0 0 1 0 0 0 1 74.5 161 -3.600006 2 0.5 0.5
9 0 1 0 0 0 1 0 0 0 1 72.5 64 125.4 2 0.5 0.5
9 0 1 0 0 0 1 0 0 0 1 70.5 101 98.39999 2 0.5 0.5
9 0 1 0 0 0 1 0 0 0 1 67.5 87 110.4 2 0.5 0.5
9 0 1 0 0 0 1 0 0 0 1 66.5 137 53.39999 2 0.5 0.5
9 0 1 0 0 0 1 0 0 0 1 65.5 71 121.4 2 0.5 0.5
9 0 1 0 0 0 1 0 0 0 1 61.5 101 98.39999 2 0.5 0.5
9 0 1 0 0 0 1 0 0 0 1 57.5 161 -3.600006 2 0.5 0.5
9 0 1 0 0 0 1 0 0 0 1 55.5 64 125.4 2 0.5 0.5
9 0 1 0 0 0 1 0 0 0 1 54.5 74 119.4 2 0.5 0.5
9 0 1 0 0 0 1 0 0 0 1 53.5 40 136.4 2 0.5 0.5
9 0 1 0 0 0 1 0 0 0 1 51.5 100 99.39999 2 0.5 0.5
9 0 1 0 0 0 1 0 0 0 1 50.5 105 94.39999 2 0.5 0.5
9 0 1 0 0 0 1 0 0 0 1 50.5 87 110.4 2 0.5 0.5
9 0 1 0 0 0 1 0 0 0 1 46 203.5 -68.10001 0.5 1 1
9 0 1 0 0 0 1 0 0 0 1 46 199 -64.10001 0.5 0.5 2
9 0 1 0 0 0 1 0 0 0 1 46 176.5 -30.60001 0.5 2 0.5
9 0 1 0 0 0 1 0 0 0 1 46 159 6.899994 0.5 0.5 2
9 0 1 0 0 0 1 0 0 0 1 46 153 20.89999 0.5 0.5 2
9 0 1 0 0 0 1 0 0 0 1 45 208.5 -74.10001 0.5 1 1
9 0 1 0 0 0 1 0 0 0 1 45.5 184 -11.10001 1 0.5 1
9 0 1 0 0 0 1 0 0 0 1 45.5 182 -6.100006 1 0.5 1
9 0 1 0 0 0 1 0 0 0 1 45.5 180 -1.100006 1 0.5 1
9 0 1 0 0 0 1 0 0 0 1 45.5 178 2.899994 1 0.5 1
9 0 1 0 0 0 1 0 0 0 1 45.5 176 7.899994 1 0.5 1
9 0 1 0 0 0 1 0 0 0 1 45.5 170 -20.10001 1 0.5 1
9 0 1 0 0 0 1 0 0 0 1 45.5 167 -17.10001 1 0.5 1
9 0 1 0 0 0 1 0 0 0 1 45.5 166 -11.10001 1 0.5 1
9 0 1 0 0 0 1 0 0 0 1 45.5 164 -6.100006 1 0.5 1
9 0 1 0 0 0 1 0 0 0 1 45.5 161 0.8999939 1 0.5 1
9 0 1 0 0 0 1 0 0 0 1 46.5 64 125.4 2 0.5 0.5
9 0 1 0 0 0 1 0 0 0 1 44 175 -21.10001 0.5 0.5 2
9 0 1 0 0 0 1 0 0 0 1 42.5 165 -9.600006 2 0.5 0.5
9 0 1 0 0 0 1 0 0 0 1 42.5 162 -2.600006 2 0.5 0.5
9 0 1 0 0 0 1 0 0 0 1 41.5 181 -45.60001 2 0.5 0.5
9 0 1 0 0 0 1 0 0 0 1 41.5 137 53.39999 2 0.5 0.5
9 0 1 0 0 0 1 0 0 0 1 41.5 87 110.4 2 0.5 0.5
9 0 1 0 0 0 1 0 0 0 1 39.5 71 121.4 2 0.5 0.5
9 0 1 0 0 0 1 0 0 0 1 38.5 161 -3.600006 2 0.5 0.5
9 0 1 0 0 0 1 0 0 0 1 35.5 101 98.39999 2 0.5 0.5
9 0 1 0 0 0 1 0 0 0 1 32.5 137 53.39999 2 0.5 0.5
9 0 1 0 0 0 1 0 0 0 1 32.5 87 110.4 2 0.5 0.5
9 0 1 0 0 0 1 0 0 0 1 29.5 161 -3.600006 2 0.5 0.5
9 0 1 0 0 0 1 0 0 0 1 29.5 64 125.4 2 0.5 0.5
9 0 1 0 0 0 1 0 0 0 1 28.5 74 119.4 2 0.5 0.5
9 0 1 0 0 0 1 0 0 0 1 26 208.5 -74.10001 0.5 1 1
9 0 1 0 0 0 1 0 0 0 1 27.5 40 136.4 2 0.5 0.5
9 0 1 0 0 0 1 0 0 0 1 25 205.5 -69.60001 0.5 2 0.5
9 0 1 0 0 0 1 0 0 0 1 25 192.5 -31.10001 0.5 1 1
9 0 1 0 0 0 1 0 0 0 1 24 202 -58.10001 0.5 0.5 2
9 0 1 0 0 0 1 0 0 0 1 24 177 -35.10001 0.5 0.5 2
9 0 1 0 0 0 1 0 0 0 1 25.5 100 99.39999 2 0.5 0.5
9 0 1 0 0 0 1 0 0 0 1 23.5 83 113.4 2 0.5 0.5
9 0 1 0 0 0 1 0 0 0 1 21.5 161 -3.600006 2 0.5 0.5
9 0 1 0 0 0 1 0 0 0 1 18.5 101 98.39999 2 0.5 0.5
9 0 1 0 0 0 1 0 0 0 1 16.5 100 99.39999 2 0.5 0.5
9 0 1 0 0 0 1 0 0 0 1 15.5 137 53.39999 2 0.5 0.5
9 0 1 0 0 0 1 0 0 0 1 15.5 87 110.4 2 0.5 0.5
9 0 1 0 0 0 1 0 0 0 1 11.5 74 119.4 2 0.5 0.5
9 0 1 0 0 0 1 0 0 0 1 10.5 40 136.4 2 0.5 0.5
9 0 1 0 0 0 1 0 0 0 1 9.5 101 98.39999 2 0.5 0.5
9 0 1 0 0 0 1 0 0 0 1 6.5 137 53.39999 2 0.5 0.5
9 0 1 0 0 0 1 0 0 0 1 3.5 64 125.4 2 0.5 0.5
9 0 1 0 0 0 1 0 0 0 1 0.5 101 98.39999 2 0.5 0.5
9 0 1 0 0 0 1 0 0 0 1 -0.5 100 99.39999 2 0.5 0.5
9 0 1 0 0 0 1 0 0 0 1 -1.5 87 110.4 2 0.5 0.5
9 0 1 0 0 0 1 0 0 0 1 -4.5 64 125.4 2 0.5 0.5
9 0 1 0 0 0 1 0 0 0 1 -5.5 162 -2.600006 2 0.5 0.5
9 0 1 0 0 0 1 0 0 0 1 -6.5 161 -3.600006 2 0.5 0.5
9 0 1 0 0 0 1 0 0 0 1 -7.5 101 98.39999 2 0.5 0.5
9 0 1 0 0 0 1 0 0 0 1 -10.5 87 110.4 2 0.5 0.5
9 0 1 0 0 0 1 0 0 0 1 -11.5 83 113.4 2 0.5 0.5
9 0 1 0 0 0 1 0 0 0 1 -13.5 64 125.4 2 0.5 0.5
9 0 1 0 0 0 1 0 0 0 1 -14.5 74 119.4 2 0.5 0.5
9 0 1 0 0 0 1 0 0 0 1 -15.5 40 136.4 2 0.5 0.5
9 0 1 0 0 0 1 0 0 0 1 -16.5 101 98.39999 2 0.5 0.5
9 0 1 0 0 0 1 0 0 0 1 -17.5 100 99.39999 2 0.5 0.5
9 0 1 0 0 0 1 0 0 0 1 -18.5 137 53.39999 2 0.5 0.5
9 0 1 0 0 0 1 0 0 0 1 -24 202 -58.10001 0.5 0.5 2
9 0 1 0 0 0 1 0 0 0 1 -24 177 -35.10001 0.5 0.5 2
9 0 1 0 0 0 1 0 0 0 1 -25 205.5 -69.60001 0.5 2 0.5
9 0 1 0 0 0 1 0 0 0 1 -24.5 193 -31.10001 1 0.5 1
9 0 1 0 0 0 1 0 0 0 1 -25 192 -30.10001 0.5 0.5 2
9 0 1 0 0 0 1 0 0 0 1 -23.5 161 -3.600006 2 0.5 0.5
9 0 1 0 0 0 1 0 0 0 1 -26 208.5 -74.10001 0.5 1 1
9 0 1 0 0 0 1 0 0 0 1 -26.5 100 99.39999 2 0.5 0.5
9 0 1 0 0 0 1 0 0 0 1 -27.5 137 53.39999 2 0.5 0.5
9 0 1 0 0 0 1 0 0 0 1 -27.5 80 115.4 2 0.5 0.5
9 0 1 0 0 0 1 0 0 0 1 -33.5 101 98.39999 2 0.5 0.5
9 0 1 0 0 0 1 0 0 0 1 -35.5 137 53.39999 2 0.5 0.5
9 0 1 0 0 0 1 0 0 0 1 -35.5 80 115.4 2 0.5 0.5
9 0 1 0 0 0 1 0 0 0 1 -36.5 87 110.4 2 0.5 0.5
9 0 1 0 0 0 1 0 0 0 1 -39.5 64 125.4 2 0.5 0.5
9 0 1 0 0 0 1 0 0 0 1 -41.5 181 -45.60001 2 0.5 0.5
9 0 1 0 0 0 1 0 0 0 1 -42.5 165 -9.600006 2 0.5 0.5
9 0 1 0 0 0 1 0 0 0 1 -42.5 162 -2.600006 2 0.5 0.5
9 0 1 0 0 0 1 0 0 0 1 -42.5 101 98.39999 2 0.5 0.5
9 0 1 0 0 0 1 0 0 0 1 -42.5 40 136.4 2 0.5 0.5
9 0 1 0 0 0 1 0 0 0 1 -45 208.5 -74.10001 0.5 1 1
9 0 1 0 0 0 1 0 0 0 1 -44.5 177 -26.10001 1 0.5 1
9 0 1 0 0 0 1 0 0 0 1 -43.5 100 99.39999 2 0.5 0.5
9 0 1 0 0 0 1 0 0 0 1 -46 203.5 -68.10001 0.5 1 1
9 0 1 0 0 0 1 0 0 0 1 -46 199 -64.10001 0.5 0.5 2
9 0 1 0 0 0 1 0 0 0 1 -45.5 184 -11.10001 1 0.5 1
9 0 1 0 0 0 1 0 0 0 1 -45.5 182 -6.100006 1 0.5 1
9 0 1 0 0 0 1 0 0 0 1 -45.5 180 -1.100006 1 0.5 1
9 0 1 0 0 0 1 0 0 0 1 -45.5 178 2.899994 1 0.5 1
9 0 1 0 0 0 1 0 0 0 1 -46 176.5 -30.60001 0.5 2 0.5
9 0 1 0 0 0 1 0 0 0 1 -45.5 170 -20.10001 1 0.5 1
9 0 1 0 0 0 1 0 0 0 1 -45.5 167 -17.10001 1 0.5 1
9 0 1 0 0 0 1 0 0 0 1 -45.5 166 -11.10001 1 0.5 1
9 0 1 0 0 0 1 0 0 0 1 -45.5 164 -6.100006 1 0.5 1
9 0 1 0 0 0 1 0 0 0 1 -45.5 161 0.8999939 1 0.5 1
9 0 1 0 0 0 1 0 0 0 1 -46 159 6.899994 0.5 0.5 2
9 0 1 0 0 0 1 0 0 0 1 -46 153 20.89999 0.5 0.5 2
9 0 1 0 0 0 1 0 0 0 1 -44.5 137 53.39999 2 0.5 0.5
9 0 1 0 0 0 1 0 0 0 1 -51.5 161 -3.600006 2 0.5 0.5
9 0 1 0 0 0 1 0 0 0 1 -52.5 100 99.39999 2 0.5 0.5
9 0 1 0 0 0 1 0 0 0 1 -53.5 137 53.39999 2 0.5 0.5
9 0 1 0 0 0 1 0 0 0 1 -59.5 101 98.39999 2 0.5 0.5
9 0 1 0 0 0 1 0 0 0 1 -59.5 40 136.4 2 0.5 0.5
9 0 1 0 0 0 1 0 0 0 1 -65.5 64 125.4 2 0.5 0.5
9 0 1 0 0 0 1 0 0 0 1 -68.5 161 -3.600006 2 0.5 0.5
9 0 1 0 0 0 1 0 0 0 1 -68.5 40 136.4 2 0.5 0.5
9 0 1 0 0 0 1 0 0 0 1 -69.5 100 99.39999 2 0.5 0.5
9 0 1 0 0 0 1 0 0 0 1 -71.5 87 110.4 2 0.5 0.5
9 0 1 0 0 0 1 0 0 0 1 -77.5 161 -3.600006 2 0.5 0.5
9 0 1 0 0 0 1 0 0 0 1 -78.5 137 53.39999 2 0.5 0.5
9 0 1 0 0 0 1 0 0 0 1 -78.5 100 99.39999 2 0.5 0.5
9 0 1 0 0 0 1 0 0 0 1 -79.5 80 115.4 2 0.5 0.5
9 0 1 0 0 0 1 0 0 0 1 -81.5 83 113.4 2 0.5 0.5
9 0 1 0 0 0 1 0 0 0 1 -82.5 64 125.4 2 0.5 0.5
9 0 1 0 0 0 1 0 0 0 1 -85.5 101 98.39999 2 0.5 0.5
9 0 1 0 0 0 1 0 0 0 1 -85.5 40 136.4 2 0.5 0.5
9 0 1 0 0 0 1 0 0 0 1 -87.5 137 53.39999 2 0.5 0.5
9 0 1 0 0 0 1 0 0 0 1 -91.5 71 121.4 2 0.5 0.5
9 0 1 0 0 0 1 0 0 0 1 -91.5 64 125.4 2 0.5 0.5
9 0 1 0 0 0 1 0 0 0 1 -92.5 161 -3.600006 2 0.5 0.5
9 0 1 0 0 0 1 0 0 0 1 -95 188.5 -22.10001 0.5 1 1
9 0 1 0 0 0 1 0 0 0 1 -95 186.5 -46.10001 0.5 1 1
9 0 1 0 0 0 1 0 0 0 1 -95 185.5 -33.60001 0.5 2 0.5
9 0 1 0 0 0 1 0 0 0 1 -95.5 100 99.39999 2 0.5 0.5
9 0 1 0 0 0 1 0 0 0 1 -96.5 80 115.4 2 0.5 0.5
9 0 1 0 0 0 1 0 0 0 1 -97.5 87 110.4 2 0.5 0.5
9 0 1 0 0 0 1 0 0 0 1 -104.5 137 53.39999 2 0.5 0.5
9 0 1 0 0 0 1 0 0 0 1 -105.5 80 115.4 2 0.5 0.5
9 0 1 0 0 0 1 0 0 0 1 -106.5 167 -18.60001 2 0.5 0.5
9 0 1 0 0 0 1 0 0 0 1 -106.5 87 110.4 2 0.5 0.5
9 0 1 0 0 0 1 0 0 0 1 -107.5 83 113.4 2 0.5 0.5
9 0 1 0 0 0 1 0 0 0 1 -108.5 64 125.4 2 0.5 0.5
9 0 1 0 0 0 1 0 0 0 1 -112.5 40 136.4 2 0.5 0.5
9 0 1 0 0 0 1 0 0 0 1 -115 173 -16.10001 0.5 0.5 2
9 0 1 0 0 0 1 0 0 0 1 -113.5 137 53.39999 2 0.5 0.5
9 0 1 0 0 0 1 0 0 0 1 -116 203.5 -63.10001 0.5 1 1
9 0 1 0 0 0 1 0 0 0 1 -117 200.5 -54.10001 0.5 1 1
9 0 1 0 0 0 1 0 0 0 1 -116.5 182 -6.100006 1 0.5 1
9 0 1 0 0 0 1 0 0 0 1 -116.5 178 2.899994 1 0.5 1
9 0 1 0 0 0 1 0 0 0 1 -116.5 175 9.899994 1 0.5 1
9 0 1 0 0 0 1 0 0 0 1 -116.5 167 -17.10001 1 0.5 1
9 0 1 0 0 0 1 0 0 0 1 -116.5 166 -11.10001 1 0.5 1
9 0 1 0 0 0 1 0 0 0 1 -116.5 163 -4.100006 1 0.5 1
9 0 1 0 0 0 1 0 0 0 1 -116.5 161 0.8999939 1 0.5 1
9 0 1 0 0 0 1 0 0 0 1 -116.5 158 7.899994 1 0.5 1
9 0 1 0 0 0 1 0 0 0 1 -117 157.5 25.89999 0.5 1 1
9 0 1 0 0 0 1 0 0 0 1 -117.5 71 121.4 2 0.5 0.5
9 0 1 0 0 0 1 0 0 0 1 -117.5 64 125.4 2 0.5 0.5
9 0 1 0 0 0 1 0 0 0 1 -119.5 162 -2.600006 2 0.5 0.5
9 0 1 0 0 0 1 0 0 0 1 -121.5 100 99.39999 2 0.5 0.5
9 0 1 0 0 0 1 0 0 0 1 -122.5 80 115.4 2 0.5 0.5
9 0 1 0 0 0 1 0 0 0 1 -123.5 87 110.4 2 0.5 0.5
9 0 1 0 0 0 1 0 0 0 1 -128.5 101 98.39999 2 0.5 0.5
9 0 1 0 0 0 1 0 0 0 1 -129.5 40 136.4 2 0.5 0.5
9 0 1 0 0 0 1 0 0 0 1 -130.5 162 -2.600006 2 0.5 0.5
9 0 1 0 0 0 1 0 0 0 1 -132.5 87 110.4 2 0.5 0.5
9 0 1 0 0 0 1 0 0 0 1 -134.5 64 125.4 2 0.5 0.5
9 0 1 0 0 0 1 0 0 0 1 -136.5 161 -3.600006 2 0.5 0.5
9 0 1 0 0 0 1 0 0 0 1 -138.5 137 53.39999 2 0.5 0.5
9 0 1 0 0 0 1 0 0 0 1 -138.5 40 136.4 2 0.5 0.5
9 0 1 0 0 0 1 0 0 0 1 -143.5 161 -3.600006 2 0.5 0.5
9 0 1 0 0 0 1 0 0 0 1 -143.5 71 121.4 2 0.5 0.5
9 0 1 0 0 0 1 0 0 0 1 -143.5 64 125.4 2 0.5 0.5
9 0 1 0 0 0 1 0 0 0 1 -145.5 74 119.4 2 0.5 0.5
9 0 1 0 0 0 1 0 0 0 1 -147.5 137 53.39999 2 0.5 0.5
9 0 1 0 0 0 1 0 0 0 1 -147.5 100 99.39999 2 0.5 0.5
9 0 1 0 0 0 1 0 0 0 1 -148.5 80 115.4 2 0.5 0.5
9 0 1 0 0 0 1 0 0 0 1 -149.5 87 110.4 2 0.5 0.5
9 0 1 0 0 0 1 0 0 0 1 -150.5 161 -3.600006 2 0.5 0.5
9 0 1 0 0 0 1 0 0 0 1 -156.5 112 87.39999 2 0.5 0.5
9 0 1 0 0 0 1 0 0 0 1 -156.5 106 93.39999 2 0.5 0.5
9 0 1 0 0 0 1 0 0 0 1 -158.5 161 -3.600006 2 0.5 0.5
9 0 1 0 0 0 1 0 0 0 1 -158.5 147 33.39999 2 0.5 0.5
9 0 1 0 0 0 1 0 0 0 1 -158.5 87 110.4 2 0.5 0.5
9 0 1 0 0 0 1 0 0 0 1 -159.5 83 113.4 2 0.5 0.5
9 0 1 0 0 0 1 0 0 0 1 -160.5 71 121.4 2 0.5 0.5
9 0 1 0 0 0 1 0 0 0 1 -160.5 64 125.4 2 0.5 0.5
9 0 1 0 0 0 1 0 0 0 1 -164 111.5 89.89999 0.5 1 1
9 0 1 0 0 0 1 0 0 0 1 -164 88.5 110.9 0.5 1 1
9 0 1 0 0 0 1 0 0 0 1 -164.5 137.5 53.39999 1 1 0.5
9 0 1 0 0 0 1 0 0 0 1 -164.5 100 99.89999 1 0.5 1
9 0 1 0 0 0 1 0 0 0 1 -166 190 -28.10001 0.5 0.5 2
9 0 1 0 0 0 1 0 0 0 1 -167 194.5 -45.10001 0.5 1 1
9 0 1 0 0 0 1 0 0 0 1 -166.5 182 -6.100006 1 0.5 1
9 0 1 0 0 0 1 0 0 0 1 -167 168.5 -6.100006 0.5 1 1
9 0 1 0 0 0 1 0 0 0 1 -165.5 112 87.39999 2 0.5 0.5
9 0 1 0 0 0 1 0 0 0 1 -165.5 106 93.39999 2 0.5 0.5
9 0 1 0 0 0 1 0 0 0 1 -165.5 106 95.39999 2 0.5 0.5
9 0 1 0 0 0 1 0 0 0 1 -165.5 61 129.4 2 0.5 0.5
9 0 1 0 0 0 1 0 0 0 1 -166.5 162 -2.600006 2 0.5 0.5
9 0 1 0 0 0 1 0 0 0 1 -171 108.5 83.89999 0.5 1 1
9 0 1 0 0 0 1 0 0 0 1 -169.5 108 91.39999 2 0.5 0.5
9 0 1 0 0 0 1 0 0 0 1 -171 106.5 85.89999 0.5 1 1
9 0 1 0 0 0 1 0 0 0 1 -169.5 67 124.4 2 0.5 0.5
9 0 1 0 0 0 1 0 0 0 1 -172 113.5 84.89999 0.5 1 1
9 0 1 0 0 0 1 0 0 0 1 -172 68.5 121.9 0.5 1 1
9 0 1 0 0 0 1 0 0 0 1 -172 35.5 9.399994 0.5 2 0.5
9 0 1 0 0 0 1 0 0 0 1 -172 24.5 9.399994 0.5 2 0.5
9 0 1 0 0 0 1 0 0 0 1 -172 15.5 9.399994 0.5 2 0.5
9 0 1 0 0 0 1 0 0 0 1 -172 4.5 9.399994 0.5 2 0.5
9 0 1 0 0 0 1 0 0 0 1 -172.5 138 49.89999 1 0.5 1
9 0 1 0 0 0 1 0 0 0 1 -173 135 39.89999 0.5 0.5 2
9 0 1 0 0 0 1 0 0 0 1 -172.5 127 67.89999 1 0.5 1
9 0 1 0 0 0 1 0 0 0 1 -172.5 124.5 74.39999 1 1 0.5
9 0 1 0 0 0 1 0 0 0 1 -172.5 119 80.89999 1 0.5 1
9 0 1 0 0 0 1 0 0 0 1 -173 115.5 79.89999 0.5 1 1
9 0 1 0 0 0 1 0 0 0 1 -172.5 106 92.89999 1 0.5 1
9 0 1 0 0 0 1 0 0 0 1 -172.5 96.5 104.4 1 1 0.5
9 0 1 0 0 0 1 0 0 0 1 -172.5 57.5 128.4 1 1 0.5
9 0 1 0 0 0 1 0 0 0 1 -173 56.5 126.9 0.5 1 1
9 0 1 0 0 0 1 0 0 0 1 -172.5 39.5 136.4 1 1 0.5
9 0 1 0 0 0 1 0 0 0 1 -172.5 33.5 138.4 1 1 0.5
9 0 1 0 0 0 1 0 0 0 1 -173 32.5 135.4 0.5 2 0.5
9 0 1 0 0 0 1 0 0 0 1 -172.5 16.5 143.4 1 1 0.5
9 0 1 0 0 0 1 0 0 0 1 -172.5 -12 126.9 1 0.5 1
9 0 1 0 0 0 1 0 0 0 1 -173.5 145.5 36.39999 1 1 0.5
9 0 1 0 0 0 1 0 0 0 1 -174 -13.5 113.9 0.5 1 1
9 0 1 0 0 0 1 0 0 0 1 -176 -7 132.9 0.5 0.5 2
9 0 1 0 0 0 1 0 0 0 1 -177.5 163 -9.600006 2 0.5 0.5
9 0 1 0 0 0 1 0 0 0 1 -178.5 158 4.399994 2 0.5 0.5
9 0 1 0 0 0 1 0 0 0 1 -180 95.5 -25.60001 0.5 2 0.5
9 0 1 0 0 0 1 0 0 0 1 -180 46.5 -6.100006 0.5 1 1
9 0 1 0 0 0 1 0 0 0 1 -178.5 42 7.399994 2 0.5 0.5
9 0 1 0 0 0 1 0 0 0 1 -180 19.5 -24.10001 0.5 1 1
9 0 1 0 0 0 1 0 0 0 1 -180 9.5 -16.10001 0.5 1 1
9 0 1 0 0 0 1 0 0 0 1 -187 194.5 -45.10001 0.5 1 1
9 0 1 0 0 0 1 0 0 0 1 -187 167.5 -4.100006 0.5 1 1
9 0 1 0 0 0 1 0 0 0 1 -186.5 183 -7.600006 2 0.5 0.5
9 0 1 0 0 0 1 0 0 0 1 -187.5 175 9.899994 1 0.5 1
9 0 1 0 0 0 1 0 0 0 1 -187.5 173 14.89999 1 0.5 1
9 0 1 0 0 0 1 0 0 0 1 -188 168 -14.10001 0.5 0.5 2
9 0 1 0 0 0 1 0 0 0 1 -187.5 157 9.899994 1 0.5 1
9 0 1 0 0 0 1 0 0 0 1 -188 153.5 28.39999 0.5 2 0.5
9 0 1 0 0 0 1 0 0 0 1 188 190 -27.60001 0.5 0.5 1.5
9 0 1 0 0 0 1 0 0 0 1 188 188 -21.60001 0.5 0.5 1.5
9 0 1 0 0 0 1 0 0 0 1 188 162 -1.600006 0.5 0.5 1.5
9 0 1 0 0 0 1 0 0 0 1 188 163 22.39999 0.5 1.5 0.5
9 0 1 0 0 0 1 0 0 0 1 187 198 -48.60001 0.5 0.5 1.5
9 0 1 0 0 0 1 0 0 0 1 185 158 4.399994 1.5 0.5 0.5
9 0 1 0 0 0 1 0 0 0 1 185 154 15.39999 1.5 0.5 0.5
9 0 1 0 0 0 1 0 0 0 1 181 157 -17.60001 0.5 1.5 0.5
9 0 1 0 0 0 1 0 0 0 1 181 143 -12.60001 0.5 1.5 0.5
9 0 1 0 0 0 1 0 0 0 1 181 128 -12.60001 0.5 1.5 0.5
9 0 1 0 0 0 1 0 0 0 1 181 121 -14.60001 0.5 1.5 0.5
9 0 1 0 0 0 1 0 0 0 1 181 112 -17.60001 0.5 1.5 0.5
9 0 1 0 0 0 1 0 0 0 1 181 106 -19.60001 0.5 1.5 0.5
9 0 1 0 0 0 1 0 0 0 1 180 151 22.39999 0.5 0.5 1.5
9 0 1 0 0 0 1 0 0 0 1 180 134 27.39999 0.5 1.5 0.5
9 0 1 0 0 0 1 0 0 0 1 180 115 21.39999 0.5 1.5 0.5
9 0 1 0 0 0 1 0 0 0 1 180 106 18.39999 0.5 1.5 0.5
9 0 1 0 0 0 1 0 0 0 1 180 97 15.39999 0.5 1.5 0.5
9 0 1 0 0 0 1 0 0 0 1 180 88 -27.60001 0.5 1.5 0.5
9 0 1 0 0 0 1 0 0 0 1 180 87 12.39999 0.5 1.5 0.5
9 0 1 0 0 0 1 0 0 0 1 180 81 10.39999 0.5 1.5 0.5
9 0 1 0 0 0 1 0 0 0 1 180 75 8.399994 0.5 1.5 0.5
9 0 1 0 0 0 1 0 0 0 1 180 29 -28.60001 0.5 1.5 0.5
9 0 1 0 0 0 1 0 0 0 1 174 -7 140.4 0.5 0.5 1.5
9 0 1 0 0 0 1 0 0 0 1 174 132 27.39999 1.5 0.5 0.5
9 0 1 0 0 0 1 0 0 0 1 174 120 23.39999 1.5 0.5 0.5
9 0 1 0 0 0 1 0 0 0 1 173 120 72.39999 0.5 0.5 1.5
9 0 1 0 0 0 1 0 0 0 1 173 102 90.39999 0.5 1.5 0.5
9 0 1 0 0 0 1 0 0 0 1 173 79 108.4 0.5 1.5 0.5
9 0 1 0 0 0 1 0 0 0 1 173 145 36.39999 1.5 0.5 0.5
9 0 1 0 0 0 1 0 0 0 1 172 140 30.39999 0.5 1.5 0.5
9 0 1 0 0 0 1 0 0 0 1 172 134 28.39999 0.5 1.5 0.5
9 0 1 0 0 0 1 0 0 0 1 172 128 26.39999 0.5 1.5 0.5
9 0 1 0 0 0 1 0 0 0 1 172 115 22.39999 0.5 1.5 0.5
9 0 1 0 0 0 1 0 0 0 1 172 90 14.39999 0.5 1.5 0.5
9 0 1 0 0 0 1 0 0 0 1 172 81 11.39999 0.5 1.5 0.5
9 0 1 0 0 0 1 0 0 0 1 172 75 9.399994 0.5 1.5 0.5
9 0 1 0 0 0 1 0 0 0 1 172 46 133.4 0.5 1.5 0.5
9 0 1 0 0 0 1 0 0 0 1 172 44 9.399994 0.5 1.5 0.5
9 0 1 0 0 0 1 0 0 0 1 172 31 5.399994 0.5 0.5 1.5
9 0 1 0 0 0 1 0 0 0 1 172 29 5.399994 0.5 0.5 1.5
9 0 1 0 0 0 1 0 0 0 1 172 11 5.399994 0.5 0.5 1.5
9 0 1 0 0 0 1 0 0 0 1 172 9 5.399994 0.5 0.5 1.5
9 0 1 0 0 0 1 0 0 0 1 171 183 -9.600006 0.5 1.5 0.5
9 0 1 0 0 0 1 0 0 0 1 171 177 -9.600006 0.5 1.5 0.5
9 0 1 0 0 0 1 0 0 0 1 171 171 -9.600006 0.5 1.5 0.5
9 0 1 0 0 0 1 0 0 0 1 172 58 128.4 1.5 0.5 0.5
9 0 1 0 0 0 1 0 0 0 1 170 71 121.4 1.5 0.5 0.5
9 0 1 0 0 0 1 0 0 0 1 167 198 -48.60001 0.5 0.5 1.5
9 0 1 0 0 0 1 0 0 0 1 166 188 -21.60001 0.5 0.5 1.5
9 0 1 0 0 0 1 0 0 0 1 166 166 -0.6000061 0.5 0.5 1.5
9 0 1 0 0 0 1 0 0 0 1 166 77 117.4 1.5 0.5 0.5
9 0 1 0 0 0 1 0 0 0 1 165 110 90.39999 1.5 0.5 0.5
9 0 1 0 0 0 1 0 0 0 1 165 106 93.39999 1.5 0.5 0.5
9 0 1 0 0 0 1 0 0 0 1 165 95 104.4 1.5 0.5 0.5
9 0 1 0 0 0 1 0 0 0 1 165 74 120.4 1.5 0.5 0.5
9 0 1 0 0 0 1 0 0 0 1 164 80 115.4 1.5 0.5 0.5
9 0 1 0 0 0 1 0 0 0 1 162 117 81.39999 1.5 0.5 0.5
9 0 1 0 0 0 1 0 0 0 1 162 111 88.39999 1.5 0.5 0.5
9 0 1 0 0 0 1 0 0 0 1 162 83 113.4 1.5 0.5 0.5
9 0 1 0 0 0 1 0 0 0 1 161 71 121.4 1.5 0.5 0.5
9 0 1 0 0 0 1 0 0 0 1 159 74 119.4 1.5 0.5 0.5
9 0 1 0 0 0 1 0 0 0 1 156 87 110.4 1.5 0.5 0.5
9 0 1 0 0 0 1 0 0 0 1 154 100 99.39999 1.5 0.5 0.5
9 0 1 0 0 0 1 0 0 0 1 153 18 143.4 1.5 0.5 0.5
9 0 1 0 0 0 1 0 0 0 1 150 74 119.4 1.5 0.5 0.5
9 0 1 0 0 0 1 0 0 0 1 150 64 125.4 1.5 0.5 0.5
9 0 1 0 0 0 1 0 0 0 1 150 40 136.4 1.5 0.5 0.5
9 0 1 0 0 0 1 0 0 0 1 146 135 56.39999 1.5 0.5 0.5
9 0 1 0 0 0 1 0 0 0 1 146 87 110.4 1.5 0.5 0.5
9 0 1 0 0 0 1 0 0 0 1 144 137 53.39999 1.5 0.5 0.5
9 0 1 0 0 0 1 0 0 0 1 144 71 121.4 1.5 0.5 0.5
9 0 1 0 0 0 1 0 0 0 1 143 162 -2.600006 1.5 0.5 0.5
9 0 1 0 0 0 1 0 0 0 1 142 74 119.4 1.5 0.5 0.5
9 0 1 0 0 0 1 0 0 0 1 142 64 125.4 1.5 0.5 0.5
9 0 1 0 0 0 1 0 0 0 1 138 100 99.39999 1.5 0.5 0.5
9 0 1 0 0 0 1 0 0 0 1 138 80 115.4 1.5 0.5 0.5
9 0 1 0 0 0 1 0 0 0 1 137 171 -24.60001 1.5 0.5 0.5
9 0 1 0 0 0 1 0 0 0 1 136 83 113.4 1.5 0.5 0.5
9 0 1 0 0 0 1 0 0 0 1 133 74 119.4 1.5 0.5 0.5
9 0 1 0 0 0 1 0 0 0 1 128 83 113.4 1.5 0.5 0.5
9 0 1 0 0 0 1 0 0 0 1 126 171 -24.60001 1.5 0.5 0.5
9 0 1 0 0 0 1 0 0 0 1 126 71 121.4 1.5 0.5 0.5
9 0 1 0 0 0 1 0 0 0 1 124 74 119.4 1.5 0.5 0.5
9 0 1 0 0 0 1 0 0 0 1 122 101 98.39999 1.5 0.5 0.5
9 0 1 0 0 0 1 0 0 0 1 120 135 56.39999 1.5 0.5 0.5
9 0 1 0 0 0 1 0 0 0 1 120 87 110.4 1.5 0.5 0.5
9 0 1 0 0 0 1 0 0 0 1 120 80 115.4 1.5 0.5 0.5
9 0 1 0 0 0 1 0 0 0 1 117 169 -17.60001 0.5 0.5 1.5
9 0 1 0 0 0 1 0 0 0 1 117 153 20.39999 0.5 0.5 1.5
9 0 1 0 0 0 1 0 0 0 1 118 137 53.39999 1.5 0.5 0.5
9 0 1 0 0 0 1 0 0 0 1 118 71 121.4 1.5 0.5 0.5
9 0 1 0 0 0 1 0 0 0 1 115 170 -9.600006 0.5 0.5 1.5
9 0 1 0 0 0 1 0 0 0 1 116 74 119.4 1.5 0.5 0.5
9 0 1 0 0 0 1 0 0 0 1 116 64 125.4 1.5 0.5 0.5
9 0 1 0 0 0 1 0 0 0 1 114 162 -2.600006 1.5 0.5 0.5
9 0 1 0 0 0 1 0 0 0 1 112 135 56.39999 1.5 0.5 0.5
9 0 1 0 0 0 1 0 0 0 1 112 100 99.39999 1.5 0.5 0.5
9 0 1 0 0 0 1 0 0 0 1 112 80 115.4 1.5 0.5 0.5
9 0 1 0 0 0 1 0 0 0 1 111 161 -3.600006 1.5 0.5 0.5
9 0 1 0 0 0 1 0 0 0 1 110 83 113.4 1.5 0.5 0.5
9 0 1 0 0 0 1 0 0 0 1 108 180 -4.600006 0.5 1.5 0.5
9 0 1 0 0 0 1 0 0 0 1 108 177 -23.60001 0.5 1.5 0.5
9 0 1 0 0 0 1 0 0 0 1 107 74 119.4 1.5 0.5 0.5
9 0 1 0 0 0 1 0 0 0 1 102 83 113.4 1.5 0.5 0.5
9 0 1 0 0 0 1 0 0 0 1 100 71 121.4 1.5 0.5 0.5
9 0 1 0 0 0 1 0 0 0 1 98 74 119.4 1.5 0.5 0.5
9 0 1 0 0 0 1 0 0 0 1 95 195 -38.60001 0.5 0.5 1.5
9 0 1 0 0 0 1 0 0 0 1 95 193 -32.60001 0.5 0.5 1.5
9 0 1 0 0 0 1 0 0 0 1 95 177 -34.60001 0.5 0.5 1.5
9 0 1 0 0 0 1 0 0 0 1 95 169 -17.60001 0.5 0.5 1.5
9 0 1 0 0 0 1 0 0 0 1 94 135 56.39999 1.5 0.5 0.5
9 0 1 0 0 0 1 0 0 0 1 94 80 115.4 1.5 0.5 0.5
9 0 1 0 0 0 1 0 0 0 1 92 137 53.39999 1.5 0.5 0.5
9 0 1 0 0 0 1 0 0 0 1 90 74 119.4 1.5 0.5 0.5
9 0 1 0 0 0 1 0 0 0 1 90 64 125.4 1.5 0.5 0.5
9 0 1 0 0 0 1 0 0 0 1 86 135 56.39999 1.5 0.5 0.5
9 0 1 0 0 0 1 0 0 0 1 86 100 99.39999 1.5 0.5 0.5
9 0 1 0 0 0 1 0 0 0 1 86 80 115.4 1.5 0.5 0.5
9 0 1 0 0 0 1 0 0 0 1 84 137 53.39999 1.5 0.5 0.5
9 0 1 0 0 0 1 0 0 0 1 84 83 113.4 1.5 0.5 0.5
9 0 1 0 0 0 1 0 0 0 1 82 71 121.4 1.5 0.5 0.5
9 0 1 0 0 0 1 0 0 0 1 74 71 121.4 1.5 0.5 0.5
9 0 1 0 0 0 1 0 0 0 1 72 74 119.4 1.5 0.5 0.5
9 0 1 0 0 0 1 0 0 0 1 72 11 145.4 1.5 0.5 0.5
9 0 1 0 0 0 1 0 0 0 1 68 80 115.4 1.5 0.5 0.5
9 0 1 0 0 0 1 0 0 0 1 66 161 -3.600006 1.5 0.5 0.5
9 0 1 0 0 0 1 0 0 0 1 64 74 119.4 1.5 0.5 0.5
9 0 1 0 0 0 1 0 0 0 1 64 64 125.4 1.5 0.5 0.5
9 0 1 0 0 0 1 0 0 0 1 60 135 56.39999 1.5 0.5 0.5
9 0 1 0 0 0 1 0 0 0 1 60 100 99.39999 1.5 0.5 0.5
9 0 1 0 0 0 1 0 0 0 1 60 80 115.4 1.5 0.5 0.5
9 0 1 0 0 0 1 0 0 0 1 58 137 53.39999 1.5 0.5 0.5
9 0 1 0 0 0 1 0 0 0 1 58 11 145.4 1.5 0.5 0.5
9 0 1 0 0 0 1 0 0 0 1 56 71 121.4 1.5 0.5 0.5
9 0 1 0 0 0 1 0 0 0 1 52 135 56.39999 1.5 0.5 0.5
9 0 1 0 0 0 1 0 0 0 1 50 137 53.39999 1.5 0.5 0.5
9 0 1 0 0 0 1 0 0 0 1 48 71 121.4 1.5 0.5 0.5
9 0 1 0 0 0 1 0 0 0 1 46 174 12.39999 0.5 0.5 1.5
9 0 1 0 0 0 1 0 0 0 1 47 161 -3.600006 1.5 0.5 0.5
9 0 1 0 0 0 1 0 0 0 1 45 173 4.399994 0.5 0.5 1.5
9 0 1 0 0 0 1 0 0 0 1 45 172 -24.60001 0.5 0.5 1.5
9 0 1 0 0 0 1 0 0 0 1 46 74 119.4 1.5 0.5 0.5
9 0 1 0 0 0 1 0 0 0 1 42 175 -18.60001 0.5 1.5 0.5
9 0 1 0 0 0 1 0 0 0 1 42 62 126.4 1.5 0.5 0.5
9 0 1 0 0 0 1 0 0 0 1 40 83 113.4 1.5 0.5 0.5
9 0 1 0 0 0 1 0 0 0 1 38 64 125.4 1.5 0.5 0.5
9 0 1 0 0 0 1 0 0 0 1 37 74 119.4 1.5 0.5 0.5
9 0 1 0 0 0 1 0 0 0 1 35 162 -2.600006 1.5 0.5 0.5
9 0 1 0 0 0 1 0 0 0 1 34 100 99.39999 1.5 0.5 0.5
9 0 1 0 0 0 1 0 0 0 1 34 80 115.4 1.5 0.5 0.5
9 0 1 0 0 0 1 0 0 0 1 32 83 113.4 1.5 0.5 0.5
9 0 1 0 0 0 1 0 0 0 1 30 71 121.4 1.5 0.5 0.5
9 0 1 0 0 0 1 0 0 0 1 29 189 -55.60001 1.5 0.5 0.5
9 0 1 0 0 0 1 0 0 0 1 26 178 -39.60001 1.5 0.5 0.5
9 0 1 0 0 0 1 0 0 0 1 25 178 -28.60001 0.5 0.5 1.5
9 0 1 0 0 0 1 0 0 0 1 26 135 56.39999 1.5 0.5 0.5
9 0 1 0 0 0 1 0 0 0 1 24 200 -50.60001 0.5 0.5 1.5
9 0 1 0 0 0 1 0 0 0 1 24 197 -40.60001 0.5 0.5 1.5
9 0 1 0 0 0 1 0 0 0 1 24 193 -31.60001 0.5 0.5 1.5
9 0 1 0 0 0 1 0 0 0 1 24 181 -45.60001 0.5 1.5 0.5
9 0 1 0 0 0 1 0 0 0 1 24 174 -28.60001 0.5 0.5 1.5
9 0 1 0 0 0 1 0 0 0 1 24 172 -28.60001 0.5 0.5 1.5
9 0 1 0 0 0 1 0 0 0 1 25 80 115.4 1.5 0.5 0.5
9 0 1 0 0 0 1 0 0 0 1 24 137 53.39999 1.5 0.5 0.5
9 0 1 0 0 0 1 0 0 0 1 22 71 121.4 1.5 0.5 0.5
9 0 1 0 0 0 1 0 0 0 1 20 74 119.4 1.5 0.5 0.5
9 0 1 0 0 0 1 0 0 0 1 16 80 115.4 1.5 0.5 0.5
9 0 1 0 0 0 1 0 0 0 1 14 83 113.4 1.5 0.5 0.5
9 0 1 0 0 0 1 0 0 0 1 13 71 121.4 1.5 0.5 0.5
9 0 1 0 0 0 1 0 0 0 1 12 64 125.4 1.5 0.5 0.5
9 0 1 0 0 0 1 0 0 0 1 8 80 115.4 1.5 0.5 0.5
9 0 1 0 0 0 1 0 0 0 1 6 83 113.4 1.5 0.5 0.5
9 0 1 0 0 0 1 0 0 0 1 4 71 121.4 1.5 0.5 0.5
9 0 1 0 0 0 1 0 0 0 1 2 161 -3.600006 1.5 0.5 0.5
9 0 1 0 0 0 1 0 0 0 1 2 74 119.4 1.5 0.5 0.5
9 0 1 0 0 0 1 0 0 0 1 0 135 56.39999 1.5 0.5 0.5
9 0 1 0 0 0 1 0 0 0 1 -1 80 115.4 1.5 0.5 0.5
9 0 1 0 0 0 1 0 0 0 1 -2 137 53.39999 1.5 0.5 0.5
9 0 1 0 0 0 1 0 0 0 1 -3 83 113.4 1.5 0.5 0.5
9 0 1 0 0 0 1 0 0 0 1 -4 71 121.4 1.5 0.5 0.5
9 0 1 0 0 0 1 0 0 0 1 -6 74 119.4 1.5 0.5 0.5
9 0 1 0 0 0 1 0 0 0 1 -8 135 56.39999 1.5 0.5 0.5
9 0 1 0 0 0 1 0 0 0 1 -10 137 53.39999 1.5 0.5 0.5
9 0 1 0 0 0 1 0 0 0 1 -10 80 115.4 1.5 0.5 0.5
9 0 1 0 0 0 1 0 0 0 1 -13 71 121.4 1.5 0.5 0.5
9 0 1 0 0 0 1 0 0 0 1 -15 161 -3.600006 1.5 0.5 0.5
9 0 1 0 0 0 1 0 0 0 1 -18 80 115.4 1.5 0.5 0.5
9 0 1 0 0 0 1 0 0 0 1 -20 83 113.4 1.5 0.5 0.5
9 0 1 0 0 0 1 0 0 0 1 -22 71 121.4 1.5 0.5 0.5
9 0 1 0 0 0 1 0 0 0 1 -22 64 125.4 1.5 0.5 0.5
9 0 1 0 0 0 1 0 0 0 1 -24 200 -50.60001 0.5 0.5 1.5
9 0 1 0 0 0 1 0 0 0 1 -24 197 -40.60001 0.5 0.5 1.5
9 0 1 0 0 0 1 0 0 0 1 -24 181 -45.60001 0.5 1.5 0.5
9 0 1 0 0 0 1 0 0 0 1 -24 174 -28.60001 0.5 0.5 1.5
9 0 1 0 0 0 1 0 0 0 1 -24 172 -28.60001 0.5 0.5 1.5
9 0 1 0 0 0 1 0 0 0 1 -25 178 -28.60001 0.5 0.5 1.5
9 0 1 0 0 0 1 0 0 0 1 -24 121 76.39999 1.5 0.5 0.5
9 0 1 0 0 0 1 0 0 0 1 -24 74 119.4 1.5 0.5 0.5
9 0 1 0 0 0 1 0 0 0 1 -26 178 -39.60001 1.5 0.5 0.5
9 0 1 0 0 0 1 0 0 0 1 -28 87 110.4 1.5 0.5 0.5
9 0 1 0 0 0 1 0 0 0 1 -29 189 -55.60001 1.5 0.5 0.5
9 0 1 0 0 0 1 0 0 0 1 -30 71 121.4 1.5 0.5 0.5
9 0 1 0 0 0 1 0 0 0 1 -32 74 119.4 1.5 0.5 0.5
9 0 1 0 0 0 1 0 0 0 1 -32 11 145.4 1.5 0.5 0.5
9 0 1 0 0 0 1 0 0 0 1 -33 121 76.39999 1.5 0.5 0.5
9 0 1 0 0 0 1 0 0 0 1 -39 71 121.4 1.5 0.5 0.5
9 0 1 0 0 0 1 0 0 0 1 -42 175 -18.60001 0.5 1.5 0.5
9 0 1 0 0 0 1 0 0 0 1 -41 74 119.4 1.5 0.5 0.5
9 0 1 0 0 0 1 0 0 0 1 -42 121 76.39999 1.5 0.5 0.5
9 0 1 0 0 0 1 0 0 0 1 -43 161 -3.600006 1.5 0.5 0.5
9 0 1 0 0 0 1 0 0 0 1 -45 173 4.399994 0.5 0.5 1.5
9 0 1 0 0 0 1 0 0 0 1 -44 80 115.4 1.5 0.5 0.5
9 0 1 0 0 0 1 0 0 0 1 -46 111 88.39999 1.5 0.5 0.5
9 0 1 0 0 0 1 0 0 0 1 -46 11 145.4 1.5 0.5 0.5
9 0 1 0 0 0 1 0 0 0 1 -48 71 121.4 1.5 0.5 0.5
9 0 1 0 0 0 1 0 0 0 1 -48 64 125.4 1.5 0.5 0.5
9 0 1 0 0 0 1 0 0 0 1 -50 121 76.39999 1.5 0.5 0.5
9 0 1 0 0 0 1 0 0 0 1 -50 74 119.4 1.5 0.5 0.5
9 0 1 0 0 0 1 0 0 0 1 -54 87 110.4 1.5 0.5 0.5
9 0 1 0 0 0 1 0 0 0 1 -55 83 113.4 1.5 0.5 0.5
9 0 1 0 0 0 1 0 0 0 1 -56 71 121.4 1.5 0.5 0.5
9 0 1 0 0 0 1 0 0 0 1 -58 74 119.4 1.5 0.5 0.5
9 0 1 0 0 0 1 0 0 0 1 -60 161 -3.600006 1.5 0.5 0.5
9 0 1 0 0 0 1 0 0 0 1 -60 135 56.39999 1.5 0.5 0.5
9 0 1 0 0 0 1 0 0 0 1 -62 137 53.39999 1.5 0.5 0.5
9 0 1 0 0 0 1 0 0 0 1 -62 62 126.4 1.5 0.5 0.5
9 0 1 0 0 0 1 0 0 0 1 -64 83 113.4 1.5 0.5 0.5
9 0 1 0 0 0 1 0 0 0 1 -65 71 121.4 1.5 0.5 0.5
9 0 1 0 0 0 1 0 0 0 1 -67 74 119.4 1.5 0.5 0.5
9 0 1 0 0 0 1 0 0 0 1 -68 135 56.39999 1.5 0.5 0.5
9 0 1 0 0 0 1 0 0 0 1 -68 101 98.39999 1.5 0.5 0.5
9 0 1 0 0 0 1 0 0 0 1 -70 137 53.39999 1.5 0.5 0.5
9 0 1 0 0 0 1 0 0 0 1 -70 80 115.4 1.5 0.5 0.5
9 0 1 0 0 0 1 0 0 0 1 -72 83 113.4 1.5 0.5 0.5
9 0 1 0 0 0 1 0 0 0 1 -74 71 121.4 1.5 0.5 0.5
9 0 1 0 0 0 1 0 0 0 1 -74 64 125.4 1.5 0.5 0.5
9 0 1 0 0 0 1 0 0 0 1 -76 121 76.39999 1.5 0.5 0.5
9 0 1 0 0 0 1 0 0 0 1 -76 74 119.4 1.5 0.5 0.5
9 0 1 0 0 0 1 0 0 0 1 -80 87 110.4 1.5 0.5 0.5
9 0 1 0 0 0 1 0 0 0 1 -82 71 121.4 1.5 0.5 0.5
9 0 1 0 0 0 1 0 0 0 1 -84 121 76.39999 1.5 0.5 0.5
9 0 1 0 0 0 1 0 0 0 1 -84 74 119.4 1.5 0.5 0.5
9 0 1 0 0 0 1 0 0 0 1 -88 80 115.4 1.5 0.5 0.5
9 0 1 0 0 0 1 0 0 0 1 -90 83 113.4 1.5 0.5 0.5
9 0 1 0 0 0 1 0 0 0 1 -93 74 119.4 1.5 0.5 0.5
9 0 1 0 0 0 1 0 0 0 1 -95 195 -38.60001 0.5 0.5 1.5
9 0 1 0 0 0 1 0 0 0 1 -95 193 -32.60001 0.5 0.5 1.5
9 0 1 0 0 0 1 0 0 0 1 -95 177 -34.60001 0.5 0.5 1.5
9 0 1 0 0 0 1 0 0 0 1 -95 169 -17.60001 0.5 0.5 1.5
9 0 1 0 0 0 1 0 0 0 1 -94 101 98.39999 1.5 0.5 0.5
9 0 1 0 0 0 1 0 0 0 1 -96 137 53.39999 1.5 0.5 0.5
9 0 1 0 0 0 1 0 0 0 1 -98 83 113.4 1.5 0.5 0.5
9 0 1 0 0 0 1 0 0 0 1 -100 71 121.4 1.5 0.5 0.5
9 0 1 0 0 0 1 0 0 0 1 -100 64 125.4 1.5 0.5 0.5
9 0 1 0 0 0 1 0 0 0 1 -102 74 119.4 1.5 0.5 0.5
9 0 1 0 0 0 1 0 0 0 1 -104 100 99.39999 1.5 0.5 0.5
9 0 1 0 0 0 1 0 0 0 1 -108 180 -4.600006 0.5 1.5 0.5
9 0 1 0 0 0 1 0 0 0 1 -108 177 -23.60001 0.5 1.5 0.5
9 0 1 0 0 0 1 0 0 0 1 -108 71 121.4 1.5 0.5 0.5
9 0 1 0 0 0 1 0 0 0 1 -110 121 76.39999 1.5 0.5 0.5
9 0 1 0 0 0 1 0 0 0 1 -110 74 119.4 1.5 0.5 0.5
9 0 1 0 0 0 1 0 0 0 1 -115 170 -9.600006 0.5 0.5 1.5
9 0 1 0 0 0 1 0 0 0 1 -114 162 -2.600006 1.5 0.5 0.5
9 0 1 0 0 0 1 0 0 0 1 -114 80 115.4 1.5 0.5 0.5
9 0 1 0 0 0 1 0 0 0 1 -116 188 -19.60001 1.5 0.5 0.5
9 0 1 0 0 0 1 0 0 0 1 -117 169 -17.60001 0.5 0.5 1.5
9 0 1 0 0 0 1 0 0 0 1 -117 153 20.39999 0.5 0.5 1.5
9 0 1 0 0 0 1 0 0 0 1 -116 83 113.4 1.5 0.5 0.5
9 0 1 0 0 0 1 0 0 0 1 -118 121 76.39999 1.5 0.5 0.5
9 0 1 0 0 0 1 0 0 0 1 -119 74 119.4 1.5 0.5 0.5
9 0 1 0 0 0 1 0 0 0 1 -120 101 98.39999 1.5 0.5 0.5
9 0 1 0 0 0 1 0 0 0 1 -122 137 53.39999 1.5 0.5 0.5
9 0 1 0 0 0 1 0 0 0 1 -126 171 -24.60001 1.5 0.5 0.5
9 0 1 0 0 0 1 0 0 0 1 -126 125 71.39999 1.5 0.5 0.5
9 0 1 0 0 0 1 0 0 0 1 -126 71 121.4 1.5 0.5 0.5
9 0 1 0 0 0 1 0 0 0 1 -126 64 125.4 1.5 0.5 0.5
9 0 1 0 0 0 1 0 0 0 1 -127 121 76.39999 1.5 0.5 0.5
9 0 1 0 0 0 1 0 0 0 1 -128 74 119.4 1.5 0.5 0.5
9 0 1 0 0 0 1 0 0 0 1 -130 137 53.39999 1.5 0.5 0.5
9 0 1 0 0 0 1 0 0 0 1 -130 100 99.39999 1.5 0.5 0.5
9 0 1 0 0 0 1 0 0 0 1 -132 80 115.4 1.5 0.5 0.5
9 0 1 0 0 0 1 0 0 0 1 -134 125 71.39999 1.5 0.5 0.5
9 0 1 0 0 0 1 0 0 0 1 -134 71 121.4 1.5 0.5 0.5
9 0 1 0 0 0 1 0 0 0 1 -136 121 76.39999 1.5 0.5 0.5
9 0 1 0 0 0 1 0 0 0 1 -136 74 119.4 1.5 0.5 0.5
9 0 1 0 0 0 1 0 0 0 1 -136 11 145.4 1.5 0.5 0.5
9 0 1 0 0 0 1 0 0 0 1 -137 171 -24.60001 1.5 0.5 0.5
9 0 1 0 0 0 1 0 0 0 1 -140 80 115.4 1.5 0.5 0.5
9 0 1 0 0 0 1 0 0 0 1 -142 125 71.39999 1.5 0.5 0.5
9 0 1 0 0 0 1 0 0 0 1 -143 162 -2.600006 1.5 0.5 0.5
9 0 1 0 0 0 1 0 0 0 1 -144 121 76.39999 1.5 0.5 0.5
9 0 1 0 0 0 1 0 0 0 1 -146 101 98.39999 1.5 0.5 0.5
9 0 1 0 0 0 1 0 0 0 1 -150 11 145.4 1.5 0.5 0.5
9 0 1 0 0 0 1 0 0 0 1 -152 64 125.4 1.5 0.5 0.5
9 0 1 0 0 0 1 0 0 0 1 -153 26 141.4 1.5 0.5 0.5
9 0 1 0 0 0 1 0 0 0 1 -153 18 143.4 1.5 0.5 0.5
9 0 1 0 0 0 1 0 0 0 1 -153 14 144.4 1.5 0.5 0.5
9 0 1 0 0 0 1 0 0 0 1 -156 137 53.39999 1.5 0.5 0.5
9 0 1 0 0 0 1 0 0 0 1 -156 66 124.4 1.5 0.5 0.5
9 0 1 0 0 0 1 0 0 0 1 -156 40 136.4 1.5 0.5 0.5
9 0 1 0 0 0 1 0 0 0 1 -160 125 71.39999 1.5 0.5 0.5
9 0 1 0 0 0 1 0 0 0 1 -162 74 119.4 1.5 0.5 0.5
9 0 1 0 0 0 1 0 0 0 1 -166 188 -21.60001 0.5 0.5 1.5
9 0 1 0 0 0 1 0 0 0 1 -166 166 -0.6000061 0.5 0.5 1.5
9 0 1 0 0 0 1 0 0 0 1 -165 125 72.39999 1.5 0.5 0.5
9 0 1 0 0 0 1 0 0 0 1 -165 84 113.4 1.5 0.5 0.5
9 0 1 0 0 0 1 0 0 0 1 -167 198 -48.60001 0.5 0.5 1.5
9 0 1 0 0 0 1 0 0 0 1 -166 80 115.4 1.5 0.5 0.5
9 0 1 0 0 0 1 0 0 0 1 -171 183 -9.600006 0.5 1.5 0.5
9 0 1 0 0 0 1 0 0 0 1 -171 177 -9.600006 0.5 1.5 0.5
9 0 1 0 0 0 1 0 0 0 1 -171 171 -9.600006 0.5 1.5 0.5
9 0 1 0 0 0 1 0 0 0 1 -170 133 59.39999 1.5 0.5 0.5
9 0 1 0 0 0 1 0 0 0 1 -170 121 76.39999 1.5 0.5 0.5
9 0 1 0 0 0 1 0 0 0 1 -170 112 88.39999 1.5 0.5 0.5
9 0 1 0 0 0 1 0 0 0 1 -170 102 97.39999 1.5 0.5 0.5
9 0 1 0 0 0 1 0 0 0 1 -170 32 139.4 1.5 0.5 0.5
9 0 1 0 0 0 1 0 0 0 1 -172 140 30.39999 0.5 1.5 0.5
9 0 1 0 0 0 1 0 0 0 1 -172 134 28.39999 0.5 1.5 0.5
9 0 1 0 0 0 1 0 0 0 1 -172 128 26.39999 0.5 1.5 0.5
9 0 1 0 0 0 1 0 0 0 1 -172 115 22.39999 0.5 1.5 0.5
9 0 1 0 0 0 1 0 0 0 1 -172 81 11.39999 0.5 1.5 0.5
9 0 1 0 0 0 1 0 0 0 1 -172 75 9.399994 0.5 1.5 0.5
9 0 1 0 0 0 1 0 0 0 1 -172 44 9.399994 0.5 1.5 0.5
9 0 1 0 0 0 1 0 0 0 1 -172 31 5.399994 0.5 0.5 1.5
9 0 1 0 0 0 1 0 0 0 1 -172 29 5.399994 0.5 0.5 1.5
9 0 1 0 0 0 1 0 0 0 1 -172 11 5.399994 0.5 0.5 1.5
9 0 1 0 0 0 1 0 0 0 1 -172 9 5.399994 0.5 0.5 1.5
9 0 1 0 0 0 1 0 0 0 1 -173 120 72.39999 0.5 0.5 1.5
9 0 1 0 0 0 1 0 0 0 1 -172 106 96.39999 1.5 0.5 0.5
9 0 1 0 0 0 1 0 0 0 1 -173 102 90.39999 0.5 1.5 0.5
9 0 1 0 0 0 1 0 0 0 1 -173 82 106.4 0.5 1.5 0.5
9 0 1 0 0 0 1 0 0 0 1 -173 73 113.4 0.5 1.5 0.5
9 0 1 0 0 0 1 0 0 0 1 -173 66 124.4 0.5 1.5 0.5
9 0 1 0 0 0 1 0 0 0 1 -173 63 121.4 0.5 0.5 1.5
9 0 1 0 0 0 1 0 0 0 1 -174 -7 140.4 0.5 0.5 1.5
9 0 1 0 0 0 1 0 0 0 1 -174 132 27.39999 1.5 0.5 0.5
9 0 1 0 0 0 1 0 0 0 1 -174 120 23.39999 1.5 0.5 0.5
9 0 1 0 0 0 1 0 0 0 1 -180 151 22.39999 0.5 0.5 1.5
9 0 1 0 0 0 1 0 0 0 1 -180 134 27.39999 0.5 1.5 0.5
9 0 1 0 0 0 1 0 0 0 1 -180 125 24.39999 0.5 1.5 0.5
9 0 1 0 0 0 1 0 0 0 1 -180 115 21.39999 0.5 1.5 0.5
9 0 1 0 0 0 1 0 0 0 1 -180 106 18.39999 0.5 1.5 0.5
9 0 1 0 0 0 1 0 0 0 1 -180 97 15.39999 0.5 1.5 0.5
9 0 1 0 0 0 1 0 0 0 1 -180 88 -27.60001 0.5 1.5 0.5
9 0 1 0 0 0 1 0 0 0 1 -179 86 12.39999 1.5 0.5 0.5
9 0 1 0 0 0 1 0 0 0 1 -180 81 10.39999 0.5 1.5 0.5
9 0 1 0 0 0 1 0 0 0 1 -180 75 8.399994 0.5 1.5 0.5
9 0 1 0 0 0 1 0 0 0 1 -180 29 -28.60001 0.5 1.5 0.5
9 0 1 0 0 0 1 0 0 0 1 -181 157 -17.60001 0.5 1.5 0.5
9 0 1 0 0 0 1 0 0 0 1 -181 143 -12.60001 0.5 1.5 0.5
9 0 1 0 0 0 1 0 0 0 1 -181 128 -12.60001 0.5 1.5 0.5
9 0 1 0 0 0 1 0 0 0 1 -181 121 -14.60001 0.5 1.5 0.5
9 0 1 0 0 0 1 0 0 0 1 -181 112 -17.60001 0.5 1.5 0.5
9 0 1 0 0 0 1 0 0 0 1 -181 106 -19.60001 0.5 1.5 0.5
9 0 1 0 0 0 1 0 0 0 1 -185 154 15.39999 1.5 0.5 0.5
9 0 1 0 0 0 1 0 0 0 1 -187 198 -48.60001 0.5 0.5 1.5
9 0 1 0 0 0 1 0 0 0 1 -188 190 -27.60001 0.5 0.5 1.5
9 0 1 0 0 0 1 0 0 0 1 -188 188 -21.60001 0.5 0.5 1.5
9 0 1 0 0 0 1 0 0 0 1 -188 162 -1.600006 0.5 0.5 1.5
9 0 1 0 0 0 1 0 0 0 1 -188 163 22.39999 0.5 1.5 0.5
