9 0 1 0 0 0 1 0 0 0 1 -0.3959999 -19.89 17.257 5 4.5 5
9 0 1 0 0 0 1 0 0 0 1 0.6040001 -13.39 16.257 4 2 3
9 0 1 0 0 0 1 0 0 0 1 6.104 -18.89 17.757 1.5 4.5 2.5
9 0 1 0 0 0 1 0 0 0 1 -0.3959999 -18.39 23.257 4 4 1
9 0 1 0 0 0 1 0 0 0 1 -6.396 -18.39 17.257 1 4 4
9 0 1 0 0 0 1 0 0 0 1 -0.3959999 -19.89 10.757 3 3.5 1.5
9 0 1 0 0 0 1 0 0 0 1 0.1040001 -25.39 16.757 3.5 1 3.5
9 0 1 0 0 0 1 0 0 0 1 17.104 -64.39 16.757 0.5 3 7.5
9 0 1 0 0 0 1 0 0 0 1 0.1040001 -13.89 20.757 4.5 1.5 1.5
9 0 1 0 0 0 1 0 0 0 1 -16.896 -64.89 16.757 0.5 2.5 7.5
9 0 1 0 0 0 1 0 0 0 1 16.104 -65.89 16.257 0.5 1.5 8
9 0 1 0 0 0 1 0 0 0 1 0.1040001 -13.89 11.757 2.5 1.5 1.5
9 0 1 0 0 0 1 0 0 0 1 0.1040001 -18.39 24.757 3.5 3 0.5
9 0 1 0 0 0 1 0 0 0 1 -7.896 -18.39 16.757 0.5 3 3.5
9 0 1 0 0 0 1 0 0 0 1 5.604 -19.89 13.257 1 2.5 2
9 0 1 0 0 0 1 0 0 0 1 0.1040001 -10.39 17.257 2.5 1 2
9 0 1 0 0 0 1 0 0 0 1 -4.396 -13.39 16.757 1 2 2.5
9 0 1 0 0 0 1 0 0 0 1 3.604 -18.39 10.757 1 3 1.5
9 0 1 0 0 0 1 0 0 0 1 -0.3959999 -18.39 8.757 3 3 0.5
9 0 1 0 0 0 1 0 0 0 1 -15.896 -66.39 15.757 0.5 1 8.5
9 0 1 0 0 0 1 0 0 0 1 8.104 -18.39 17.757 0.5 3 2.5
9 0 1 0 0 0 1 0 0 0 1 6.104 -18.89 21.257 1.5 2.5 1
9 0 1 0 0 0 1 0 0 0 1 0.1040001 -26.89 17.257 2.5 0.5 3
9 0 1 0 0 0 1 0 0 0 1 -4.896 -18.89 11.257 1.5 2.5 1
9 0 1 0 0 0 1 0 0 0 1 -0.8959999 -15.89 10.757 3.5 0.5 1.5
9 0 1 0 0 0 1 0 0 0 1 7.604 -18.89 14.257 1 2.5 1
9 0 1 0 0 0 1 0 0 0 1 5.604 -13.39 16.757 1 1 2.5
9 0 1 0 0 0 1 0 0 0 1 4.604 -18.89 23.257 1 2.5 1
9 0 1 0 0 0 1 0 0 0 1 -0.3959999 -11.89 20.757 3 0.5 1.5
9 0 1 0 0 0 1 0 0 0 1 5.604 -24.39 17.257 1 1 2
9 0 1 0 0 0 1 0 0 0 1 0.6040001 -18.39 25.757 2 2 0.5
9 0 1 0 0 0 1 0 0 0 1 -0.3959999 -23.39 23.257 2 1 1
9 0 1 0 0 0 1 0 0 0 1 -6.396 -23.39 17.257 1 1 2
9 0 1 0 0 0 1 0 0 0 1 -8.896 -18.89 16.757 0.5 2.5 1.5
9 0 1 0 0 0 1 0 0 0 1 0.1040001 -24.89 21.257 3.5 0.5 1
9 0 1 0 0 0 1 0 0 0 1 -4.396 -24.89 16.757 1 0.5 3.5
9 0 1 0 0 0 1 0 0 0 1 6.104 -15.39 14.257 1.5 1 1
9 0 1 0 0 0 1 0 0 0 1 4.104 -25.39 17.257 0.5 1 3
9 0 1 0 0 0 1 0 0 0 1 0.1040001 -13.39 23.257 1.5 1 1
9 0 1 0 0 0 1 0 0 0 1 0.1040001 -24.39 11.257 1.5 1 1
9 0 1 0 0 0 1 0 0 0 1 -3.896 -14.39 12.257 1.5 1 1
9 0 1 0 0 0 1 0 0 0 1 -5.896 -13.39 17.257 0.5 1 3
9 0 1 0 0 0 1 0 0 0 1 -5.396 -18.39 22.757 1 3 0.5
9 0 1 0 0 0 1 0 0 0 1 -6.396 -18.39 12.757 1 3 0.5
9 0 1 0 0 0 1 0 0 0 1 -6.396 -18.39 21.757 1 3 0.5
9 0 1 0 0 0 1 0 0 0 1 10.104 -32.89 -14.243 5.5 0.5 0.5
9 0 1 0 0 0 1 0 0 0 1 -9.896 -32.89 -14.243 5.5 0.5 0.5
9 0 1 0 0 0 1 0 0 0 1 9.104 -18.39 16.757 0.5 1 2.5
9 0 1 0 0 0 1 0 0 0 1 0.1040001 -11.89 12.257 2.5 0.5 1
9 0 1 0 0 0 1 0 0 0 1 0.1040001 -14.39 9.757 2.5 1 0.5
9 0 1 0 0 0 1 0 0 0 1 0.1040001 -25.39 12.757 2.5 1 0.5
9 0 1 0 0 0 1 0 0 0 1 -0.8959999 -10.89 14.257 2.5 0.5 1
9 0 1 0 0 0 1 0 0 0 1 0.1040001 -18.89 7.757 1.5 1.5 0.5
9 0 1 0 0 0 1 0 0 0 1 5.604 -15.39 21.257 1 1 1
9 0 1 0 0 0 1 0 0 0 1 5.604 -16.39 12.257 1 1 1
9 0 1 0 0 0 1 0 0 0 1 5.604 -23.39 14.257 1 1 1
9 0 1 0 0 0 1 0 0 0 1 3.604 -10.89 17.257 1 0.5 2
9 0 1 0 0 0 1 0 0 0 1 3.604 -14.39 12.257 1 1 1
9 0 1 0 0 0 1 0 0 0 1 3.604 -22.39 11.257 1 1 1
9 0 1 0 0 0 1 0 0 0 1 -0.3959999 -10.89 20.257 2 0.5 1
9 0 1 0 0 0 1 0 0 0 1 -3.396 -10.89 17.257 1 0.5 2
9 0 1 0 0 0 1 0 0 0 1 -4.396 -18.39 9.757 1 2 0.5
9 0 1 0 0 0 1 0 0 0 1 -16.896 -61.89 20.757 0.5 0.5 3.5
9 0 1 0 0 0 1 0 0 0 1 7.104 -18.89 12.257 0.5 1.5 1
9 0 1 0 0 0 1 0 0 0 1 5.604 -18.89 10.757 1 1.5 0.5
9 0 1 0 0 0 1 0 0 0 1 0.1040001 -22.39 24.757 1.5 1 0.5
9 0 1 0 0 0 1 0 0 0 1 0.1040001 -25.89 21.257 1.5 0.5 1
9 0 1 0 0 0 1 0 0 0 1 -3.896 -25.89 17.257 0.5 0.5 3
9 0 1 0 0 0 1 0 0 0 1 -4.396 -13.89 13.757 1 1.5 0.5
9 0 1 0 0 0 1 0 0 0 1 -4.896 -13.89 20.257 0.5 1.5 1
9 0 1 0 0 0 1 0 0 0 1 7.104 -13.89 16.757 0.5 0.5 2.5
9 0 1 0 0 0 1 0 0 0 1 6.104 -18.89 22.757 0.5 2.5 0.5
9 0 1 0 0 0 1 0 0 0 1 5.104 -11.89 16.757 0.5 0.5 2.5
9 0 1 0 0 0 1 0 0 0 1 0.1040001 -14.89 24.757 2.5 0.5 0.5
9 0 1 0 0 0 1 0 0 0 1 -2.896 -26.89 16.757 0.5 0.5 2.5
9 0 1 0 0 0 1 0 0 0 1 -4.896 -18.89 23.757 0.5 2.5 0.5
9 0 1 0 0 0 1 0 0 0 1 -6.896 -13.89 16.757 0.5 0.5 2.5
9 0 1 0 0 0 1 0 0 0 1 -7.896 -14.89 16.757 0.5 0.5 2.5
9 0 1 0 0 0 1 0 0 0 1 -7.896 -21.89 16.757 0.5 0.5 2.5
9 0 1 0 0 0 1 0 0 0 1 17.104 -66.39 8.257 0.5 1 1
9 0 1 0 0 0 1 0 0 0 1 8.104 -21.89 17.257 0.5 0.5 2
9 0 1 0 0 0 1 0 0 0 1 5.604 -13.89 20.257 1 0.5 1
9 0 1 0 0 0 1 0 0 0 1 5.604 -16.89 14.257 1 0.5 1
9 0 1 0 0 0 1 0 0 0 1 5.604 -21.89 21.257 1 0.5 1
9 0 1 0 0 0 1 0 0 0 1 4.604 -15.39 22.757 1 1 0.5
9 0 1 0 0 0 1 0 0 0 1 3.604 -11.89 20.257 1 0.5 1
9 0 1 0 0 0 1 0 0 0 1 3.104 -18.39 8.757 0.5 2 0.5
9 0 1 0 0 0 1 0 0 0 1 2.604 -23.39 22.757 1 1 0.5
9 0 1 0 0 0 1 0 0 0 1 2.604 -24.39 11.757 1 1 0.5
9 0 1 0 0 0 1 0 0 0 1 -0.3959999 -9.889999 14.757 2 0.5 0.5
9 0 1 0 0 0 1 0 0 0 1 -0.3959999 -24.89 22.757 2 0.5 0.5
9 0 1 0 0 0 1 0 0 0 1 -2.396 -13.39 22.757 1 1 0.5
9 0 1 0 0 0 1 0 0 0 1 -2.396 -23.89 11.257 1 0.5 1
9 0 1 0 0 0 1 0 0 0 1 -3.896 -18.39 24.757 0.5 2 0.5
9 0 1 0 0 0 1 0 0 0 1 -3.896 -22.39 11.257 0.5 1 1
9 0 1 0 0 0 1 0 0 0 1 -5.896 -23.39 14.257 0.5 1 1
9 0 1 0 0 0 1 0 0 0 1 -6.896 -18.39 11.757 0.5 2 0.5
9 0 1 0 0 0 1 0 0 0 1 -7.896 -18.39 20.757 0.5 2 0.5
9 0 1 0 0 0 1 0 0 0 1 -8.896 -18.39 19.257 0.5 1 1
9 0 1 0 0 0 1 0 0 0 1 -16.896 -66.39 8.257 0.5 1 1
9 0 1 0 0 0 1 0 0 0 1 9.104 -19.89 16.757 0.5 0.5 1.5
9 0 1 0 0 0 1 0 0 0 1 8.104 -14.89 16.757 0.5 0.5 1.5
9 0 1 0 0 0 1 0 0 0 1 5.104 -25.89 16.757 0.5 0.5 1.5
9 0 1 0 0 0 1 0 0 0 1 4.104 -18.89 24.757 0.5 1.5 0.5
9 0 1 0 0 0 1 0 0 0 1 3.104 -26.89 17.757 0.5 0.5 1.5
9 0 1 0 0 0 1 0 0 0 1 3.104 -13.89 22.757 1.5 0.5 0.5
9 0 1 0 0 0 1 0 0 0 1 0.1040001 -10.89 12.757 1.5 0.5 0.5
9 0 1 0 0 0 1 0 0 0 1 0.1040001 -11.89 22.757 1.5 0.5 0.5
9 0 1 0 0 0 1 0 0 0 1 0.1040001 -14.89 8.757 1.5 0.5 0.5
9 0 1 0 0 0 1 0 0 0 1 0.1040001 -20.89 25.757 1.5 0.5 0.5
9 0 1 0 0 0 1 0 0 0 1 0.1040001 -21.89 8.757 1.5 0.5 0.5
9 0 1 0 0 0 1 0 0 0 1 0.1040001 -26.89 13.757 1.5 0.5 0.5
9 0 1 0 0 0 1 0 0 0 1 -1.896 -18.89 25.757 0.5 1.5 0.5
9 0 1 0 0 0 1 0 0 0 1 -3.896 -18.89 8.757 0.5 1.5 0.5
9 0 1 0 0 0 1 0 0 0 1 -3.896 -12.89 12.757 1.5 0.5 0.5
9 0 1 0 0 0 1 0 0 0 1 -3.896 -14.89 10.757 1.5 0.5 0.5
9 0 1 0 0 0 1 0 0 0 1 -4.896 -25.89 16.757 0.5 0.5 1.5
9 0 1 0 0 0 1 0 0 0 1 -5.896 -24.89 16.757 0.5 0.5 1.5
9 0 1 0 0 0 1 0 0 0 1 -8.896 -18.89 14.757 0.5 1.5 0.5
