9 0 1 0 0 0 1 0 0 0 1 -10.5 5.499753 -5 5 2 1.5
9 0 1 0 0 0 1 0 0 0 1 -10.5 -5.500247 -5 5 2 1.5
9 0 1 0 0 0 1 0 0 0 1 10 5.499753 -5 4.5 2 1.5
9 0 1 0 0 0 1 0 0 0 1 10 -5.500247 -5 4.5 2 1.5
9 0 1 0 0 0 1 0 0 0 1 16 5.999753 -9.5 2.5 1.5 3
9 0 1 0 0 0 1 0 0 0 1 16 -6.000247 -9.5 2.5 1.5 3
9 0 1 0 0 0 1 0 0 0 1 -16 5.999753 -9.5 2.5 1.5 3
9 0 1 0 0 0 1 0 0 0 1 -16 -6.000247 -9.5 2.5 1.5 3
9 0 1 0 0 0 1 0 0 0 1 14 -0.0002470016 -10 0.5 4.5 2.5
9 0 1 0 0 0 1 0 0 0 1 -14 -0.0002470016 -10 0.5 4.5 2.5
9 0 1 0 0 0 1 0 0 0 1 0 6.999753 -5 5.5 0.5 1.5
9 0 1 0 0 0 1 0 0 0 1 0 -7.000247 -5 5.5 0.5 1.5
9 0 1 0 0 0 1 0 0 0 1 9 4.499753 4 6.5 1 0.5
9 0 1 0 0 0 1 0 0 0 1 9 -4.000247 4.5 6.5 0.5 1
9 0 1 0 0 0 1 0 0 0 1 -9 4.499753 4 6.5 1 0.5
9 0 1 0 0 0 1 0 0 0 1 -9 -4.000247 4.5 6.5 0.5 1
9 0 1 0 0 0 1 0 0 0 1 4 3.999753 19.5 0.5 0.5 9
9 0 1 0 0 0 1 0 0 0 1 4 -4.000247 19.5 0.5 0.5 9
9 0 1 0 0 0 1 0 0 0 1 4 4.999753 -4.5 1.5 1.5 1
9 0 1 0 0 0 1 0 0 0 1 4 -5.000247 -4.5 1.5 1.5 1
9 0 1 0 0 0 1 0 0 0 1 -4 3.999753 19.5 0.5 0.5 9
9 0 1 0 0 0 1 0 0 0 1 -4 -4.000247 19.5 0.5 0.5 9
9 0 1 0 0 0 1 0 0 0 1 -4 4.999753 -4.5 1.5 1.5 1
9 0 1 0 0 0 1 0 0 0 1 -4 -5.000247 -4.5 1.5 1.5 1
9 0 1 0 0 0 1 0 0 0 1 15.5 6.999753 -14.5 2 0.5 2
9 0 1 0 0 0 1 0 0 0 1 15.5 -7.000247 -14.5 2 0.5 2
9 0 1 0 0 0 1 0 0 0 1 -15.5 6.999753 -14.5 2 0.5 2
9 0 1 0 0 0 1 0 0 0 1 -15.5 -7.000247 -14.5 2 0.5 2
9 0 1 0 0 0 1 0 0 0 1 9 -5.000247 4 6.5 0.5 0.5
9 0 1 0 0 0 1 0 0 0 1 -9 -5.000247 4 6.5 0.5 0.5
9 0 1 0 0 0 1 0 0 0 1 16.5 6.999753 -5 2 0.5 1.5
9 0 1 0 0 0 1 0 0 0 1 16.5 -7.000247 -5 2 0.5 1.5
9 0 1 0 0 0 1 0 0 0 1 9 4.499753 5 2.5 1 0.5
9 0 1 0 0 0 1 0 0 0 1 -9 4.499753 5 2.5 1 0.5
9 0 1 0 0 0 1 0 0 0 1 15 4.999753 -5 0.5 1.5 1.5
9 0 1 0 0 0 1 0 0 0 1 15 -5.000247 -5 0.5 1.5 1.5
9 0 1 0 0 0 1 0 0 0 1 -17 6.999753 -5 1.5 0.5 1.5
9 0 1 0 0 0 1 0 0 0 1 -17 -7.000247 -5 1.5 0.5 1.5
9 0 1 0 0 0 1 0 0 0 1 15.5 5.999753 -13.5 2 0.5 1
9 0 1 0 0 0 1 0 0 0 1 15.5 -5.500247 -13 2 1 0.5
9 0 1 0 0 0 1 0 0 0 1 -15.5 5.999753 -13.5 2 0.5 1
9 0 1 0 0 0 1 0 0 0 1 -15.5 -5.500247 -13 2 1 0.5
9 0 1 0 0 0 1 0 0 0 1 9 -5.000247 5 2.5 0.5 0.5
9 0 1 0 0 0 1 0 0 0 1 -9 -5.000247 5 2.5 0.5 0.5
9 0 1 0 0 0 1 0 0 0 1 15.5 4.999753 -13 2 0.5 0.5
9 0 1 0 0 0 1 0 0 0 1 15.5 -6.000247 -14 2 0.5 0.5
9 0 1 0 0 0 1 0 0 0 1 13.5 3.999753 5 2 0.5 0.5
9 0 1 0 0 0 1 0 0 0 1 4.5 3.999753 5 2 0.5 0.5
9 0 1 0 0 0 1 0 0 0 1 -4.5 3.999753 5 2 0.5 0.5
9 0 1 0 0 0 1 0 0 0 1 -13.5 3.999753 5 2 0.5 0.5
9 0 1 0 0 0 1 0 0 0 1 -15.5 4.999753 -13 2 0.5 0.5
9 0 1 0 0 0 1 0 0 0 1 -15.5 -6.000247 -14 2 0.5 0.5
9 0 1 0 0 0 1 0 0 0 1 17 5.999753 -6 1.5 0.5 0.5
9 0 1 0 0 0 1 0 0 0 1 17 -6.000247 -6 1.5 0.5 0.5
9 0 1 0 0 0 1 0 0 0 1 4 5.999753 -6 1.5 0.5 0.5
9 0 1 0 0 0 1 0 0 0 1 4 -6.000247 -6 1.5 0.5 0.5
9 0 1 0 0 0 1 0 0 0 1 -4 5.999753 -6 1.5 0.5 0.5
9 0 1 0 0 0 1 0 0 0 1 -4 -6.000247 -6 1.5 0.5 0.5
9 0 1 0 0 0 1 0 0 0 1 -17 5.999753 -6 1.5 0.5 0.5
9 0 1 0 0 0 1 0 0 0 1 -17 -6.000247 -6 1.5 0.5 0.5
