9 0 1 0 0 0 1 0 0 0 1 -0.08899689 -26.482 56.156 7.5 15 1
9 0 1 0 0 0 1 0 0 0 1 35.411 -50.482 -18.344 3 4 5.5
9 0 1 0 0 0 1 0 0 0 1 -35.589 -50.482 -18.344 3 4 5.5
9 0 1 0 0 0 1 0 0 0 1 6.911003 -48.982 0.6559982 0.5 7.5 12.5
9 0 1 0 0 0 1 0 0 0 1 -0.08899689 -46.482 56.156 7.5 5 1
9 0 1 0 0 0 1 0 0 0 1 -0.08899689 -38.982 48.156 1.5 3.5 7
9 0 1 0 0 0 1 0 0 0 1 -0.5889969 -48.982 -1.344002 7 1.5 3.5
9 0 1 0 0 0 1 0 0 0 1 5.411003 -24.482 41.156 2 18 1
9 0 1 0 0 0 1 0 0 0 1 19.411 -47.482 -29.344 1 6 5.5
9 0 1 0 0 0 1 0 0 0 1 -19.589 -47.482 -29.344 1 6 5.5
9 0 1 0 0 0 1 0 0 0 1 -0.08899689 -12.982 53.156 9.5 1.5 2
9 0 1 0 0 0 1 0 0 0 1 -0.08899689 -13.482 44.656 9.5 2 1.5
9 0 1 0 0 0 1 0 0 0 1 -6.588997 -15.482 41.156 3 9 1
9 0 1 0 0 0 1 0 0 0 1 -53.089 -57.482 -18.844 6.5 1 4
9 0 1 0 0 0 1 0 0 0 1 14.411 -49.982 -40.344 2 8.5 1.5
9 0 1 0 0 0 1 0 0 0 1 -14.089 -49.982 -39.844 1.5 8.5 2
9 0 1 0 0 0 1 0 0 0 1 -18.089 -56.482 -17.344 4.5 1 5.5
9 0 1 0 0 0 1 0 0 0 1 8.411003 -47.482 -20.844 1 6 4
9 0 1 0 0 0 1 0 0 0 1 -8.588997 -47.482 -20.844 1 6 4
9 0 1 0 0 0 1 0 0 0 1 -0.08899689 -8.981998 56.156 9.5 2.5 1
9 0 1 0 0 0 1 0 0 0 1 52.911 -57.482 -18.344 6.5 1 3.5
9 0 1 0 0 0 1 0 0 0 1 17.911 -56.482 -17.844 4.5 1 5
9 0 1 0 0 0 1 0 0 0 1 -9.588997 -48.982 13.656 1 8.5 2.5
9 0 1 0 0 0 1 0 0 0 1 -7.088997 -44.482 -1.344002 0.5 3 13.5
9 0 1 0 0 0 1 0 0 0 1 -0.08899689 -44.982 34.656 6.5 0.5 5.5
9 0 1 0 0 0 1 0 0 0 1 -7.088997 -52.982 -0.8440018 0.5 2.5 14
9 0 1 0 0 0 1 0 0 0 1 9.411003 -48.982 14.156 1 8.5 2
9 0 1 0 0 0 1 0 0 0 1 -0.08899689 -48.982 41.156 6.5 2.5 1
9 0 1 0 0 0 1 0 0 0 1 -0.08899689 -56.482 48.656 6.5 1 2.5
9 0 1 0 0 0 1 0 0 0 1 15.411 -51.482 34.156 5 3 1
9 0 1 0 0 0 1 0 0 0 1 -15.589 -51.482 34.156 5 3 1
9 0 1 0 0 0 1 0 0 0 1 -0.08899689 -1.481998 48.656 9.5 1 1.5
9 0 1 0 0 0 1 0 0 0 1 13.911 -47.482 -24.344 4.5 6 0.5
9 0 1 0 0 0 1 0 0 0 1 5.411003 -51.982 22.156 3 1.5 3
9 0 1 0 0 0 1 0 0 0 1 -5.588997 -51.982 22.156 3 1.5 3
9 0 1 0 0 0 1 0 0 0 1 -14.089 -47.482 -24.344 4.5 6 0.5
9 0 1 0 0 0 1 0 0 0 1 -0.08899689 -47.982 -18.344 3.5 7.5 0.5
9 0 1 0 0 0 1 0 0 0 1 -0.08899689 -48.982 15.656 3.5 7.5 0.5
9 0 1 0 0 0 1 0 0 0 1 -5.588997 -32.982 41.156 2 6.5 1
9 0 1 0 0 0 1 0 0 0 1 14.911 -42.482 -46.844 2.5 1 5
9 0 1 0 0 0 1 0 0 0 1 -15.089 -42.482 -46.844 2.5 1 5
9 0 1 0 0 0 1 0 0 0 1 -0.08899689 -3.981998 45.656 9.5 2.5 0.5
9 0 1 0 0 0 1 0 0 0 1 -0.08899689 -3.981998 51.656 9.5 2.5 0.5
9 0 1 0 0 0 1 0 0 0 1 7.911003 -48.982 7.155998 0.5 7.5 3
9 0 1 0 0 0 1 0 0 0 1 -0.08899689 -21.482 48.656 7.5 1 1.5
9 0 1 0 0 0 1 0 0 0 1 -24.089 -56.982 -18.844 1.5 0.5 15
9 0 1 0 0 0 1 0 0 0 1 -8.088997 -51.982 35.156 0.5 5.5 4
9 0 1 0 0 0 1 0 0 0 1 -36.589 -56.482 -18.344 2 1 5.5
9 0 1 0 0 0 1 0 0 0 1 -0.08899689 -44.482 -3.844002 3.5 3 1
9 0 1 0 0 0 1 0 0 0 1 -15.589 -57.482 -45.344 3 1 3.5
9 0 1 0 0 0 1 0 0 0 1 23.911 -56.982 -17.344 1.5 0.5 13.5
9 0 1 0 0 0 1 0 0 0 1 44.411 -56.482 -19.844 2 1 5
9 0 1 0 0 0 1 0 0 0 1 37.911 -49.482 -1.344002 0.5 8 2.5
9 0 1 0 0 0 1 0 0 0 1 36.411 -56.482 -17.844 2 1 5
9 0 1 0 0 0 1 0 0 0 1 34.911 -50.482 -6.844002 2.5 4 1
9 0 1 0 0 0 1 0 0 0 1 -38.089 -49.482 -1.344002 0.5 8 2.5
9 0 1 0 0 0 1 0 0 0 1 -44.589 -56.482 -20.844 2 1 5
9 0 1 0 0 0 1 0 0 0 1 24.411 -49.982 -4.344002 3 6.5 0.5
9 0 1 0 0 0 1 0 0 0 1 -8.088997 -49.982 7.155998 0.5 6.5 3
9 0 1 0 0 0 1 0 0 0 1 -24.589 -49.982 -4.344002 3 6.5 0.5
9 0 1 0 0 0 1 0 0 0 1 -0.08899689 -5.981998 54.156 9.5 0.5 2
9 0 1 0 0 0 1 0 0 0 1 -0.08899689 -15.482 52.156 9.5 1 1
9 0 1 0 0 0 1 0 0 0 1 15.411 -57.482 -44.844 3 1 3
9 0 1 0 0 0 1 0 0 0 1 8.411003 -15.482 41.156 1 9 1
9 0 1 0 0 0 1 0 0 0 1 4.411003 -36.482 48.156 3 1 3
9 0 1 0 0 0 1 0 0 0 1 0.4110031 -53.482 -3.844002 3 3 1
9 0 1 0 0 0 1 0 0 0 1 -32.589 -49.982 -6.344002 4 4.5 0.5
9 0 1 0 0 0 1 0 0 0 1 7.911003 -48.482 -10.344 0.5 7 2.5
9 0 1 0 0 0 1 0 0 0 1 -8.088997 -48.482 -10.344 0.5 7 2.5
9 0 1 0 0 0 1 0 0 0 1 12.411 -48.982 14.656 2 8.5 0.5
9 0 1 0 0 0 1 0 0 0 1 -12.589 -48.982 14.656 2 8.5 0.5
9 0 1 0 0 0 1 0 0 0 1 35.411 -58.982 -18.344 3 0.5 5.5
9 0 1 0 0 0 1 0 0 0 1 -8.588997 -41.982 33.656 1 1.5 5.5
9 0 1 0 0 0 1 0 0 0 1 -35.589 -58.982 -18.344 3 0.5 5.5
9 0 1 0 0 0 1 0 0 0 1 28.911 -47.982 -33.344 2.5 6.5 0.5
9 0 1 0 0 0 1 0 0 0 1 25.911 -47.982 -34.344 2.5 6.5 0.5
9 0 1 0 0 0 1 0 0 0 1 39.411 -50.482 -15.844 1 4 2
9 0 1 0 0 0 1 0 0 0 1 36.911 -49.482 1.155998 0.5 8 2
9 0 1 0 0 0 1 0 0 0 1 34.411 -51.482 22.156 2 2 2
9 0 1 0 0 0 1 0 0 0 1 31.411 -50.482 -20.844 1 4 2
9 0 1 0 0 0 1 0 0 0 1 29.411 -51.482 26.156 2 2 2
9 0 1 0 0 0 1 0 0 0 1 19.411 -55.482 -30.844 1 2 4
9 0 1 0 0 0 1 0 0 0 1 18.411 -49.482 -7.844002 1 8 1
9 0 1 0 0 0 1 0 0 0 1 -19.589 -55.482 -30.844 1 2 4
9 0 1 0 0 0 1 0 0 0 1 -29.589 -51.482 26.156 2 2 2
9 0 1 0 0 0 1 0 0 0 1 -31.589 -50.482 -20.844 1 4 2
9 0 1 0 0 0 1 0 0 0 1 -34.589 -51.482 22.156 2 2 2
9 0 1 0 0 0 1 0 0 0 1 -37.089 -49.482 1.155998 0.5 8 2
9 0 1 0 0 0 1 0 0 0 1 -39.589 -50.482 -15.844 1 4 2
9 0 1 0 0 0 1 0 0 0 1 57.911 -58.982 -16.344 4.5 0.5 3.5
9 0 1 0 0 0 1 0 0 0 1 -0.08899689 -51.982 22.656 1.5 1.5 3.5
9 0 1 0 0 0 1 0 0 0 1 -0.08899689 -30.982 41.656 3.5 4.5 0.5
9 0 1 0 0 0 1 0 0 0 1 -12.089 -55.982 -19.344 1.5 1.5 3.5
9 0 1 0 0 0 1 0 0 0 1 -58.089 -58.982 -16.344 4.5 0.5 3.5
9 0 1 0 0 0 1 0 0 0 1 8.911003 -42.982 33.156 0.5 2.5 6
9 0 1 0 0 0 1 0 0 0 1 6.411003 -47.982 -14.844 1 7.5 1
9 0 1 0 0 0 1 0 0 0 1 5.411003 -48.982 -5.844002 1 7.5 1
9 0 1 0 0 0 1 0 0 0 1 3.411003 -47.982 -17.344 2 7.5 0.5
9 0 1 0 0 0 1 0 0 0 1 3.411003 -48.982 2.655998 2 7.5 0.5
9 0 1 0 0 0 1 0 0 0 1 -3.588997 -47.982 -17.344 2 7.5 0.5
9 0 1 0 0 0 1 0 0 0 1 -3.588997 -48.982 2.655998 2 7.5 0.5
9 0 1 0 0 0 1 0 0 0 1 -5.588997 -47.982 -15.844 1 7.5 1
9 0 1 0 0 0 1 0 0 0 1 -6.088997 -48.982 -6.844002 0.5 7.5 2
9 0 1 0 0 0 1 0 0 0 1 -0.08899689 -22.482 45.156 7.5 1 1
9 0 1 0 0 0 1 0 0 0 1 -0.08899689 -22.482 52.156 7.5 1 1
9 0 1 0 0 0 1 0 0 0 1 -4.588997 -36.482 48.656 3 1 2.5
9 0 1 0 0 0 1 0 0 0 1 -0.08899689 -52.482 55.156 7.5 1 1
9 0 1 0 0 0 1 0 0 0 1 -0.08899689 -55.482 52.156 7.5 1 1
9 0 1 0 0 0 1 0 0 0 1 -29.089 -47.482 -33.344 2.5 6 0.5
9 0 1 0 0 0 1 0 0 0 1 -43.589 -50.982 14.656 2 2.5 1.5
9 0 1 0 0 0 1 0 0 0 1 -40.089 -51.482 17.656 2.5 2 1.5
9 0 1 0 0 0 1 0 0 0 1 7.911003 -48.982 -1.344002 0.5 9.5 1.5
9 0 1 0 0 0 1 0 0 0 1 -0.08899689 -5.981998 43.656 9.5 0.5 1.5
9 0 1 0 0 0 1 0 0 0 1 57.411 -51.982 -12.844 2 3.5 1
9 0 1 0 0 0 1 0 0 0 1 -5.588997 -48.482 4.155998 1 7 1
9 0 1 0 0 0 1 0 0 0 1 -57.589 -51.982 -12.844 2 3.5 1
9 0 1 0 0 0 1 0 0 0 1 -27.089 -48.982 -5.344002 2.5 5.5 0.5
9 0 1 0 0 0 1 0 0 0 1 11.911 -55.982 -19.844 1.5 1.5 3
9 0 1 0 0 0 1 0 0 0 1 38.911 -47.982 -3.844002 0.5 6.5 2
9 0 1 0 0 0 1 0 0 0 1 8.411003 -17.982 56.156 1 6.5 1
9 0 1 0 0 0 1 0 0 0 1 -0.08899689 -52.482 42.156 6.5 1 1
9 0 1 0 0 0 1 0 0 0 1 -0.08899689 -55.482 45.156 6.5 1 1
9 0 1 0 0 0 1 0 0 0 1 -8.588997 -17.982 56.156 1 6.5 1
9 0 1 0 0 0 1 0 0 0 1 13.911 -49.982 -38.344 1.5 8.5 0.5
9 0 1 0 0 0 1 0 0 0 1 9.911003 -48.982 10.656 0.5 8.5 1.5
9 0 1 0 0 0 1 0 0 0 1 -16.089 -49.982 -40.344 0.5 8.5 1.5
9 0 1 0 0 0 1 0 0 0 1 42.911 -50.982 15.156 2.5 2.5 1
9 0 1 0 0 0 1 0 0 0 1 26.911 -48.482 -5.344002 2.5 5 0.5
9 0 1 0 0 0 1 0 0 0 1 -15.089 -49.482 -55.344 2.5 5 0.5
9 0 1 0 0 0 1 0 0 0 1 -36.089 -49.982 -7.344002 3.5 3.5 0.5
9 0 1 0 0 0 1 0 0 0 1 50.411 -51.482 -10.844 2 3 1
9 0 1 0 0 0 1 0 0 0 1 40.411 -51.482 17.656 2 2 1.5
9 0 1 0 0 0 1 0 0 0 1 31.411 -56.982 -7.844002 6 0.5 2
9 0 1 0 0 0 1 0 0 0 1 18.911 -49.482 -36.344 0.5 8 1.5
9 0 1 0 0 0 1 0 0 0 1 16.411 -47.482 -9.844002 1 6 1
9 0 1 0 0 0 1 0 0 0 1 14.411 -49.482 -55.844 2 3 1
9 0 1 0 0 0 1 0 0 0 1 3.911003 -49.482 -33.344 1.5 8 0.5
9 0 1 0 0 0 1 0 0 0 1 -13.589 -47.482 -11.844 1 6 1
9 0 1 0 0 0 1 0 0 0 1 -15.089 -49.482 -10.344 1.5 8 0.5
9 0 1 0 0 0 1 0 0 0 1 -19.089 -49.482 -36.344 0.5 8 1.5
9 0 1 0 0 0 1 0 0 0 1 -19.089 -49.482 -7.344002 1.5 8 0.5
9 0 1 0 0 0 1 0 0 0 1 -23.589 -47.482 -32.844 1 6 1
9 0 1 0 0 0 1 0 0 0 1 -26.589 -47.482 -34.344 2 6 0.5
9 0 1 0 0 0 1 0 0 0 1 -50.589 -51.482 -10.844 2 3 1
9 0 1 0 0 0 1 0 0 0 1 -49.589 -57.982 -12.844 6 0.5 2
9 0 1 0 0 0 1 0 0 0 1 51.911 -57.982 -13.344 7.5 0.5 1.5
9 0 1 0 0 0 1 0 0 0 1 5.911003 -48.982 4.655998 0.5 7.5 1.5
9 0 1 0 0 0 1 0 0 0 1 -6.088997 -48.982 12.656 0.5 7.5 1.5
9 0 1 0 0 0 1 0 0 0 1 -0.08899689 -24.982 54.656 7.5 1.5 0.5
9 0 1 0 0 0 1 0 0 0 1 -0.08899689 -32.982 42.656 7.5 1.5 0.5
9 0 1 0 0 0 1 0 0 0 1 -0.08899689 -32.982 54.656 7.5 1.5 0.5
9 0 1 0 0 0 1 0 0 0 1 -0.08899689 -34.982 44.656 7.5 0.5 1.5
9 0 1 0 0 0 1 0 0 0 1 -0.08899689 -34.982 52.656 7.5 0.5 1.5
9 0 1 0 0 0 1 0 0 0 1 -0.08899689 -42.982 44.656 7.5 0.5 1.5
9 0 1 0 0 0 1 0 0 0 1 -0.08899689 -42.982 52.656 7.5 0.5 1.5
9 0 1 0 0 0 1 0 0 0 1 -0.08899689 -44.982 42.656 7.5 1.5 0.5
9 0 1 0 0 0 1 0 0 0 1 -0.08899689 -44.982 54.656 7.5 1.5 0.5
9 0 1 0 0 0 1 0 0 0 1 -9.088997 -48.982 -15.344 0.5 7.5 1.5
9 0 1 0 0 0 1 0 0 0 1 -24.089 -57.982 -8.344002 2.5 0.5 4.5
9 0 1 0 0 0 1 0 0 0 1 -49.089 -49.982 -26.344 2.5 4.5 0.5
9 0 1 0 0 0 1 0 0 0 1 12.411 -46.982 -12.844 1 5.5 1
9 0 1 0 0 0 1 0 0 0 1 8.411003 -38.982 56.156 1 5.5 1
9 0 1 0 0 0 1 0 0 0 1 -8.588997 -38.982 56.156 1 5.5 1
9 0 1 0 0 0 1 0 0 0 1 60.411 -51.982 -22.344 3 3.5 0.5
9 0 1 0 0 0 1 0 0 0 1 53.911 -51.982 -11.844 1.5 3.5 1
9 0 1 0 0 0 1 0 0 0 1 39.411 -49.982 -8.344002 3 3.5 0.5
9 0 1 0 0 0 1 0 0 0 1 8.911003 -48.482 -15.344 0.5 7 1.5
9 0 1 0 0 0 1 0 0 0 1 -0.08899689 -9.481998 41.656 3.5 3 0.5
9 0 1 0 0 0 1 0 0 0 1 -0.08899689 -44.482 1.655998 3.5 3 0.5
9 0 1 0 0 0 1 0 0 0 1 -0.08899689 -53.482 1.655998 3.5 3 0.5
9 0 1 0 0 0 1 0 0 0 1 -39.589 -49.982 -8.344002 3 3.5 0.5
9 0 1 0 0 0 1 0 0 0 1 -36.589 -56.982 -9.344002 7 0.5 1.5
9 0 1 0 0 0 1 0 0 0 1 -54.089 -51.982 -11.844 1.5 3.5 1
9 0 1 0 0 0 1 0 0 0 1 -59.089 -50.982 -22.844 1.5 3.5 1
9 0 1 0 0 0 1 0 0 0 1 48.911 -50.482 -26.344 2.5 4 0.5
9 0 1 0 0 0 1 0 0 0 1 37.411 -51.482 19.656 1 2 2.5
9 0 1 0 0 0 1 0 0 0 1 23.411 -57.982 -8.844002 2 0.5 5
9 0 1 0 0 0 1 0 0 0 1 21.411 -47.482 -5.844002 1 5 1
9 0 1 0 0 0 1 0 0 0 1 14.911 -56.482 -50.844 2.5 1 2
9 0 1 0 0 0 1 0 0 0 1 12.411 -49.482 0.1559982 1 5 1
9 0 1 0 0 0 1 0 0 0 1 -13.089 -50.482 27.656 2.5 4 0.5
9 0 1 0 0 0 1 0 0 0 1 -15.589 -49.482 3.155998 1 5 1
9 0 1 0 0 0 1 0 0 0 1 -17.589 -46.482 -8.844002 1 5 1
9 0 1 0 0 0 1 0 0 0 1 -31.589 -47.482 -32.344 2 5 0.5
9 0 1 0 0 0 1 0 0 0 1 -62.589 -50.982 -21.844 2 2.5 1
9 0 1 0 0 0 1 0 0 0 1 34.911 -55.982 -27.344 6.5 0.5 1.5
9 0 1 0 0 0 1 0 0 0 1 -9.088997 -50.982 37.656 0.5 6.5 1.5
9 0 1 0 0 0 1 0 0 0 1 -39.089 -47.982 -3.344002 0.5 6.5 1.5
9 0 1 0 0 0 1 0 0 0 1 -0.08899689 -15.982 45.156 9.5 0.5 1
9 0 1 0 0 0 1 0 0 0 1 66.911 -51.482 -3.844002 1.5 3 1
9 0 1 0 0 0 1 0 0 0 1 60.911 -52.482 -13.844 1.5 3 1
9 0 1 0 0 0 1 0 0 0 1 62.411 -53.482 -21.344 3 3 0.5
9 0 1 0 0 0 1 0 0 0 1 55.411 -50.982 4.655998 2 1.5 1.5
9 0 1 0 0 0 1 0 0 0 1 51.911 -57.482 -22.844 4.5 1 1
9 0 1 0 0 0 1 0 0 0 1 34.411 -47.982 -31.344 2 4.5 0.5
9 0 1 0 0 0 1 0 0 0 1 31.411 -47.982 -32.344 2 4.5 0.5
9 0 1 0 0 0 1 0 0 0 1 26.911 -55.982 -15.844 1.5 0.5 6
9 0 1 0 0 0 1 0 0 0 1 22.411 -51.482 31.656 1 3 1.5
9 0 1 0 0 0 1 0 0 0 1 22.911 -55.482 -25.844 1.5 1 3
9 0 1 0 0 0 1 0 0 0 1 19.411 -56.482 -11.344 3 1 1.5
9 0 1 0 0 0 1 0 0 0 1 14.411 -48.982 2.155998 1 4.5 1
9 0 1 0 0 0 1 0 0 0 1 13.411 -50.982 27.656 2 4.5 0.5
9 0 1 0 0 0 1 0 0 0 1 7.411003 -44.982 16.156 1 4.5 1
9 0 1 0 0 0 1 0 0 0 1 4.411003 -41.482 48.656 3 1 1.5
9 0 1 0 0 0 1 0 0 0 1 -4.588997 -41.482 48.656 3 1 1.5
9 0 1 0 0 0 1 0 0 0 1 -7.588997 -44.982 16.156 1 4.5 1
9 0 1 0 0 0 1 0 0 0 1 -12.589 -48.982 0.1559982 1 4.5 1
9 0 1 0 0 0 1 0 0 0 1 -21.589 -45.982 -5.844002 1 4.5 1
9 0 1 0 0 0 1 0 0 0 1 -22.589 -51.482 31.656 1 3 1.5
9 0 1 0 0 0 1 0 0 0 1 -26.589 -55.982 -15.344 2 0.5 4.5
9 0 1 0 0 0 1 0 0 0 1 -34.589 -46.982 -31.344 2 4.5 0.5
9 0 1 0 0 0 1 0 0 0 1 -33.089 -55.982 -27.844 4.5 0.5 2
9 0 1 0 0 0 1 0 0 0 1 -37.589 -47.982 -30.344 2 4.5 0.5
9 0 1 0 0 0 1 0 0 0 1 -61.089 -52.482 -13.844 1.5 3 1
9 0 1 0 0 0 1 0 0 0 1 -67.089 -51.482 -3.844002 1.5 3 1
9 0 1 0 0 0 1 0 0 0 1 -0.08899689 -18.982 41.656 3.5 2.5 0.5
9 0 1 0 0 0 1 0 0 0 1 31.911 -48.982 11.156 0.5 8.5 1
9 0 1 0 0 0 1 0 0 0 1 19.911 -49.982 -6.844002 0.5 8.5 1
9 0 1 0 0 0 1 0 0 0 1 11.411 -48.982 15.656 1 8.5 0.5
9 0 1 0 0 0 1 0 0 0 1 -31.089 -48.982 12.156 0.5 8.5 1
9 0 1 0 0 0 1 0 0 0 1 -32.089 -48.982 11.156 0.5 8.5 1
9 0 1 0 0 0 1 0 0 0 1 8.911003 -51.982 37.656 0.5 5.5 1.5
9 0 1 0 0 0 1 0 0 0 1 -7.088997 -48.982 7.655998 0.5 1.5 5.5
9 0 1 0 0 0 1 0 0 0 1 -7.088997 -56.982 -1.344002 0.5 1.5 5.5
9 0 1 0 0 0 1 0 0 0 1 57.411 -52.482 -23.344 2 4 0.5
9 0 1 0 0 0 1 0 0 0 1 55.411 -51.482 -24.344 2 4 0.5
9 0 1 0 0 0 1 0 0 0 1 37.411 -47.482 -30.344 2 4 0.5
9 0 1 0 0 0 1 0 0 0 1 35.911 -49.482 3.155998 0.5 8 1
9 0 1 0 0 0 1 0 0 0 1 35.411 -50.482 -24.344 2 4 0.5
9 0 1 0 0 0 1 0 0 0 1 30.411 -49.482 -6.344002 2 4 0.5
9 0 1 0 0 0 1 0 0 0 1 28.911 -49.482 -1.844002 0.5 8 1
9 0 1 0 0 0 1 0 0 0 1 27.911 -49.482 0.1559982 0.5 8 1
9 0 1 0 0 0 1 0 0 0 1 15.411 -49.482 -25.344 1 8 0.5
9 0 1 0 0 0 1 0 0 0 1 14.411 -49.482 -26.344 1 8 0.5
9 0 1 0 0 0 1 0 0 0 1 13.411 -49.482 -27.344 1 8 0.5
9 0 1 0 0 0 1 0 0 0 1 10.411 -49.482 -29.344 1 8 0.5
9 0 1 0 0 0 1 0 0 0 1 7.911003 -55.482 -20.844 0.5 2 4
9 0 1 0 0 0 1 0 0 0 1 7.411003 -49.482 -31.344 1 8 0.5
9 0 1 0 0 0 1 0 0 0 1 5.411003 -49.482 -32.344 1 8 0.5
9 0 1 0 0 0 1 0 0 0 1 -3.588997 -49.482 -33.344 1 8 0.5
9 0 1 0 0 0 1 0 0 0 1 -5.588997 -49.482 -32.344 1 8 0.5
9 0 1 0 0 0 1 0 0 0 1 -7.588997 -49.482 -31.344 1 8 0.5
9 0 1 0 0 0 1 0 0 0 1 -8.088997 -55.482 -20.844 0.5 2 4
9 0 1 0 0 0 1 0 0 0 1 -10.589 -49.482 -29.344 1 8 0.5
9 0 1 0 0 0 1 0 0 0 1 -11.589 -49.482 -28.344 1 8 0.5
9 0 1 0 0 0 1 0 0 0 1 -13.589 -49.482 -27.344 1 8 0.5
9 0 1 0 0 0 1 0 0 0 1 -14.589 -49.482 -26.344 1 8 0.5
9 0 1 0 0 0 1 0 0 0 1 -15.589 -49.482 -25.344 1 8 0.5
9 0 1 0 0 0 1 0 0 0 1 -28.089 -49.482 0.1559982 0.5 8 1
9 0 1 0 0 0 1 0 0 0 1 -33.089 -49.482 9.155998 0.5 8 1
9 0 1 0 0 0 1 0 0 0 1 -36.089 -49.482 3.155998 0.5 8 1
9 0 1 0 0 0 1 0 0 0 1 -35.589 -50.482 -24.344 2 4 0.5
9 0 1 0 0 0 1 0 0 0 1 -40.589 -47.482 -29.344 2 4 0.5
9 0 1 0 0 0 1 0 0 0 1 66.911 -51.482 -9.344002 0.5 3 2.5
9 0 1 0 0 0 1 0 0 0 1 61.911 -57.982 -16.844 2.5 0.5 3
9 0 1 0 0 0 1 0 0 0 1 46.911 -48.482 -27.344 2.5 3 0.5
9 0 1 0 0 0 1 0 0 0 1 39.911 -49.482 -29.344 1.5 5 0.5
9 0 1 0 0 0 1 0 0 0 1 30.911 -47.982 12.156 0.5 7.5 1
9 0 1 0 0 0 1 0 0 0 1 13.911 -48.482 -11.344 1.5 5 0.5
9 0 1 0 0 0 1 0 0 0 1 11.411 -49.982 -28.344 1 7.5 0.5
9 0 1 0 0 0 1 0 0 0 1 5.911003 -48.982 13.156 0.5 7.5 1
9 0 1 0 0 0 1 0 0 0 1 5.411003 -47.982 -16.344 1 7.5 0.5
9 0 1 0 0 0 1 0 0 0 1 4.911003 -48.982 14.156 0.5 7.5 1
9 0 1 0 0 0 1 0 0 0 1 -4.588997 -48.982 -5.344002 1 7.5 0.5
9 0 1 0 0 0 1 0 0 0 1 -4.588997 -48.982 14.656 1 7.5 0.5
9 0 1 0 0 0 1 0 0 0 1 -0.08899689 -23.482 43.656 7.5 1 0.5
9 0 1 0 0 0 1 0 0 0 1 -0.08899689 -23.482 53.656 7.5 1 0.5
9 0 1 0 0 0 1 0 0 0 1 -7.088997 -48.982 -9.844002 0.5 1.5 5
9 0 1 0 0 0 1 0 0 0 1 -0.08899689 -53.982 43.156 7.5 0.5 1
9 0 1 0 0 0 1 0 0 0 1 -0.08899689 -53.982 54.156 7.5 0.5 1
9 0 1 0 0 0 1 0 0 0 1 -14.089 -49.482 1.655998 0.5 5 1.5
9 0 1 0 0 0 1 0 0 0 1 -15.089 -56.482 -51.344 2.5 1 1.5
9 0 1 0 0 0 1 0 0 0 1 -23.089 -55.482 -26.344 1.5 1 2.5
9 0 1 0 0 0 1 0 0 0 1 -38.089 -50.982 20.156 1.5 2.5 1
9 0 1 0 0 0 1 0 0 0 1 -47.089 -48.482 -27.344 2.5 3 0.5
9 0 1 0 0 0 1 0 0 0 1 -56.089 -51.982 -23.844 1.5 2.5 1
9 0 1 0 0 0 1 0 0 0 1 -62.089 -57.982 -17.844 2.5 0.5 3
9 0 1 0 0 0 1 0 0 0 1 -67.089 -51.482 -9.344002 0.5 3 2.5
9 0 1 0 0 0 1 0 0 0 1 53.411 -49.982 -25.344 2 3.5 0.5
9 0 1 0 0 0 1 0 0 0 1 43.411 -47.982 -28.344 2 3.5 0.5
9 0 1 0 0 0 1 0 0 0 1 23.411 -44.982 -32.844 1 3.5 1
9 0 1 0 0 0 1 0 0 0 1 17.411 -47.982 5.155998 1 3.5 1
9 0 1 0 0 0 1 0 0 0 1 16.911 -54.982 -20.844 3.5 0.5 2
9 0 1 0 0 0 1 0 0 0 1 6.911003 -48.482 -12.844 0.5 7 1
9 0 1 0 0 0 1 0 0 0 1 -15.589 -49.982 26.656 2 3.5 0.5
9 0 1 0 0 0 1 0 0 0 1 -17.589 -47.982 5.155998 1 3.5 1
9 0 1 0 0 0 1 0 0 0 1 -42.589 -49.982 -28.344 2 3.5 0.5
9 0 1 0 0 0 1 0 0 0 1 59.911 -50.982 0.6559982 1.5 1.5 1.5
9 0 1 0 0 0 1 0 0 0 1 51.911 -50.982 7.655998 1.5 1.5 1.5
9 0 1 0 0 0 1 0 0 0 1 17.911 -50.982 25.656 1.5 4.5 0.5
9 0 1 0 0 0 1 0 0 0 1 15.911 -50.982 26.656 1.5 4.5 0.5
9 0 1 0 0 0 1 0 0 0 1 -15.089 -54.982 -18.344 1.5 0.5 4.5
9 0 1 0 0 0 1 0 0 0 1 -18.089 -50.982 25.656 1.5 4.5 0.5
9 0 1 0 0 0 1 0 0 0 1 -27.089 -56.982 -28.344 1.5 0.5 4.5
9 0 1 0 0 0 1 0 0 0 1 -51.089 -50.982 8.655998 1.5 1.5 1.5
9 0 1 0 0 0 1 0 0 0 1 -54.089 -50.982 5.655998 1.5 1.5 1.5
9 0 1 0 0 0 1 0 0 0 1 -59.089 -50.982 1.655998 1.5 1.5 1.5
9 0 1 0 0 0 1 0 0 0 1 -11.589 -50.982 15.656 1 6.5 0.5
9 0 1 0 0 0 1 0 0 0 1 -51.089 -53.982 -25.344 2.5 2.5 0.5
9 0 1 0 0 0 1 0 0 0 1 59.411 -51.482 -3.844002 1 3 1
9 0 1 0 0 0 1 0 0 0 1 55.411 -51.482 -5.344002 2 3 0.5
9 0 1 0 0 0 1 0 0 0 1 50.411 -51.482 -7.344002 2 3 0.5
9 0 1 0 0 0 1 0 0 0 1 42.911 -56.482 -12.844 1.5 1 2
9 0 1 0 0 0 1 0 0 0 1 38.911 -51.482 10.156 1.5 1 2
9 0 1 0 0 0 1 0 0 0 1 35.911 -50.482 -12.344 1.5 4 0.5
9 0 1 0 0 0 1 0 0 0 1 33.411 -56.482 -15.844 1 1 3
9 0 1 0 0 0 1 0 0 0 1 35.411 -56.482 -10.344 6 1 0.5
9 0 1 0 0 0 1 0 0 0 1 27.411 -56.982 -28.844 2 0.5 3
9 0 1 0 0 0 1 0 0 0 1 24.411 -54.482 -33.344 2 3 0.5
9 0 1 0 0 0 1 0 0 0 1 14.411 -53.482 -42.344 2 3 0.5
9 0 1 0 0 0 1 0 0 0 1 8.411003 -36.482 41.156 1 3 1
9 0 1 0 0 0 1 0 0 0 1 7.411003 -3.981998 44.156 2 1.5 1
9 0 1 0 0 0 1 0 0 0 1 7.411003 -3.981998 53.156 2 1.5 1
9 0 1 0 0 0 1 0 0 0 1 -7.588997 -3.981998 44.156 2 1.5 1
9 0 1 0 0 0 1 0 0 0 1 -7.588997 -3.981998 53.156 2 1.5 1
9 0 1 0 0 0 1 0 0 0 1 -8.588997 -36.482 41.156 1 3 1
9 0 1 0 0 0 1 0 0 0 1 -6.588997 -41.982 26.656 4 1.5 0.5
9 0 1 0 0 0 1 0 0 0 1 -12.089 -47.482 -12.844 0.5 6 1
9 0 1 0 0 0 1 0 0 0 1 -14.589 -49.482 -56.344 2 3 0.5
9 0 1 0 0 0 1 0 0 0 1 -14.589 -53.482 -42.344 2 3 0.5
9 0 1 0 0 0 1 0 0 0 1 -19.589 -56.982 -9.844002 3 0.5 2
9 0 1 0 0 0 1 0 0 0 1 -28.089 -57.482 -6.844002 1.5 1 2
9 0 1 0 0 0 1 0 0 0 1 -33.589 -56.482 -15.844 1 1 3
9 0 1 0 0 0 1 0 0 0 1 -38.089 -51.482 9.155998 1.5 1 2
9 0 1 0 0 0 1 0 0 0 1 -39.089 -50.482 -22.344 0.5 4 1.5
9 0 1 0 0 0 1 0 0 0 1 -42.589 -56.482 -12.344 2 1 1.5
9 0 1 0 0 0 1 0 0 0 1 -50.589 -51.482 -7.344002 2 3 0.5
9 0 1 0 0 0 1 0 0 0 1 -50.589 -57.482 -23.844 3 1 1
9 0 1 0 0 0 1 0 0 0 1 -55.589 -51.482 -5.344002 2 3 0.5
9 0 1 0 0 0 1 0 0 0 1 -58.589 -51.482 -4.344002 2 3 0.5
9 0 1 0 0 0 1 0 0 0 1 -61.589 -54.982 -21.344 4 1.5 0.5
9 0 1 0 0 0 1 0 0 0 1 -66.089 -51.482 -12.844 0.5 3 2
9 0 1 0 0 0 1 0 0 0 1 45.911 -50.982 -9.344002 1.5 3.5 0.5
9 0 1 0 0 0 1 0 0 0 1 40.911 -49.982 -16.344 0.5 3.5 1.5
9 0 1 0 0 0 1 0 0 0 1 41.911 -49.982 -9.344002 1.5 3.5 0.5
9 0 1 0 0 0 1 0 0 0 1 6.911003 -41.982 26.656 3.5 1.5 0.5
9 0 1 0 0 0 1 0 0 0 1 -0.08899689 -48.982 22.656 1.5 0.5 3.5
9 0 1 0 0 0 1 0 0 0 1 -0.08899689 -54.982 22.656 1.5 0.5 3.5
9 0 1 0 0 0 1 0 0 0 1 -36.089 -50.982 -12.344 1.5 3.5 0.5
9 0 1 0 0 0 1 0 0 0 1 -46.089 -50.982 -9.344002 1.5 3.5 0.5
9 0 1 0 0 0 1 0 0 0 1 49.911 -55.482 -25.344 2.5 2 0.5
9 0 1 0 0 0 1 0 0 0 1 47.411 -57.982 -10.844 5 0.5 1
9 0 1 0 0 0 1 0 0 0 1 31.411 -50.982 23.156 1 2.5 1
9 0 1 0 0 0 1 0 0 0 1 26.911 -52.482 2.155998 0.5 5 1
9 0 1 0 0 0 1 0 0 0 1 26.411 -49.482 13.656 1 5 0.5
9 0 1 0 0 0 1 0 0 0 1 25.411 -46.482 -35.344 1 5 0.5
9 0 1 0 0 0 1 0 0 0 1 25.411 -49.482 12.656 1 5 0.5
9 0 1 0 0 0 1 0 0 0 1 23.911 -49.482 11.156 0.5 5 1
9 0 1 0 0 0 1 0 0 0 1 23.411 -49.482 -3.344002 1 5 0.5
9 0 1 0 0 0 1 0 0 0 1 24.911 -55.982 -30.844 2.5 0.5 2
9 0 1 0 0 0 1 0 0 0 1 19.911 -49.482 7.155998 0.5 5 1
9 0 1 0 0 0 1 0 0 0 1 15.911 -49.482 3.155998 0.5 5 1
9 0 1 0 0 0 1 0 0 0 1 14.911 -43.482 -52.844 2.5 1 1
9 0 1 0 0 0 1 0 0 0 1 14.411 -45.982 -42.344 2 2.5 0.5
9 0 1 0 0 0 1 0 0 0 1 14.411 -55.982 -45.344 2 0.5 2.5
9 0 1 0 0 0 1 0 0 0 1 11.411 -49.482 -1.344002 1 5 0.5
9 0 1 0 0 0 1 0 0 0 1 6.911003 -40.482 -0.8440018 0.5 1 5
9 0 1 0 0 0 1 0 0 0 1 6.911003 -57.482 -0.8440018 0.5 1 5
9 0 1 0 0 0 1 0 0 0 1 0.4110031 -50.482 -19.344 1 5 0.5
9 0 1 0 0 0 1 0 0 0 1 -7.088997 -40.482 -0.8440018 0.5 1 5
9 0 1 0 0 0 1 0 0 0 1 -8.588997 -44.982 31.156 1 0.5 5
9 0 1 0 0 0 1 0 0 0 1 -11.589 -49.482 -1.344002 1 5 0.5
9 0 1 0 0 0 1 0 0 0 1 -14.589 -45.982 -42.344 2 2.5 0.5
9 0 1 0 0 0 1 0 0 0 1 -14.589 -55.982 -45.344 2 0.5 2.5
9 0 1 0 0 0 1 0 0 0 1 -15.089 -43.482 -52.844 2.5 1 1
9 0 1 0 0 0 1 0 0 0 1 -18.089 -42.482 -43.844 0.5 1 5
9 0 1 0 0 0 1 0 0 0 1 -23.589 -47.482 -3.344002 1 5 0.5
9 0 1 0 0 0 1 0 0 0 1 -23.589 -49.482 10.656 1 5 0.5
9 0 1 0 0 0 1 0 0 0 1 -24.589 -49.482 11.656 1 5 0.5
9 0 1 0 0 0 1 0 0 0 1 -25.589 -49.482 12.656 1 5 0.5
9 0 1 0 0 0 1 0 0 0 1 -24.589 -55.982 -31.344 2 0.5 2.5
9 0 1 0 0 0 1 0 0 0 1 -32.089 -50.982 24.156 0.5 2.5 2
9 0 1 0 0 0 1 0 0 0 1 -53.589 -48.982 -25.344 2 2.5 0.5
9 0 1 0 0 0 1 0 0 0 1 -0.08899689 -1.981998 46.656 9.5 0.5 0.5
9 0 1 0 0 0 1 0 0 0 1 -0.08899689 -1.981998 50.656 9.5 0.5 0.5
9 0 1 0 0 0 1 0 0 0 1 -0.08899689 -11.982 42.656 9.5 0.5 0.5
9 0 1 0 0 0 1 0 0 0 1 -0.08899689 -14.982 53.656 9.5 0.5 0.5
9 0 1 0 0 0 1 0 0 0 1 65.911 -51.482 -12.344 0.5 3 1.5
9 0 1 0 0 0 1 0 0 0 1 52.911 -51.482 -6.344002 1.5 3 0.5
9 0 1 0 0 0 1 0 0 0 1 48.911 -50.482 9.655998 1.5 1 1.5
9 0 1 0 0 0 1 0 0 0 1 39.911 -56.482 -16.344 1.5 1 1.5
9 0 1 0 0 0 1 0 0 0 1 23.911 -50.982 22.156 0.5 4.5 1
9 0 1 0 0 0 1 0 0 0 1 21.911 -51.482 34.656 1.5 3 0.5
9 0 1 0 0 0 1 0 0 0 1 21.411 -50.982 23.656 1 4.5 0.5
9 0 1 0 0 0 1 0 0 0 1 18.911 -48.982 6.155998 0.5 4.5 1
9 0 1 0 0 0 1 0 0 0 1 17.911 -42.482 -43.344 0.5 1 4.5
9 0 1 0 0 0 1 0 0 0 1 11.411 -50.982 28.656 1 4.5 0.5
9 0 1 0 0 0 1 0 0 0 1 4.411003 -41.982 45.656 3 0.5 1.5
9 0 1 0 0 0 1 0 0 0 1 4.411003 -41.982 51.656 3 0.5 1.5
9 0 1 0 0 0 1 0 0 0 1 -4.588997 -44.982 17.656 1 4.5 0.5
9 0 1 0 0 0 1 0 0 0 1 -5.088997 -40.982 41.156 1.5 1.5 1
9 0 1 0 0 0 1 0 0 0 1 -3.088997 -25.982 42.156 4.5 0.5 1
9 0 1 0 0 0 1 0 0 0 1 -4.588997 -41.982 45.656 3 0.5 1.5
9 0 1 0 0 0 1 0 0 0 1 -4.588997 -41.982 51.656 3 0.5 1.5
9 0 1 0 0 0 1 0 0 0 1 -11.589 -50.982 28.656 1 4.5 0.5
9 0 1 0 0 0 1 0 0 0 1 -19.089 -48.982 6.155998 0.5 4.5 1
9 0 1 0 0 0 1 0 0 0 1 -20.089 -48.982 7.155998 0.5 4.5 1
9 0 1 0 0 0 1 0 0 0 1 -21.589 -50.982 23.656 1 4.5 0.5
9 0 1 0 0 0 1 0 0 0 1 -22.089 -51.482 34.656 1.5 3 0.5
9 0 1 0 0 0 1 0 0 0 1 -24.089 -49.982 -34.844 0.5 4.5 1
9 0 1 0 0 0 1 0 0 0 1 -23.589 -50.982 22.656 1 4.5 0.5
9 0 1 0 0 0 1 0 0 0 1 -26.589 -48.982 13.656 1 4.5 0.5
9 0 1 0 0 0 1 0 0 0 1 -33.089 -55.982 -9.844002 4.5 0.5 1
9 0 1 0 0 0 1 0 0 0 1 -40.089 -56.482 -16.344 1.5 1 1.5
9 0 1 0 0 0 1 0 0 0 1 -48.589 -50.982 10.656 1 1.5 1.5
9 0 1 0 0 0 1 0 0 0 1 -53.089 -51.482 -6.344002 1.5 3 0.5
9 0 1 0 0 0 1 0 0 0 1 -56.589 -50.982 3.655998 1 1.5 1.5
9 0 1 0 0 0 1 0 0 0 1 29.911 -48.982 13.656 0.5 8.5 0.5
9 0 1 0 0 0 1 0 0 0 1 25.911 -48.982 17.656 0.5 8.5 0.5
9 0 1 0 0 0 1 0 0 0 1 24.911 -48.982 18.656 0.5 8.5 0.5
9 0 1 0 0 0 1 0 0 0 1 19.911 -48.982 10.656 0.5 8.5 0.5
9 0 1 0 0 0 1 0 0 0 1 7.911003 -48.982 14.656 0.5 8.5 0.5
9 0 1 0 0 0 1 0 0 0 1 -8.088997 -48.982 14.656 0.5 8.5 0.5
9 0 1 0 0 0 1 0 0 0 1 -10.089 -48.982 10.656 0.5 8.5 0.5
9 0 1 0 0 0 1 0 0 0 1 -20.089 -48.982 10.656 0.5 8.5 0.5
9 0 1 0 0 0 1 0 0 0 1 -20.089 -49.982 -6.344002 0.5 8.5 0.5
9 0 1 0 0 0 1 0 0 0 1 -25.089 -48.982 18.656 0.5 8.5 0.5
9 0 1 0 0 0 1 0 0 0 1 -26.089 -48.982 17.656 0.5 8.5 0.5
9 0 1 0 0 0 1 0 0 0 1 -30.089 -48.982 13.656 0.5 8.5 0.5
9 0 1 0 0 0 1 0 0 0 1 48.411 -56.982 -13.844 4 0.5 1
9 0 1 0 0 0 1 0 0 0 1 43.411 -51.482 13.156 1 2 1
9 0 1 0 0 0 1 0 0 0 1 39.411 -50.482 -22.344 1 4 0.5
9 0 1 0 0 0 1 0 0 0 1 38.911 -50.482 -18.844 0.5 4 1
9 0 1 0 0 0 1 0 0 0 1 42.411 -56.482 -25.344 4 1 0.5
9 0 1 0 0 0 1 0 0 0 1 38.411 -50.482 -7.344002 1 4 0.5
9 0 1 0 0 0 1 0 0 0 1 34.911 -45.482 6.155998 0.5 4 1
9 0 1 0 0 0 1 0 0 0 1 33.911 -45.482 8.155998 0.5 4 1
9 0 1 0 0 0 1 0 0 0 1 32.911 -49.482 9.655998 0.5 8 0.5
9 0 1 0 0 0 1 0 0 0 1 31.911 -50.482 -14.844 0.5 4 1
9 0 1 0 0 0 1 0 0 0 1 32.411 -55.982 -20.844 2 0.5 2
9 0 1 0 0 0 1 0 0 0 1 31.411 -58.482 -20.844 1 1 2
9 0 1 0 0 0 1 0 0 0 1 29.911 -50.482 -19.844 0.5 4 1
9 0 1 0 0 0 1 0 0 0 1 26.911 -51.482 27.156 0.5 2 2
9 0 1 0 0 0 1 0 0 0 1 25.911 -49.482 3.655998 0.5 8 0.5
9 0 1 0 0 0 1 0 0 0 1 23.911 -49.482 6.655998 0.5 8 0.5
9 0 1 0 0 0 1 0 0 0 1 16.911 -49.482 -8.344002 0.5 8 0.5
9 0 1 0 0 0 1 0 0 0 1 14.911 -49.482 -10.344 0.5 8 0.5
9 0 1 0 0 0 1 0 0 0 1 14.411 -45.482 -54.844 2 1 1
9 0 1 0 0 0 1 0 0 0 1 14.411 -53.482 -54.844 2 1 1
9 0 1 0 0 0 1 0 0 0 1 8.911003 -49.482 -30.344 0.5 8 0.5
9 0 1 0 0 0 1 0 0 0 1 10.411 -55.482 -24.344 2 2 0.5
9 0 1 0 0 0 1 0 0 0 1 10.411 -57.982 -39.844 2 0.5 2
9 0 1 0 0 0 1 0 0 0 1 7.411003 -53.482 15.656 1 4 0.5
9 0 1 0 0 0 1 0 0 0 1 4.411003 -45.482 3.655998 1 4 0.5
9 0 1 0 0 0 1 0 0 0 1 -7.588997 -53.482 15.656 1 4 0.5
9 0 1 0 0 0 1 0 0 0 1 -10.589 -55.482 -24.344 2 2 0.5
9 0 1 0 0 0 1 0 0 0 1 -16.089 -49.482 -9.344002 0.5 8 0.5
9 0 1 0 0 0 1 0 0 0 1 -21.089 -54.482 -5.844002 0.5 4 1
9 0 1 0 0 0 1 0 0 0 1 -23.589 -45.482 -5.344002 1 4 0.5
9 0 1 0 0 0 1 0 0 0 1 -24.089 -49.482 6.655998 0.5 8 0.5
9 0 1 0 0 0 1 0 0 0 1 -25.589 -46.482 -35.344 1 4 0.5
9 0 1 0 0 0 1 0 0 0 1 -26.089 -49.482 3.655998 0.5 8 0.5
9 0 1 0 0 0 1 0 0 0 1 -27.089 -49.482 1.655998 0.5 8 0.5
9 0 1 0 0 0 1 0 0 0 1 -29.089 -49.482 -2.344002 0.5 8 0.5
9 0 1 0 0 0 1 0 0 0 1 -30.089 -50.482 -19.844 0.5 4 1
9 0 1 0 0 0 1 0 0 0 1 -31.589 -50.482 -14.344 1 4 0.5
9 0 1 0 0 0 1 0 0 0 1 -31.589 -58.482 -20.844 1 1 2
9 0 1 0 0 0 1 0 0 0 1 -34.089 -45.482 8.155998 0.5 4 1
9 0 1 0 0 0 1 0 0 0 1 -32.589 -55.982 -20.844 2 0.5 2
9 0 1 0 0 0 1 0 0 0 1 -35.089 -45.482 6.155998 0.5 4 1
9 0 1 0 0 0 1 0 0 0 1 -41.089 -50.482 -16.844 0.5 4 1
9 0 1 0 0 0 1 0 0 0 1 -41.589 -50.482 -9.344002 1 4 0.5
9 0 1 0 0 0 1 0 0 0 1 -40.589 -56.482 -25.844 2 1 1
9 0 1 0 0 0 1 0 0 0 1 -48.589 -56.982 -13.844 4 0.5 1
9 0 1 0 0 0 1 0 0 0 1 -57.589 -55.482 -22.844 2 1 1
9 0 1 0 0 0 1 0 0 0 1 60.911 -56.982 -19.344 1.5 0.5 2.5
9 0 1 0 0 0 1 0 0 0 1 57.911 -50.982 2.655998 2.5 1.5 0.5
9 0 1 0 0 0 1 0 0 0 1 26.911 -57.982 -7.344002 1.5 0.5 2.5
9 0 1 0 0 0 1 0 0 0 1 14.911 -54.982 -16.344 1.5 0.5 2.5
9 0 1 0 0 0 1 0 0 0 1 14.911 -54.982 -53.344 2.5 0.5 1.5
9 0 1 0 0 0 1 0 0 0 1 11.911 -42.982 25.656 1.5 2.5 0.5
9 0 1 0 0 0 1 0 0 0 1 5.911003 -48.982 -7.344002 0.5 7.5 0.5
9 0 1 0 0 0 1 0 0 0 1 5.911003 -47.982 26.656 2.5 1.5 0.5
9 0 1 0 0 0 1 0 0 0 1 3.911003 -48.982 -5.344002 0.5 7.5 0.5
9 0 1 0 0 0 1 0 0 0 1 3.911003 -48.982 14.656 0.5 7.5 0.5
9 0 1 0 0 0 1 0 0 0 1 -4.088997 -47.982 -16.344 0.5 7.5 0.5
9 0 1 0 0 0 1 0 0 0 1 -4.088997 -48.982 3.655998 0.5 7.5 0.5
9 0 1 0 0 0 1 0 0 0 1 -5.088997 -48.982 -6.344002 0.5 7.5 0.5
9 0 1 0 0 0 1 0 0 0 1 -5.088997 -48.982 13.656 0.5 7.5 0.5
9 0 1 0 0 0 1 0 0 0 1 -6.088997 -47.982 -14.344 0.5 7.5 0.5
9 0 1 0 0 0 1 0 0 0 1 -6.088997 -48.982 5.655998 0.5 7.5 0.5
9 0 1 0 0 0 1 0 0 0 1 -0.08899689 -33.982 43.656 7.5 0.5 0.5
9 0 1 0 0 0 1 0 0 0 1 -0.08899689 -33.982 53.656 7.5 0.5 0.5
9 0 1 0 0 0 1 0 0 0 1 -0.08899689 -43.982 43.656 7.5 0.5 0.5
9 0 1 0 0 0 1 0 0 0 1 -0.08899689 -43.982 53.656 7.5 0.5 0.5
9 0 1 0 0 0 1 0 0 0 1 -0.08899689 -44.982 41.656 7.5 0.5 0.5
9 0 1 0 0 0 1 0 0 0 1 -0.08899689 -54.982 43.656 7.5 0.5 0.5
9 0 1 0 0 0 1 0 0 0 1 -0.08899689 -54.982 53.656 7.5 0.5 0.5
9 0 1 0 0 0 1 0 0 0 1 -8.088997 -39.982 -1.344002 0.5 0.5 7.5
9 0 1 0 0 0 1 0 0 0 1 -6.088997 -47.982 26.656 2.5 1.5 0.5
9 0 1 0 0 0 1 0 0 0 1 -9.088997 -49.982 -30.344 0.5 7.5 0.5
9 0 1 0 0 0 1 0 0 0 1 -9.088997 -57.982 -38.344 2.5 0.5 1.5
9 0 1 0 0 0 1 0 0 0 1 -12.089 -42.982 25.656 1.5 2.5 0.5
9 0 1 0 0 0 1 0 0 0 1 -15.089 -44.982 -54.344 2.5 1.5 0.5
9 0 1 0 0 0 1 0 0 0 1 -15.089 -53.982 -54.344 2.5 1.5 0.5
9 0 1 0 0 0 1 0 0 0 1 -19.089 -54.982 -21.344 2.5 0.5 1.5
9 0 1 0 0 0 1 0 0 0 1 -27.089 -50.982 27.656 0.5 2.5 1.5
9 0 1 0 0 0 1 0 0 0 1 -61.089 -50.982 -0.3440018 2.5 1.5 0.5
9 0 1 0 0 0 1 0 0 0 1 -65.089 -55.982 -20.344 2.5 1.5 0.5
9 0 1 0 0 0 1 0 0 0 1 67.911 -52.982 -19.844 0.5 3.5 1
9 0 1 0 0 0 1 0 0 0 1 44.911 -57.482 -9.344002 3.5 1 0.5
9 0 1 0 0 0 1 0 0 0 1 32.411 -48.982 -5.344002 1 3.5 0.5
9 0 1 0 0 0 1 0 0 0 1 25.911 -57.482 -20.344 0.5 1 3.5
9 0 1 0 0 0 1 0 0 0 1 17.911 -48.482 -9.344002 0.5 7 0.5
9 0 1 0 0 0 1 0 0 0 1 2.411003 -38.982 41.656 1 3.5 0.5
9 0 1 0 0 0 1 0 0 0 1 -2.588997 -38.982 41.656 1 3.5 0.5
9 0 1 0 0 0 1 0 0 0 1 -0.5889969 -21.982 46.656 7 0.5 0.5
9 0 1 0 0 0 1 0 0 0 1 -0.5889969 -21.982 50.656 7 0.5 0.5
9 0 1 0 0 0 1 0 0 0 1 -15.589 -44.982 -11.344 1 3.5 0.5
9 0 1 0 0 0 1 0 0 0 1 -24.589 -57.982 -16.344 1 0.5 3.5
9 0 1 0 0 0 1 0 0 0 1 -33.089 -56.982 -6.844002 3.5 0.5 1
9 0 1 0 0 0 1 0 0 0 1 -47.089 -55.482 -26.344 3.5 1 0.5
9 0 1 0 0 0 1 0 0 0 1 -49.089 -57.482 -10.344 3.5 1 0.5
9 0 1 0 0 0 1 0 0 0 1 -53.589 -52.982 -24.344 1 3.5 0.5
9 0 1 0 0 0 1 0 0 0 1 -68.089 -52.982 -19.844 0.5 3.5 1
9 0 1 0 0 0 1 0 0 0 1 37.911 -47.982 -4.344002 0.5 6.5 0.5
9 0 1 0 0 0 1 0 0 0 1 -0.08899689 -57.982 -36.344 6.5 0.5 0.5
9 0 1 0 0 0 1 0 0 0 1 -9.088997 -43.982 33.656 0.5 0.5 6.5
9 0 1 0 0 0 1 0 0 0 1 -38.089 -47.982 -4.344002 0.5 6.5 0.5
9 0 1 0 0 0 1 0 0 0 1 -39.089 -47.982 -5.344002 0.5 6.5 0.5
9 0 1 0 0 0 1 0 0 0 1 67.911 -51.482 -7.844002 0.5 3 1
9 0 1 0 0 0 1 0 0 0 1 65.911 -55.482 -20.344 1.5 2 0.5
9 0 1 0 0 0 1 0 0 0 1 64.411 -52.482 -16.344 1 3 0.5
9 0 1 0 0 0 1 0 0 0 1 62.911 -52.482 -14.844 0.5 3 1
9 0 1 0 0 0 1 0 0 0 1 63.911 -58.982 -17.844 1.5 0.5 2
9 0 1 0 0 0 1 0 0 0 1 57.411 -51.482 -4.344002 1 3 0.5
9 0 1 0 0 0 1 0 0 0 1 50.411 -57.482 -24.344 3 1 0.5
9 0 1 0 0 0 1 0 0 0 1 44.411 -52.982 -27.344 2 1.5 0.5
9 0 1 0 0 0 1 0 0 0 1 41.911 -53.482 -28.344 1.5 2 0.5
9 0 1 0 0 0 1 0 0 0 1 39.411 -50.982 20.156 1 1.5 1
9 0 1 0 0 0 1 0 0 0 1 36.411 -48.982 20.656 2 0.5 1.5
9 0 1 0 0 0 1 0 0 0 1 33.411 -50.982 24.656 2 1.5 0.5
9 0 1 0 0 0 1 0 0 0 1 30.411 -54.982 -31.844 1 1.5 1
9 0 1 0 0 0 1 0 0 0 1 31.411 -55.982 -29.844 3 0.5 1
9 0 1 0 0 0 1 0 0 0 1 23.411 -45.482 -5.344002 1 3 0.5
9 0 1 0 0 0 1 0 0 0 1 18.911 -55.482 -25.344 0.5 2 1.5
9 0 1 0 0 0 1 0 0 0 1 14.411 -44.482 -12.344 1 3 0.5
9 0 1 0 0 0 1 0 0 0 1 7.411003 -55.982 16.656 2 1.5 0.5
9 0 1 0 0 0 1 0 0 0 1 6.411003 -55.982 26.656 2 1.5 0.5
9 0 1 0 0 0 1 0 0 0 1 6.411003 -13.482 42.656 3 1 0.5
9 0 1 0 0 0 1 0 0 0 1 5.411003 -24.982 42.656 2 1.5 0.5
9 0 1 0 0 0 1 0 0 0 1 4.411003 -35.982 52.156 3 0.5 1
9 0 1 0 0 0 1 0 0 0 1 -3.588997 -53.482 -4.344002 1 3 0.5
9 0 1 0 0 0 1 0 0 0 1 -5.588997 -24.982 41.656 2 0.5 1.5
9 0 1 0 0 0 1 0 0 0 1 -4.588997 -35.982 45.156 3 0.5 1
9 0 1 0 0 0 1 0 0 0 1 -4.588997 -35.982 52.156 3 0.5 1
9 0 1 0 0 0 1 0 0 0 1 -6.588997 -55.982 26.656 2 1.5 0.5
9 0 1 0 0 0 1 0 0 0 1 -6.588997 -13.482 42.656 3 1 0.5
9 0 1 0 0 0 1 0 0 0 1 -7.588997 -55.982 16.656 2 1.5 0.5
9 0 1 0 0 0 1 0 0 0 1 -9.088997 -51.482 31.656 0.5 6 0.5
9 0 1 0 0 0 1 0 0 0 1 -8.588997 -54.482 39.656 1 3 0.5
9 0 1 0 0 0 1 0 0 0 1 -18.089 -57.482 -40.844 1.5 1 1
9 0 1 0 0 0 1 0 0 0 1 -21.589 -55.982 -10.344 2 0.5 1.5
9 0 1 0 0 0 1 0 0 0 1 -26.089 -56.482 -21.344 0.5 2 1.5
9 0 1 0 0 0 1 0 0 0 1 -27.589 -54.982 -32.844 1 1.5 1
9 0 1 0 0 0 1 0 0 0 1 -27.589 -55.982 -22.844 1 0.5 3
9 0 1 0 0 0 1 0 0 0 1 -30.589 -50.982 23.156 1 1.5 1
9 0 1 0 0 0 1 0 0 0 1 -35.589 -50.982 19.156 1 1.5 1
9 0 1 0 0 0 1 0 0 0 1 -56.589 -48.482 -24.344 3 1 0.5
9 0 1 0 0 0 1 0 0 0 1 -57.589 -57.982 -13.344 2 0.5 1.5
9 0 1 0 0 0 1 0 0 0 1 -60.589 -56.982 -18.844 1 0.5 3
9 0 1 0 0 0 1 0 0 0 1 -63.089 -52.482 -14.844 0.5 3 1
9 0 1 0 0 0 1 0 0 0 1 -64.589 -52.482 -16.344 1 3 0.5
9 0 1 0 0 0 1 0 0 0 1 -64.089 -58.982 -17.844 1.5 0.5 2
9 0 1 0 0 0 1 0 0 0 1 -65.589 -52.482 -17.344 1 3 0.5
9 0 1 0 0 0 1 0 0 0 1 -66.089 -51.482 -21.344 1.5 2 0.5
9 0 1 0 0 0 1 0 0 0 1 -68.089 -51.482 -7.844002 0.5 3 1
9 0 1 0 0 0 1 0 0 0 1 31.911 -55.982 -9.344002 5.5 0.5 0.5
9 0 1 0 0 0 1 0 0 0 1 8.911003 -51.982 31.656 0.5 5.5 0.5
9 0 1 0 0 0 1 0 0 0 1 6.911003 -44.982 33.656 0.5 0.5 5.5
9 0 1 0 0 0 1 0 0 0 1 -8.088997 -51.982 28.656 0.5 5.5 0.5
9 0 1 0 0 0 1 0 0 0 1 -19.089 -46.982 -8.344002 0.5 5.5 0.5
9 0 1 0 0 0 1 0 0 0 1 66.911 -54.482 -18.344 0.5 5 0.5
9 0 1 0 0 0 1 0 0 0 1 65.911 -54.482 -17.344 0.5 5 0.5
9 0 1 0 0 0 1 0 0 0 1 62.911 -49.482 -21.344 2.5 1 0.5
9 0 1 0 0 0 1 0 0 0 1 60.411 -50.982 -23.344 1 2.5 0.5
9 0 1 0 0 0 1 0 0 0 1 36.911 -51.482 8.655998 0.5 1 2.5
9 0 1 0 0 0 1 0 0 0 1 29.411 -43.982 -34.344 1 2.5 0.5
9 0 1 0 0 0 1 0 0 0 1 27.911 -49.482 15.656 0.5 5 0.5
9 0 1 0 0 0 1 0 0 0 1 24.411 -50.982 28.656 1 2.5 0.5
9 0 1 0 0 0 1 0 0 0 1 24.411 -57.982 -16.344 1 0.5 2.5
9 0 1 0 0 0 1 0 0 0 1 23.411 -42.982 19.656 1 2.5 0.5
9 0 1 0 0 0 1 0 0 0 1 22.911 -46.482 7.655998 0.5 5 0.5
9 0 1 0 0 0 1 0 0 0 1 22.911 -49.482 10.656 0.5 5 0.5
9 0 1 0 0 0 1 0 0 0 1 20.911 -46.482 -7.344002 0.5 5 0.5
9 0 1 0 0 0 1 0 0 0 1 21.411 -54.982 -5.344002 1 2.5 0.5
9 0 1 0 0 0 1 0 0 0 1 20.411 -42.982 21.656 1 2.5 0.5
9 0 1 0 0 0 1 0 0 0 1 16.911 -46.482 -25.344 0.5 5 0.5
9 0 1 0 0 0 1 0 0 0 1 14.411 -42.982 24.656 1 2.5 0.5
9 0 1 0 0 0 1 0 0 0 1 12.911 -49.482 1.655998 0.5 5 0.5
9 0 1 0 0 0 1 0 0 0 1 14.911 -57.482 -48.344 2.5 1 0.5
9 0 1 0 0 0 1 0 0 0 1 10.911 -49.482 -0.3440018 0.5 5 0.5
9 0 1 0 0 0 1 0 0 0 1 3.911003 -45.482 -16.344 0.5 5 0.5
9 0 1 0 0 0 1 0 0 0 1 3.911003 -36.482 44.656 2.5 1 0.5
9 0 1 0 0 0 1 0 0 0 1 0.4110031 -53.982 0.6559982 1 2.5 0.5
9 0 1 0 0 0 1 0 0 0 1 -8.088997 -42.482 7.655998 0.5 1 2.5
9 0 1 0 0 0 1 0 0 0 1 -13.089 -46.482 -13.344 0.5 5 0.5
9 0 1 0 0 0 1 0 0 0 1 -14.589 -42.982 24.656 1 2.5 0.5
9 0 1 0 0 0 1 0 0 0 1 -15.089 -54.982 -52.844 2.5 0.5 1
9 0 1 0 0 0 1 0 0 0 1 -17.089 -53.982 -8.844002 0.5 2.5 1
9 0 1 0 0 0 1 0 0 0 1 -20.589 -42.982 21.656 1 2.5 0.5
9 0 1 0 0 0 1 0 0 0 1 -23.089 -46.482 7.655998 0.5 5 0.5
9 0 1 0 0 0 1 0 0 0 1 -23.589 -42.982 19.656 1 2.5 0.5
9 0 1 0 0 0 1 0 0 0 1 -24.589 -50.982 28.656 1 2.5 0.5
9 0 1 0 0 0 1 0 0 0 1 -28.089 -50.982 29.156 0.5 2.5 1
9 0 1 0 0 0 1 0 0 0 1 -28.089 -49.482 15.656 0.5 5 0.5
9 0 1 0 0 0 1 0 0 0 1 -29.589 -43.982 -34.344 1 2.5 0.5
9 0 1 0 0 0 1 0 0 0 1 -32.089 -49.482 -5.344002 0.5 5 0.5
9 0 1 0 0 0 1 0 0 0 1 -33.589 -50.982 24.656 1 2.5 0.5
9 0 1 0 0 0 1 0 0 0 1 -43.589 -50.982 16.656 1 2.5 0.5
9 0 1 0 0 0 1 0 0 0 1 -44.089 -50.482 -27.344 0.5 5 0.5
9 0 1 0 0 0 1 0 0 0 1 -44.089 -45.482 -28.344 2.5 1 0.5
9 0 1 0 0 0 1 0 0 0 1 -47.589 -55.982 -23.344 1 0.5 2.5
9 0 1 0 0 0 1 0 0 0 1 -46.089 -57.482 -9.344002 2.5 1 0.5
9 0 1 0 0 0 1 0 0 0 1 -66.589 -51.982 -18.344 1 2.5 0.5
9 0 1 0 0 0 1 0 0 0 1 57.911 -56.982 -22.344 1.5 1.5 0.5
9 0 1 0 0 0 1 0 0 0 1 53.911 -57.982 -11.344 1.5 1.5 0.5
9 0 1 0 0 0 1 0 0 0 1 43.911 -50.982 16.656 1.5 1.5 0.5
9 0 1 0 0 0 1 0 0 0 1 39.911 -48.982 17.656 1.5 0.5 1.5
9 0 1 0 0 0 1 0 0 0 1 35.911 -52.982 -30.344 1.5 1.5 0.5
9 0 1 0 0 0 1 0 0 0 1 34.911 -50.982 19.656 1.5 1.5 0.5
9 0 1 0 0 0 1 0 0 0 1 29.911 -48.982 25.656 1.5 0.5 1.5
9 0 1 0 0 0 1 0 0 0 1 28.911 -50.982 28.656 1.5 1.5 0.5
9 0 1 0 0 0 1 0 0 0 1 27.911 -55.982 -23.344 1.5 0.5 1.5
9 0 1 0 0 0 1 0 0 0 1 24.911 -48.982 11.656 0.5 4.5 0.5
9 0 1 0 0 0 1 0 0 0 1 22.911 -50.982 22.656 0.5 4.5 0.5
9 0 1 0 0 0 1 0 0 0 1 21.911 -48.982 8.655998 0.5 4.5 0.5
9 0 1 0 0 0 1 0 0 0 1 21.911 -56.982 -27.344 0.5 0.5 4.5
9 0 1 0 0 0 1 0 0 0 1 18.911 -50.982 24.656 0.5 4.5 0.5
9 0 1 0 0 0 1 0 0 0 1 16.911 -48.982 3.655998 0.5 4.5 0.5
9 0 1 0 0 0 1 0 0 0 1 15.911 -45.982 -11.344 0.5 4.5 0.5
9 0 1 0 0 0 1 0 0 0 1 13.911 -48.982 0.6559982 0.5 4.5 0.5
9 0 1 0 0 0 1 0 0 0 1 13.911 -43.982 -44.344 1.5 0.5 1.5
9 0 1 0 0 0 1 0 0 0 1 10.911 -48.982 -2.344002 0.5 4.5 0.5
9 0 1 0 0 0 1 0 0 0 1 9.911003 -50.982 26.656 0.5 4.5 0.5
9 0 1 0 0 0 1 0 0 0 1 8.911003 -44.982 16.656 0.5 4.5 0.5
9 0 1 0 0 0 1 0 0 0 1 7.911003 -48.982 10.656 0.5 4.5 0.5
9 0 1 0 0 0 1 0 0 0 1 5.911003 -44.982 16.656 0.5 4.5 0.5
9 0 1 0 0 0 1 0 0 0 1 4.911003 -44.982 17.656 0.5 4.5 0.5
9 0 1 0 0 0 1 0 0 0 1 -0.08899689 -55.982 -34.344 1.5 1.5 0.5
9 0 1 0 0 0 1 0 0 0 1 -6.088997 -44.982 16.656 0.5 4.5 0.5
9 0 1 0 0 0 1 0 0 0 1 -7.088997 -55.982 8.655998 0.5 0.5 4.5
9 0 1 0 0 0 1 0 0 0 1 -9.088997 -44.982 16.656 0.5 4.5 0.5
9 0 1 0 0 0 1 0 0 0 1 -10.089 -50.982 26.656 0.5 4.5 0.5
9 0 1 0 0 0 1 0 0 0 1 -11.089 -57.982 -41.344 1.5 0.5 1.5
9 0 1 0 0 0 1 0 0 0 1 -13.089 -48.982 1.655998 0.5 4.5 0.5
9 0 1 0 0 0 1 0 0 0 1 -15.089 -48.982 1.655998 0.5 4.5 0.5
9 0 1 0 0 0 1 0 0 0 1 -17.089 -45.982 -10.344 0.5 4.5 0.5
9 0 1 0 0 0 1 0 0 0 1 -17.089 -48.982 3.655998 0.5 4.5 0.5
9 0 1 0 0 0 1 0 0 0 1 -19.089 -50.982 24.656 0.5 4.5 0.5
9 0 1 0 0 0 1 0 0 0 1 -18.089 -54.982 -24.344 1.5 1.5 0.5
9 0 1 0 0 0 1 0 0 0 1 -22.089 -48.982 8.655998 0.5 4.5 0.5
9 0 1 0 0 0 1 0 0 0 1 -24.089 -50.982 21.656 0.5 4.5 0.5
9 0 1 0 0 0 1 0 0 0 1 -26.089 -50.982 -33.344 0.5 4.5 0.5
9 0 1 0 0 0 1 0 0 0 1 -26.089 -56.982 -8.344002 0.5 0.5 4.5
9 0 1 0 0 0 1 0 0 0 1 -29.089 -48.982 26.656 1.5 0.5 1.5
9 0 1 0 0 0 1 0 0 0 1 -33.089 -52.982 -31.344 1.5 1.5 0.5
9 0 1 0 0 0 1 0 0 0 1 -34.089 -55.982 7.655998 0.5 1.5 1.5
9 0 1 0 0 0 1 0 0 0 1 -34.089 -48.982 22.656 1.5 0.5 1.5
9 0 1 0 0 0 1 0 0 0 1 -35.089 -51.982 -30.344 0.5 4.5 0.5
9 0 1 0 0 0 1 0 0 0 1 -38.089 -50.982 21.656 1.5 1.5 0.5
9 0 1 0 0 0 1 0 0 0 1 -39.089 -52.982 -29.344 1.5 1.5 0.5
9 0 1 0 0 0 1 0 0 0 1 -40.089 -48.982 17.656 1.5 0.5 1.5
9 0 1 0 0 0 1 0 0 0 1 -40.089 -50.982 15.656 1.5 1.5 0.5
9 0 1 0 0 0 1 0 0 0 1 -40.089 -58.982 -16.344 1.5 0.5 1.5
9 0 1 0 0 0 1 0 0 0 1 66.411 -51.482 -21.344 1 2 0.5
9 0 1 0 0 0 1 0 0 0 1 58.411 -49.482 -24.344 1 2 0.5
9 0 1 0 0 0 1 0 0 0 1 58.411 -58.982 -20.344 4 0.5 0.5
9 0 1 0 0 0 1 0 0 0 1 52.411 -48.482 -26.344 1 2 0.5
9 0 1 0 0 0 1 0 0 0 1 55.411 -58.982 -12.344 4 0.5 0.5
9 0 1 0 0 0 1 0 0 0 1 47.411 -55.982 -22.844 1 0.5 2
9 0 1 0 0 0 1 0 0 0 1 41.411 -56.482 -19.844 1 1 1
9 0 1 0 0 0 1 0 0 0 1 42.411 -57.482 -8.344002 2 1 0.5
9 0 1 0 0 0 1 0 0 0 1 38.911 -50.482 -23.344 0.5 4 0.5
9 0 1 0 0 0 1 0 0 0 1 38.911 -50.482 -21.344 0.5 4 0.5
9 0 1 0 0 0 1 0 0 0 1 38.911 -50.482 -13.344 0.5 4 0.5
9 0 1 0 0 0 1 0 0 0 1 39.411 -58.982 -15.844 1 0.5 2
9 0 1 0 0 0 1 0 0 0 1 37.911 -51.482 -29.344 0.5 4 0.5
9 0 1 0 0 0 1 0 0 0 1 35.911 -45.482 4.655998 0.5 4 0.5
9 0 1 0 0 0 1 0 0 0 1 37.411 -56.482 -23.344 2 1 0.5
9 0 1 0 0 0 1 0 0 0 1 34.911 -55.482 6.155998 0.5 2 1
9 0 1 0 0 0 1 0 0 0 1 33.911 -55.482 8.155998 0.5 2 1
9 0 1 0 0 0 1 0 0 0 1 34.411 -45.982 -6.844002 2 0.5 1
9 0 1 0 0 0 1 0 0 0 1 34.411 -48.982 23.156 2 0.5 1
9 0 1 0 0 0 1 0 0 0 1 31.911 -50.482 -23.344 0.5 4 0.5
9 0 1 0 0 0 1 0 0 0 1 30.911 -50.482 -14.344 0.5 4 0.5
9 0 1 0 0 0 1 0 0 0 1 28.911 -55.982 -13.844 0.5 0.5 4
9 0 1 0 0 0 1 0 0 0 1 32.411 -57.982 -6.344002 4 0.5 0.5
9 0 1 0 0 0 1 0 0 0 1 28.411 -55.482 -32.344 1 2 0.5
9 0 1 0 0 0 1 0 0 0 1 26.911 -57.482 -22.844 0.5 1 2
9 0 1 0 0 0 1 0 0 0 1 25.911 -57.482 -11.844 0.5 1 2
9 0 1 0 0 0 1 0 0 0 1 24.911 -45.482 -33.344 0.5 4 0.5
9 0 1 0 0 0 1 0 0 0 1 23.411 -50.482 -32.844 1 1 1
9 0 1 0 0 0 1 0 0 0 1 24.411 -54.982 -29.844 2 0.5 1
9 0 1 0 0 0 1 0 0 0 1 23.411 -55.982 -8.844002 1 0.5 2
9 0 1 0 0 0 1 0 0 0 1 21.411 -56.982 -7.844002 1 0.5 2
9 0 1 0 0 0 1 0 0 0 1 19.911 -45.482 -8.344002 0.5 4 0.5
9 0 1 0 0 0 1 0 0 0 1 17.411 -55.482 -24.344 1 2 0.5
9 0 1 0 0 0 1 0 0 0 1 17.411 -57.482 -40.844 1 1 1
9 0 1 0 0 0 1 0 0 0 1 16.411 -55.482 -9.344002 1 2 0.5
9 0 1 0 0 0 1 0 0 0 1 14.411 -54.482 -43.344 2 1 0.5
9 0 1 0 0 0 1 0 0 0 1 11.911 -49.482 -14.344 0.5 4 0.5
9 0 1 0 0 0 1 0 0 0 1 8.911003 -56.482 34.156 0.5 1 2
9 0 1 0 0 0 1 0 0 0 1 7.411003 -4.481998 42.656 2 1 0.5
9 0 1 0 0 0 1 0 0 0 1 7.411003 -4.481998 54.656 2 1 0.5
9 0 1 0 0 0 1 0 0 0 1 7.411003 -5.481998 41.656 2 1 0.5
9 0 1 0 0 0 1 0 0 0 1 -0.5889969 -42.482 -34.844 1 1 1
9 0 1 0 0 0 1 0 0 0 1 -7.588997 -55.982 -9.844002 1 0.5 2
9 0 1 0 0 0 1 0 0 0 1 -7.588997 -4.481998 42.656 2 1 0.5
9 0 1 0 0 0 1 0 0 0 1 -7.588997 -4.481998 54.656 2 1 0.5
9 0 1 0 0 0 1 0 0 0 1 -7.588997 -5.481998 41.656 2 1 0.5
9 0 1 0 0 0 1 0 0 0 1 -8.588997 -41.482 41.156 1 1 1
9 0 1 0 0 0 1 0 0 0 1 -9.088997 -46.482 34.156 0.5 1 2
9 0 1 0 0 0 1 0 0 0 1 -9.088997 -56.482 34.156 0.5 1 2
9 0 1 0 0 0 1 0 0 0 1 -8.588997 -56.482 41.156 1 1 1
9 0 1 0 0 0 1 0 0 0 1 -11.089 -50.482 -2.344002 0.5 4 0.5
9 0 1 0 0 0 1 0 0 0 1 -14.589 -43.982 -43.844 2 0.5 1
9 0 1 0 0 0 1 0 0 0 1 -14.589 -54.482 -43.344 2 1 0.5
9 0 1 0 0 0 1 0 0 0 1 -19.089 -42.482 -40.844 0.5 1 2
9 0 1 0 0 0 1 0 0 0 1 -19.089 -55.482 -25.844 0.5 2 1
9 0 1 0 0 0 1 0 0 0 1 -21.089 -45.482 -7.344002 0.5 4 0.5
9 0 1 0 0 0 1 0 0 0 1 -23.089 -55.982 -19.844 0.5 0.5 4
9 0 1 0 0 0 1 0 0 0 1 -27.589 -45.482 -6.344002 1 2 0.5
9 0 1 0 0 0 1 0 0 0 1 -29.089 -57.482 -28.844 0.5 1 2
9 0 1 0 0 0 1 0 0 0 1 -31.589 -46.482 -7.344002 1 2 0.5
9 0 1 0 0 0 1 0 0 0 1 -32.089 -50.482 -23.344 0.5 4 0.5
9 0 1 0 0 0 1 0 0 0 1 -32.089 -50.482 -15.344 0.5 4 0.5
9 0 1 0 0 0 1 0 0 0 1 -31.589 -56.482 -11.344 2 1 0.5
9 0 1 0 0 0 1 0 0 0 1 -35.089 -55.482 6.155998 0.5 2 1
9 0 1 0 0 0 1 0 0 0 1 -36.089 -45.482 4.655998 0.5 4 0.5
9 0 1 0 0 0 1 0 0 0 1 -36.089 -55.482 5.155998 0.5 2 1
9 0 1 0 0 0 1 0 0 0 1 -37.089 -49.482 -6.344002 0.5 4 0.5
9 0 1 0 0 0 1 0 0 0 1 -39.089 -50.482 -18.344 0.5 4 0.5
9 0 1 0 0 0 1 0 0 0 1 -39.089 -50.482 -13.344 0.5 4 0.5
9 0 1 0 0 0 1 0 0 0 1 -40.089 -51.482 10.156 0.5 1 2
9 0 1 0 0 0 1 0 0 0 1 -40.089 -50.482 -22.344 0.5 4 0.5
9 0 1 0 0 0 1 0 0 0 1 -41.589 -56.482 -19.844 1 1 1
9 0 1 0 0 0 1 0 0 0 1 -43.589 -51.482 12.656 1 2 0.5
9 0 1 0 0 0 1 0 0 0 1 -43.589 -56.482 -14.844 1 1 1
9 0 1 0 0 0 1 0 0 0 1 -52.589 -58.982 -12.844 1 0.5 2
9 0 1 0 0 0 1 0 0 0 1 -54.589 -56.482 -23.344 1 2 0.5
9 0 1 0 0 0 1 0 0 0 1 -67.089 -56.482 -18.844 0.5 2 1
9 0 1 0 0 0 1 0 0 0 1 46.911 -54.982 -26.344 3.5 0.5 0.5
9 0 1 0 0 0 1 0 0 0 1 41.911 -47.982 -29.344 0.5 3.5 0.5
9 0 1 0 0 0 1 0 0 0 1 32.911 -44.982 8.655998 0.5 3.5 0.5
9 0 1 0 0 0 1 0 0 0 1 24.911 -55.982 -15.344 0.5 0.5 3.5
9 0 1 0 0 0 1 0 0 0 1 22.911 -55.982 -19.344 0.5 0.5 3.5
9 0 1 0 0 0 1 0 0 0 1 20.911 -57.982 -8.344002 0.5 0.5 3.5
9 0 1 0 0 0 1 0 0 0 1 4.911003 -52.982 3.655998 0.5 3.5 0.5
9 0 1 0 0 0 1 0 0 0 1 6.911003 -44.982 26.656 3.5 0.5 0.5
9 0 1 0 0 0 1 0 0 0 1 -4.088997 -44.982 -32.344 0.5 3.5 0.5
9 0 1 0 0 0 1 0 0 0 1 -16.089 -47.982 4.655998 0.5 3.5 0.5
9 0 1 0 0 0 1 0 0 0 1 -19.089 -54.982 -6.344002 0.5 3.5 0.5
9 0 1 0 0 0 1 0 0 0 1 -22.089 -53.982 -5.344002 0.5 3.5 0.5
9 0 1 0 0 0 1 0 0 0 1 -25.089 -53.982 5.655998 0.5 3.5 0.5
9 0 1 0 0 0 1 0 0 0 1 -29.089 -55.982 -14.344 0.5 0.5 3.5
9 0 1 0 0 0 1 0 0 0 1 -33.089 -57.982 -6.344002 3.5 0.5 0.5
9 0 1 0 0 0 1 0 0 0 1 -52.089 -49.982 -26.344 0.5 3.5 0.5
9 0 1 0 0 0 1 0 0 0 1 -58.089 -58.982 -20.344 3.5 0.5 0.5
9 0 1 0 0 0 1 0 0 0 1 68.911 -51.482 -6.344002 0.5 3 0.5
9 0 1 0 0 0 1 0 0 0 1 68.911 -52.482 -20.344 0.5 3 0.5
9 0 1 0 0 0 1 0 0 0 1 66.911 -51.482 -5.344002 0.5 3 0.5
9 0 1 0 0 0 1 0 0 0 1 64.411 -49.982 -22.344 1 1.5 0.5
9 0 1 0 0 0 1 0 0 0 1 63.411 -56.982 -20.344 1 1.5 0.5
9 0 1 0 0 0 1 0 0 0 1 62.411 -50.982 -2.344002 1 1.5 0.5
9 0 1 0 0 0 1 0 0 0 1 62.411 -50.982 -0.3440018 1 1.5 0.5
9 0 1 0 0 0 1 0 0 0 1 62.911 -53.982 -2.844002 1.5 0.5 1
9 0 1 0 0 0 1 0 0 0 1 60.911 -57.982 -20.844 1.5 0.5 1
9 0 1 0 0 0 1 0 0 0 1 60.911 -57.482 -13.344 1.5 1 0.5
9 0 1 0 0 0 1 0 0 0 1 58.411 -49.982 -14.344 1 1.5 0.5
9 0 1 0 0 0 1 0 0 0 1 57.911 -50.982 1.155998 0.5 1.5 1
9 0 1 0 0 0 1 0 0 0 1 58.411 -54.982 -21.344 1 1.5 0.5
9 0 1 0 0 0 1 0 0 0 1 54.911 -53.482 -23.344 0.5 3 0.5
9 0 1 0 0 0 1 0 0 0 1 54.411 -50.982 6.655998 1 1.5 0.5
9 0 1 0 0 0 1 0 0 0 1 52.911 -50.982 5.155998 0.5 1.5 1
9 0 1 0 0 0 1 0 0 0 1 52.911 -53.482 -24.344 0.5 3 0.5
9 0 1 0 0 0 1 0 0 0 1 51.411 -50.982 9.655998 1 1.5 0.5
9 0 1 0 0 0 1 0 0 0 1 50.911 -54.982 -10.844 1.5 0.5 1
9 0 1 0 0 0 1 0 0 0 1 50.911 -56.982 -10.844 1.5 0.5 1
9 0 1 0 0 0 1 0 0 0 1 49.911 -47.982 -10.844 1.5 0.5 1
9 0 1 0 0 0 1 0 0 0 1 49.411 -51.982 9.655998 1 0.5 1.5
9 0 1 0 0 0 1 0 0 0 1 49.911 -52.482 -25.344 1.5 1 0.5
9 0 1 0 0 0 1 0 0 0 1 48.411 -50.982 11.656 1 1.5 0.5
9 0 1 0 0 0 1 0 0 0 1 45.911 -50.982 15.156 0.5 1.5 1
9 0 1 0 0 0 1 0 0 0 1 44.911 -51.482 13.656 0.5 3 0.5
9 0 1 0 0 0 1 0 0 0 1 45.411 -57.982 -16.344 1 0.5 1.5
9 0 1 0 0 0 1 0 0 0 1 42.911 -55.482 -27.344 1.5 1 0.5
9 0 1 0 0 0 1 0 0 0 1 39.411 -50.982 15.656 1 1.5 0.5
9 0 1 0 0 0 1 0 0 0 1 39.911 -56.482 -11.344 1.5 1 0.5
9 0 1 0 0 0 1 0 0 0 1 38.911 -55.982 -2.844002 0.5 1.5 1
9 0 1 0 0 0 1 0 0 0 1 38.911 -56.982 -8.844002 1.5 0.5 1
9 0 1 0 0 0 1 0 0 0 1 39.411 -56.982 -26.344 3 0.5 0.5
9 0 1 0 0 0 1 0 0 0 1 35.911 -55.482 -29.344 1.5 1 0.5
9 0 1 0 0 0 1 0 0 0 1 35.911 -56.482 -12.344 1.5 1 0.5
9 0 1 0 0 0 1 0 0 0 1 33.911 -45.482 -32.344 0.5 3 0.5
9 0 1 0 0 0 1 0 0 0 1 31.911 -44.482 -33.344 0.5 3 0.5
9 0 1 0 0 0 1 0 0 0 1 31.911 -47.482 -7.344002 0.5 3 0.5
9 0 1 0 0 0 1 0 0 0 1 32.911 -51.482 25.656 1.5 1 0.5
9 0 1 0 0 0 1 0 0 0 1 32.911 -53.482 -31.344 1.5 1 0.5
9 0 1 0 0 0 1 0 0 0 1 31.911 -56.482 -11.344 1.5 1 0.5
9 0 1 0 0 0 1 0 0 0 1 29.911 -50.982 23.156 0.5 1.5 1
9 0 1 0 0 0 1 0 0 0 1 27.911 -47.482 -6.344002 0.5 3 0.5
9 0 1 0 0 0 1 0 0 0 1 28.411 -54.982 -26.344 1 0.5 1.5
9 0 1 0 0 0 1 0 0 0 1 28.411 -57.982 -27.344 1 0.5 1.5
9 0 1 0 0 0 1 0 0 0 1 26.911 -44.482 1.655998 0.5 3 0.5
9 0 1 0 0 0 1 0 0 0 1 27.911 -48.982 28.156 1.5 0.5 1
9 0 1 0 0 0 1 0 0 0 1 25.411 -55.982 -27.344 1 0.5 1.5
9 0 1 0 0 0 1 0 0 0 1 23.911 -51.482 32.656 0.5 3 0.5
9 0 1 0 0 0 1 0 0 0 1 22.911 -51.482 -5.344002 0.5 3 0.5
9 0 1 0 0 0 1 0 0 0 1 22.911 -51.482 25.656 0.5 3 0.5
9 0 1 0 0 0 1 0 0 0 1 23.911 -56.982 -31.844 1.5 0.5 1
9 0 1 0 0 0 1 0 0 0 1 22.411 -41.982 -5.344002 1 0.5 1.5
9 0 1 0 0 0 1 0 0 0 1 22.411 -52.982 26.656 1 1.5 0.5
9 0 1 0 0 0 1 0 0 0 1 19.911 -51.482 32.656 0.5 3 0.5
9 0 1 0 0 0 1 0 0 0 1 17.911 -47.482 6.655998 0.5 3 0.5
9 0 1 0 0 0 1 0 0 0 1 17.911 -52.982 5.155998 0.5 1.5 1
9 0 1 0 0 0 1 0 0 0 1 17.911 -54.982 -12.844 1.5 0.5 1
9 0 1 0 0 0 1 0 0 0 1 14.911 -56.982 -11.844 1.5 0.5 1
9 0 1 0 0 0 1 0 0 0 1 12.911 -55.982 -15.844 0.5 1.5 1
9 0 1 0 0 0 1 0 0 0 1 11.911 -57.982 -44.844 0.5 0.5 3
9 0 1 0 0 0 1 0 0 0 1 8.911003 -54.982 -17.844 0.5 1.5 1
9 0 1 0 0 0 1 0 0 0 1 8.911003 -54.482 39.656 0.5 3 0.5
9 0 1 0 0 0 1 0 0 0 1 7.911003 -39.982 3.155998 0.5 0.5 3
9 0 1 0 0 0 1 0 0 0 1 6.911003 -49.482 41.656 0.5 3 0.5
9 0 1 0 0 0 1 0 0 0 1 7.411003 -51.982 18.656 1 1.5 0.5
9 0 1 0 0 0 1 0 0 0 1 6.911003 -55.982 48.156 0.5 0.5 3
9 0 1 0 0 0 1 0 0 0 1 7.411003 -57.982 -38.344 1 0.5 1.5
9 0 1 0 0 0 1 0 0 0 1 3.911003 -44.482 -4.344002 0.5 3 0.5
9 0 1 0 0 0 1 0 0 0 1 3.911003 -52.482 -18.344 0.5 3 0.5
9 0 1 0 0 0 1 0 0 0 1 3.911003 -53.482 -4.344002 0.5 3 0.5
9 0 1 0 0 0 1 0 0 0 1 3.411003 -44.982 28.656 3 0.5 0.5
9 0 1 0 0 0 1 0 0 0 1 -0.08899689 -44.482 0.6559982 0.5 3 0.5
9 0 1 0 0 0 1 0 0 0 1 -4.088997 -44.482 -4.344002 0.5 3 0.5
9 0 1 0 0 0 1 0 0 0 1 -4.088997 -52.482 -18.344 0.5 3 0.5
9 0 1 0 0 0 1 0 0 0 1 -4.588997 -51.982 17.656 1 1.5 0.5
9 0 1 0 0 0 1 0 0 0 1 -4.588997 -55.982 17.656 1 1.5 0.5
9 0 1 0 0 0 1 0 0 0 1 -3.588997 -44.982 28.656 3 0.5 0.5
9 0 1 0 0 0 1 0 0 0 1 -7.088997 -49.482 41.656 0.5 3 0.5
9 0 1 0 0 0 1 0 0 0 1 -7.088997 -55.982 48.156 0.5 0.5 3
9 0 1 0 0 0 1 0 0 0 1 -7.588997 -51.982 18.656 1 1.5 0.5
9 0 1 0 0 0 1 0 0 0 1 -6.588997 -25.982 40.656 3 0.5 0.5
9 0 1 0 0 0 1 0 0 0 1 -13.589 -55.982 -11.344 1 1.5 0.5
9 0 1 0 0 0 1 0 0 0 1 -15.089 -44.482 -12.344 0.5 3 0.5
9 0 1 0 0 0 1 0 0 0 1 -16.089 -50.482 -38.344 0.5 3 0.5
9 0 1 0 0 0 1 0 0 0 1 -16.089 -54.482 26.656 1.5 1 0.5
9 0 1 0 0 0 1 0 0 0 1 -17.089 -53.482 4.655998 1.5 1 0.5
9 0 1 0 0 0 1 0 0 0 1 -18.089 -54.982 -12.844 1.5 0.5 1
9 0 1 0 0 0 1 0 0 0 1 -21.089 -47.482 9.655998 0.5 3 0.5
9 0 1 0 0 0 1 0 0 0 1 -20.589 -57.982 -8.344002 1 0.5 1.5
9 0 1 0 0 0 1 0 0 0 1 -22.089 -51.482 26.656 0.5 3 0.5
9 0 1 0 0 0 1 0 0 0 1 -22.089 -56.982 -25.844 0.5 0.5 3
9 0 1 0 0 0 1 0 0 0 1 -23.089 -51.482 25.656 0.5 3 0.5
9 0 1 0 0 0 1 0 0 0 1 -23.089 -55.482 -3.344002 0.5 3 0.5
9 0 1 0 0 0 1 0 0 0 1 -23.089 -42.482 -4.344002 1.5 1 0.5
9 0 1 0 0 0 1 0 0 0 1 -24.089 -51.482 32.656 0.5 3 0.5
9 0 1 0 0 0 1 0 0 0 1 -24.089 -54.482 -33.344 1.5 1 0.5
9 0 1 0 0 0 1 0 0 0 1 -24.089 -54.982 -29.844 1.5 0.5 1
9 0 1 0 0 0 1 0 0 0 1 -25.089 -55.982 -25.844 0.5 0.5 3
9 0 1 0 0 0 1 0 0 0 1 -26.089 -54.482 -34.344 1.5 1 0.5
9 0 1 0 0 0 1 0 0 0 1 -27.089 -57.482 -22.344 0.5 1 1.5
9 0 1 0 0 0 1 0 0 0 1 -27.089 -56.982 -9.844002 0.5 1.5 1
9 0 1 0 0 0 1 0 0 0 1 -28.089 -55.482 -27.344 0.5 1 1.5
9 0 1 0 0 0 1 0 0 0 1 -29.589 -50.982 28.656 1 1.5 0.5
9 0 1 0 0 0 1 0 0 0 1 -29.589 -54.982 -32.344 1 1.5 0.5
9 0 1 0 0 0 1 0 0 0 1 -31.089 -53.982 -31.844 0.5 1.5 1
9 0 1 0 0 0 1 0 0 0 1 -30.089 -55.982 -24.844 1.5 0.5 1
9 0 1 0 0 0 1 0 0 0 1 -32.089 -51.482 -13.344 0.5 3 0.5
9 0 1 0 0 0 1 0 0 0 1 -32.089 -56.482 -14.344 0.5 1 1.5
9 0 1 0 0 0 1 0 0 0 1 -31.589 -55.982 -30.344 3 0.5 0.5
9 0 1 0 0 0 1 0 0 0 1 -35.589 -46.982 -8.344002 1 1.5 0.5
9 0 1 0 0 0 1 0 0 0 1 -37.089 -51.982 18.156 0.5 1.5 1
9 0 1 0 0 0 1 0 0 0 1 -36.089 -56.482 -12.344 1.5 1 0.5
9 0 1 0 0 0 1 0 0 0 1 -36.589 -53.982 -7.344002 3 0.5 0.5
9 0 1 0 0 0 1 0 0 0 1 -39.089 -56.482 -22.344 0.5 1 1.5
9 0 1 0 0 0 1 0 0 0 1 -39.089 -55.982 -2.844002 0.5 1.5 1
9 0 1 0 0 0 1 0 0 0 1 -40.089 -50.982 20.156 0.5 1.5 1
9 0 1 0 0 0 1 0 0 0 1 -39.089 -55.482 -28.344 1.5 1 0.5
9 0 1 0 0 0 1 0 0 0 1 -39.089 -55.982 -10.844 1.5 0.5 1
9 0 1 0 0 0 1 0 0 0 1 -42.089 -56.482 -23.344 0.5 1 1.5
9 0 1 0 0 0 1 0 0 0 1 -40.589 -55.982 -27.344 3 0.5 0.5
9 0 1 0 0 0 1 0 0 0 1 -46.089 -50.982 15.156 0.5 1.5 1
9 0 1 0 0 0 1 0 0 0 1 -45.589 -52.982 -27.344 1 1.5 0.5
9 0 1 0 0 0 1 0 0 0 1 -46.089 -57.982 -17.844 0.5 0.5 3
9 0 1 0 0 0 1 0 0 0 1 -47.589 -48.982 -11.344 1 1.5 0.5
9 0 1 0 0 0 1 0 0 0 1 -50.089 -47.982 -10.844 1.5 0.5 1
9 0 1 0 0 0 1 0 0 0 1 -51.589 -50.982 6.655998 1 1.5 0.5
9 0 1 0 0 0 1 0 0 0 1 -51.089 -54.982 -10.844 1.5 0.5 1
9 0 1 0 0 0 1 0 0 0 1 -53.089 -50.982 8.155998 0.5 1.5 1
9 0 1 0 0 0 1 0 0 0 1 -52.589 -56.982 -11.344 3 0.5 0.5
9 0 1 0 0 0 1 0 0 0 1 -58.589 -49.982 -14.344 1 1.5 0.5
9 0 1 0 0 0 1 0 0 0 1 -59.089 -51.482 -3.344002 0.5 3 0.5
9 0 1 0 0 0 1 0 0 0 1 -56.589 -58.982 -12.344 3 0.5 0.5
9 0 1 0 0 0 1 0 0 0 1 -61.089 -50.982 1.155998 0.5 1.5 1
9 0 1 0 0 0 1 0 0 0 1 -61.089 -55.482 -22.344 1.5 1 0.5
9 0 1 0 0 0 1 0 0 0 1 -62.589 -50.982 -2.344002 1 1.5 0.5
9 0 1 0 0 0 1 0 0 0 1 -63.089 -53.982 -2.844002 1.5 0.5 1
9 0 1 0 0 0 1 0 0 0 1 -65.589 -57.982 -18.344 1 0.5 1.5
9 0 1 0 0 0 1 0 0 0 1 -67.089 -51.482 -5.344002 0.5 3 0.5
9 0 1 0 0 0 1 0 0 0 1 -67.089 -51.482 -2.344002 0.5 3 0.5
9 0 1 0 0 0 1 0 0 0 1 -69.089 -51.482 -6.344002 0.5 3 0.5
9 0 1 0 0 0 1 0 0 0 1 -69.089 -52.482 -20.344 0.5 3 0.5
9 0 1 0 0 0 1 0 0 0 1 66.911 -51.982 -2.344002 0.5 2.5 0.5
9 0 1 0 0 0 1 0 0 0 1 64.911 -51.982 -17.344 0.5 2.5 0.5
9 0 1 0 0 0 1 0 0 0 1 56.911 -52.982 -22.344 0.5 2.5 0.5
9 0 1 0 0 0 1 0 0 0 1 57.911 -47.982 -23.344 2.5 0.5 0.5
9 0 1 0 0 0 1 0 0 0 1 55.911 -50.982 -11.344 0.5 2.5 0.5
9 0 1 0 0 0 1 0 0 0 1 56.911 -56.982 -12.344 2.5 0.5 0.5
9 0 1 0 0 0 1 0 0 0 1 43.911 -55.982 -26.344 2.5 0.5 0.5
9 0 1 0 0 0 1 0 0 0 1 40.911 -48.982 -28.344 0.5 2.5 0.5
9 0 1 0 0 0 1 0 0 0 1 39.911 -48.982 -9.344002 0.5 2.5 0.5
9 0 1 0 0 0 1 0 0 0 1 39.911 -53.982 -8.344002 2.5 0.5 0.5
9 0 1 0 0 0 1 0 0 0 1 36.911 -44.982 -31.344 0.5 2.5 0.5
9 0 1 0 0 0 1 0 0 0 1 36.911 -50.982 22.656 0.5 2.5 0.5
9 0 1 0 0 0 1 0 0 0 1 35.911 -47.982 -8.344002 0.5 2.5 0.5
9 0 1 0 0 0 1 0 0 0 1 33.911 -54.982 -30.344 2.5 0.5 0.5
9 0 1 0 0 0 1 0 0 0 1 28.911 -48.982 -34.344 0.5 2.5 0.5
9 0 1 0 0 0 1 0 0 0 1 29.911 -55.982 -25.344 2.5 0.5 0.5
9 0 1 0 0 0 1 0 0 0 1 29.911 -55.982 -8.344002 2.5 0.5 0.5
9 0 1 0 0 0 1 0 0 0 1 26.911 -43.982 -35.344 0.5 2.5 0.5
9 0 1 0 0 0 1 0 0 0 1 25.911 -50.982 30.656 0.5 2.5 0.5
9 0 1 0 0 0 1 0 0 0 1 27.911 -56.982 -5.344002 2.5 0.5 0.5
9 0 1 0 0 0 1 0 0 0 1 23.911 -42.982 -4.344002 2.5 0.5 0.5
9 0 1 0 0 0 1 0 0 0 1 21.911 -42.982 20.656 0.5 2.5 0.5
9 0 1 0 0 0 1 0 0 0 1 18.911 -42.982 22.656 0.5 2.5 0.5
9 0 1 0 0 0 1 0 0 0 1 18.911 -43.982 -9.344002 0.5 2.5 0.5
9 0 1 0 0 0 1 0 0 0 1 18.911 -46.982 7.655998 0.5 2.5 0.5
9 0 1 0 0 0 1 0 0 0 1 16.911 -42.982 23.656 0.5 2.5 0.5
9 0 1 0 0 0 1 0 0 0 1 15.911 -54.982 13.656 0.5 2.5 0.5
9 0 1 0 0 0 1 0 0 0 1 13.911 -50.982 -12.344 0.5 2.5 0.5
9 0 1 0 0 0 1 0 0 0 1 14.911 -43.982 -54.344 2.5 0.5 0.5
9 0 1 0 0 0 1 0 0 0 1 12.911 -48.982 25.656 0.5 2.5 0.5
9 0 1 0 0 0 1 0 0 0 1 14.911 -55.982 -53.344 2.5 0.5 0.5
9 0 1 0 0 0 1 0 0 0 1 8.911003 -56.982 28.656 0.5 0.5 2.5
9 0 1 0 0 0 1 0 0 0 1 7.911003 -39.982 -5.344002 0.5 0.5 2.5
9 0 1 0 0 0 1 0 0 0 1 3.911003 -20.982 50.656 2.5 0.5 0.5
9 0 1 0 0 0 1 0 0 0 1 -0.08899689 -42.982 -19.344 0.5 2.5 0.5
9 0 1 0 0 0 1 0 0 0 1 -0.08899689 -56.982 -35.344 2.5 0.5 0.5
9 0 1 0 0 0 1 0 0 0 1 -6.088997 -50.982 -31.344 0.5 2.5 0.5
9 0 1 0 0 0 1 0 0 0 1 -9.088997 -56.982 28.656 0.5 0.5 2.5
9 0 1 0 0 0 1 0 0 0 1 -12.089 -57.982 -45.344 0.5 0.5 2.5
9 0 1 0 0 0 1 0 0 0 1 -15.089 -50.982 -11.344 0.5 2.5 0.5
9 0 1 0 0 0 1 0 0 0 1 -16.089 -54.982 13.656 0.5 2.5 0.5
9 0 1 0 0 0 1 0 0 0 1 -17.089 -42.982 23.656 0.5 2.5 0.5
9 0 1 0 0 0 1 0 0 0 1 -17.089 -46.982 -25.344 0.5 2.5 0.5
9 0 1 0 0 0 1 0 0 0 1 -15.089 -55.982 -53.344 2.5 0.5 0.5
9 0 1 0 0 0 1 0 0 0 1 -15.089 -56.982 -49.344 2.5 0.5 0.5
9 0 1 0 0 0 1 0 0 0 1 -18.089 -53.982 -8.344002 0.5 2.5 0.5
9 0 1 0 0 0 1 0 0 0 1 -19.089 -42.982 22.656 0.5 2.5 0.5
9 0 1 0 0 0 1 0 0 0 1 -20.089 -43.982 -8.344002 0.5 2.5 0.5
9 0 1 0 0 0 1 0 0 0 1 -20.089 -46.982 8.655998 0.5 2.5 0.5
9 0 1 0 0 0 1 0 0 0 1 -20.089 -51.982 32.656 0.5 2.5 0.5
9 0 1 0 0 0 1 0 0 0 1 -22.089 -42.982 20.656 0.5 2.5 0.5
9 0 1 0 0 0 1 0 0 0 1 -23.089 -54.982 7.655998 0.5 2.5 0.5
9 0 1 0 0 0 1 0 0 0 1 -26.089 -50.982 30.656 0.5 2.5 0.5
9 0 1 0 0 0 1 0 0 0 1 -27.089 -43.982 -35.344 0.5 2.5 0.5
9 0 1 0 0 0 1 0 0 0 1 -27.089 -54.982 2.655998 0.5 2.5 0.5
9 0 1 0 0 0 1 0 0 0 1 -28.089 -57.982 -26.344 0.5 0.5 2.5
9 0 1 0 0 0 1 0 0 0 1 -30.089 -55.982 -8.344002 2.5 0.5 0.5
9 0 1 0 0 0 1 0 0 0 1 -34.089 -44.982 -32.344 0.5 2.5 0.5
9 0 1 0 0 0 1 0 0 0 1 -37.089 -54.982 -29.344 2.5 0.5 0.5
9 0 1 0 0 0 1 0 0 0 1 -41.089 -50.982 14.656 0.5 2.5 0.5
9 0 1 0 0 0 1 0 0 0 1 -40.089 -53.982 -8.344002 2.5 0.5 0.5
9 0 1 0 0 0 1 0 0 0 1 -45.089 -48.982 -28.344 0.5 2.5 0.5
9 0 1 0 0 0 1 0 0 0 1 -52.089 -50.982 -12.344 0.5 2.5 0.5
9 0 1 0 0 0 1 0 0 0 1 -57.089 -56.982 -12.344 2.5 0.5 0.5
9 0 1 0 0 0 1 0 0 0 1 -61.089 -50.982 -23.344 0.5 2.5 0.5
9 0 1 0 0 0 1 0 0 0 1 -62.089 -51.982 -15.344 0.5 2.5 0.5
9 0 1 0 0 0 1 0 0 0 1 67.411 -57.482 -19.344 1 1 0.5
9 0 1 0 0 0 1 0 0 0 1 65.911 -52.482 -14.344 0.5 2 0.5
9 0 1 0 0 0 1 0 0 0 1 65.411 -57.982 -18.844 1 0.5 1
9 0 1 0 0 0 1 0 0 0 1 61.911 -51.482 -15.344 0.5 2 0.5
9 0 1 0 0 0 1 0 0 0 1 60.411 -48.982 0.1559982 1 0.5 1
9 0 1 0 0 0 1 0 0 0 1 58.411 -48.982 2.155998 1 0.5 1
9 0 1 0 0 0 1 0 0 0 1 58.411 -50.482 3.655998 1 1 0.5
9 0 1 0 0 0 1 0 0 0 1 56.411 -48.982 4.155998 1 0.5 1
9 0 1 0 0 0 1 0 0 0 1 54.911 -50.482 -13.344 0.5 2 0.5
9 0 1 0 0 0 1 0 0 0 1 54.411 -56.482 -24.344 1 1 0.5
9 0 1 0 0 0 1 0 0 0 1 52.911 -58.982 -14.844 0.5 0.5 2
9 0 1 0 0 0 1 0 0 0 1 52.411 -48.982 7.155998 1 0.5 1
9 0 1 0 0 0 1 0 0 0 1 51.911 -50.482 -12.344 0.5 2 0.5
9 0 1 0 0 0 1 0 0 0 1 51.411 -58.982 -10.844 1 0.5 1
9 0 1 0 0 0 1 0 0 0 1 50.411 -45.982 -26.844 1 0.5 1
9 0 1 0 0 0 1 0 0 0 1 48.411 -48.982 10.156 1 0.5 1
9 0 1 0 0 0 1 0 0 0 1 47.911 -49.482 -11.344 0.5 2 0.5
9 0 1 0 0 0 1 0 0 0 1 45.911 -46.482 -28.344 0.5 2 0.5
9 0 1 0 0 0 1 0 0 0 1 45.911 -50.482 11.656 0.5 2 0.5
9 0 1 0 0 0 1 0 0 0 1 46.411 -56.982 -12.344 2 0.5 0.5
9 0 1 0 0 0 1 0 0 0 1 43.911 -49.482 -27.344 0.5 2 0.5
9 0 1 0 0 0 1 0 0 0 1 41.911 -51.482 13.656 0.5 2 0.5
9 0 1 0 0 0 1 0 0 0 1 41.911 -56.482 -23.844 0.5 1 1
9 0 1 0 0 0 1 0 0 0 1 41.411 -51.482 10.656 1 1 0.5
9 0 1 0 0 0 1 0 0 0 1 39.411 -56.482 -22.344 1 1 0.5
9 0 1 0 0 0 1 0 0 0 1 38.911 -56.482 -18.844 0.5 1 1
9 0 1 0 0 0 1 0 0 0 1 39.411 -56.482 -14.344 1 1 0.5
9 0 1 0 0 0 1 0 0 0 1 38.411 -51.482 7.655998 1 1 0.5
9 0 1 0 0 0 1 0 0 0 1 37.911 -51.482 16.156 0.5 1 1
9 0 1 0 0 0 1 0 0 0 1 35.911 -51.482 18.156 0.5 1 1
9 0 1 0 0 0 1 0 0 0 1 36.411 -56.482 -24.344 1 1 0.5
9 0 1 0 0 0 1 0 0 0 1 35.911 -55.482 4.655998 0.5 2 0.5
9 0 1 0 0 0 1 0 0 0 1 34.411 -55.982 -23.844 1 0.5 1
9 0 1 0 0 0 1 0 0 0 1 35.411 -58.982 -24.344 2 0.5 0.5
9 0 1 0 0 0 1 0 0 0 1 35.411 -58.982 -12.344 2 0.5 0.5
9 0 1 0 0 0 1 0 0 0 1 32.911 -57.982 -21.844 0.5 0.5 2
9 0 1 0 0 0 1 0 0 0 1 31.911 -51.482 21.656 0.5 2 0.5
9 0 1 0 0 0 1 0 0 0 1 32.411 -52.982 25.156 1 0.5 1
9 0 1 0 0 0 1 0 0 0 1 31.911 -56.482 -14.844 0.5 1 1
9 0 1 0 0 0 1 0 0 0 1 31.411 -42.482 -32.344 1 1 0.5
9 0 1 0 0 0 1 0 0 0 1 30.411 -55.982 -16.844 1 0.5 1
9 0 1 0 0 0 1 0 0 0 1 29.911 -58.482 -19.844 0.5 1 1
9 0 1 0 0 0 1 0 0 0 1 30.411 -44.982 -6.344002 2 0.5 0.5
9 0 1 0 0 0 1 0 0 0 1 28.411 -51.482 29.656 1 1 0.5
9 0 1 0 0 0 1 0 0 0 1 27.911 -57.482 -24.844 0.5 1 1
9 0 1 0 0 0 1 0 0 0 1 26.911 -45.482 -6.344002 0.5 2 0.5
9 0 1 0 0 0 1 0 0 0 1 28.411 -54.982 -33.344 2 0.5 0.5
9 0 1 0 0 0 1 0 0 0 1 26.911 -54.982 -22.844 0.5 0.5 2
9 0 1 0 0 0 1 0 0 0 1 25.911 -51.482 26.656 0.5 2 0.5
9 0 1 0 0 0 1 0 0 0 1 27.411 -53.982 -5.344002 2 0.5 0.5
9 0 1 0 0 0 1 0 0 0 1 26.411 -57.482 -4.344002 1 1 0.5
9 0 1 0 0 0 1 0 0 0 1 25.411 -54.982 -34.344 2 0.5 0.5
9 0 1 0 0 0 1 0 0 0 1 23.411 -52.482 -32.344 1 1 0.5
9 0 1 0 0 0 1 0 0 0 1 22.911 -55.982 -12.844 0.5 0.5 2
9 0 1 0 0 0 1 0 0 0 1 22.911 -55.482 7.655998 0.5 2 0.5
9 0 1 0 0 0 1 0 0 0 1 22.411 -49.482 26.656 1 1 0.5
9 0 1 0 0 0 1 0 0 0 1 21.411 -54.982 -21.844 1 0.5 1
9 0 1 0 0 0 1 0 0 0 1 20.911 -54.482 -6.344002 0.5 2 0.5
9 0 1 0 0 0 1 0 0 0 1 18.911 -42.482 -39.844 0.5 1 1
9 0 1 0 0 0 1 0 0 0 1 18.911 -48.482 11.656 0.5 2 0.5
9 0 1 0 0 0 1 0 0 0 1 18.911 -56.482 -6.344002 0.5 2 0.5
9 0 1 0 0 0 1 0 0 0 1 16.911 -42.482 -40.844 0.5 1 1
9 0 1 0 0 0 1 0 0 0 1 15.911 -55.482 -10.344 0.5 2 0.5
9 0 1 0 0 0 1 0 0 0 1 14.411 -42.482 -11.344 1 1 0.5
9 0 1 0 0 0 1 0 0 0 1 13.911 -43.482 -13.344 0.5 2 0.5
9 0 1 0 0 0 1 0 0 0 1 14.411 -44.982 -43.344 2 0.5 0.5
9 0 1 0 0 0 1 0 0 0 1 14.411 -54.982 -44.344 2 0.5 0.5
9 0 1 0 0 0 1 0 0 0 1 13.411 -55.482 -11.344 1 1 0.5
9 0 1 0 0 0 1 0 0 0 1 11.411 -55.482 -16.344 1 1 0.5
9 0 1 0 0 0 1 0 0 0 1 8.911003 -41.482 41.156 0.5 1 1
9 0 1 0 0 0 1 0 0 0 1 8.911003 -46.982 34.156 0.5 0.5 2
9 0 1 0 0 0 1 0 0 0 1 8.911003 -56.482 -15.844 0.5 1 1
9 0 1 0 0 0 1 0 0 0 1 8.911003 -56.482 41.156 0.5 1 1
9 0 1 0 0 0 1 0 0 0 1 8.411003 -25.482 40.656 1 1 0.5
9 0 1 0 0 0 1 0 0 0 1 8.411003 -25.482 56.656 1 1 0.5
9 0 1 0 0 0 1 0 0 0 1 8.411003 -32.482 40.656 1 1 0.5
9 0 1 0 0 0 1 0 0 0 1 8.411003 -32.482 56.656 1 1 0.5
9 0 1 0 0 0 1 0 0 0 1 8.411003 -45.482 56.656 1 1 0.5
9 0 1 0 0 0 1 0 0 0 1 7.911003 -55.982 -9.844002 0.5 0.5 2
9 0 1 0 0 0 1 0 0 0 1 7.911003 -57.482 5.155998 0.5 1 1
9 0 1 0 0 0 1 0 0 0 1 7.411003 -1.981998 44.656 2 0.5 0.5
9 0 1 0 0 0 1 0 0 0 1 7.411003 -1.981998 52.656 2 0.5 0.5
9 0 1 0 0 0 1 0 0 0 1 7.411003 -4.981998 55.656 2 0.5 0.5
9 0 1 0 0 0 1 0 0 0 1 5.411003 -42.982 40.656 2 0.5 0.5
9 0 1 0 0 0 1 0 0 0 1 2.911003 -43.482 -34.344 0.5 2 0.5
9 0 1 0 0 0 1 0 0 0 1 2.911003 -55.482 -34.344 0.5 2 0.5
9 0 1 0 0 0 1 0 0 0 1 4.411003 -57.982 -37.344 2 0.5 0.5
9 0 1 0 0 0 1 0 0 0 1 2.411003 -36.482 43.656 1 1 0.5
9 0 1 0 0 0 1 0 0 0 1 1.411003 -21.982 41.656 2 0.5 0.5
9 0 1 0 0 0 1 0 0 0 1 -3.088997 -43.482 -34.344 0.5 2 0.5
9 0 1 0 0 0 1 0 0 0 1 -3.088997 -55.482 -34.344 0.5 2 0.5
9 0 1 0 0 0 1 0 0 0 1 -4.588997 -20.982 46.656 2 0.5 0.5
9 0 1 0 0 0 1 0 0 0 1 -4.588997 -57.982 -37.344 2 0.5 0.5
9 0 1 0 0 0 1 0 0 0 1 -5.588997 -23.982 42.656 2 0.5 0.5
9 0 1 0 0 0 1 0 0 0 1 -5.588997 -44.982 26.656 2 0.5 0.5
9 0 1 0 0 0 1 0 0 0 1 -8.088997 -44.982 38.156 0.5 0.5 2
9 0 1 0 0 0 1 0 0 0 1 -7.588997 -1.981998 44.656 2 0.5 0.5
9 0 1 0 0 0 1 0 0 0 1 -7.588997 -1.981998 52.656 2 0.5 0.5
9 0 1 0 0 0 1 0 0 0 1 -7.588997 -4.981998 55.656 2 0.5 0.5
9 0 1 0 0 0 1 0 0 0 1 -8.588997 -25.482 56.656 1 1 0.5
9 0 1 0 0 0 1 0 0 0 1 -8.588997 -45.482 56.656 1 1 0.5
9 0 1 0 0 0 1 0 0 0 1 -11.089 -42.482 15.656 0.5 2 0.5
9 0 1 0 0 0 1 0 0 0 1 -11.089 -48.482 -12.344 0.5 2 0.5
9 0 1 0 0 0 1 0 0 0 1 -12.089 -43.482 -14.344 0.5 2 0.5
9 0 1 0 0 0 1 0 0 0 1 -13.089 -56.982 -13.844 0.5 0.5 2
9 0 1 0 0 0 1 0 0 0 1 -14.089 -43.482 -13.344 0.5 2 0.5
9 0 1 0 0 0 1 0 0 0 1 -13.589 -54.982 27.656 2 0.5 0.5
9 0 1 0 0 0 1 0 0 0 1 -14.589 -44.982 -43.344 2 0.5 0.5
9 0 1 0 0 0 1 0 0 0 1 -14.589 -54.982 -44.344 2 0.5 0.5
9 0 1 0 0 0 1 0 0 0 1 -17.089 -42.482 -40.844 0.5 1 1
9 0 1 0 0 0 1 0 0 0 1 -17.589 -54.982 -18.844 1 0.5 1
9 0 1 0 0 0 1 0 0 0 1 -22.589 -54.982 -22.844 1 0.5 1
9 0 1 0 0 0 1 0 0 0 1 -22.589 -57.982 -13.844 1 0.5 1
9 0 1 0 0 0 1 0 0 0 1 -24.089 -43.482 -34.844 0.5 1 1
9 0 1 0 0 0 1 0 0 0 1 -22.589 -55.982 -8.344002 2 0.5 0.5
9 0 1 0 0 0 1 0 0 0 1 -26.089 -51.482 26.656 0.5 2 0.5
9 0 1 0 0 0 1 0 0 0 1 -26.089 -57.482 -18.844 0.5 1 1
9 0 1 0 0 0 1 0 0 0 1 -27.089 -54.982 -23.844 0.5 0.5 2
9 0 1 0 0 0 1 0 0 0 1 -28.089 -49.482 -6.344002 0.5 2 0.5
9 0 1 0 0 0 1 0 0 0 1 -29.589 -56.482 -31.344 1 1 0.5
9 0 1 0 0 0 1 0 0 0 1 -30.089 -58.482 -19.844 0.5 1 1
9 0 1 0 0 0 1 0 0 0 1 -30.589 -48.982 24.156 1 0.5 1
9 0 1 0 0 0 1 0 0 0 1 -30.589 -55.982 -16.844 1 0.5 1
9 0 1 0 0 0 1 0 0 0 1 -30.589 -44.982 -6.344002 2 0.5 0.5
9 0 1 0 0 0 1 0 0 0 1 -32.089 -49.482 -31.344 0.5 2 0.5
9 0 1 0 0 0 1 0 0 0 1 -31.589 -51.482 21.656 1 1 0.5
9 0 1 0 0 0 1 0 0 0 1 -32.089 -51.482 26.656 0.5 2 0.5
9 0 1 0 0 0 1 0 0 0 1 -33.089 -47.482 -5.344002 0.5 2 0.5
9 0 1 0 0 0 1 0 0 0 1 -33.089 -51.482 25.656 0.5 2 0.5
9 0 1 0 0 0 1 0 0 0 1 -32.589 -54.982 -30.844 1 0.5 1
9 0 1 0 0 0 1 0 0 0 1 -34.589 -45.982 -7.344002 2 0.5 0.5
9 0 1 0 0 0 1 0 0 0 1 -35.589 -48.982 20.156 1 0.5 1
9 0 1 0 0 0 1 0 0 0 1 -34.589 -55.982 -6.344002 2 0.5 0.5
9 0 1 0 0 0 1 0 0 0 1 -37.089 -44.482 -31.344 0.5 2 0.5
9 0 1 0 0 0 1 0 0 0 1 -37.089 -51.482 22.656 0.5 2 0.5
9 0 1 0 0 0 1 0 0 0 1 -36.589 -53.482 -30.344 1 1 0.5
9 0 1 0 0 0 1 0 0 0 1 -35.589 -55.982 -24.344 2 0.5 0.5
9 0 1 0 0 0 1 0 0 0 1 -35.589 -58.982 -24.344 2 0.5 0.5
9 0 1 0 0 0 1 0 0 0 1 -35.589 -58.982 -12.344 2 0.5 0.5
9 0 1 0 0 0 1 0 0 0 1 -38.089 -43.482 -5.344002 0.5 2 0.5
9 0 1 0 0 0 1 0 0 0 1 -38.089 -49.482 -29.344 0.5 2 0.5
9 0 1 0 0 0 1 0 0 0 1 -37.589 -51.482 6.655998 1 1 0.5
9 0 1 0 0 0 1 0 0 0 1 -37.589 -56.982 -26.844 1 0.5 1
9 0 1 0 0 0 1 0 0 0 1 -38.589 -51.482 11.656 1 1 0.5
9 0 1 0 0 0 1 0 0 0 1 -39.089 -56.482 -13.844 0.5 1 1
9 0 1 0 0 0 1 0 0 0 1 -38.589 -56.982 -4.844002 1 0.5 1
9 0 1 0 0 0 1 0 0 0 1 -39.589 -47.482 -9.344002 1 1 0.5
9 0 1 0 0 0 1 0 0 0 1 -41.089 -51.482 10.156 0.5 1 1
9 0 1 0 0 0 1 0 0 0 1 -41.089 -51.482 -15.344 0.5 2 0.5
9 0 1 0 0 0 1 0 0 0 1 -41.589 -54.482 -28.344 1 1 0.5
9 0 1 0 0 0 1 0 0 0 1 -43.089 -51.482 17.656 0.5 2 0.5
9 0 1 0 0 0 1 0 0 0 1 -43.089 -57.982 -9.844002 0.5 0.5 2
9 0 1 0 0 0 1 0 0 0 1 -46.089 -50.482 11.656 0.5 2 0.5
9 0 1 0 0 0 1 0 0 0 1 -46.589 -56.982 -12.344 2 0.5 0.5
9 0 1 0 0 0 1 0 0 0 1 -48.589 -48.982 10.156 1 0.5 1
9 0 1 0 0 0 1 0 0 0 1 -48.589 -50.482 8.655998 1 1 0.5
9 0 1 0 0 0 1 0 0 0 1 -48.589 -57.482 -25.344 1 1 0.5
9 0 1 0 0 0 1 0 0 0 1 -50.089 -47.482 -27.344 0.5 2 0.5
9 0 1 0 0 0 1 0 0 0 1 -50.589 -50.482 10.656 1 1 0.5
9 0 1 0 0 0 1 0 0 0 1 -51.589 -55.482 -24.344 1 1 0.5
9 0 1 0 0 0 1 0 0 0 1 -54.589 -49.482 -13.344 1 1 0.5
9 0 1 0 0 0 1 0 0 0 1 -54.589 -50.482 3.655998 1 1 0.5
9 0 1 0 0 0 1 0 0 0 1 -56.089 -50.482 -11.344 0.5 2 0.5
9 0 1 0 0 0 1 0 0 0 1 -56.589 -48.482 -23.344 1 1 0.5
9 0 1 0 0 0 1 0 0 0 1 -56.589 -50.482 5.655998 1 1 0.5
9 0 1 0 0 0 1 0 0 0 1 -56.589 -53.482 -22.344 1 1 0.5
9 0 1 0 0 0 1 0 0 0 1 -57.589 -48.982 3.155998 1 0.5 1
9 0 1 0 0 0 1 0 0 0 1 -58.089 -50.482 4.155998 0.5 1 1
9 0 1 0 0 0 1 0 0 0 1 -59.589 -48.982 1.155998 1 0.5 1
9 0 1 0 0 0 1 0 0 0 1 -59.589 -52.482 -21.344 1 1 0.5
9 0 1 0 0 0 1 0 0 0 1 -60.589 -57.482 -13.344 1 1 0.5
9 0 1 0 0 0 1 0 0 0 1 -61.589 -57.982 -14.344 2 0.5 0.5
9 0 1 0 0 0 1 0 0 0 1 -67.089 -52.482 -20.344 0.5 2 0.5
9 0 1 0 0 0 1 0 0 0 1 61.911 -49.982 -23.344 0.5 1.5 0.5
9 0 1 0 0 0 1 0 0 0 1 59.911 -50.982 -1.344002 0.5 1.5 0.5
9 0 1 0 0 0 1 0 0 0 1 60.911 -55.982 -22.344 1.5 0.5 0.5
9 0 1 0 0 0 1 0 0 0 1 59.911 -47.982 -22.344 1.5 0.5 0.5
9 0 1 0 0 0 1 0 0 0 1 56.911 -50.982 1.655998 0.5 1.5 0.5
9 0 1 0 0 0 1 0 0 0 1 55.911 -47.982 -25.344 0.5 1.5 0.5
9 0 1 0 0 0 1 0 0 0 1 55.911 -54.982 -22.344 0.5 1.5 0.5
9 0 1 0 0 0 1 0 0 0 1 55.911 -58.982 -21.344 1.5 0.5 0.5
9 0 1 0 0 0 1 0 0 0 1 53.911 -54.982 -23.344 0.5 1.5 0.5
9 0 1 0 0 0 1 0 0 0 1 52.911 -54.982 -25.344 0.5 1.5 0.5
9 0 1 0 0 0 1 0 0 0 1 53.911 -56.982 -14.344 1.5 0.5 0.5
9 0 1 0 0 0 1 0 0 0 1 51.911 -50.982 5.655998 0.5 1.5 0.5
9 0 1 0 0 0 1 0 0 0 1 51.911 -54.982 -24.344 0.5 1.5 0.5
9 0 1 0 0 0 1 0 0 0 1 50.911 -48.982 -12.344 0.5 1.5 0.5
9 0 1 0 0 0 1 0 0 0 1 49.911 -47.982 -27.344 0.5 1.5 0.5
9 0 1 0 0 0 1 0 0 0 1 49.911 -50.982 7.655998 0.5 1.5 0.5
9 0 1 0 0 0 1 0 0 0 1 48.911 -55.982 -26.344 1.5 0.5 0.5
9 0 1 0 0 0 1 0 0 0 1 46.911 -55.982 -19.344 0.5 0.5 1.5
9 0 1 0 0 0 1 0 0 0 1 46.911 -56.982 -23.344 0.5 0.5 1.5
9 0 1 0 0 0 1 0 0 0 1 47.911 -56.982 -10.344 1.5 0.5 0.5
9 0 1 0 0 0 1 0 0 0 1 45.911 -52.982 -26.344 0.5 1.5 0.5
9 0 1 0 0 0 1 0 0 0 1 42.911 -45.982 -29.344 0.5 1.5 0.5
9 0 1 0 0 0 1 0 0 0 1 42.911 -51.982 17.656 0.5 1.5 0.5
9 0 1 0 0 0 1 0 0 0 1 42.911 -56.982 -10.344 1.5 0.5 0.5
9 0 1 0 0 0 1 0 0 0 1 40.911 -50.982 19.656 0.5 1.5 0.5
9 0 1 0 0 0 1 0 0 0 1 39.911 -44.982 -30.344 0.5 1.5 0.5
9 0 1 0 0 0 1 0 0 0 1 40.911 -53.982 16.656 1.5 0.5 0.5
9 0 1 0 0 0 1 0 0 0 1 39.911 -53.982 -28.344 0.5 1.5 0.5
9 0 1 0 0 0 1 0 0 0 1 39.911 -43.982 -29.344 1.5 0.5 0.5
9 0 1 0 0 0 1 0 0 0 1 38.911 -50.982 21.656 0.5 1.5 0.5
9 0 1 0 0 0 1 0 0 0 1 37.911 -42.982 -5.344002 0.5 1.5 0.5
9 0 1 0 0 0 1 0 0 0 1 37.911 -56.982 -27.344 1.5 0.5 0.5
9 0 1 0 0 0 1 0 0 0 1 34.911 -49.982 -30.344 0.5 1.5 0.5
9 0 1 0 0 0 1 0 0 0 1 34.911 -42.982 -31.344 1.5 0.5 0.5
9 0 1 0 0 0 1 0 0 0 1 33.911 -48.982 -12.344 0.5 1.5 0.5
9 0 1 0 0 0 1 0 0 0 1 34.911 -55.982 -6.344002 1.5 0.5 0.5
9 0 1 0 0 0 1 0 0 0 1 32.911 -48.982 24.656 1.5 0.5 0.5
9 0 1 0 0 0 1 0 0 0 1 31.911 -49.982 -13.344 0.5 1.5 0.5
9 0 1 0 0 0 1 0 0 0 1 31.911 -50.982 -31.344 0.5 1.5 0.5
9 0 1 0 0 0 1 0 0 0 1 31.911 -51.982 26.656 0.5 1.5 0.5
9 0 1 0 0 0 1 0 0 0 1 31.911 -58.982 -14.344 0.5 0.5 1.5
9 0 1 0 0 0 1 0 0 0 1 30.911 -45.982 -7.344002 0.5 1.5 0.5
9 0 1 0 0 0 1 0 0 0 1 31.911 -53.982 24.656 1.5 0.5 0.5
9 0 1 0 0 0 1 0 0 0 1 30.911 -52.982 -32.344 1.5 0.5 0.5
9 0 1 0 0 0 1 0 0 0 1 30.911 -53.982 -6.344002 1.5 0.5 0.5
9 0 1 0 0 0 1 0 0 0 1 29.911 -56.982 -30.344 0.5 0.5 1.5
9 0 1 0 0 0 1 0 0 0 1 28.911 -41.982 14.656 0.5 1.5 0.5
9 0 1 0 0 0 1 0 0 0 1 28.911 -50.982 23.656 0.5 1.5 0.5
9 0 1 0 0 0 1 0 0 0 1 28.911 -55.982 14.656 0.5 1.5 0.5
9 0 1 0 0 0 1 0 0 0 1 27.911 -41.982 15.656 0.5 1.5 0.5
9 0 1 0 0 0 1 0 0 0 1 26.911 -41.982 16.656 0.5 1.5 0.5
9 0 1 0 0 0 1 0 0 0 1 27.911 -53.982 27.656 1.5 0.5 0.5
9 0 1 0 0 0 1 0 0 0 1 26.911 -53.982 -32.344 0.5 1.5 0.5
9 0 1 0 0 0 1 0 0 0 1 24.911 -52.982 -35.344 0.5 1.5 0.5
9 0 1 0 0 0 1 0 0 0 1 24.911 -54.982 -27.344 0.5 0.5 1.5
9 0 1 0 0 0 1 0 0 0 1 24.911 -55.982 -24.344 0.5 0.5 1.5
9 0 1 0 0 0 1 0 0 0 1 24.911 -57.982 -20.344 0.5 0.5 1.5
9 0 1 0 0 0 1 0 0 0 1 23.911 -47.982 -35.344 0.5 1.5 0.5
9 0 1 0 0 0 1 0 0 0 1 23.911 -50.982 27.656 0.5 1.5 0.5
9 0 1 0 0 0 1 0 0 0 1 23.911 -52.982 31.656 0.5 1.5 0.5
9 0 1 0 0 0 1 0 0 0 1 22.911 -45.982 11.656 0.5 1.5 0.5
9 0 1 0 0 0 1 0 0 0 1 22.911 -56.982 -3.344002 0.5 1.5 0.5
9 0 1 0 0 0 1 0 0 0 1 20.911 -41.982 9.655998 0.5 1.5 0.5
9 0 1 0 0 0 1 0 0 0 1 20.911 -55.982 -9.344002 1.5 0.5 0.5
9 0 1 0 0 0 1 0 0 0 1 18.911 -55.982 11.656 0.5 1.5 0.5
9 0 1 0 0 0 1 0 0 0 1 17.911 -42.982 -10.344 0.5 1.5 0.5
9 0 1 0 0 0 1 0 0 0 1 18.911 -56.982 -9.344002 1.5 0.5 0.5
9 0 1 0 0 0 1 0 0 0 1 16.911 -52.982 4.655998 0.5 1.5 0.5
9 0 1 0 0 0 1 0 0 0 1 16.911 -53.982 -25.344 0.5 1.5 0.5
9 0 1 0 0 0 1 0 0 0 1 11.911 -52.982 -12.344 1.5 0.5 0.5
9 0 1 0 0 0 1 0 0 0 1 11.911 -56.982 25.656 1.5 0.5 0.5
9 0 1 0 0 0 1 0 0 0 1 10.911 -57.982 -43.344 0.5 0.5 1.5
9 0 1 0 0 0 1 0 0 0 1 9.911003 -57.982 -37.344 1.5 0.5 0.5
9 0 1 0 0 0 1 0 0 0 1 6.911003 -56.982 49.656 0.5 0.5 1.5
9 0 1 0 0 0 1 0 0 0 1 5.911003 -48.982 2.655998 0.5 1.5 0.5
9 0 1 0 0 0 1 0 0 0 1 4.911003 -51.982 17.656 0.5 1.5 0.5
9 0 1 0 0 0 1 0 0 0 1 3.911003 -51.982 3.655998 0.5 1.5 0.5
9 0 1 0 0 0 1 0 0 0 1 3.911003 -5.981998 41.656 1.5 0.5 0.5
9 0 1 0 0 0 1 0 0 0 1 -0.08899689 -34.982 42.656 1.5 0.5 0.5
9 0 1 0 0 0 1 0 0 0 1 -0.08899689 -34.982 54.656 1.5 0.5 0.5
9 0 1 0 0 0 1 0 0 0 1 -0.08899689 -42.982 54.656 1.5 0.5 0.5
9 0 1 0 0 0 1 0 0 0 1 -0.08899689 -43.982 -34.344 1.5 0.5 0.5
9 0 1 0 0 0 1 0 0 0 1 -3.088997 -51.982 25.656 0.5 1.5 0.5
9 0 1 0 0 0 1 0 0 0 1 -4.088997 -5.981998 41.656 1.5 0.5 0.5
9 0 1 0 0 0 1 0 0 0 1 -5.088997 -42.982 -33.344 0.5 1.5 0.5
9 0 1 0 0 0 1 0 0 0 1 -5.088997 -42.982 40.656 1.5 0.5 0.5
9 0 1 0 0 0 1 0 0 0 1 -6.088997 -48.982 2.655998 0.5 1.5 0.5
9 0 1 0 0 0 1 0 0 0 1 -7.088997 -45.982 12.656 0.5 1.5 0.5
9 0 1 0 0 0 1 0 0 0 1 -7.088997 -56.982 49.656 0.5 0.5 1.5
9 0 1 0 0 0 1 0 0 0 1 -8.088997 -48.982 -30.344 0.5 1.5 0.5
9 0 1 0 0 0 1 0 0 0 1 -8.088997 -54.982 -30.344 0.5 1.5 0.5
9 0 1 0 0 0 1 0 0 0 1 -8.088997 -55.982 13.656 0.5 1.5 0.5
9 0 1 0 0 0 1 0 0 0 1 -11.089 -42.982 -12.344 0.5 1.5 0.5
9 0 1 0 0 0 1 0 0 0 1 -12.089 -56.982 25.656 1.5 0.5 0.5
9 0 1 0 0 0 1 0 0 0 1 -17.089 -52.982 -25.344 0.5 1.5 0.5
9 0 1 0 0 0 1 0 0 0 1 -18.089 -51.982 5.655998 0.5 0.5 1.5
9 0 1 0 0 0 1 0 0 0 1 -19.089 -42.982 -9.344002 0.5 1.5 0.5
9 0 1 0 0 0 1 0 0 0 1 -19.089 -48.982 -6.344002 0.5 1.5 0.5
9 0 1 0 0 0 1 0 0 0 1 -19.089 -51.982 7.655998 0.5 1.5 0.5
9 0 1 0 0 0 1 0 0 0 1 -18.089 -55.982 -11.344 1.5 0.5 0.5
9 0 1 0 0 0 1 0 0 0 1 -20.089 -52.982 8.655998 0.5 1.5 0.5
9 0 1 0 0 0 1 0 0 0 1 -20.089 -52.982 24.656 0.5 1.5 0.5
9 0 1 0 0 0 1 0 0 0 1 -21.089 -41.982 9.655998 0.5 1.5 0.5
9 0 1 0 0 0 1 0 0 0 1 -21.089 -53.982 9.655998 0.5 1.5 0.5
9 0 1 0 0 0 1 0 0 0 1 -23.089 -45.982 11.656 0.5 1.5 0.5
9 0 1 0 0 0 1 0 0 0 1 -23.089 -50.982 -5.344002 0.5 1.5 0.5
9 0 1 0 0 0 1 0 0 0 1 -23.089 -55.982 -13.344 0.5 0.5 1.5
9 0 1 0 0 0 1 0 0 0 1 -24.089 -45.982 12.656 0.5 1.5 0.5
9 0 1 0 0 0 1 0 0 0 1 -24.089 -50.982 27.656 0.5 1.5 0.5
9 0 1 0 0 0 1 0 0 0 1 -25.089 -42.982 -4.344002 0.5 0.5 1.5
9 0 1 0 0 0 1 0 0 0 1 -25.089 -51.982 -35.344 0.5 1.5 0.5
9 0 1 0 0 0 1 0 0 0 1 -25.089 -51.982 13.656 0.5 1.5 0.5
9 0 1 0 0 0 1 0 0 0 1 -24.089 -55.982 -7.344002 1.5 0.5 0.5
9 0 1 0 0 0 1 0 0 0 1 -26.089 -52.982 14.656 0.5 1.5 0.5
9 0 1 0 0 0 1 0 0 0 1 -27.089 -41.982 16.656 0.5 1.5 0.5
9 0 1 0 0 0 1 0 0 0 1 -27.089 -51.982 -32.344 0.5 1.5 0.5
9 0 1 0 0 0 1 0 0 0 1 -27.089 -51.982 25.656 0.5 1.5 0.5
9 0 1 0 0 0 1 0 0 0 1 -28.089 -41.982 15.656 0.5 1.5 0.5
9 0 1 0 0 0 1 0 0 0 1 -29.089 -41.982 14.656 0.5 1.5 0.5
9 0 1 0 0 0 1 0 0 0 1 -29.089 -47.982 -34.344 0.5 1.5 0.5
9 0 1 0 0 0 1 0 0 0 1 -29.089 -50.982 23.656 0.5 1.5 0.5
9 0 1 0 0 0 1 0 0 0 1 -28.089 -53.982 27.656 1.5 0.5 0.5
9 0 1 0 0 0 1 0 0 0 1 -29.089 -54.982 -27.344 0.5 0.5 1.5
9 0 1 0 0 0 1 0 0 0 1 -29.089 -55.982 -3.344002 0.5 1.5 0.5
9 0 1 0 0 0 1 0 0 0 1 -32.089 -41.982 -32.344 1.5 0.5 0.5
9 0 1 0 0 0 1 0 0 0 1 -33.089 -57.982 -22.344 0.5 0.5 1.5
9 0 1 0 0 0 1 0 0 0 1 -34.089 -48.982 -12.344 0.5 1.5 0.5
9 0 1 0 0 0 1 0 0 0 1 -34.089 -50.982 19.656 0.5 1.5 0.5
9 0 1 0 0 0 1 0 0 0 1 -33.089 -55.982 -23.344 1.5 0.5 0.5
9 0 1 0 0 0 1 0 0 0 1 -35.089 -50.982 24.656 0.5 1.5 0.5
9 0 1 0 0 0 1 0 0 0 1 -36.089 -47.982 5.655998 0.5 1.5 0.5
9 0 1 0 0 0 1 0 0 0 1 -36.089 -49.982 -8.344002 0.5 1.5 0.5
9 0 1 0 0 0 1 0 0 0 1 -36.089 -46.982 -12.344 1.5 0.5 0.5
9 0 1 0 0 0 1 0 0 0 1 -37.089 -52.982 -29.344 0.5 1.5 0.5
9 0 1 0 0 0 1 0 0 0 1 -38.089 -52.982 -5.344002 0.5 1.5 0.5
9 0 1 0 0 0 1 0 0 0 1 -38.089 -56.982 -7.344002 1.5 0.5 0.5
9 0 1 0 0 0 1 0 0 0 1 -39.089 -58.982 -22.344 0.5 0.5 1.5
9 0 1 0 0 0 1 0 0 0 1 -40.089 -44.982 -30.344 0.5 1.5 0.5
9 0 1 0 0 0 1 0 0 0 1 -41.089 -50.982 19.656 0.5 1.5 0.5
9 0 1 0 0 0 1 0 0 0 1 -42.089 -54.982 -27.344 1.5 0.5 0.5
9 0 1 0 0 0 1 0 0 0 1 -45.089 -50.982 16.656 0.5 1.5 0.5
9 0 1 0 0 0 1 0 0 0 1 -45.089 -55.982 -14.344 0.5 0.5 1.5
9 0 1 0 0 0 1 0 0 0 1 -45.089 -57.982 -16.344 0.5 0.5 1.5
9 0 1 0 0 0 1 0 0 0 1 -46.089 -52.982 -26.344 0.5 1.5 0.5
9 0 1 0 0 0 1 0 0 0 1 -46.089 -44.982 -27.344 1.5 0.5 0.5
9 0 1 0 0 0 1 0 0 0 1 -51.089 -48.982 -12.344 0.5 1.5 0.5
9 0 1 0 0 0 1 0 0 0 1 -51.089 -58.982 -11.344 0.5 0.5 1.5
9 0 1 0 0 0 1 0 0 0 1 -52.089 -50.982 5.655998 0.5 1.5 0.5
9 0 1 0 0 0 1 0 0 0 1 -53.089 -47.982 -26.344 0.5 1.5 0.5
9 0 1 0 0 0 1 0 0 0 1 -53.089 -58.982 -16.344 0.5 0.5 1.5
9 0 1 0 0 0 1 0 0 0 1 -53.089 -48.982 6.655998 1.5 0.5 0.5
9 0 1 0 0 0 1 0 0 0 1 -54.089 -50.982 7.655998 0.5 1.5 0.5
9 0 1 0 0 0 1 0 0 0 1 -54.089 -52.982 -25.344 0.5 1.5 0.5
9 0 1 0 0 0 1 0 0 0 1 -54.089 -56.982 -14.344 1.5 0.5 0.5
9 0 1 0 0 0 1 0 0 0 1 -56.089 -58.982 -21.344 1.5 0.5 0.5
9 0 1 0 0 0 1 0 0 0 1 -58.089 -50.982 -24.344 0.5 1.5 0.5
9 0 1 0 0 0 1 0 0 0 1 -59.089 -52.982 -14.344 0.5 1.5 0.5
9 0 1 0 0 0 1 0 0 0 1 -60.089 -52.982 -3.344002 0.5 1.5 0.5
9 0 1 0 0 0 1 0 0 0 1 -61.089 -48.982 -0.3440018 1.5 0.5 0.5
9 0 1 0 0 0 1 0 0 0 1 -62.089 -50.982 0.6559982 0.5 1.5 0.5
9 0 1 0 0 0 1 0 0 0 1 -61.089 -57.982 -21.344 1.5 0.5 0.5
9 0 1 0 0 0 1 0 0 0 1 -62.089 -53.982 -22.344 1.5 0.5 0.5
9 0 1 0 0 0 1 0 0 0 1 -63.089 -56.982 -21.344 1.5 0.5 0.5
9 0 1 0 0 0 1 0 0 0 1 -65.089 -49.982 -22.344 0.5 1.5 0.5
