9 0 1 0 0 0 1 0 0 0 1 -110 -2 -70 3.35 0.5 3.35
9 0 1 0 0 0 1 0 0 0 1 -90 -2 -70 3.35 0.5 3.35
9 0 1 0 0 0 1 0 0 0 1 -110 -2 -50 3.35 0.5 3.35
9 0 1 0 0 0 1 0 0 0 1 -90 -2 -50 3.35 0.5 3.35
9 0 1 0 0 0 1 0 0 0 1 -110 -2 -30 3.35 0.5 3.35
9 0 1 0 0 0 1 0 0 0 1 -90 -2 -30 3.35 0.5 3.35
9 0 1 0 0 0 1 0 0 0 1 -110 -2 -10 3.35 0.5 3.35
9 0 1 0 0 0 1 0 0 0 1 -90 -2 -10 3.35 0.5 3.35
9 0 1 0 0 0 1 0 0 0 1 -70 -2 -30 3.35 0.5 3.35
9 0 1 0 0 0 1 0 0 0 1 -50 -2 -30 3.35 0.5 3.35
9 0 1 0 0 0 1 0 0 0 1 -70 -2 -10 3.35 0.5 3.35
9 0 1 0 0 0 1 0 0 0 1 -50 -2 -10 3.35 0.5 3.35
9 0 1 0 0 0 1 0 0 0 1 -70 -2 -70 3.35 0.5 3.35
9 0 1 0 0 0 1 0 0 0 1 -50 -2 -70 3.35 0.5 3.35
9 0 1 0 0 0 1 0 0 0 1 -70 -2 -50 3.35 0.5 3.35
9 0 1 0 0 0 1 0 0 0 1 -50 -2 -50 3.35 0.5 3.35
9 0 1 0 0 0 1 0 0 0 1 -110 -2 10 3.35 0.5 3.35
9 0 1 0 0 0 1 0 0 0 1 -90 -2 10 3.35 0.5 3.35
9 0 1 0 0 0 1 0 0 0 1 -110 -2 30 3.35 0.5 3.35
9 0 1 0 0 0 1 0 0 0 1 -90 -2 30 3.35 0.5 3.35
9 0 1 0 0 0 1 0 0 0 1 -110 -2 50 3.35 0.5 3.35
9 0 1 0 0 0 1 0 0 0 1 -90 -2 50 3.35 0.5 3.35
9 0 1 0 0 0 1 0 0 0 1 -110 -2 70 3.35 0.5 3.35
9 0 1 0 0 0 1 0 0 0 1 -90 -2 70 3.35 0.5 3.35
9 0 1 0 0 0 1 0 0 0 1 -70 -2 50 3.35 0.5 3.35
9 0 1 0 0 0 1 0 0 0 1 -50 -2 50 3.35 0.5 3.35
9 0 1 0 0 0 1 0 0 0 1 -70 -2 70 3.35 0.5 3.35
9 0 1 0 0 0 1 0 0 0 1 -50 -2 70 3.35 0.5 3.35
9 0 1 0 0 0 1 0 0 0 1 -70 -2 10 3.35 0.5 3.35
9 0 1 0 0 0 1 0 0 0 1 -50 -2 10 3.35 0.5 3.35
9 0 1 0 0 0 1 0 0 0 1 -70 -2 30 3.35 0.5 3.35
9 0 1 0 0 0 1 0 0 0 1 -50 -2 30 3.35 0.5 3.35
9 0 1 0 0 0 1 0 0 0 1 -30 -2 -70 3.35 0.5 3.35
9 0 1 0 0 0 1 0 0 0 1 -10 -2 -70 3.35 0.5 3.35
9 0 1 0 0 0 1 0 0 0 1 -30 -2 -50 3.35 0.5 3.35
9 0 1 0 0 0 1 0 0 0 1 -10 -2 -50 3.35 0.5 3.35
9 0 1 0 0 0 1 0 0 0 1 -30 -2 -30 3.35 0.5 3.35
9 0 1 0 0 0 1 0 0 0 1 -10 -2 -30 3.35 0.5 3.35
9 0 1 0 0 0 1 0 0 0 1 -30 -2 -10 3.35 0.5 3.35
9 0 1 0 0 0 1 0 0 0 1 -10 -2 -10 3.35 0.5 3.35
9 0 1 0 0 0 1 0 0 0 1 10 -2 -30 3.35 0.5 3.35
9 0 1 0 0 0 1 0 0 0 1 30 -2 -30 3.35 0.5 3.35
9 0 1 0 0 0 1 0 0 0 1 10 -2 -10 3.35 0.5 3.35
9 0 1 0 0 0 1 0 0 0 1 30 -2 -10 3.35 0.5 3.35
9 0 1 0 0 0 1 0 0 0 1 10 -2 -70 3.35 0.5 3.35
9 0 1 0 0 0 1 0 0 0 1 30 -2 -70 3.35 0.5 3.35
9 0 1 0 0 0 1 0 0 0 1 10 -2 -50 3.35 0.5 3.35
9 0 1 0 0 0 1 0 0 0 1 30 -2 -50 3.35 0.5 3.35
9 0 1 0 0 0 1 0 0 0 1 -30 -2 10 3.35 0.5 3.35
9 0 1 0 0 0 1 0 0 0 1 -10 -2 10 3.35 0.5 3.35
9 0 1 0 0 0 1 0 0 0 1 -30 -2 30 3.35 0.5 3.35
9 0 1 0 0 0 1 0 0 0 1 -10 -2 30 3.35 0.5 3.35
9 0 1 0 0 0 1 0 0 0 1 -30 -2 50 3.35 0.5 3.35
9 0 1 0 0 0 1 0 0 0 1 -10 -2 50 3.35 0.5 3.35
9 0 1 0 0 0 1 0 0 0 1 -30 -2 70 3.35 0.5 3.35
9 0 1 0 0 0 1 0 0 0 1 -10 -2 70 3.35 0.5 3.35
9 0 1 0 0 0 1 0 0 0 1 10 -2 50 3.35 0.5 3.35
9 0 1 0 0 0 1 0 0 0 1 30 -2 50 3.35 0.5 3.35
9 0 1 0 0 0 1 0 0 0 1 10 -2 70 3.35 0.5 3.35
9 0 1 0 0 0 1 0 0 0 1 30 -2 70 3.35 0.5 3.35
9 0 1 0 0 0 1 0 0 0 1 10 -2 10 3.35 0.5 3.35
9 0 1 0 0 0 1 0 0 0 1 30 -2 10 3.35 0.5 3.35
9 0 1 0 0 0 1 0 0 0 1 10 -2 30 3.35 0.5 3.35
9 0 1 0 0 0 1 0 0 0 1 30 -2 30 3.35 0.5 3.35
9 0 1 0 0 0 1 0 0 0 1 -70 -2 -90 3.35 0.5 3.35
9 0 1 0 0 0 1 0 0 0 1 -50 -2 -90 3.35 0.5 3.35
9 0 1 0 0 0 1 0 0 0 1 -30 -2 -90 3.35 0.5 3.35
9 0 1 0 0 0 1 0 0 0 1 -10 -2 -90 3.35 0.5 3.35
9 0 1 0 0 0 1 0 0 0 1 10 -2 -90 3.35 0.5 3.35
9 0 1 0 0 0 1 0 0 0 1 -70 -2 -110 3.35 0.5 3.35
9 0 1 0 0 0 1 0 0 0 1 -50 -2 -110 3.35 0.5 3.35
9 0 1 0 0 0 1 0 0 0 1 -70 -2 90 3.35 0.5 3.35
9 0 1 0 0 0 1 0 0 0 1 -50 -2 90 3.35 0.5 3.35
9 0 1 0 0 0 1 0 0 0 1 -30 -2 90 3.35 0.5 3.35
9 0 1 0 0 0 1 0 0 0 1 -10 -2 90 3.35 0.5 3.35
9 0 1 0 0 0 1 0 0 0 1 10 -2 90 3.35 0.5 3.35
9 0 1 0 0 0 1 0 0 0 1 30 -2 90 3.35 0.5 3.35
9 0 1 0 0 0 1 0 0 0 1 50 -2 90 3.35 0.5 3.35
9 0 1 0 0 0 1 0 0 0 1 70 -2 90 3.35 0.5 3.35
9 0 1 0 0 0 1 0 0 0 1 -70 -2 110 3.35 0.5 3.35
9 0 1 0 0 0 1 0 0 0 1 -50 -2 110 3.35 0.5 3.35
9 0 1 0 0 0 1 0 0 0 1 -30 -2 110 3.35 0.5 3.35
9 0 1 0 0 0 1 0 0 0 1 -10 -2 110 3.35 0.5 3.35
9 0 1 0 0 0 1 0 0 0 1 10 -2 110 3.35 0.5 3.35
9 0 1 0 0 0 1 0 0 0 1 30 -2 110 3.35 0.5 3.35
9 0 1 0 0 0 1 0 0 0 1 50 -2 110 3.35 0.5 3.35
9 0 1 0 0 0 1 0 0 0 1 70 -2 110 3.35 0.5 3.35
9 0 1 0 0 0 1 0 0 0 1 50 -2 70 3.35 0.5 3.35
9 0 1 0 0 0 1 0 0 0 1 50 -2 50 3.35 0.5 3.35
9 0 1 0 0 0 1 0 0 0 1 50 -2 30 3.35 0.5 3.35
9 0 1 0 0 0 1 0 0 0 1 50 -2 10 3.35 0.5 3.35
9 0 1 0 0 0 1 0 0 0 1 50 -2 -10 3.35 0.5 3.35
9 0 1 0 0 0 1 0 0 0 1 50 -2 -30 3.35 0.5 3.35
9 0 1 0 0 0 1 0 0 0 1 50 -2 -50 3.35 0.5 3.35
9 0 1 0 0 0 1 0 0 0 1 70 -2 70 3.35 0.5 3.35
9 0 1 0 0 0 1 0 0 0 1 70 -2 50 3.35 0.5 3.35
9 0 1 0 0 0 1 0 0 0 1 70 -2 30 3.35 0.5 3.35
9 0 1 0 0 0 1 0 0 0 1 70 -2 10 3.35 0.5 3.35
9 0 1 0 0 0 1 0 0 0 1 70 -2 -10 3.35 0.5 3.35
9 0 1 0 0 0 1 0 0 0 1 70 -2 -30 3.35 0.5 3.35
9 0 1 0 0 0 1 0 0 0 1 90 -2 70 3.35 0.5 3.35
9 0 1 0 0 0 1 0 0 0 1 90 -2 50 3.35 0.5 3.35
9 0 1 0 0 0 1 0 0 0 1 90 -2 30 3.35 0.5 3.35
9 0 1 0 0 0 1 0 0 0 1 90 -2 10 3.35 0.5 3.35
9 0 1 0 0 0 1 0 0 0 1 90 -2 -10 3.35 0.5 3.35
9 0 1 0 0 0 1 0 0 0 1 110 -2 70 3.35 0.5 3.35
9 0 1 0 0 0 1 0 0 0 1 110 -2 50 3.35 0.5 3.35
9 0 1 0 0 0 1 0 0 0 1 -29 2 29 88 0.5 88
9 0 1 0 0 0 1 0 0 0 1 80 2 59 21 0.5 58
9 0 1 0 0 0 1 0 0 0 1 -59 2 -80 58 0.5 21
9 0 1 0 0 0 1 0 0 0 1 108 2 84 7 0.5 33
9 0 1 0 0 0 1 0 0 0 1 -84 2 -108 33 0.5 7
9 0 1 0 0 0 1 0 0 0 1 70 2 -16 11 0.5 17
9 0 1 0 0 0 1 0 0 0 1 16 2 -70 17 0.5 11
9 0 1 0 0 0 1 0 0 0 1 104 2 34 3 0.5 17
9 0 1 0 0 0 1 0 0 0 1 -34 2 -104 17 0.5 3
9 0 1 0 0 0 1 0 0 0 1 86 2 -8 5 0.5 9
9 0 1 0 0 0 1 0 0 0 1 8 2 -86 9 0.5 5
9 0 1 0 0 0 1 0 0 0 1 63 2 -42 4 0.5 9
9 0 1 0 0 0 1 0 0 0 1 42 2 -63 9 0.5 4
9 0 1 0 0 0 1 0 0 0 1 116 2 92 1 0.5 25
9 0 1 0 0 0 1 0 0 0 1 -92 2 -116 25 0.5 1
9 0 1 0 0 0 1 0 0 0 1 109 2 41 2 0.5 10
9 0 1 0 0 0 1 0 0 0 1 -41 2 -109 10 0.5 2
9 0 1 0 0 0 1 0 0 0 1 71 2 -37 4 0.5 4
9 0 1 0 0 0 1 0 0 0 1 37 2 -71 4 0.5 4
9 0 1 0 0 0 1 0 0 0 1 94 2 -3 3 0.5 4
9 0 1 0 0 0 1 0 0 0 1 3 2 -94 4 0.5 3
9 0 1 0 0 0 1 0 0 0 1 83 2 -22 2 0.5 5
9 0 1 0 0 0 1 0 0 0 1 22 2 -83 5 0.5 2
9 0 1 0 0 0 1 0 0 0 1 112 2 46 1 0.5 5
9 0 1 0 0 0 1 0 0 0 1 102 2 12 1 0.5 5
9 0 1 0 0 0 1 0 0 0 1 -12 2 -102 5 0.5 1
9 0 1 0 0 0 1 0 0 0 1 -46 2 -112 5 0.5 1
9 0 1 0 0 0 1 0 0 0 1 87 2 -19 2 0.5 2
9 0 1 0 0 0 1 0 0 0 1 69 2 -43 2 0.5 2
9 0 1 0 0 0 1 0 0 0 1 61 2 -53 2 0.5 2
9 0 1 0 0 0 1 0 0 0 1 53 2 -61 2 0.5 2
9 0 1 0 0 0 1 0 0 0 1 43 2 -69 2 0.5 2
9 0 1 0 0 0 1 0 0 0 1 19 2 -87 2 0.5 2
9 0 1 0 0 0 1 0 0 0 1 108 2 28 1 0.5 3
9 0 1 0 0 0 1 0 0 0 1 92 2 -10 1 0.5 3
9 0 1 0 0 0 1 0 0 0 1 76 2 -36 1 0.5 3
9 0 1 0 0 0 1 0 0 0 1 36 2 -76 3 0.5 1
9 0 1 0 0 0 1 0 0 0 1 10 2 -92 3 0.5 1
9 0 1 0 0 0 1 0 0 0 1 -28 2 -108 3 0.5 1
