9 0 1 0 0 0 1 0 0 0 1 -0.1999989 -18.5 -3.9 6.5 3 7
9 0 1 0 0 0 1 0 0 0 1 0.3000011 -11.5 8.6 4 4 1.5
9 0 1 0 0 0 1 0 0 0 1 -0.1999989 -22.5 -2.9 4.5 1 5
9 0 1 0 0 0 1 0 0 0 1 -8.699999 -11 -0.8999996 1 4.5 5
9 0 1 0 0 0 1 0 0 0 1 -0.1999989 -18 5.6 3.5 2.5 2.5
9 0 1 0 0 0 1 0 0 0 1 8.300001 -13 -3.4 1 3.5 5.5
9 0 1 0 0 0 1 0 0 0 1 -6.699999 -10 -7.9 1 5.5 3
9 0 1 0 0 0 1 0 0 0 1 6.800001 -12.5 -6.9 0.5 8 3
9 0 1 0 0 0 1 0 0 0 1 5.800001 -8.5 -8.9 0.5 7 3
9 0 1 0 0 0 1 0 0 0 1 7.800001 -6 -1.9 0.5 3.5 5
9 0 1 0 0 0 1 0 0 0 1 -7.699999 -17 -2.4 1 1.5 5.5
9 0 1 0 0 0 1 0 0 0 1 10.3 -12.5 0.1000004 1 4 2
9 0 1 0 0 0 1 0 0 0 1 -10.7 -12 0.1000004 1 3.5 2
9 0 1 0 0 0 1 0 0 0 1 0.3000011 -17.5 -11.9 3 2 1
9 0 1 0 0 0 1 0 0 0 1 0.3000011 -24 -1.9 3 0.5 4
9 0 1 0 0 0 1 0 0 0 1 5.300001 -11.5 7.1 1 5 1
9 0 1 0 0 0 1 0 0 0 1 -0.1999989 -5.5 8.1 2.5 2 1
9 0 1 0 0 0 1 0 0 0 1 -8.199999 -11.5 -8.4 0.5 4 2.5
9 0 1 0 0 0 1 0 0 0 1 8.800001 -8 -1.9 0.5 1.5 6
9 0 1 0 0 0 1 0 0 0 1 8.300001 -12.5 3.6 1 3 1.5
9 0 1 0 0 0 1 0 0 0 1 7.300001 -18 -0.8999996 1 1.5 3
9 0 1 0 0 0 1 0 0 0 1 4.800001 -17.5 4.6 1.5 2 1.5
9 0 1 0 0 0 1 0 0 0 1 -5.699999 -11 7.1 1 4.5 1
9 0 1 0 0 0 1 0 0 0 1 -7.199999 -11 4.6 0.5 5.5 1.5
9 0 1 0 0 0 1 0 0 0 1 0.3000011 -21.5 4.1 4 1 1
9 0 1 0 0 0 1 0 0 0 1 9.800001 -12.5 -4.4 0.5 3 2.5
9 0 1 0 0 0 1 0 0 0 1 7.300001 -11 -11.4 1 2.5 1.5
9 0 1 0 0 0 1 0 0 0 1 -4.699999 -18 4.6 1 2.5 1.5
9 0 1 0 0 0 1 0 0 0 1 -6.699999 -11 -12.4 1 2.5 1.5
9 0 1 0 0 0 1 0 0 0 1 -7.199999 -8.5 -3.9 0.5 7 1
9 0 1 0 0 0 1 0 0 0 1 6.800001 -12 5.6 0.5 4.5 1.5
9 0 1 0 0 0 1 0 0 0 1 -8.199999 -5 -2.4 0.5 1.5 4.5
9 0 1 0 0 0 1 0 0 0 1 0.3000011 -22 -8.9 6 0.5 1
9 0 1 0 0 0 1 0 0 0 1 5.800001 -10 -12.9 0.5 5.5 1
9 0 1 0 0 0 1 0 0 0 1 -9.199999 -12 -7.9 0.5 2.5 2
9 0 1 0 0 0 1 0 0 0 1 -4.199999 -11 8.1 0.5 4.5 1
9 0 1 0 0 0 1 0 0 0 1 -6.699999 -3 -6.4 1 1.5 1.5
9 0 1 0 0 0 1 0 0 0 1 -7.199999 -19.5 -2.4 0.5 1 4.5
9 0 1 0 0 0 1 0 0 0 1 -9.199999 -16.5 -2.4 0.5 1 4.5
9 0 1 0 0 0 1 0 0 0 1 0.3000011 -16.5 -13.4 4 1 0.5
9 0 1 0 0 0 1 0 0 0 1 10.8 -13 2.6 1.5 2.5 0.5
9 0 1 0 0 0 1 0 0 0 1 6.800001 -3 -6.4 0.5 1.5 2.5
9 0 1 0 0 0 1 0 0 0 1 8.800001 -17.5 -3.4 0.5 1 3.5
9 0 1 0 0 0 1 0 0 0 1 8.300001 -12 -9.4 1 3.5 0.5
9 0 1 0 0 0 1 0 0 0 1 -0.1999989 -22.5 2.6 3.5 1 0.5
9 0 1 0 0 0 1 0 0 0 1 -6.199999 -11.5 5.6 0.5 7 0.5
9 0 1 0 0 0 1 0 0 0 1 -8.199999 -11 5.1 0.5 3.5 1
9 0 1 0 0 0 1 0 0 0 1 0.3000011 -17 8.6 2 1.5 0.5
9 0 1 0 0 0 1 0 0 0 1 -4.199999 -16.5 -11.9 1.5 1 1
9 0 1 0 0 0 1 0 0 0 1 -10.2 -11 -3.9 0.5 1.5 2
9 0 1 0 0 0 1 0 0 0 1 -11.2 -13.5 2.6 1.5 2 0.5
9 0 1 0 0 0 1 0 0 0 1 4.800001 -22 -2.4 0.5 0.5 5.5
9 0 1 0 0 0 1 0 0 0 1 8.800001 -5.5 -0.3999996 0.5 1 2.5
9 0 1 0 0 0 1 0 0 0 1 7.800001 -7 -7.9 0.5 2.5 1
9 0 1 0 0 0 1 0 0 0 1 7.800001 -10 6.1 0.5 2.5 1
9 0 1 0 0 0 1 0 0 0 1 7.800001 -17.5 -6.4 0.5 1 2.5
9 0 1 0 0 0 1 0 0 0 1 0.3000011 -12 10.6 1 2.5 0.5
9 0 1 0 0 0 1 0 0 0 1 -0.1999989 -25.5 0.6000004 0.5 1 2.5
9 0 1 0 0 0 1 0 0 0 1 -0.1999989 -2.5 7.6 2.5 1 0.5
9 0 1 0 0 0 1 0 0 0 1 -0.1999989 -21.5 5.6 2.5 1 0.5
9 0 1 0 0 0 1 0 0 0 1 -5.199999 -22 -2.9 0.5 0.5 5
9 0 1 0 0 0 1 0 0 0 1 6.800001 -15 -11.4 0.5 1.5 1.5
9 0 1 0 0 0 1 0 0 0 1 4.800001 -17 -11.4 1.5 1.5 0.5
9 0 1 0 0 0 1 0 0 0 1 -11.2 -16 0.6000004 1.5 0.5 1.5
9 0 1 0 0 0 1 0 0 0 1 7.800001 -7.5 4.1 0.5 2 1
9 0 1 0 0 0 1 0 0 0 1 6.800001 -10.5 -13.9 0.5 2 1
9 0 1 0 0 0 1 0 0 0 1 6.800001 -16 0.1000004 0.5 0.5 4
9 0 1 0 0 0 1 0 0 0 1 7.300001 -20 -1.9 1 0.5 2
9 0 1 0 0 0 1 0 0 0 1 5.800001 -9.5 -14.9 0.5 2 1
9 0 1 0 0 0 1 0 0 0 1 5.300001 -10.5 8.6 1 2 0.5
9 0 1 0 0 0 1 0 0 0 1 3.800001 -17.5 7.1 0.5 2 1
9 0 1 0 0 0 1 0 0 0 1 3.300001 -6.5 8.1 1 1 1
9 0 1 0 0 0 1 0 0 0 1 0.3000011 -20 -11.4 4 0.5 0.5
9 0 1 0 0 0 1 0 0 0 1 -6.199999 -17.5 4.1 0.5 2 1
9 0 1 0 0 0 1 0 0 0 1 -7.199999 -10.5 7.1 0.5 2 1
9 0 1 0 0 0 1 0 0 0 1 -6.699999 -14.5 -11.9 1 1 1
9 0 1 0 0 0 1 0 0 0 1 -7.699999 -16.5 -8.9 1 1 1
9 0 1 0 0 0 1 0 0 0 1 -5.199999 -11 8.6 0.5 3.5 0.5
9 0 1 0 0 0 1 0 0 0 1 -8.199999 -19 -3.4 0.5 0.5 3.5
9 0 1 0 0 0 1 0 0 0 1 11.8 -15 1.1 0.5 1.5 1
9 0 1 0 0 0 1 0 0 0 1 10.8 -12.5 -2.4 0.5 3 0.5
9 0 1 0 0 0 1 0 0 0 1 10.3 -8 -0.3999996 1 0.5 1.5
9 0 1 0 0 0 1 0 0 0 1 8.800001 -12 -10.9 0.5 1.5 1
9 0 1 0 0 0 1 0 0 0 1 7.800001 -2 -2.9 0.5 0.5 3
9 0 1 0 0 0 1 0 0 0 1 6.800001 -6 5.1 0.5 1.5 1
9 0 1 0 0 0 1 0 0 0 1 6.800001 -9.5 7.6 0.5 3 0.5
9 0 1 0 0 0 1 0 0 0 1 4.300001 -20 4.6 1 0.5 1.5
9 0 1 0 0 0 1 0 0 0 1 -0.1999989 -23.5 4.6 0.5 1 1.5
9 0 1 0 0 0 1 0 0 0 1 -3.199999 -6 8.1 0.5 1.5 1
9 0 1 0 0 0 1 0 0 0 1 -4.199999 -18.5 -11.4 1.5 1 0.5
9 0 1 0 0 0 1 0 0 0 1 -6.199999 -3 -8.9 0.5 1.5 1
9 0 1 0 0 0 1 0 0 0 1 -6.199999 -7 -11.9 0.5 1.5 1
9 0 1 0 0 0 1 0 0 0 1 -6.699999 -10 -14.4 1 1.5 0.5
9 0 1 0 0 0 1 0 0 0 1 -8.199999 -11 -11.9 0.5 1.5 1
9 0 1 0 0 0 1 0 0 0 1 -9.199999 -11.5 4.6 0.5 3 0.5
9 0 1 0 0 0 1 0 0 0 1 -10.7 -8 -0.3999996 1 0.5 1.5
9 0 1 0 0 0 1 0 0 0 1 9.800001 -12 3.6 0.5 2.5 0.5
9 0 1 0 0 0 1 0 0 0 1 6.800001 -6 -10.4 0.5 2.5 0.5
9 0 1 0 0 0 1 0 0 0 1 -0.1999989 -7 9.6 2.5 0.5 0.5
9 0 1 0 0 0 1 0 0 0 1 -0.1999989 -16 -14.4 2.5 0.5 0.5
9 0 1 0 0 0 1 0 0 0 1 -4.199999 -10 9.6 0.5 2.5 0.5
9 0 1 0 0 0 1 0 0 0 1 -5.199999 -10 -15.4 0.5 2.5 0.5
9 0 1 0 0 0 1 0 0 0 1 -8.199999 -3 -2.4 0.5 0.5 2.5
9 0 1 0 0 0 1 0 0 0 1 -9.199999 -6 -1.4 0.5 0.5 2.5
9 0 1 0 0 0 1 0 0 0 1 9.800001 -8.5 -2.9 0.5 1 1
9 0 1 0 0 0 1 0 0 0 1 7.800001 -7.5 -9.9 0.5 1 1
9 0 1 0 0 0 1 0 0 0 1 7.800001 -14.5 -10.9 0.5 1 1
9 0 1 0 0 0 1 0 0 0 1 8.300001 -16.5 2.6 1 1 0.5
9 0 1 0 0 0 1 0 0 0 1 5.800001 -7.5 5.6 0.5 2 0.5
9 0 1 0 0 0 1 0 0 0 1 4.800001 -4.5 6.6 0.5 2 0.5
9 0 1 0 0 0 1 0 0 0 1 5.300001 -22.5 -10.4 1 1 0.5
9 0 1 0 0 0 1 0 0 0 1 4.300001 -16.5 -12.4 1 1 0.5
9 0 1 0 0 0 1 0 0 0 1 3.300001 -4.5 7.6 1 1 0.5
9 0 1 0 0 0 1 0 0 0 1 0.8000011 -25 0.1000004 0.5 0.5 2
9 0 1 0 0 0 1 0 0 0 1 -0.1999989 -17.5 9.6 0.5 2 0.5
9 0 1 0 0 0 1 0 0 0 1 0.3000011 -21 7.1 1 0.5 1
9 0 1 0 0 0 1 0 0 0 1 0.3000011 -18 -13.4 2 0.5 0.5
9 0 1 0 0 0 1 0 0 0 1 -4.199999 -16.5 7.1 0.5 1 1
9 0 1 0 0 0 1 0 0 0 1 -8.199999 -6.5 -7.9 0.5 1 1
9 0 1 0 0 0 1 0 0 0 1 -10.2 -13.5 -2.9 0.5 1 1
9 0 1 0 0 0 1 0 0 0 1 -11.2 -12.5 -2.4 0.5 2 0.5
9 0 1 0 0 0 1 0 0 0 1 -12.2 -15 0.1000004 0.5 0.5 2
9 0 1 0 0 0 1 0 0 0 1 12.8 -14 2.6 0.5 1.5 0.5
9 0 1 0 0 0 1 0 0 0 1 9.800001 -7 -0.3999996 0.5 0.5 1.5
9 0 1 0 0 0 1 0 0 0 1 9.800001 -16 -3.4 0.5 0.5 1.5
9 0 1 0 0 0 1 0 0 0 1 8.800001 -10 5.6 0.5 1.5 0.5
9 0 1 0 0 0 1 0 0 0 1 7.800001 -11 -13.4 0.5 1.5 0.5
9 0 1 0 0 0 1 0 0 0 1 7.800001 -19 -5.4 0.5 0.5 1.5
9 0 1 0 0 0 1 0 0 0 1 6.800001 -19 2.6 0.5 1.5 0.5
9 0 1 0 0 0 1 0 0 0 1 6.800001 -21 -2.4 0.5 0.5 1.5
9 0 1 0 0 0 1 0 0 0 1 5.800001 -13 -14.4 0.5 1.5 0.5
9 0 1 0 0 0 1 0 0 0 1 5.800001 -22 -1.4 0.5 0.5 1.5
9 0 1 0 0 0 1 0 0 0 1 4.800001 -14 8.6 0.5 1.5 0.5
9 0 1 0 0 0 1 0 0 0 1 4.800001 -23 -8.4 0.5 0.5 1.5
9 0 1 0 0 0 1 0 0 0 1 -0.1999989 -8 10.6 0.5 1.5 0.5
9 0 1 0 0 0 1 0 0 0 1 -0.1999989 -19 8.6 1.5 0.5 0.5
9 0 1 0 0 0 1 0 0 0 1 -0.1999989 -24 2.6 1.5 0.5 0.5
9 0 1 0 0 0 1 0 0 0 1 -4.199999 -5 7.6 0.5 1.5 0.5
9 0 1 0 0 0 1 0 0 0 1 -5.199999 -23 -9.4 0.5 0.5 1.5
9 0 1 0 0 0 1 0 0 0 1 -5.199999 -22 -10.4 1.5 0.5 0.5
9 0 1 0 0 0 1 0 0 0 1 -7.199999 -4 3.6 0.5 1.5 0.5
9 0 1 0 0 0 1 0 0 0 1 -8.199999 -6 3.6 0.5 0.5 1.5
9 0 1 0 0 0 1 0 0 0 1 -9.199999 -12 -10.4 0.5 1.5 0.5
9 0 1 0 0 0 1 0 0 0 1 -9.199999 -15 -7.4 0.5 0.5 1.5
