9 0 1 0 0 0 1 0 0 0 1 29 8 0 1.5 4.5 10.5
9 0 1 0 0 0 1 0 0 0 1 0 8 -29 10.5 4.5 1.5
9 0 1 0 0 0 1 0 0 0 1 0 8 29 10.5 4.5 1.5
9 0 1 0 0 0 1 0 0 0 1 -29 8 0 1.5 4.5 10.5
9 0 1 0 0 0 1 0 0 0 1 17.5 8 0 7 1.5 1.5
9 0 1 0 0 0 1 0 0 0 1 0 8 -17.5 1.5 1.5 7
9 0 1 0 0 0 1 0 0 0 1 0 8 17.5 1.5 1.5 7
9 0 1 0 0 0 1 0 0 0 1 -17.5 8 0 7 1.5 1.5
9 0 1 0 0 0 1 0 0 0 1 31 9 0 0.5 3.5 8.5
9 0 1 0 0 0 1 0 0 0 1 0 9 -31 8.5 3.5 0.5
9 0 1 0 0 0 1 0 0 0 1 0 9 31 8.5 3.5 0.5
9 0 1 0 0 0 1 0 0 0 1 -31 9 0 0.5 3.5 8.5
9 0 1 0 0 0 1 0 0 0 1 42 8 0 6.5 1.5 1.5
9 0 1 0 0 0 1 0 0 0 1 0 8 -42 1.5 1.5 6.5
9 0 1 0 0 0 1 0 0 0 1 0 8 42 1.5 1.5 6.5
9 0 1 0 0 0 1 0 0 0 1 -42 8 0 6.5 1.5 1.5
9 0 1 0 0 0 1 0 0 0 1 27 8 -12.5 1.5 4.5 2
9 0 1 0 0 0 1 0 0 0 1 27 8 12.5 1.5 4.5 2
9 0 1 0 0 0 1 0 0 0 1 12.5 8 -27 2 4.5 1.5
9 0 1 0 0 0 1 0 0 0 1 12.5 8 27 2 4.5 1.5
9 0 1 0 0 0 1 0 0 0 1 -27 8 -12.5 1.5 4.5 2
9 0 1 0 0 0 1 0 0 0 1 -13 9 -27 2.5 3.5 1.5
9 0 1 0 0 0 1 0 0 0 1 -15 8 25.5 2.5 4.5 1
9 0 1 0 0 0 1 0 0 0 1 -25.5 8 15 1 4.5 2.5
9 0 1 0 0 0 1 0 0 0 1 25 9 -16.5 1.5 3.5 2
9 0 1 0 0 0 1 0 0 0 1 25 9 16.5 1.5 3.5 2
9 0 1 0 0 0 1 0 0 0 1 17.5 9 -24 2 3.5 1.5
9 0 1 0 0 0 1 0 0 0 1 17.5 9 24 2 3.5 1.5
9 0 1 0 0 0 1 0 0 0 1 -17.5 9 -24 2 3.5 1.5
9 0 1 0 0 0 1 0 0 0 1 -24 9 -17.5 1.5 3.5 2
9 0 1 0 0 0 1 0 0 0 1 -11 8 27 4.5 4.5 0.5
9 0 1 0 0 0 1 0 0 0 1 -27 8 11 0.5 4.5 4.5
9 0 1 0 0 0 1 0 0 0 1 -17.5 8 23.5 2 4.5 1
9 0 1 0 0 0 1 0 0 0 1 -23.5 8 17.5 1 4.5 2
9 0 1 0 0 0 1 0 0 0 1 22.5 7.5 19 1 5 1.5
9 0 1 0 0 0 1 0 0 0 1 22 8 -20.5 1.5 2.5 2
9 0 1 0 0 0 1 0 0 0 1 -21 8 -21.5 1.5 2.5 2
9 0 1 0 0 0 1 0 0 0 1 -21 8 21.5 1.5 2.5 2
9 0 1 0 0 0 1 0 0 0 1 21 8 21.5 2.5 2.5 1
9 0 1 0 0 0 1 0 0 0 1 -28.5 8.5 12 1 4 1.5
9 0 1 0 0 0 1 0 0 0 1 -12 9 28.5 1.5 3.5 1
9 0 1 0 0 0 1 0 0 0 1 27 8 -8.5 0.5 4.5 2
9 0 1 0 0 0 1 0 0 0 1 27 8 8.5 0.5 4.5 2
9 0 1 0 0 0 1 0 0 0 1 19.5 8 -21.5 1 4.5 1
9 0 1 0 0 0 1 0 0 0 1 8.5 8 -27 2 4.5 0.5
9 0 1 0 0 0 1 0 0 0 1 8.5 8 27 2 4.5 0.5
9 0 1 0 0 0 1 0 0 0 1 -8.5 8 -27 2 4.5 0.5
9 0 1 0 0 0 1 0 0 0 1 -25.5 8 -15 2 4.5 0.5
9 0 1 0 0 0 1 0 0 0 1 -27 8 -8.5 0.5 4.5 2
9 0 1 0 0 0 1 0 0 0 1 0 -2 0 3.5 0.5 2.5
9 0 1 0 0 0 1 0 0 0 1 29.5 3 0 1 0.5 7.5
9 0 1 0 0 0 1 0 0 0 1 15 7.5 25 0.5 5 1.5
9 0 1 0 0 0 1 0 0 0 1 0 3 -29.5 7.5 0.5 1
9 0 1 0 0 0 1 0 0 0 1 0 3 29.5 7.5 0.5 1
9 0 1 0 0 0 1 0 0 0 1 -29.5 3 0 1 0.5 7.5
9 0 1 0 0 0 1 0 0 0 1 16.5 9 -26 2 3.5 0.5
9 0 1 0 0 0 1 0 0 0 1 23 8 -17 0.5 4.5 1.5
9 0 1 0 0 0 1 0 0 0 1 14 8 -25 1.5 4.5 0.5
9 0 1 0 0 0 1 0 0 0 1 -14 8 -25 1.5 4.5 0.5
9 0 1 0 0 0 1 0 0 0 1 29 8.5 -12 0.5 4 1.5
9 0 1 0 0 0 1 0 0 0 1 12 8.5 29 1.5 4 0.5
9 0 1 0 0 0 1 0 0 0 1 -12 8.5 -29 1.5 4 0.5
9 0 1 0 0 0 1 0 0 0 1 -12.5 4.5 -27 2 1 1.5
9 0 1 0 0 0 1 0 0 0 1 31 4.5 0 0.5 1 5.5
9 0 1 0 0 0 1 0 0 0 1 0 4.5 -31 5.5 1 0.5
9 0 1 0 0 0 1 0 0 0 1 0 4.5 31 5.5 1 0.5
9 0 1 0 0 0 1 0 0 0 1 -31 4.5 0 0.5 1 5.5
9 0 1 0 0 0 1 0 0 0 1 29 9 12 0.5 3.5 1.5
9 0 1 0 0 0 1 0 0 0 1 17 9 26 1.5 3.5 0.5
9 0 1 0 0 0 1 0 0 0 1 12 9 -29 1.5 3.5 0.5
9 0 1 0 0 0 1 0 0 0 1 -17 9 -26 1.5 3.5 0.5
9 0 1 0 0 0 1 0 0 0 1 -26 9 -17 0.5 3.5 1.5
9 0 1 0 0 0 1 0 0 0 1 -29 9 -12 0.5 3.5 1.5
9 0 1 0 0 0 1 0 0 0 1 -18.5 7.5 22 1 5 0.5
9 0 1 0 0 0 1 0 0 0 1 -22 7.5 -18.5 0.5 5 1
9 0 1 0 0 0 1 0 0 0 1 25 8 -13.5 0.5 4.5 1
9 0 1 0 0 0 1 0 0 0 1 25 8 13.5 0.5 4.5 1
9 0 1 0 0 0 1 0 0 0 1 25 4.5 -16 1.5 1 1.5
9 0 1 0 0 0 1 0 0 0 1 25 4.5 16 1.5 1 1.5
9 0 1 0 0 0 1 0 0 0 1 23 8 16.5 0.5 4.5 1
9 0 1 0 0 0 1 0 0 0 1 21 8 19.5 0.5 4.5 1
9 0 1 0 0 0 1 0 0 0 1 17 4.5 -24 1.5 1 1.5
9 0 1 0 0 0 1 0 0 0 1 17 4.5 24 1.5 1 1.5
9 0 1 0 0 0 1 0 0 0 1 13.5 8 25 1 4.5 0.5
9 0 1 0 0 0 1 0 0 0 1 -11.5 8 26 1 4.5 0.5
9 0 1 0 0 0 1 0 0 0 1 -17 4.5 -24 1.5 1 1.5
9 0 1 0 0 0 1 0 0 0 1 -18.5 8 -22 1 4.5 0.5
9 0 1 0 0 0 1 0 0 0 1 -21.5 8 19 1 4.5 0.5
9 0 1 0 0 0 1 0 0 0 1 -24 4.5 -17 1.5 1 1.5
9 0 1 0 0 0 1 0 0 0 1 -25 8 -13.5 0.5 4.5 1
9 0 1 0 0 0 1 0 0 0 1 -26 8 11.5 0.5 4.5 1
9 0 1 0 0 0 1 0 0 0 1 21 8 -23 1.5 2.5 0.5
9 0 1 0 0 0 1 0 0 0 1 21 8 23 1.5 2.5 0.5
9 0 1 0 0 0 1 0 0 0 1 -23 8 -21 0.5 2.5 1.5
9 0 1 0 0 0 1 0 0 0 1 -23 8 21 0.5 2.5 1.5
9 0 1 0 0 0 1 0 0 0 1 27.5 9 -15 1 3.5 0.5
9 0 1 0 0 0 1 0 0 0 1 27.5 9 15 1 3.5 0.5
9 0 1 0 0 0 1 0 0 0 1 24.5 9 -19 1 3.5 0.5
9 0 1 0 0 0 1 0 0 0 1 24.5 9 19 1 3.5 0.5
9 0 1 0 0 0 1 0 0 0 1 15.5 9 -27 1 3.5 0.5
9 0 1 0 0 0 1 0 0 0 1 15.5 9 27 1 3.5 0.5
9 0 1 0 0 0 1 0 0 0 1 17.5 10 0 7 0.5 0.5
9 0 1 0 0 0 1 0 0 0 1 17.5 8 -2 7 0.5 0.5
9 0 1 0 0 0 1 0 0 0 1 17.5 8 2 7 0.5 0.5
9 0 1 0 0 0 1 0 0 0 1 17.5 6 0 7 0.5 0.5
9 0 1 0 0 0 1 0 0 0 1 2 8 -17.5 0.5 0.5 7
9 0 1 0 0 0 1 0 0 0 1 2 8 17.5 0.5 0.5 7
9 0 1 0 0 0 1 0 0 0 1 0 10 -17.5 0.5 0.5 7
9 0 1 0 0 0 1 0 0 0 1 0 10 17.5 0.5 0.5 7
9 0 1 0 0 0 1 0 0 0 1 0 6 -17.5 0.5 0.5 7
9 0 1 0 0 0 1 0 0 0 1 0 6 17.5 0.5 0.5 7
9 0 1 0 0 0 1 0 0 0 1 -2 8 -17.5 0.5 0.5 7
9 0 1 0 0 0 1 0 0 0 1 -2 8 17.5 0.5 0.5 7
9 0 1 0 0 0 1 0 0 0 1 -14.5 9 28 1 3.5 0.5
9 0 1 0 0 0 1 0 0 0 1 -18 9 25.5 0.5 3.5 1
9 0 1 0 0 0 1 0 0 0 1 -17.5 10 0 7 0.5 0.5
9 0 1 0 0 0 1 0 0 0 1 -17.5 8 -2 7 0.5 0.5
9 0 1 0 0 0 1 0 0 0 1 -17.5 8 2 7 0.5 0.5
9 0 1 0 0 0 1 0 0 0 1 -17.5 6 0 7 0.5 0.5
9 0 1 0 0 0 1 0 0 0 1 -25 9 18.5 0.5 3.5 1
9 0 1 0 0 0 1 0 0 0 1 -28 9 14.5 0.5 3.5 1
9 0 1 0 0 0 1 0 0 0 1 42 10 0 6.5 0.5 0.5
9 0 1 0 0 0 1 0 0 0 1 42 8 -2 6.5 0.5 0.5
9 0 1 0 0 0 1 0 0 0 1 42 8 2 6.5 0.5 0.5
9 0 1 0 0 0 1 0 0 0 1 42 6 0 6.5 0.5 0.5
9 0 1 0 0 0 1 0 0 0 1 2 8 -42 0.5 0.5 6.5
9 0 1 0 0 0 1 0 0 0 1 2 8 42 0.5 0.5 6.5
9 0 1 0 0 0 1 0 0 0 1 0 10 -42 0.5 0.5 6.5
9 0 1 0 0 0 1 0 0 0 1 0 10 42 0.5 0.5 6.5
9 0 1 0 0 0 1 0 0 0 1 0 6 -42 0.5 0.5 6.5
9 0 1 0 0 0 1 0 0 0 1 0 6 42 0.5 0.5 6.5
9 0 1 0 0 0 1 0 0 0 1 -2 8 -42 0.5 0.5 6.5
9 0 1 0 0 0 1 0 0 0 1 -2 8 42 0.5 0.5 6.5
9 0 1 0 0 0 1 0 0 0 1 -42 10 0 6.5 0.5 0.5
9 0 1 0 0 0 1 0 0 0 1 -42 8 -2 6.5 0.5 0.5
9 0 1 0 0 0 1 0 0 0 1 -42 8 2 6.5 0.5 0.5
9 0 1 0 0 0 1 0 0 0 1 -42 6 0 6.5 0.5 0.5
9 0 1 0 0 0 1 0 0 0 1 33.5 8 -33.5 1 1.5 1
9 0 1 0 0 0 1 0 0 0 1 32.5 8.5 32 1 1 1.5
9 0 1 0 0 0 1 0 0 0 1 32 7.5 -31.5 1.5 1 1
9 0 1 0 0 0 1 0 0 0 1 30.5 8 30.5 1 1.5 1
9 0 1 0 0 0 1 0 0 0 1 29.5 8 -29.5 1 1.5 1
9 0 1 0 0 0 1 0 0 0 1 28.5 8 28.5 1 1.5 1
9 0 1 0 0 0 1 0 0 0 1 27.5 8.5 -27 1 1 1.5
9 0 1 0 0 0 1 0 0 0 1 26.5 8.5 27 1 1 1.5
9 0 1 0 0 0 1 0 0 0 1 22.5 4 -19.5 1 1.5 1
9 0 1 0 0 0 1 0 0 0 1 22 11.5 -19.5 1.5 1 1
9 0 1 0 0 0 1 0 0 0 1 20.5 4 21.5 1 1.5 1
9 0 1 0 0 0 1 0 0 0 1 20 11.5 21.5 1.5 1 1
9 0 1 0 0 0 1 0 0 0 1 15.5 8.5 15 1 1 1.5
9 0 1 0 0 0 1 0 0 0 1 15.5 8 -15.5 1 1.5 1
9 0 1 0 0 0 1 0 0 0 1 13.5 8.5 -14 1 1 1.5
9 0 1 0 0 0 1 0 0 0 1 13.5 8 13.5 1 1.5 1
9 0 1 0 0 0 1 0 0 0 1 11.5 8 -11.5 1 1.5 1
9 0 1 0 0 0 1 0 0 0 1 11.5 8 11.5 1 1.5 1
9 0 1 0 0 0 1 0 0 0 1 9.5 8.5 -9 1 1 1.5
9 0 1 0 0 0 1 0 0 0 1 9.5 7.5 9 1 1 1.5
9 0 1 0 0 0 1 0 0 0 1 -8.5 8.5 -9 1 1 1.5
9 0 1 0 0 0 1 0 0 0 1 -8.5 8 8.5 1 1.5 1
9 0 1 0 0 0 1 0 0 0 1 -10.5 8 -10.5 1 1.5 1
9 0 1 0 0 0 1 0 0 0 1 -10.5 8 10.5 1 1.5 1
9 0 1 0 0 0 1 0 0 0 1 -12.5 8 -12.5 1 1.5 1
9 0 1 0 0 0 1 0 0 0 1 -12.5 8 12.5 1 1.5 1
9 0 1 0 0 0 1 0 0 0 1 -14.5 8.5 -14 1 1 1.5
9 0 1 0 0 0 1 0 0 0 1 -14 8.5 14.5 1.5 1 1
9 0 1 0 0 0 1 0 0 0 1 -20.5 11.5 -21 1 1 1.5
9 0 1 0 0 0 1 0 0 0 1 -20.5 11.5 21 1 1 1.5
9 0 1 0 0 0 1 0 0 0 1 -20.5 4.5 -21 1 1 1.5
9 0 1 0 0 0 1 0 0 0 1 -20.5 4.5 21 1 1 1.5
9 0 1 0 0 0 1 0 0 0 1 -26 8.5 -26.5 1.5 1 1
9 0 1 0 0 0 1 0 0 0 1 -26 7.5 26.5 1.5 1 1
9 0 1 0 0 0 1 0 0 0 1 -28.5 8 -28.5 1 1.5 1
9 0 1 0 0 0 1 0 0 0 1 -28.5 8 28.5 1 1.5 1
9 0 1 0 0 0 1 0 0 0 1 -30.5 8.5 31 1 1 1.5
9 0 1 0 0 0 1 0 0 0 1 -30.5 7.5 -31 1 1 1.5
9 0 1 0 0 0 1 0 0 0 1 -32.5 8.5 -32 1 1 1.5
9 0 1 0 0 0 1 0 0 0 1 -32.5 8 32.5 1 1.5 1
9 0 1 0 0 0 1 0 0 0 1 18 7.5 -22 0.5 5 0.5
9 0 1 0 0 0 1 0 0 0 1 -15 7.5 -24 0.5 5 0.5
9 0 1 0 0 0 1 0 0 0 1 -24 7.5 15 0.5 5 0.5
9 0 1 0 0 0 1 0 0 0 1 34 8 34 1.5 1.5 0.5
9 0 1 0 0 0 1 0 0 0 1 32 8 0 0.5 1.5 1.5
9 0 1 0 0 0 1 0 0 0 1 28 3 -10 1.5 0.5 1.5
9 0 1 0 0 0 1 0 0 0 1 28 3 10 1.5 0.5 1.5
9 0 1 0 0 0 1 0 0 0 1 26 8 -26 0.5 1.5 1.5
9 0 1 0 0 0 1 0 0 0 1 22 8 -18 0.5 4.5 0.5
9 0 1 0 0 0 1 0 0 0 1 20 8 -20 0.5 4.5 0.5
9 0 1 0 0 0 1 0 0 0 1 20 8 20 0.5 4.5 0.5
9 0 1 0 0 0 1 0 0 0 1 18 8 22 0.5 4.5 0.5
9 0 1 0 0 0 1 0 0 0 1 15 8 -24 0.5 4.5 0.5
9 0 1 0 0 0 1 0 0 0 1 10 3 -28 1.5 0.5 1.5
9 0 1 0 0 0 1 0 0 0 1 10 3 28 1.5 0.5 1.5
9 0 1 0 0 0 1 0 0 0 1 0 8 -32 1.5 1.5 0.5
9 0 1 0 0 0 1 0 0 0 1 0 8 32 1.5 1.5 0.5
9 0 1 0 0 0 1 0 0 0 1 -8 3 -28 4.5 0.5 0.5
9 0 1 0 0 0 1 0 0 0 1 -8 3 28 4.5 0.5 0.5
9 0 1 0 0 0 1 0 0 0 1 -15 8 24 0.5 4.5 0.5
9 0 1 0 0 0 1 0 0 0 1 -16 8 -16 1.5 1.5 0.5
9 0 1 0 0 0 1 0 0 0 1 -16 8 16 1.5 1.5 0.5
9 0 1 0 0 0 1 0 0 0 1 -19 8 -21 0.5 4.5 0.5
9 0 1 0 0 0 1 0 0 0 1 -19 8 21 0.5 4.5 0.5
9 0 1 0 0 0 1 0 0 0 1 -21 8 -19 0.5 4.5 0.5
9 0 1 0 0 0 1 0 0 0 1 -22 8 18 0.5 4.5 0.5
9 0 1 0 0 0 1 0 0 0 1 -28 3 -8 0.5 0.5 4.5
9 0 1 0 0 0 1 0 0 0 1 -28 3 8 0.5 0.5 4.5
9 0 1 0 0 0 1 0 0 0 1 -32 8 0 0.5 1.5 1.5
9 0 1 0 0 0 1 0 0 0 1 -34 8 -34 1.5 1.5 0.5
9 0 1 0 0 0 1 0 0 0 1 -34 8 34 1.5 1.5 0.5
9 0 1 0 0 0 1 0 0 0 1 30 8.5 11 0.5 4 0.5
9 0 1 0 0 0 1 0 0 0 1 19 4.5 22.5 0.5 1 2
9 0 1 0 0 0 1 0 0 0 1 11 8.5 -30 0.5 4 0.5
9 0 1 0 0 0 1 0 0 0 1 -11 8.5 30 0.5 4 0.5
9 0 1 0 0 0 1 0 0 0 1 -11.5 4.5 28.5 1 1 1
9 0 1 0 0 0 1 0 0 0 1 -30 8.5 -11 0.5 4 0.5
9 0 1 0 0 0 1 0 0 0 1 30 9 -11 0.5 3.5 0.5
9 0 1 0 0 0 1 0 0 0 1 27 9 -16 0.5 3.5 0.5
9 0 1 0 0 0 1 0 0 0 1 27 9 16 0.5 3.5 0.5
9 0 1 0 0 0 1 0 0 0 1 15 9 -28 0.5 3.5 0.5
9 0 1 0 0 0 1 0 0 0 1 15 9 28 0.5 3.5 0.5
9 0 1 0 0 0 1 0 0 0 1 11 9 30 0.5 3.5 0.5
9 0 1 0 0 0 1 0 0 0 1 -11 9 -30 0.5 3.5 0.5
9 0 1 0 0 0 1 0 0 0 1 -16 9 -27 0.5 3.5 0.5
9 0 1 0 0 0 1 0 0 0 1 -16 9 27 0.5 3.5 0.5
9 0 1 0 0 0 1 0 0 0 1 -19 9 25 0.5 3.5 0.5
9 0 1 0 0 0 1 0 0 0 1 -26 9 18 0.5 3.5 0.5
9 0 1 0 0 0 1 0 0 0 1 -27 9 -16 0.5 3.5 0.5
9 0 1 0 0 0 1 0 0 0 1 -27 9 16 0.5 3.5 0.5
9 0 1 0 0 0 1 0 0 0 1 -28 9 -15 0.5 3.5 0.5
9 0 1 0 0 0 1 0 0 0 1 -30 9 11 0.5 3.5 0.5
9 0 1 0 0 0 1 0 0 0 1 31.5 9 -32 1 0.5 1.5
9 0 1 0 0 0 1 0 0 0 1 32 7 32.5 1.5 0.5 1
9 0 1 0 0 0 1 0 0 0 1 27 7 26.5 1.5 0.5 1
9 0 1 0 0 0 1 0 0 0 1 26.5 3 -13 1 0.5 1.5
9 0 1 0 0 0 1 0 0 0 1 26.5 3 13 1 0.5 1.5
9 0 1 0 0 0 1 0 0 0 1 24.5 3 -16 1 0.5 1.5
9 0 1 0 0 0 1 0 0 0 1 21 4.5 -20 0.5 1 1.5
9 0 1 0 0 0 1 0 0 0 1 19.5 4 -23 1 1.5 0.5
9 0 1 0 0 0 1 0 0 0 1 16 4.5 -26 1.5 1 0.5
9 0 1 0 0 0 1 0 0 0 1 15 7 15.5 1.5 0.5 1
9 0 1 0 0 0 1 0 0 0 1 14 7 -13.5 1.5 0.5 1
9 0 1 0 0 0 1 0 0 0 1 13 3 -26.5 1.5 0.5 1
9 0 1 0 0 0 1 0 0 0 1 13 3 26.5 1.5 0.5 1
9 0 1 0 0 0 1 0 0 0 1 9 9 9.5 1.5 0.5 1
9 0 1 0 0 0 1 0 0 0 1 9 7 -9.5 1.5 0.5 1
9 0 1 0 0 0 1 0 0 0 1 -9 7 -8.5 1.5 0.5 1
9 0 1 0 0 0 1 0 0 0 1 -11.5 3 -27 3 0.5 0.5
9 0 1 0 0 0 1 0 0 0 1 -11.5 3 27 3 0.5 0.5
9 0 1 0 0 0 1 0 0 0 1 -14 7 -14.5 1.5 0.5 1
9 0 1 0 0 0 1 0 0 0 1 -15 7 14.5 1.5 0.5 1
9 0 1 0 0 0 1 0 0 0 1 -16 4.5 -26 1.5 1 0.5
9 0 1 0 0 0 1 0 0 0 1 -19.5 4 -23 1 1.5 0.5
9 0 1 0 0 0 1 0 0 0 1 -22 4 -20.5 0.5 1.5 1
9 0 1 0 0 0 1 0 0 0 1 -22 4 20.5 0.5 1.5 1
9 0 1 0 0 0 1 0 0 0 1 -23 4 -19.5 0.5 1.5 1
9 0 1 0 0 0 1 0 0 0 1 -26.5 9 26 1 0.5 1.5
9 0 1 0 0 0 1 0 0 0 1 -26.5 7 -26 1 0.5 1.5
9 0 1 0 0 0 1 0 0 0 1 -26.5 3 -13 1 0.5 1.5
9 0 1 0 0 0 1 0 0 0 1 -26.5 3 13 1 0.5 1.5
9 0 1 0 0 0 1 0 0 0 1 -31 7 30.5 1.5 0.5 1
9 0 1 0 0 0 1 0 0 0 1 28 3 -6 0.5 0.5 2.5
9 0 1 0 0 0 1 0 0 0 1 28 3 6 0.5 0.5 2.5
9 0 1 0 0 0 1 0 0 0 1 6 3 -28 2.5 0.5 0.5
9 0 1 0 0 0 1 0 0 0 1 6 3 28 2.5 0.5 0.5
9 0 1 0 0 0 1 0 0 0 1 0 -2 -3 2.5 0.5 0.5
9 0 1 0 0 0 1 0 0 0 1 0 -2 3 2.5 0.5 0.5
9 0 1 0 0 0 1 0 0 0 1 31.5 7.5 -30 1 1 0.5
9 0 1 0 0 0 1 0 0 0 1 31 3 0.5 0.5 0.5 2
9 0 1 0 0 0 1 0 0 0 1 30 8.5 -31.5 0.5 1 1
9 0 1 0 0 0 1 0 0 0 1 29 4.5 11.5 0.5 1 1
9 0 1 0 0 0 1 0 0 0 1 27.5 7 -27.5 1 0.5 1
9 0 1 0 0 0 1 0 0 0 1 26.5 7.5 25 1 1 0.5
9 0 1 0 0 0 1 0 0 0 1 26 5.5 -10 0.5 2 0.5
9 0 1 0 0 0 1 0 0 0 1 25 8.5 26.5 0.5 1 1
9 0 1 0 0 0 1 0 0 0 1 25 7.5 -26.5 0.5 1 1
9 0 1 0 0 0 1 0 0 0 1 24.5 4.5 -18 1 1 0.5
9 0 1 0 0 0 1 0 0 0 1 24.5 4.5 18 1 1 0.5
9 0 1 0 0 0 1 0 0 0 1 24.5 3 16.5 1 0.5 1
9 0 1 0 0 0 1 0 0 0 1 21.5 11.5 -21 1 1 0.5
9 0 1 0 0 0 1 0 0 0 1 20.5 3 -21.5 1 0.5 1
9 0 1 0 0 0 1 0 0 0 1 17.5 3 -23.5 1 0.5 1
9 0 1 0 0 0 1 0 0 0 1 18.5 3 23 2 0.5 0.5
9 0 1 0 0 0 1 0 0 0 1 16.5 4.5 26 1 1 0.5
9 0 1 0 0 0 1 0 0 0 1 16.5 3 24.5 1 0.5 1
9 0 1 0 0 0 1 0 0 0 1 15.5 3 -25 2 0.5 0.5
9 0 1 0 0 0 1 0 0 0 1 11.5 4.5 -29 1 1 0.5
9 0 1 0 0 0 1 0 0 0 1 10 5.5 26 0.5 2 0.5
9 0 1 0 0 0 1 0 0 0 1 8 8.5 -8.5 0.5 1 1
9 0 1 0 0 0 1 0 0 0 1 8 7.5 8.5 0.5 1 1
9 0 1 0 0 0 1 0 0 0 1 0.5 3 -31 2 0.5 0.5
9 0 1 0 0 0 1 0 0 0 1 -0.5 3 31 2 0.5 0.5
9 0 1 0 0 0 1 0 0 0 1 -8.5 7.5 10 1 1 0.5
9 0 1 0 0 0 1 0 0 0 1 -10 8.5 8.5 0.5 1 1
9 0 1 0 0 0 1 0 0 0 1 -10 5.5 -26 0.5 2 0.5
9 0 1 0 0 0 1 0 0 0 1 -9.5 3 -29 2 0.5 0.5
9 0 1 0 0 0 1 0 0 0 1 -9.5 3 29 2 0.5 0.5
9 0 1 0 0 0 1 0 0 0 1 -13.5 4.5 28 1 1 0.5
9 0 1 0 0 0 1 0 0 0 1 -14.5 7.5 13 1 1 0.5
9 0 1 0 0 0 1 0 0 0 1 -13.5 3 -26 2 0.5 0.5
9 0 1 0 0 0 1 0 0 0 1 -13.5 3 26 2 0.5 0.5
9 0 1 0 0 0 1 0 0 0 1 -16 8.5 -14.5 0.5 1 1
9 0 1 0 0 0 1 0 0 0 1 -15.5 3 -25 2 0.5 0.5
9 0 1 0 0 0 1 0 0 0 1 -15.5 3 25 2 0.5 0.5
9 0 1 0 0 0 1 0 0 0 1 -17.5 3 -23.5 1 0.5 1
9 0 1 0 0 0 1 0 0 0 1 -17.5 3 23.5 1 0.5 1
9 0 1 0 0 0 1 0 0 0 1 -20.5 3 -21.5 1 0.5 1
9 0 1 0 0 0 1 0 0 0 1 -20.5 3 21.5 1 0.5 1
9 0 1 0 0 0 1 0 0 0 1 -22 11.5 -20.5 0.5 1 1
9 0 1 0 0 0 1 0 0 0 1 -22 11.5 20.5 0.5 1 1
9 0 1 0 0 0 1 0 0 0 1 -23 3 18.5 0.5 0.5 2
9 0 1 0 0 0 1 0 0 0 1 -23.5 3 -17.5 1 0.5 1
9 0 1 0 0 0 1 0 0 0 1 -24.5 3 16.5 1 0.5 1
9 0 1 0 0 0 1 0 0 0 1 -26 4.5 -16.5 0.5 1 1
9 0 1 0 0 0 1 0 0 0 1 -26 5.5 10 0.5 2 0.5
9 0 1 0 0 0 1 0 0 0 1 -26.5 8.5 -28 1 1 0.5
9 0 1 0 0 0 1 0 0 0 1 -26.5 7.5 28 1 1 0.5
9 0 1 0 0 0 1 0 0 0 1 -28 8.5 26.5 0.5 1 1
9 0 1 0 0 0 1 0 0 0 1 -28 7.5 -26.5 0.5 1 1
9 0 1 0 0 0 1 0 0 0 1 -28 4 12.5 0.5 0.5 2
9 0 1 0 0 0 1 0 0 0 1 -29 4.5 -11.5 0.5 1 1
9 0 1 0 0 0 1 0 0 0 1 -29 3 -9.5 0.5 0.5 2
9 0 1 0 0 0 1 0 0 0 1 -29 3 9.5 0.5 0.5 2
9 0 1 0 0 0 1 0 0 0 1 -30.5 9 -30.5 1 0.5 1
9 0 1 0 0 0 1 0 0 0 1 -31 3 -0.5 0.5 0.5 2
9 0 1 0 0 0 1 0 0 0 1 -32.5 7 -32.5 1 0.5 1
9 0 1 0 0 0 1 0 0 0 1 35 8 -34 0.5 1.5 0.5
9 0 1 0 0 0 1 0 0 0 1 34 8 -35 1.5 0.5 0.5
9 0 1 0 0 0 1 0 0 0 1 34 8 35 1.5 0.5 0.5
9 0 1 0 0 0 1 0 0 0 1 29 8 30 0.5 1.5 0.5
9 0 1 0 0 0 1 0 0 0 1 29 2 -5 0.5 0.5 1.5
9 0 1 0 0 0 1 0 0 0 1 29 2 5 0.5 0.5 1.5
9 0 1 0 0 0 1 0 0 0 1 28 8 -29 0.5 1.5 0.5
9 0 1 0 0 0 1 0 0 0 1 24 8 -20 0.5 1.5 0.5
9 0 1 0 0 0 1 0 0 0 1 24 8 20 0.5 1.5 0.5
9 0 1 0 0 0 1 0 0 0 1 22 4 -21 0.5 1.5 0.5
9 0 1 0 0 0 1 0 0 0 1 22 4 21 0.5 1.5 0.5
9 0 1 0 0 0 1 0 0 0 1 20 8 -24 0.5 1.5 0.5
9 0 1 0 0 0 1 0 0 0 1 20 8 24 0.5 1.5 0.5
9 0 1 0 0 0 1 0 0 0 1 17 8 -16 0.5 1.5 0.5
9 0 1 0 0 0 1 0 0 0 1 17 8 16 0.5 1.5 0.5
9 0 1 0 0 0 1 0 0 0 1 16 8 -17 0.5 1.5 0.5
9 0 1 0 0 0 1 0 0 0 1 16 8 17 0.5 1.5 0.5
9 0 1 0 0 0 1 0 0 0 1 12 8 -13 0.5 1.5 0.5
9 0 1 0 0 0 1 0 0 0 1 12 8 13 0.5 1.5 0.5
9 0 1 0 0 0 1 0 0 0 1 10 8 -11 0.5 1.5 0.5
9 0 1 0 0 0 1 0 0 0 1 10 8 11 0.5 1.5 0.5
9 0 1 0 0 0 1 0 0 0 1 5 2 -29 1.5 0.5 0.5
9 0 1 0 0 0 1 0 0 0 1 5 2 29 1.5 0.5 0.5
9 0 1 0 0 0 1 0 0 0 1 0 8 -49 1.5 0.5 0.5
9 0 1 0 0 0 1 0 0 0 1 0 8 49 1.5 0.5 0.5
9 0 1 0 0 0 1 0 0 0 1 -5 2 -29 1.5 0.5 0.5
9 0 1 0 0 0 1 0 0 0 1 -5 2 29 1.5 0.5 0.5
9 0 1 0 0 0 1 0 0 0 1 -12 8 -11 0.5 1.5 0.5
9 0 1 0 0 0 1 0 0 0 1 -12 8 11 0.5 1.5 0.5
9 0 1 0 0 0 1 0 0 0 1 -20 8 -24 0.5 1.5 0.5
9 0 1 0 0 0 1 0 0 0 1 -20 8 24 0.5 1.5 0.5
9 0 1 0 0 0 1 0 0 0 1 -20 4 23 0.5 1.5 0.5
9 0 1 0 0 0 1 0 0 0 1 -24 8 -20 0.5 1.5 0.5
9 0 1 0 0 0 1 0 0 0 1 -24 8 20 0.5 1.5 0.5
9 0 1 0 0 0 1 0 0 0 1 -25 3 -15 0.5 0.5 1.5
9 0 1 0 0 0 1 0 0 0 1 -27 3 -10 0.5 0.5 1.5
9 0 1 0 0 0 1 0 0 0 1 -27 3 10 0.5 0.5 1.5
9 0 1 0 0 0 1 0 0 0 1 -29 2 -5 0.5 0.5 1.5
9 0 1 0 0 0 1 0 0 0 1 -29 2 5 0.5 0.5 1.5
9 0 1 0 0 0 1 0 0 0 1 -30 8 -29 0.5 1.5 0.5
9 0 1 0 0 0 1 0 0 0 1 -30 8 29 0.5 1.5 0.5
9 0 1 0 0 0 1 0 0 0 1 -34 8 -33 0.5 1.5 0.5
9 0 1 0 0 0 1 0 0 0 1 -34 8 33 0.5 1.5 0.5
9 0 1 0 0 0 1 0 0 0 1 -34 8 -35 1.5 0.5 0.5
9 0 1 0 0 0 1 0 0 0 1 -34 8 35 1.5 0.5 0.5
9 0 1 0 0 0 1 0 0 0 1 -49 8 0 0.5 1.5 0.5
