9 0 -1.192093E-07 0 1 0 1 0 -1 0 -1.192093E-07 50 -2 -10 3.35 0.5 3.35
9 0 -1.192093E-07 0 1 0 1 0 -1 0 -1.192093E-07 30 -2 -10 3.35 0.5 3.35
9 0 -1.192093E-07 0 1 0 1 0 -1 0 -1.192093E-07 10 -2 -10 3.35 0.5 3.35
9 0 -1.192093E-07 0 1 0 1 0 -1 0 -1.192093E-07 50 -2 10 3.35 0.5 3.35
9 0 -1.192093E-07 0 1 0 1 0 -1 0 -1.192093E-07 30 -2 10 3.35 0.5 3.35
9 0 -1.192093E-07 0 1 0 1 0 -1 0 -1.192093E-07 10 -2 10 3.35 0.5 3.35
9 0 -1.192093E-07 0 1 0 1 0 -1 0 -1.192093E-07 50 -2 30 3.35 0.5 3.35
9 0 -1.192093E-07 0 1 0 1 0 -1 0 -1.192093E-07 30 -2 30 3.35 0.5 3.35
9 0 -1.192093E-07 0 1 0 1 0 -1 0 -1.192093E-07 10 -2 30 3.35 0.5 3.35
9 0 -1.192093E-07 0 1 0 1 0 -1 0 -1.192093E-07 -10 -2 -10 3.35 0.5 3.35
9 0 -1.192093E-07 0 1 0 1 0 -1 0 -1.192093E-07 -30 -2 -10 3.35 0.5 3.35
9 0 -1.192093E-07 0 1 0 1 0 -1 0 -1.192093E-07 -50 -2 -10 3.35 0.5 3.35
9 0 -1.192093E-07 0 1 0 1 0 -1 0 -1.192093E-07 -10 -2 10 3.35 0.5 3.35
9 0 -1.192093E-07 0 1 0 1 0 -1 0 -1.192093E-07 -30 -2 10 3.35 0.5 3.35
9 0 -1.192093E-07 0 1 0 1 0 -1 0 -1.192093E-07 -50 -2 10 3.35 0.5 3.35
9 0 -1.192093E-07 0 1 0 1 0 -1 0 -1.192093E-07 -10 -2 30 3.35 0.5 3.35
9 0 -1.192093E-07 0 1 0 1 0 -1 0 -1.192093E-07 -30 -2 30 3.35 0.5 3.35
9 0 -1.192093E-07 0 1 0 1 0 -1 0 -1.192093E-07 -50 -2 30 3.35 0.5 3.35
9 0 -1.192093E-07 0 1 0 1 0 -1 0 -1.192093E-07 -10 -2 50 3.35 0.5 3.35
9 0 -1.192093E-07 0 1 0 1 0 -1 0 -1.192093E-07 -30 -2 50 3.35 0.5 3.35
9 0 -1.192093E-07 0 1 0 1 0 -1 0 -1.192093E-07 -50 -2 50 3.35 0.5 3.35
9 0 -1.192093E-07 0 1 0 1 0 -1 0 -1.192093E-07 -10 -2 70 3.35 0.5 3.35
9 0 -1.192093E-07 0 1 0 1 0 -1 0 -1.192093E-07 -30 -2 70 3.35 0.5 3.35
9 0 -1.192093E-07 0 1 0 1 0 -1 0 -1.192093E-07 -50 -2 70 3.35 0.5 3.35
9 0 -1.192093E-07 0 1 0 1 0 -1 0 -1.192093E-07 -10 -2 90 3.35 0.5 3.35
9 0 -1.192093E-07 0 1 0 1 0 -1 0 -1.192093E-07 -30 -2 90 3.35 0.5 3.35
9 0 -1.192093E-07 0 1 0 1 0 -1 0 -1.192093E-07 -50 -2 90 3.35 0.5 3.35
9 0 -1.192093E-07 0 1 0 1 0 -1 0 -1.192093E-07 50 -2 50 3.35 0.5 3.35
9 0 -1.192093E-07 0 1 0 1 0 -1 0 -1.192093E-07 30 -2 50 3.35 0.5 3.35
9 0 -1.192093E-07 0 1 0 1 0 -1 0 -1.192093E-07 10 -2 50 3.35 0.5 3.35
9 0 -1.192093E-07 0 1 0 1 0 -1 0 -1.192093E-07 50 -2 70 3.35 0.5 3.35
9 0 -1.192093E-07 0 1 0 1 0 -1 0 -1.192093E-07 30 -2 70 3.35 0.5 3.35
9 0 -1.192093E-07 0 1 0 1 0 -1 0 -1.192093E-07 10 -2 70 3.35 0.5 3.35
9 0 -1.192093E-07 0 1 0 1 0 -1 0 -1.192093E-07 50 -2 90 3.35 0.5 3.35
9 0 -1.192093E-07 0 1 0 1 0 -1 0 -1.192093E-07 30 -2 90 3.35 0.5 3.35
9 0 -1.192093E-07 0 1 0 1 0 -1 0 -1.192093E-07 10 -2 90 3.35 0.5 3.35
9 0 -1.192093E-07 0 1 0 1 0 -1 0 -1.192093E-07 -30 -2 -30 3.35 0.5 3.35
9 0 -1.192093E-07 0 1 0 1 0 -1 0 -1.192093E-07 -10 -2 -30 3.35 0.5 3.35
9 0 -1.192093E-07 0 1 0 1 0 -1 0 -1.192093E-07 10 -2 -30 3.35 0.5 3.35
9 0 -1.192093E-07 0 1 0 1 0 -1 0 -1.192093E-07 30 -2 -30 3.35 0.5 3.35
9 0 -1.192093E-07 0 1 0 1 0 -1 0 -1.192093E-07 -30 -2 110 3.35 0.5 3.35
9 0 -1.192093E-07 0 1 0 1 0 -1 0 -1.192093E-07 -10 -2 110 3.35 0.5 3.35
9 0 -1.192093E-07 0 1 0 1 0 -1 0 -1.192093E-07 10 -2 110 3.35 0.5 3.35
9 0 -1.192093E-07 0 1 0 1 0 -1 0 -1.192093E-07 30 -2 110 3.35 0.5 3.35
9 0 -1.192093E-07 0 1 0 1 0 -1 0 -1.192093E-07 -10 -2 -50 3.35 0.5 3.35
9 0 -1.192093E-07 0 1 0 1 0 -1 0 -1.192093E-07 10 -2 -50 3.35 0.5 3.35
9 0 1 0 0 0 1 0 0 0 1 0 2.134003 35.60001 55.5 0.5 86
9 0 1 0 0 0 1 0 0 0 1 0 -28.366 134.1 45.5 19 0.5
9 0 1 0 0 0 1 0 0 0 1 0 2.134003 -63.89999 27.5 0.5 13.5
9 0 1 0 0 0 1 0 0 0 1 0 -24.366 136.6 2.5 23 2
9 0 1 0 0 0 1 0 0 0 1 0 -59.366 -128.4 2.5 5 7
9 0 1 0 0 0 1 0 0 0 1 76 -34.866 75.10001 1.5 1.5 38.5
9 0 1 0 0 0 1 0 0 0 1 -76 -34.866 75.10001 1.5 1.5 38.5
9 0 1 0 0 0 1 0 0 0 1 57 2.134003 35.60001 1.5 0.5 78
9 0 1 0 0 0 1 0 0 0 1 -57 2.134003 35.60001 1.5 0.5 78
9 0 1 0 0 0 1 0 0 0 1 -76 -34.866 -14.39999 1.5 1.5 26
9 0 1 0 0 0 1 0 0 0 1 76 -34.866 -13.89999 1.5 1.5 25.5
9 0 1 0 0 0 1 0 0 0 1 75 -32.866 36.60001 1.5 0.5 76
9 0 1 0 0 0 1 0 0 0 1 -75 -32.866 36.60001 1.5 0.5 76
9 0 1 0 0 0 1 0 0 0 1 0 -46.366 -121.9 2.5 7 2.5
9 0 1 0 0 0 1 0 0 0 1 50.5 -35.366 134.1 5 15 0.5
9 0 1 0 0 0 1 0 0 0 1 22.5 -52.366 134.1 15 5 0.5
9 0 1 0 0 0 1 0 0 0 1 -22.5 -52.366 134.1 15 5 0.5
9 0 1 0 0 0 1 0 0 0 1 -50.5 -35.366 134.1 5 15 0.5
9 0 1 0 0 0 1 0 0 0 1 0 4.634003 123.6 2.5 2 7
9 0 1 0 0 0 1 0 0 0 1 74 -31.366 47.10001 0.5 1 65.5
9 0 1 0 0 0 1 0 0 0 1 -74 -31.366 47.10001 0.5 1 65.5
9 0 1 0 0 0 1 0 0 0 1 0 -30.366 -115.9 2.5 5 2.5
9 0 1 0 0 0 1 0 0 0 1 36 2.134003 -57.39999 8.5 0.5 7
9 0 1 0 0 0 1 0 0 0 1 -36 2.134003 -57.39999 8.5 0.5 7
9 0 1 0 0 0 1 0 0 0 1 0 4.634003 -78.89999 2.5 2 5.5
9 0 1 0 0 0 1 0 0 0 1 0 -22.366 -110.9 2.5 4 2.5
9 0 1 0 0 0 1 0 0 0 1 76 -34.866 24.10001 1.5 1.5 9.5
9 0 1 0 0 0 1 0 0 0 1 -76 -34.866 24.10001 1.5 1.5 9.5
9 0 1 0 0 0 1 0 0 0 1 74 -34.366 78.10001 0.5 1 41.5
9 0 1 0 0 0 1 0 0 0 1 -74 -34.366 78.10001 0.5 1 41.5
9 0 1 0 0 0 1 0 0 0 1 -36 6.134003 36.10001 0.5 0.5 77.5
9 0 1 0 0 0 1 0 0 0 1 36 6.134003 36.60001 0.5 0.5 77
9 0 1 0 0 0 1 0 0 0 1 0 -14.366 -104.9 2.5 3 2.5
9 0 1 0 0 0 1 0 0 0 1 0 1.134003 133.1 2.5 2.5 2.5
9 0 1 0 0 0 1 0 0 0 1 0 -6.865997 -97.89999 2.5 2.5 2.5
9 0 1 0 0 0 1 0 0 0 1 0 2.134003 -79.89999 12.5 0.5 2.5
9 0 1 0 0 0 1 0 0 0 1 0 -37.366 -118.4 2.5 2 3
9 0 1 0 0 0 1 0 0 0 1 -74 -34.366 -18.39999 0.5 1 30
9 0 1 0 0 0 1 0 0 0 1 74 -34.366 -15.89999 0.5 1 27.5
9 0 1 0 0 0 1 0 0 0 1 0 2.134003 122.1 54.5 0.5 0.5
9 0 1 0 0 0 1 0 0 0 1 0 -1.365997 -91.89999 2.5 2 2.5
9 0 1 0 0 0 1 0 0 0 1 76 -36.866 79.60001 0.5 0.5 43
9 0 1 0 0 0 1 0 0 0 1 -76 -36.866 79.60001 0.5 0.5 43
9 0 1 0 0 0 1 0 0 0 1 18.5 -60.366 136.1 7 1 1.5
9 0 1 0 0 0 1 0 0 0 1 -18.5 -60.366 136.1 7 1 1.5
9 0 1 0 0 0 1 0 0 0 1 0 4.634003 21.60001 2.5 2 2
9 0 1 0 0 0 1 0 0 0 1 0 1.634003 -87.39999 2.5 2 2
9 0 1 0 0 0 1 0 0 0 1 0 -50.366 -125.4 2.5 4 1
9 0 1 0 0 0 1 0 0 0 1 78 -34.866 75.10001 0.5 0.5 38.5
9 0 1 0 0 0 1 0 0 0 1 -78 -34.866 75.10001 0.5 0.5 38.5
9 0 1 0 0 0 1 0 0 0 1 0 -10.866 -101.4 2.5 3.5 1
9 0 1 0 0 0 1 0 0 0 1 0 -42.866 -118.4 2.5 3.5 1
9 0 1 0 0 0 1 0 0 0 1 0 -16.366 -108.9 2.5 2 1.5
9 0 1 0 0 0 1 0 0 0 1 -76 -36.866 -18.39999 0.5 0.5 30
9 0 1 0 0 0 1 0 0 0 1 76 -36.866 -17.89999 0.5 0.5 29.5
9 0 1 0 0 0 1 0 0 0 1 41.5 -50.866 134.1 4 3.5 0.5
9 0 1 0 0 0 1 0 0 0 1 31.5 2.134003 -67.89999 4 0.5 3.5
9 0 1 0 0 0 1 0 0 0 1 -31 2.134003 -68.39999 3.5 0.5 4
9 0 1 0 0 0 1 0 0 0 1 -41 -51.366 134.1 3.5 4 0.5
9 0 1 0 0 0 1 0 0 0 1 76 -45.866 16.10001 2.5 5.5 0.5
9 0 1 0 0 0 1 0 0 0 1 76 -45.866 32.10001 2.5 5.5 0.5
9 0 1 0 0 0 1 0 0 0 1 -76 -45.866 16.10001 2.5 5.5 0.5
9 0 1 0 0 0 1 0 0 0 1 -76 -45.866 32.10001 2.5 5.5 0.5
9 0 1 0 0 0 1 0 0 0 1 26 -58.366 135.1 4.5 1 1.5
9 0 1 0 0 0 1 0 0 0 1 -21.5 -58.866 135.1 9 0.5 1.5
9 0 1 0 0 0 1 0 0 0 1 78 -34.866 -14.39999 0.5 0.5 26
9 0 1 0 0 0 1 0 0 0 1 14 -59.366 134.1 6.5 2 0.5
9 0 1 0 0 0 1 0 0 0 1 -78 -34.866 -14.39999 0.5 0.5 26
9 0 1 0 0 0 1 0 0 0 1 0 -28.866 -112.4 2.5 2.5 1
9 0 1 0 0 0 1 0 0 0 1 0 -32.866 -119.4 2.5 2.5 1
9 0 1 0 0 0 1 0 0 0 1 0 -18.866 -105.9 2.5 1.5 1.5
9 0 1 0 0 0 1 0 0 0 1 0 -57.866 -120.9 2.5 4.5 0.5
9 0 1 0 0 0 1 0 0 0 1 0 -59.866 -135.9 2.5 4.5 0.5
9 0 1 0 0 0 1 0 0 0 1 48 2.134003 -53.39999 3.5 0.5 3
9 0 1 0 0 0 1 0 0 0 1 17 1.634003 -78.89999 3.5 1 1.5
9 0 1 0 0 0 1 0 0 0 1 -9 -60.866 -120.4 3.5 1.5 1
9 0 1 0 0 0 1 0 0 0 1 -17 1.634003 -78.89999 3.5 1 1.5
9 0 1 0 0 0 1 0 0 0 1 -47.5 2.134003 -53.89999 3 0.5 3.5
9 0 1 0 0 0 1 0 0 0 1 0 2.134003 126.6 2.5 0.5 4
9 0 1 0 0 0 1 0 0 0 1 0 -3.365997 133.6 2.5 2 1
9 0 1 0 0 0 1 0 0 0 1 0 -5.365997 -94.39999 2.5 2 1
9 0 1 0 0 0 1 0 0 0 1 74 -34.366 24.10001 0.5 1 9.5
9 0 1 0 0 0 1 0 0 0 1 -74 -34.366 24.10001 0.5 1 9.5
9 0 1 0 0 0 1 0 0 0 1 74.5 -35.866 -47.39999 1 1.5 3
9 0 1 0 0 0 1 0 0 0 1 73.5 -36.866 -53.39999 1 1.5 3
9 0 1 0 0 0 1 0 0 0 1 38.5 -56.366 136.1 3 1 1.5
9 0 1 0 0 0 1 0 0 0 1 8.5 -60.866 -120.4 3 1.5 1
9 0 1 0 0 0 1 0 0 0 1 -27.5 -57.866 135.1 6 0.5 1.5
9 0 1 0 0 0 1 0 0 0 1 -38.5 -56.366 136.1 3 1 1.5
9 0 1 0 0 0 1 0 0 0 1 -73.5 -36.866 -53.39999 1 1.5 3
9 0 1 0 0 0 1 0 0 0 1 12 -61.866 136.1 5.5 0.5 1.5
9 0 1 0 0 0 1 0 0 0 1 -12 -61.866 136.1 5.5 0.5 1.5
9 0 1 0 0 0 1 0 0 0 1 26.5 -2.365997 -81.39999 4 1 1
9 0 1 0 0 0 1 0 0 0 1 -0.5 -23.366 -114.4 2 2 1
9 0 1 0 0 0 1 0 0 0 1 -26.5 -2.365997 -81.39999 4 1 1
9 0 1 0 0 0 1 0 0 0 1 48.5 -17.866 134.1 3 2.5 0.5
9 0 1 0 0 0 1 0 0 0 1 25 0.6340027 -76.89999 2.5 1 1.5
9 0 1 0 0 0 1 0 0 0 1 24 -56.866 -113.4 2.5 1.5 1
9 0 1 0 0 0 1 0 0 0 1 0 4.634003 132.1 2.5 1 1.5
9 0 1 0 0 0 1 0 0 0 1 0 0.1340027 136.6 2.5 1.5 1
9 0 1 0 0 0 1 0 0 0 1 0 -9.865997 -103.4 2.5 1.5 1
9 0 1 0 0 0 1 0 0 0 1 0 -10.366 -98.89999 2.5 1 1.5
9 0 1 0 0 0 1 0 0 0 1 0 -21.366 -107.9 2.5 3 0.5
9 0 1 0 0 0 1 0 0 0 1 0 -52.866 -127.4 2.5 1.5 1
9 0 1 0 0 0 1 0 0 0 1 -20 -57.866 -115.4 2.5 1.5 1
9 0 1 0 0 0 1 0 0 0 1 -23 0.6340027 -77.89999 2.5 1 1.5
9 0 1 0 0 0 1 0 0 0 1 -24 -56.866 -113.4 2.5 1.5 1
9 0 1 0 0 0 1 0 0 0 1 -48 -17.366 134.1 2.5 3 0.5
9 0 1 0 0 0 1 0 0 0 1 26 -0.8659973 -78.89999 4.5 0.5 1.5
9 0 1 0 0 0 1 0 0 0 1 -26 -0.8659973 -78.89999 4.5 0.5 1.5
9 0 1 0 0 0 1 0 0 0 1 59 2.134003 19.60001 0.5 0.5 13
9 0 1 0 0 0 1 0 0 0 1 56 -36.366 134.1 0.5 13 0.5
9 0 1 0 0 0 1 0 0 0 1 -14 -60.366 134.1 6.5 1 0.5
9 0 1 0 0 0 1 0 0 0 1 -56 -36.366 134.1 0.5 13 0.5
9 0 1 0 0 0 1 0 0 0 1 -59 2.134003 19.60001 0.5 0.5 13
9 0 1 0 0 0 1 0 0 0 1 59 2.134003 -16.89999 0.5 0.5 12.5
9 0 1 0 0 0 1 0 0 0 1 -59 2.134003 -16.89999 0.5 0.5 12.5
9 0 1 0 0 0 1 0 0 0 1 76 -35.366 -41.39999 1.5 1 2
9 0 1 0 0 0 1 0 0 0 1 76 -35.366 115.6 1.5 1 2
9 0 1 0 0 0 1 0 0 0 1 40.5 -50.866 -102.4 2 1.5 1
9 0 1 0 0 0 1 0 0 0 1 37.5 -51.866 -104.4 2 1.5 1
9 0 1 0 0 0 1 0 0 0 1 34.5 -52.866 -106.4 2 1.5 1
9 0 1 0 0 0 1 0 0 0 1 31.5 -53.866 -108.4 2 1.5 1
9 0 1 0 0 0 1 0 0 0 1 29.5 1.634003 -72.89999 2 1 1.5
9 0 1 0 0 0 1 0 0 0 1 28.5 -54.866 -110.4 2 1.5 1
9 0 1 0 0 0 1 0 0 0 1 22.5 -4.365997 -85.39999 3 1 1
9 0 1 0 0 0 1 0 0 0 1 20.5 -57.866 -115.4 2 1.5 1
9 0 1 0 0 0 1 0 0 0 1 19.5 0.1340027 -79.89999 4 0.5 1.5
9 0 1 0 0 0 1 0 0 0 1 15.5 -59.366 -117.9 2 1 1.5
9 0 1 0 0 0 1 0 0 0 1 -14.5 -59.866 -118.4 2 1.5 1
9 0 1 0 0 0 1 0 0 0 1 -17.5 -0.3659973 -81.39999 3 1 1
9 0 1 0 0 0 1 0 0 0 1 -22.5 -4.365997 -85.39999 3 1 1
9 0 1 0 0 0 1 0 0 0 1 -28.5 -54.866 -110.4 2 1.5 1
9 0 1 0 0 0 1 0 0 0 1 -28.5 0.1340027 -76.39999 3 0.5 2
9 0 1 0 0 0 1 0 0 0 1 -31.5 -53.866 -108.4 2 1.5 1
9 0 1 0 0 0 1 0 0 0 1 -34.5 -52.866 -106.4 2 1.5 1
9 0 1 0 0 0 1 0 0 0 1 -37.5 -51.866 -104.4 2 1.5 1
9 0 1 0 0 0 1 0 0 0 1 -40.5 -50.866 -102.4 2 1.5 1
9 0 1 0 0 0 1 0 0 0 1 -74.5 -36.366 -47.39999 1 1 3
9 0 1 0 0 0 1 0 0 0 1 -75.5 -35.366 116.6 1 1 3
9 0 1 0 0 0 1 0 0 0 1 74 -31.866 -29.39999 0.5 0.5 11
9 0 1 0 0 0 1 0 0 0 1 -74 -31.866 -29.39999 0.5 0.5 11
9 0 1 0 0 0 1 0 0 0 1 43 -54.866 136.1 3.5 0.5 1.5
9 0 1 0 0 0 1 0 0 0 1 -26 1.134003 -74.89999 3.5 0.5 1.5
9 0 1 0 0 0 1 0 0 0 1 -43 -54.866 136.1 3.5 0.5 1.5
9 0 1 0 0 0 1 0 0 0 1 74.5 -36.366 120.1 1 1 2.5
9 0 1 0 0 0 1 0 0 0 1 76 -42.366 15.10001 2.5 2 0.5
9 0 1 0 0 0 1 0 0 0 1 67.5 -39.366 -66.89999 1 1 2.5
9 0 1 0 0 0 1 0 0 0 1 54 -50.366 135.6 2.5 1 1
9 0 1 0 0 0 1 0 0 0 1 25 -3.365997 -83.39999 2.5 1 1
9 0 1 0 0 0 1 0 0 0 1 16 -6.365997 -89.39999 2.5 1 1
9 0 1 0 0 0 1 0 0 0 1 11 0.6340027 -82.39999 2.5 1 1
9 0 1 0 0 0 1 0 0 0 1 0 2.634003 -84.89999 2.5 2 0.5
9 0 1 0 0 0 1 0 0 0 1 0 1.134003 128.6 2.5 0.5 2
9 0 1 0 0 0 1 0 0 0 1 0 -2.365997 -95.39999 2.5 1 1
9 0 1 0 0 0 1 0 0 0 1 0 -7.365997 134.1 2.5 2 0.5
9 0 1 0 0 0 1 0 0 0 1 0 -37.366 -121.9 2.5 2 0.5
9 0 1 0 0 0 1 0 0 0 1 0 -44.366 -124.9 2.5 2 0.5
9 0 1 0 0 0 1 0 0 0 1 -11 0.6340027 -82.39999 2.5 1 1
9 0 1 0 0 0 1 0 0 0 1 -16 -6.365997 -89.39999 2.5 1 1
9 0 1 0 0 0 1 0 0 0 1 -22.5 -2.865997 -83.39999 5 0.5 1
9 0 1 0 0 0 1 0 0 0 1 -37 2.134003 -66.39999 2.5 0.5 2
9 0 1 0 0 0 1 0 0 0 1 -54 -50.366 135.6 2.5 1 1
9 0 1 0 0 0 1 0 0 0 1 -67.5 -39.366 -66.89999 1 1 2.5
9 0 1 0 0 0 1 0 0 0 1 -76 -42.366 15.10001 2.5 2 0.5
9 0 1 0 0 0 1 0 0 0 1 78 -34.866 24.10001 0.5 0.5 9.5
9 0 1 0 0 0 1 0 0 0 1 76 -36.866 24.10001 0.5 0.5 9.5
9 0 1 0 0 0 1 0 0 0 1 -76 -36.866 24.10001 0.5 0.5 9.5
9 0 1 0 0 0 1 0 0 0 1 -78 -34.866 24.10001 0.5 0.5 9.5
9 0 1 0 0 0 1 0 0 0 1 73 -37.366 124.1 1.5 1 1.5
9 0 1 0 0 0 1 0 0 0 1 70 -38.366 -61.89999 1.5 1 1.5
9 0 1 0 0 0 1 0 0 0 1 71 -37.366 -58.89999 1.5 1 1.5
9 0 1 0 0 0 1 0 0 0 1 65.5 -40.866 -71.89999 1 1.5 1.5
9 0 1 0 0 0 1 0 0 0 1 62 -46.366 134.1 1.5 1 1.5
9 0 1 0 0 0 1 0 0 0 1 59 -43.366 -81.89999 1.5 1 1.5
9 0 1 0 0 0 1 0 0 0 1 56.5 -44.866 -85.89999 1 1.5 1.5
9 0 1 0 0 0 1 0 0 0 1 50 -52.366 136.1 1.5 1 1.5
9 0 1 0 0 0 1 0 0 0 1 47 -48.866 -96.39999 1.5 1.5 1
9 0 1 0 0 0 1 0 0 0 1 43 -49.866 -100.4 1.5 1.5 1
9 0 1 0 0 0 1 0 0 0 1 33 -57.866 136.6 1.5 1.5 1
9 0 1 0 0 0 1 0 0 0 1 19 -0.8659973 -81.39999 4.5 0.5 1
9 0 1 0 0 0 1 0 0 0 1 17 -58.866 135.6 4.5 0.5 1
9 0 1 0 0 0 1 0 0 0 1 7.5 -59.866 137.1 1 1.5 1.5
9 0 1 0 0 0 1 0 0 0 1 -7.5 -59.866 137.1 1 1.5 1.5
9 0 1 0 0 0 1 0 0 0 1 -16.5 -58.866 -116.9 3 1.5 0.5
9 0 1 0 0 0 1 0 0 0 1 -43 -49.866 -100.4 1.5 1.5 1
9 0 1 0 0 0 1 0 0 0 1 -46 -48.866 -97.39999 1.5 1.5 1
9 0 1 0 0 0 1 0 0 0 1 -50 -52.366 136.1 1.5 1 1.5
9 0 1 0 0 0 1 0 0 0 1 -56 -44.366 -85.89999 1.5 1 1.5
9 0 1 0 0 0 1 0 0 0 1 -59 -43.366 -81.89999 1.5 1 1.5
9 0 1 0 0 0 1 0 0 0 1 -65 -40.366 -71.89999 1.5 1 1.5
9 0 1 0 0 0 1 0 0 0 1 -70 -38.366 -61.89999 1.5 1 1.5
9 0 1 0 0 0 1 0 0 0 1 -71 -37.366 -58.89999 1.5 1 1.5
9 0 1 0 0 0 1 0 0 0 1 -73 -37.366 124.1 1.5 1 1.5
9 0 1 0 0 0 1 0 0 0 1 -76 -35.366 -41.89999 1.5 1 1.5
9 0 1 0 0 0 1 0 0 0 1 11 2.134003 123.1 8.5 0.5 0.5
9 0 1 0 0 0 1 0 0 0 1 -11 2.134003 123.1 8.5 0.5 0.5
9 0 1 0 0 0 1 0 0 0 1 56.5 -23.366 133.1 1 4 0.5
9 0 1 0 0 0 1 0 0 0 1 52.5 -46.366 -90.39999 2 1 1
9 0 1 0 0 0 1 0 0 0 1 49.5 -47.366 -93.39999 2 1 1
9 0 1 0 0 0 1 0 0 0 1 46.5 2.134003 -58.39999 2 0.5 2
9 0 1 0 0 0 1 0 0 0 1 46.5 -53.366 135.6 2 1 1
9 0 1 0 0 0 1 0 0 0 1 37.5 2.134003 -66.39999 2 0.5 2
9 0 1 0 0 0 1 0 0 0 1 30.5 -2.365997 -79.39999 2 1 1
9 0 1 0 0 0 1 0 0 0 1 29.5 0.1340027 -76.39999 2 0.5 2
9 0 1 0 0 0 1 0 0 0 1 19.5 -2.365997 -83.39999 2 1 1
9 0 1 0 0 0 1 0 0 0 1 17.5 -5.365997 -87.89999 4 1 0.5
9 0 1 0 0 0 1 0 0 0 1 14.5 -7.365997 -90.89999 4 1 0.5
9 0 1 0 0 0 1 0 0 0 1 11.5 -60.366 -118.9 2 2 0.5
9 0 1 0 0 0 1 0 0 0 1 6.5 -62.366 -121.9 4 1 0.5
9 0 1 0 0 0 1 0 0 0 1 -6.5 -62.366 -121.9 4 1 0.5
9 0 1 0 0 0 1 0 0 0 1 -14.5 -7.365997 -90.89999 4 1 0.5
9 0 1 0 0 0 1 0 0 0 1 -17.5 -1.865997 -83.39999 4 0.5 1
9 0 1 0 0 0 1 0 0 0 1 -17.5 -5.365997 -87.89999 4 1 0.5
9 0 1 0 0 0 1 0 0 0 1 -27.5 -4.365997 -83.39999 2 1 1
9 0 1 0 0 0 1 0 0 0 1 -28.5 -1.865997 -79.39999 4 0.5 1
9 0 1 0 0 0 1 0 0 0 1 -30.5 1.134003 -72.39999 4 0.5 1
9 0 1 0 0 0 1 0 0 0 1 -26.5 -58.866 137.1 8 0.5 0.5
9 0 1 0 0 0 1 0 0 0 1 -46.5 -53.366 135.6 2 1 1
9 0 1 0 0 0 1 0 0 0 1 -49.5 -47.366 -93.39999 2 1 1
9 0 1 0 0 0 1 0 0 0 1 -52.5 -46.366 -90.39999 2 1 1
9 0 1 0 0 0 1 0 0 0 1 -55.5 -18.366 133.1 1 4 0.5
9 0 1 0 0 0 1 0 0 0 1 59 -38.866 133.1 0.5 7.5 0.5
9 0 1 0 0 0 1 0 0 0 1 28 -59.866 136.1 2.5 0.5 1.5
9 0 1 0 0 0 1 0 0 0 1 26 -55.866 -111.9 2.5 1.5 0.5
9 0 1 0 0 0 1 0 0 0 1 0 1.134003 -90.89999 2.5 0.5 1.5
9 0 1 0 0 0 1 0 0 0 1 0 -0.8659973 -87.89999 2.5 0.5 1.5
9 0 1 0 0 0 1 0 0 0 1 0 -3.865997 -91.89999 2.5 0.5 1.5
9 0 1 0 0 0 1 0 0 0 1 0 -27.866 -110.9 2.5 1.5 0.5
9 0 1 0 0 0 1 0 0 0 1 0 -33.866 -120.9 2.5 1.5 0.5
9 0 1 0 0 0 1 0 0 0 1 0 -40.866 -116.9 2.5 1.5 0.5
9 0 1 0 0 0 1 0 0 0 1 0 -47.866 -118.9 2.5 1.5 0.5
9 0 1 0 0 0 1 0 0 0 1 0 -53.866 -122.9 2.5 0.5 1.5
9 0 1 0 0 0 1 0 0 0 1 -26 -55.866 -111.9 2.5 1.5 0.5
9 0 1 0 0 0 1 0 0 0 1 -28 -59.866 136.1 2.5 0.5 1.5
9 0 1 0 0 0 1 0 0 0 1 -59 -38.866 133.1 0.5 7.5 0.5
9 0 1 0 0 0 1 0 0 0 1 -73 -34.866 -50.89999 1.5 0.5 2.5
9 0 1 0 0 0 1 0 0 0 1 72.5 -34.866 -51.89999 1 0.5 3.5
9 0 1 0 0 0 1 0 0 0 1 14 -1.865997 -84.39999 3.5 0.5 1
9 0 1 0 0 0 1 0 0 0 1 -14.5 -57.866 134.1 7 0.5 0.5
9 0 1 0 0 0 1 0 0 0 1 -48 -51.366 134.1 3.5 1 0.5
9 0 1 0 0 0 1 0 0 0 1 25 -58.866 137.1 6.5 0.5 0.5
9 0 1 0 0 0 1 0 0 0 1 14 1.134003 -80.89999 6.5 0.5 0.5
9 0 1 0 0 0 1 0 0 0 1 -14 1.134003 -80.89999 6.5 0.5 0.5
9 0 1 0 0 0 1 0 0 0 1 72 -36.366 -54.39999 0.5 1 3
9 0 1 0 0 0 1 0 0 0 1 72.5 -38.866 126.6 1 1.5 1
9 0 1 0 0 0 1 0 0 0 1 70 -40.366 128.6 1.5 1 1
9 0 1 0 0 0 1 0 0 0 1 68 -42.366 130.6 1.5 1 1
9 0 1 0 0 0 1 0 0 0 1 65 -44.366 132.6 1.5 1 1
9 0 1 0 0 0 1 0 0 0 1 63.5 -40.366 -73.89999 1 1 1.5
9 0 1 0 0 0 1 0 0 0 1 62.5 -42.366 -76.89999 1 1 1.5
9 0 1 0 0 0 1 0 0 0 1 60.5 -41.866 -78.39999 1 1.5 1
9 0 1 0 0 0 1 0 0 0 1 59.5 -47.866 135.1 2 0.5 1.5
9 0 1 0 0 0 1 0 0 0 1 54.5 -13.366 133.1 1 3 0.5
9 0 1 0 0 0 1 0 0 0 1 54.5 -44.866 -87.39999 1 1.5 1
9 0 1 0 0 0 1 0 0 0 1 48.5 -51.366 134.1 3 1 0.5
9 0 1 0 0 0 1 0 0 0 1 45.5 -48.866 -97.89999 2 1.5 0.5
9 0 1 0 0 0 1 0 0 0 1 36.5 1.134003 -68.89999 2 0.5 1.5
9 0 1 0 0 0 1 0 0 0 1 34 -10.366 -86.39999 1.5 1 1
9 0 1 0 0 0 1 0 0 0 1 30 -4.365997 -82.39999 1.5 1 1
9 0 1 0 0 0 1 0 0 0 1 22.5 -15.366 -94.89999 3 1 0.5
9 0 1 0 0 0 1 0 0 0 1 21.5 -5.365997 -86.89999 3 1 0.5
9 0 1 0 0 0 1 0 0 0 1 20 -7.365997 -89.39999 1.5 1 1
9 0 1 0 0 0 1 0 0 0 1 20 -17.366 -97.39999 1.5 1 1
9 0 1 0 0 0 1 0 0 0 1 16.5 -9.365997 -91.89999 3 1 0.5
9 0 1 0 0 0 1 0 0 0 1 14.5 -2.865997 -85.39999 3 0.5 1
9 0 1 0 0 0 1 0 0 0 1 14.5 -18.366 -99.89999 3 1 0.5
9 0 1 0 0 0 1 0 0 0 1 13.5 -0.8659973 -83.39999 3 0.5 1
9 0 1 0 0 0 1 0 0 0 1 4 -61.366 -120.9 1.5 2 0.5
9 0 1 0 0 0 1 0 0 0 1 -4 -61.366 -120.9 1.5 2 0.5
9 0 1 0 0 0 1 0 0 0 1 -9.5 -0.3659973 -83.89999 3 1 0.5
9 0 1 0 0 0 1 0 0 0 1 -11 -60.366 -118.9 1.5 2 0.5
9 0 1 0 0 0 1 0 0 0 1 -10.5 -1.865997 -85.39999 3 0.5 1
9 0 1 0 0 0 1 0 0 0 1 -13 -8.365997 -92.39999 1.5 1 1
9 0 1 0 0 0 1 0 0 0 1 -14.5 -2.865997 -85.39999 3 0.5 1
9 0 1 0 0 0 1 0 0 0 1 -14.5 -18.366 -99.89999 3 1 0.5
9 0 1 0 0 0 1 0 0 0 1 -18.5 -17.366 -97.89999 3 1 0.5
9 0 1 0 0 0 1 0 0 0 1 -21.5 -5.365997 -86.89999 3 1 0.5
9 0 1 0 0 0 1 0 0 0 1 -19.5 0.1340027 -79.89999 6 0.5 0.5
9 0 1 0 0 0 1 0 0 0 1 -22.5 -15.366 -94.89999 3 1 0.5
9 0 1 0 0 0 1 0 0 0 1 -34 -10.366 -86.39999 1.5 1 1
9 0 1 0 0 0 1 0 0 0 1 -32.5 -56.866 135.6 3 0.5 1
9 0 1 0 0 0 1 0 0 0 1 -34.5 1.134003 -69.89999 2 0.5 1.5
9 0 1 0 0 0 1 0 0 0 1 -35.5 -57.866 136.1 2 0.5 1.5
9 0 1 0 0 0 1 0 0 0 1 -46 2.134003 -59.39999 1.5 0.5 2
9 0 1 0 0 0 1 0 0 0 1 -47 -47.366 -95.39999 1.5 1 1
9 0 1 0 0 0 1 0 0 0 1 -54 -45.366 -88.39999 1.5 1 1
9 0 1 0 0 0 1 0 0 0 1 -57.5 -29.366 133.1 1 3 0.5
9 0 1 0 0 0 1 0 0 0 1 -58 -48.366 134.6 1.5 1 1
9 0 1 0 0 0 1 0 0 0 1 -60 -42.366 -79.39999 1.5 1 1
9 0 1 0 0 0 1 0 0 0 1 -60.5 -47.366 135.1 1 1 1.5
9 0 1 0 0 0 1 0 0 0 1 -61.5 -41.366 -76.89999 1 1 1.5
9 0 1 0 0 0 1 0 0 0 1 -61.5 -45.866 133.1 2 1.5 0.5
9 0 1 0 0 0 1 0 0 0 1 -63.5 -40.866 -74.39999 1 1.5 1
9 0 1 0 0 0 1 0 0 0 1 -65 -44.366 132.6 1.5 1 1
9 0 1 0 0 0 1 0 0 0 1 -68 -42.366 130.6 1.5 1 1
9 0 1 0 0 0 1 0 0 0 1 -68.5 -40.866 129.1 2 1.5 0.5
9 0 1 0 0 0 1 0 0 0 1 -72 -36.366 -54.39999 0.5 1 3
9 0 1 0 0 0 1 0 0 0 1 -72 -38.366 126.6 1.5 1 1
9 0 1 0 0 0 1 0 0 0 1 -74.5 -36.366 121.1 1 1 1.5
9 0 1 0 0 0 1 0 0 0 1 58 -31.866 133.1 0.5 5.5 0.5
9 0 1 0 0 0 1 0 0 0 1 25 1.134003 -74.89999 5.5 0.5 0.5
9 0 1 0 0 0 1 0 0 0 1 76 -41.366 17.10001 2.5 1 0.5
9 0 1 0 0 0 1 0 0 0 1 76 -41.366 31.10001 2.5 1 0.5
9 0 1 0 0 0 1 0 0 0 1 76 -50.366 31.10001 2.5 1 0.5
9 0 1 0 0 0 1 0 0 0 1 73.5 -33.866 -45.89999 1 0.5 2.5
9 0 1 0 0 0 1 0 0 0 1 56.5 2.134003 116.1 1 0.5 2.5
9 0 1 0 0 0 1 0 0 0 1 57 -48.866 135.6 2.5 0.5 1
9 0 1 0 0 0 1 0 0 0 1 40 1.134003 -66.39999 2.5 0.5 1
9 0 1 0 0 0 1 0 0 0 1 33 -57.366 135.1 2.5 1 0.5
9 0 1 0 0 0 1 0 0 0 1 31 -0.8659973 -76.39999 2.5 0.5 1
9 0 1 0 0 0 1 0 0 0 1 27 -13.366 -91.89999 2.5 1 0.5
9 0 1 0 0 0 1 0 0 0 1 26 -14.366 -92.89999 2.5 1 0.5
9 0 1 0 0 0 1 0 0 0 1 20 1.134003 -76.39999 2.5 0.5 1
9 0 1 0 0 0 1 0 0 0 1 16 -3.865997 -86.39999 2.5 0.5 1
9 0 1 0 0 0 1 0 0 0 1 16 -10.366 -92.89999 2.5 1 0.5
9 0 1 0 0 0 1 0 0 0 1 12 -7.865997 -92.39999 2.5 0.5 1
9 0 1 0 0 0 1 0 0 0 1 10 -19.866 -102.4 2.5 0.5 1
9 0 1 0 0 0 1 0 0 0 1 9 -60.366 135.1 2.5 1 0.5
9 0 1 0 0 0 1 0 0 0 1 0 4.134003 -86.39999 2.5 0.5 1
9 0 1 0 0 0 1 0 0 0 1 0 2.134003 -83.39999 2.5 0.5 1
9 0 1 0 0 0 1 0 0 0 1 0 -2.365997 132.1 2.5 1 0.5
9 0 1 0 0 0 1 0 0 0 1 0 -3.365997 -96.89999 2.5 1 0.5
9 0 1 0 0 0 1 0 0 0 1 0 -6.365997 -100.9 2.5 1 0.5
9 0 1 0 0 0 1 0 0 0 1 0 -10.866 -105.4 2.5 0.5 1
9 0 1 0 0 0 1 0 0 0 1 0 -11.866 -99.39999 2.5 0.5 1
9 0 1 0 0 0 1 0 0 0 1 0 -13.366 -107.9 2.5 1 0.5
9 0 1 0 0 0 1 0 0 0 1 0 -17.366 -110.9 2.5 1 0.5
9 0 1 0 0 0 1 0 0 0 1 0 -20.866 -106.4 2.5 0.5 1
9 0 1 0 0 0 1 0 0 0 1 0 -29.366 -118.9 2.5 1 0.5
9 0 1 0 0 0 1 0 0 0 1 0 -36.366 -114.9 2.5 1 0.5
9 0 1 0 0 0 1 0 0 0 1 0 -38.366 -122.9 2.5 1 0.5
9 0 1 0 0 0 1 0 0 0 1 0 -53.366 -128.9 2.5 1 0.5
9 0 1 0 0 0 1 0 0 0 1 -10 -19.866 -102.4 2.5 0.5 1
9 0 1 0 0 0 1 0 0 0 1 -16 -3.865997 -86.39999 2.5 0.5 1
9 0 1 0 0 0 1 0 0 0 1 -16 -10.366 -92.89999 2.5 1 0.5
9 0 1 0 0 0 1 0 0 0 1 -17 -8.865997 -91.39999 2.5 0.5 1
9 0 1 0 0 0 1 0 0 0 1 -19 -16.366 -96.89999 2.5 1 0.5
9 0 1 0 0 0 1 0 0 0 1 -20 -8.365997 -89.89999 2.5 1 0.5
9 0 1 0 0 0 1 0 0 0 1 -21 -6.865997 -88.39999 2.5 0.5 1
9 0 1 0 0 0 1 0 0 0 1 -26 -14.366 -92.89999 2.5 1 0.5
9 0 1 0 0 0 1 0 0 0 1 -27 -13.366 -91.89999 2.5 1 0.5
9 0 1 0 0 0 1 0 0 0 1 -30 -3.865997 -81.39999 2.5 0.5 1
9 0 1 0 0 0 1 0 0 0 1 -31 -0.8659973 -76.39999 2.5 0.5 1
9 0 1 0 0 0 1 0 0 0 1 -40 1.134003 -66.39999 2.5 0.5 1
9 0 1 0 0 0 1 0 0 0 1 -56.5 2.134003 116.1 1 0.5 2.5
9 0 1 0 0 0 1 0 0 0 1 -76 -41.366 17.10001 2.5 1 0.5
9 0 1 0 0 0 1 0 0 0 1 -76 -41.366 31.10001 2.5 1 0.5
9 0 1 0 0 0 1 0 0 0 1 -76 -50.366 31.10001 2.5 1 0.5
9 0 1 0 0 0 1 0 0 0 1 66 -38.866 -67.89999 0.5 1.5 1.5
9 0 1 0 0 0 1 0 0 0 1 66 -39.866 -69.89999 1.5 1.5 0.5
9 0 1 0 0 0 1 0 0 0 1 60 -42.866 -79.89999 1.5 1.5 0.5
9 0 1 0 0 0 1 0 0 0 1 57 -43.866 -83.89999 1.5 1.5 0.5
9 0 1 0 0 0 1 0 0 0 1 54 -45.866 -88.89999 1.5 1.5 0.5
9 0 1 0 0 0 1 0 0 0 1 51 -46.866 -91.89999 1.5 1.5 0.5
9 0 1 0 0 0 1 0 0 0 1 48 -47.866 -94.89999 1.5 1.5 0.5
9 0 1 0 0 0 1 0 0 0 1 47 -13.866 134.1 1.5 1.5 0.5
9 0 1 0 0 0 1 0 0 0 1 44 -48.866 -98.89999 1.5 1.5 0.5
9 0 1 0 0 0 1 0 0 0 1 43 -55.866 136.1 1.5 0.5 1.5
9 0 1 0 0 0 1 0 0 0 1 33 1.134003 -70.89999 1.5 0.5 1.5
9 0 1 0 0 0 1 0 0 0 1 32 -11.866 -88.89999 1.5 1.5 0.5
9 0 1 0 0 0 1 0 0 0 1 27 -4.865997 -83.89999 1.5 0.5 1.5
9 0 1 0 0 0 1 0 0 0 1 22 -6.865997 -87.89999 4.5 0.5 0.5
9 0 1 0 0 0 1 0 0 0 1 17 -57.866 -115.9 1.5 1.5 0.5
9 0 1 0 0 0 1 0 0 0 1 8 -20.866 -103.9 1.5 1.5 0.5
9 0 1 0 0 0 1 0 0 0 1 0 -23.866 -115.9 1.5 1.5 0.5
9 0 1 0 0 0 1 0 0 0 1 -8 -20.866 -103.9 1.5 1.5 0.5
9 0 1 0 0 0 1 0 0 0 1 -29 2.134003 -73.89999 1.5 0.5 1.5
9 0 1 0 0 0 1 0 0 0 1 -32 -11.866 -88.89999 1.5 1.5 0.5
9 0 1 0 0 0 1 0 0 0 1 -43 -55.866 136.1 1.5 0.5 1.5
9 0 1 0 0 0 1 0 0 0 1 -44 -48.866 -98.89999 1.5 1.5 0.5
9 0 1 0 0 0 1 0 0 0 1 -51 -46.866 -91.89999 1.5 1.5 0.5
9 0 1 0 0 0 1 0 0 0 1 -52 2.134003 -51.89999 1.5 0.5 1.5
9 0 1 0 0 0 1 0 0 0 1 -52 -18.866 134.1 1.5 1.5 0.5
9 0 1 0 0 0 1 0 0 0 1 -57 -43.866 -83.89999 1.5 1.5 0.5
9 0 1 0 0 0 1 0 0 0 1 -66 -38.866 -67.89999 0.5 1.5 1.5
9 0 1 0 0 0 1 0 0 0 1 -66 -39.866 -69.89999 1.5 1.5 0.5
9 0 1 0 0 0 1 0 0 0 1 -73 -34.866 -46.89999 0.5 1.5 1.5
9 0 1 0 0 0 1 0 0 0 1 76 -35.366 -45.39999 0.5 1 2
9 0 1 0 0 0 1 0 0 0 1 75.5 -33.866 -41.39999 1 0.5 2
9 0 1 0 0 0 1 0 0 0 1 73 -35.366 120.6 0.5 1 2
9 0 1 0 0 0 1 0 0 0 1 69 -39.366 -65.39999 0.5 1 2
9 0 1 0 0 0 1 0 0 0 1 67.5 -37.866 -65.39999 1 0.5 2
9 0 1 0 0 0 1 0 0 0 1 58 -19.366 132.1 0.5 4 0.5
9 0 1 0 0 0 1 0 0 0 1 57 -15.366 132.1 0.5 4 0.5
9 0 1 0 0 0 1 0 0 0 1 45.5 1.634003 -61.39999 1 1 1
9 0 1 0 0 0 1 0 0 0 1 42.5 1.134003 -64.39999 2 0.5 1
9 0 1 0 0 0 1 0 0 0 1 31.5 -1.865997 -77.39999 2 0.5 1
9 0 1 0 0 0 1 0 0 0 1 30.5 -12.366 -89.89999 2 1 0.5
9 0 1 0 0 0 1 0 0 0 1 29.5 -13.366 -90.89999 2 1 0.5
9 0 1 0 0 0 1 0 0 0 1 26.5 -1.865997 -79.39999 2 0.5 1
9 0 1 0 0 0 1 0 0 0 1 26.5 -5.865997 -85.39999 2 0.5 1
9 0 1 0 0 0 1 0 0 0 1 25.5 -15.366 -93.89999 2 1 0.5
9 0 1 0 0 0 1 0 0 0 1 23.5 -17.366 -95.89999 2 1 0.5
9 0 1 0 0 0 1 0 0 0 1 21.5 1.634003 -78.39999 1 1 1
9 0 1 0 0 0 1 0 0 0 1 19.5 -15.866 -96.39999 2 0.5 1
9 0 1 0 0 0 1 0 0 0 1 19.5 -58.366 -116.9 2 1 0.5
9 0 1 0 0 0 1 0 0 0 1 17.5 -17.366 -98.39999 1 1 1
9 0 1 0 0 0 1 0 0 0 1 14.5 -12.366 -94.89999 2 1 0.5
9 0 1 0 0 0 1 0 0 0 1 13.5 -10.366 -93.89999 2 1 0.5
9 0 1 0 0 0 1 0 0 0 1 13.5 -19.366 -100.9 2 1 0.5
9 0 1 0 0 0 1 0 0 0 1 13.5 -60.366 -119.9 2 1 0.5
9 0 1 0 0 0 1 0 0 0 1 12.5 -8.865997 -92.89999 4 0.5 0.5
9 0 1 0 0 0 1 0 0 0 1 8.5 -0.3659973 -83.89999 2 1 0.5
9 0 1 0 0 0 1 0 0 0 1 10.5 -62.866 136.1 4 0.5 0.5
9 0 1 0 0 0 1 0 0 0 1 9.5 -1.865997 -85.89999 4 0.5 0.5
9 0 1 0 0 0 1 0 0 0 1 2 -23.366 -114.4 0.5 2 1
9 0 1 0 0 0 1 0 0 0 1 -9.5 -60.366 135.1 2 1 0.5
9 0 1 0 0 0 1 0 0 0 1 -10.5 -9.365997 -93.89999 2 1 0.5
9 0 1 0 0 0 1 0 0 0 1 -10.5 -62.866 136.1 4 0.5 0.5
9 0 1 0 0 0 1 0 0 0 1 -13.5 -19.366 -100.9 2 1 0.5
9 0 1 0 0 0 1 0 0 0 1 -14.5 -0.8659973 -83.39999 2 0.5 1
9 0 1 0 0 0 1 0 0 0 1 -14.5 -12.366 -94.89999 2 1 0.5
9 0 1 0 0 0 1 0 0 0 1 -17.5 -18.366 -98.89999 2 1 0.5
9 0 1 0 0 0 1 0 0 0 1 -21.5 -16.366 -95.89999 2 1 0.5
9 0 1 0 0 0 1 0 0 0 1 -21.5 -7.865997 -88.89999 4 0.5 0.5
9 0 1 0 0 0 1 0 0 0 1 -25.5 -15.366 -93.89999 2 1 0.5
9 0 1 0 0 0 1 0 0 0 1 -26.5 -5.865997 -85.39999 2 0.5 1
9 0 1 0 0 0 1 0 0 0 1 -30.5 -5.365997 -83.39999 1 1 1
9 0 1 0 0 0 1 0 0 0 1 -29.5 -13.366 -90.89999 2 1 0.5
9 0 1 0 0 0 1 0 0 0 1 -30.5 -2.865997 -79.39999 2 0.5 1
9 0 1 0 0 0 1 0 0 0 1 -30.5 -12.366 -89.89999 2 1 0.5
9 0 1 0 0 0 1 0 0 0 1 -31.5 0.6340027 -73.89999 2 1 0.5
9 0 1 0 0 0 1 0 0 0 1 -31.5 -1.865997 -77.39999 2 0.5 1
9 0 1 0 0 0 1 0 0 0 1 -42.5 1.134003 -64.39999 2 0.5 1
9 0 1 0 0 0 1 0 0 0 1 -53.5 -10.366 133.1 1 2 0.5
9 0 1 0 0 0 1 0 0 0 1 -56.5 -13.366 132.1 1 2 0.5
9 0 1 0 0 0 1 0 0 0 1 -56.5 -24.366 133.1 1 2 0.5
9 0 1 0 0 0 1 0 0 0 1 -57.5 -17.366 132.1 1 2 0.5
9 0 1 0 0 0 1 0 0 0 1 -62.5 -46.366 134.6 1 1 1
9 0 1 0 0 0 1 0 0 0 1 -67.5 -37.866 -65.39999 1 0.5 2
9 0 1 0 0 0 1 0 0 0 1 -69 -39.366 -65.39999 0.5 1 2
9 0 1 0 0 0 1 0 0 0 1 -73 -35.366 120.6 0.5 1 2
9 0 1 0 0 0 1 0 0 0 1 -75.5 -34.866 -45.39999 1 0.5 2
9 0 1 0 0 0 1 0 0 0 1 -77 -35.366 115.6 0.5 1 2
9 0 1 0 0 0 1 0 0 0 1 56 -11.866 132.1 0.5 3.5 0.5
9 0 1 0 0 0 1 0 0 0 1 41 -54.866 134.1 3.5 0.5 0.5
9 0 1 0 0 0 1 0 0 0 1 32 0.1340027 -73.89999 3.5 0.5 0.5
9 0 1 0 0 0 1 0 0 0 1 21 -8.865997 -89.89999 3.5 0.5 0.5
9 0 1 0 0 0 1 0 0 0 1 17 0.1340027 -81.89999 3.5 0.5 0.5
9 0 1 0 0 0 1 0 0 0 1 9 -0.8659973 -84.89999 3.5 0.5 0.5
9 0 1 0 0 0 1 0 0 0 1 9 -60.866 -121.9 3.5 0.5 0.5
9 0 1 0 0 0 1 0 0 0 1 -9 -0.8659973 -84.89999 3.5 0.5 0.5
9 0 1 0 0 0 1 0 0 0 1 -9 -60.866 -121.9 3.5 0.5 0.5
9 0 1 0 0 0 1 0 0 0 1 -17 -9.865997 -91.89999 3.5 0.5 0.5
9 0 1 0 0 0 1 0 0 0 1 -22 -3.865997 -83.89999 3.5 0.5 0.5
9 0 1 0 0 0 1 0 0 0 1 -30 -57.866 137.1 3.5 0.5 0.5
9 0 1 0 0 0 1 0 0 0 1 75.5 -33.866 115.1 1 0.5 1.5
9 0 1 0 0 0 1 0 0 0 1 75 -36.366 -51.89999 0.5 1 1.5
9 0 1 0 0 0 1 0 0 0 1 73 -35.366 -46.89999 0.5 1 1.5
9 0 1 0 0 0 1 0 0 0 1 71 -35.366 -54.89999 0.5 1 1.5
9 0 1 0 0 0 1 0 0 0 1 70.5 -38.866 127.1 1 1.5 0.5
9 0 1 0 0 0 1 0 0 0 1 67.5 -40.866 -67.89999 1 0.5 1.5
9 0 1 0 0 0 1 0 0 0 1 67.5 -40.866 129.1 1 1.5 0.5
9 0 1 0 0 0 1 0 0 0 1 64 -39.866 -71.39999 0.5 1.5 1
9 0 1 0 0 0 1 0 0 0 1 64 -41.866 -74.39999 1.5 0.5 1
9 0 1 0 0 0 1 0 0 0 1 62 -40.366 -75.89999 1.5 1 0.5
9 0 1 0 0 0 1 0 0 0 1 59 -17.366 131.1 0.5 3 0.5
9 0 1 0 0 0 1 0 0 0 1 57.5 1.134003 -46.89999 1 0.5 1.5
9 0 1 0 0 0 1 0 0 0 1 56 2.134003 -45.39999 0.5 0.5 3
9 0 1 0 0 0 1 0 0 0 1 56 1.134003 -49.39999 1.5 0.5 1
9 0 1 0 0 0 1 0 0 0 1 55.5 -17.866 133.1 1 1.5 0.5
9 0 1 0 0 0 1 0 0 0 1 55 -50.366 137.1 1.5 1 0.5
9 0 1 0 0 0 1 0 0 0 1 53.5 1.134003 -52.89999 1 0.5 1.5
9 0 1 0 0 0 1 0 0 0 1 52.5 2.134003 -51.89999 1 0.5 1.5
9 0 1 0 0 0 1 0 0 0 1 53 -19.366 134.1 1.5 1 0.5
9 0 1 0 0 0 1 0 0 0 1 53 -51.866 136.6 1.5 0.5 1
9 0 1 0 0 0 1 0 0 0 1 50.5 1.134003 -56.89999 1 0.5 1.5
9 0 1 0 0 0 1 0 0 0 1 48 1.134003 -59.39999 1.5 0.5 1
9 0 1 0 0 0 1 0 0 0 1 43 -53.866 135.6 1.5 0.5 1
9 0 1 0 0 0 1 0 0 0 1 40.5 -49.866 -100.9 1 1.5 0.5
9 0 1 0 0 0 1 0 0 0 1 36.5 -9.865997 -83.89999 1 1.5 0.5
9 0 1 0 0 0 1 0 0 0 1 36 -10.866 -85.39999 0.5 1.5 1
9 0 1 0 0 0 1 0 0 0 1 37.5 -57.866 136.1 3 0.5 0.5
9 0 1 0 0 0 1 0 0 0 1 35 0.1340027 -72.39999 1.5 0.5 1
9 0 1 0 0 0 1 0 0 0 1 34.5 -12.866 -87.89999 1 1.5 0.5
9 0 1 0 0 0 1 0 0 0 1 34.5 -51.866 -104.9 1 1.5 0.5
9 0 1 0 0 0 1 0 0 0 1 32 -3.865997 -80.39999 1.5 0.5 1
9 0 1 0 0 0 1 0 0 0 1 31.5 -52.866 -106.9 1 1.5 0.5
9 0 1 0 0 0 1 0 0 0 1 31 -5.865997 -83.39999 1.5 0.5 1
9 0 1 0 0 0 1 0 0 0 1 31 -7.365997 -84.89999 1.5 1 0.5
9 0 1 0 0 0 1 0 0 0 1 31 -8.365997 -85.89999 1.5 1 0.5
9 0 1 0 0 0 1 0 0 0 1 30 -15.366 -91.89999 1.5 1 0.5
9 0 1 0 0 0 1 0 0 0 1 29 -8.365997 -86.89999 1.5 1 0.5
9 0 1 0 0 0 1 0 0 0 1 26 -8.365997 -87.89999 1.5 1 0.5
9 0 1 0 0 0 1 0 0 0 1 26 -9.365997 -88.89999 1.5 1 0.5
9 0 1 0 0 0 1 0 0 0 1 26 -17.366 -94.89999 1.5 1 0.5
9 0 1 0 0 0 1 0 0 0 1 25.5 -54.866 -110.9 1 1.5 0.5
9 0 1 0 0 0 1 0 0 0 1 25 -10.366 -89.89999 1.5 1 0.5
9 0 1 0 0 0 1 0 0 0 1 23 -12.366 -91.89999 1.5 1 0.5
9 0 1 0 0 0 1 0 0 0 1 22 -10.366 -90.89999 1.5 1 0.5
9 0 1 0 0 0 1 0 0 0 1 21 0.1340027 -77.39999 1.5 0.5 1
9 0 1 0 0 0 1 0 0 0 1 21 -1.865997 -81.39999 1.5 0.5 1
9 0 1 0 0 0 1 0 0 0 1 20.5 -56.866 -113.9 1 1.5 0.5
9 0 1 0 0 0 1 0 0 0 1 19.5 -8.865997 -90.89999 1 1.5 0.5
9 0 1 0 0 0 1 0 0 0 1 19 -19.366 -98.89999 1.5 1 0.5
9 0 1 0 0 0 1 0 0 0 1 19 -61.866 135.6 1.5 0.5 1
9 0 1 0 0 0 1 0 0 0 1 18 -20.366 -99.89999 1.5 1 0.5
9 0 1 0 0 0 1 0 0 0 1 17 -12.366 -93.89999 1.5 1 0.5
9 0 1 0 0 0 1 0 0 0 1 17 -21.366 -100.9 1.5 1 0.5
9 0 1 0 0 0 1 0 0 0 1 16 -60.866 -117.4 1.5 0.5 1
9 0 1 0 0 0 1 0 0 0 1 14 -21.366 -101.9 1.5 1 0.5
9 0 1 0 0 0 1 0 0 0 1 12 -3.865997 -87.39999 1.5 0.5 1
9 0 1 0 0 0 1 0 0 0 1 12 -6.365997 -89.89999 1.5 1 0.5
9 0 1 0 0 0 1 0 0 0 1 10 -2.865997 -86.39999 1.5 0.5 1
9 0 1 0 0 0 1 0 0 0 1 11.5 -4.865997 -88.89999 3 0.5 0.5
9 0 1 0 0 0 1 0 0 0 1 10 -9.365997 -93.89999 1.5 1 0.5
9 0 1 0 0 0 1 0 0 0 1 10 -10.366 -94.89999 1.5 1 0.5
9 0 1 0 0 0 1 0 0 0 1 10 -62.866 -120.4 1.5 0.5 1
9 0 1 0 0 0 1 0 0 0 1 8 -55.366 138.1 0.5 3 0.5
9 0 1 0 0 0 1 0 0 0 1 8 -22.366 -104.9 1.5 1 0.5
9 0 1 0 0 0 1 0 0 0 1 7 1.134003 -82.39999 1.5 0.5 1
9 0 1 0 0 0 1 0 0 0 1 7 -61.366 -122.9 1.5 1 0.5
9 0 1 0 0 0 1 0 0 0 1 -6.5 -61.866 -122.9 1 1.5 0.5
9 0 1 0 0 0 1 0 0 0 1 -5.5 1.134003 -82.89999 3 0.5 0.5
9 0 1 0 0 0 1 0 0 0 1 -8 -55.366 138.1 0.5 3 0.5
9 0 1 0 0 0 1 0 0 0 1 -8 -22.366 -104.9 1.5 1 0.5
9 0 1 0 0 0 1 0 0 0 1 -10 -2.865997 -86.39999 1.5 0.5 1
9 0 1 0 0 0 1 0 0 0 1 -10 -10.366 -94.89999 1.5 1 0.5
9 0 1 0 0 0 1 0 0 0 1 -8.5 -62.866 -120.9 3 0.5 0.5
9 0 1 0 0 0 1 0 0 0 1 -10.5 -3.865997 -87.89999 3 0.5 0.5
9 0 1 0 0 0 1 0 0 0 1 -12 -6.365997 -89.89999 1.5 1 0.5
9 0 1 0 0 0 1 0 0 0 1 -11.5 -4.865997 -88.89999 3 0.5 0.5
9 0 1 0 0 0 1 0 0 0 1 -14 -10.366 -93.89999 1.5 1 0.5
9 0 1 0 0 0 1 0 0 0 1 -14 -21.366 -101.9 1.5 1 0.5
9 0 1 0 0 0 1 0 0 0 1 -14 -60.366 -119.9 1.5 1 0.5
9 0 1 0 0 0 1 0 0 0 1 -16.5 -57.866 -115.9 1 1.5 0.5
9 0 1 0 0 0 1 0 0 0 1 -17 -12.366 -93.89999 1.5 1 0.5
9 0 1 0 0 0 1 0 0 0 1 -17 -21.366 -100.9 1.5 1 0.5
9 0 1 0 0 0 1 0 0 0 1 -17.5 -58.866 -117.9 1 1.5 0.5
9 0 1 0 0 0 1 0 0 0 1 -18 -20.366 -99.89999 1.5 1 0.5
9 0 1 0 0 0 1 0 0 0 1 -19 1.134003 -76.39999 1.5 0.5 1
9 0 1 0 0 0 1 0 0 0 1 -19 -61.866 135.6 1.5 0.5 1
9 0 1 0 0 0 1 0 0 0 1 -20.5 -56.866 -113.9 1 1.5 0.5
9 0 1 0 0 0 1 0 0 0 1 -19.5 -1.865997 -81.89999 3 0.5 0.5
9 0 1 0 0 0 1 0 0 0 1 -21.5 -0.8659973 -80.89999 1 1.5 0.5
9 0 1 0 0 0 1 0 0 0 1 -21 -11.366 -91.89999 1.5 1 0.5
9 0 1 0 0 0 1 0 0 0 1 -22 2.134003 -78.39999 1.5 0.5 1
9 0 1 0 0 0 1 0 0 0 1 -20.5 -9.865997 -90.89999 3 0.5 0.5
9 0 1 0 0 0 1 0 0 0 1 -22 -18.366 -96.89999 1.5 1 0.5
9 0 1 0 0 0 1 0 0 0 1 -25 -6.865997 -87.39999 1.5 0.5 1
9 0 1 0 0 0 1 0 0 0 1 -25 -10.366 -89.89999 1.5 1 0.5
9 0 1 0 0 0 1 0 0 0 1 -25 -18.366 -95.89999 1.5 1 0.5
9 0 1 0 0 0 1 0 0 0 1 -25.5 -54.866 -110.9 1 1.5 0.5
9 0 1 0 0 0 1 0 0 0 1 -26 -8.365997 -87.89999 1.5 1 0.5
9 0 1 0 0 0 1 0 0 0 1 -26 -9.365997 -88.89999 1.5 1 0.5
9 0 1 0 0 0 1 0 0 0 1 -26 -17.366 -94.89999 1.5 1 0.5
9 0 1 0 0 0 1 0 0 0 1 -29 -8.365997 -86.89999 1.5 1 0.5
9 0 1 0 0 0 1 0 0 0 1 -30 -15.366 -91.89999 1.5 1 0.5
9 0 1 0 0 0 1 0 0 0 1 -31 -7.865997 -85.39999 1.5 0.5 1
9 0 1 0 0 0 1 0 0 0 1 -31.5 -52.866 -106.9 1 1.5 0.5
9 0 1 0 0 0 1 0 0 0 1 -32 -58.866 135.6 1.5 0.5 1
9 0 1 0 0 0 1 0 0 0 1 -33 -11.366 -87.89999 1.5 1 0.5
9 0 1 0 0 0 1 0 0 0 1 -34.5 0.1340027 -72.89999 1 0.5 1.5
9 0 1 0 0 0 1 0 0 0 1 -34.5 -51.866 -104.9 1 1.5 0.5
9 0 1 0 0 0 1 0 0 0 1 -36 -10.866 -85.39999 0.5 1.5 1
9 0 1 0 0 0 1 0 0 0 1 -36 -8.865997 -83.39999 1.5 0.5 1
9 0 1 0 0 0 1 0 0 0 1 -37.5 1.134003 -68.89999 1 0.5 1.5
9 0 1 0 0 0 1 0 0 0 1 -40.5 -49.866 -100.9 1 1.5 0.5
9 0 1 0 0 0 1 0 0 0 1 -43 -53.866 135.6 1.5 0.5 1
9 0 1 0 0 0 1 0 0 0 1 -45 1.134003 -62.39999 1.5 0.5 1
9 0 1 0 0 0 1 0 0 0 1 -46.5 -12.866 134.1 1 1.5 0.5
9 0 1 0 0 0 1 0 0 0 1 -47 1.134003 -60.39999 1.5 0.5 1
9 0 1 0 0 0 1 0 0 0 1 -47 -49.366 -95.89999 1.5 1 0.5
9 0 1 0 0 0 1 0 0 0 1 -46.5 -53.866 137.1 3 0.5 0.5
9 0 1 0 0 0 1 0 0 0 1 -49.5 1.134003 -57.89999 1 0.5 1.5
9 0 1 0 0 0 1 0 0 0 1 -49 -48.866 -94.39999 1.5 0.5 1
9 0 1 0 0 0 1 0 0 0 1 -52.5 -51.866 136.1 1 0.5 1.5
9 0 1 0 0 0 1 0 0 0 1 -53.5 1.134003 -52.89999 1 0.5 1.5
9 0 1 0 0 0 1 0 0 0 1 -56 2.134003 -45.39999 0.5 0.5 3
9 0 1 0 0 0 1 0 0 0 1 -55.5 1.134003 -49.89999 1 0.5 1.5
9 0 1 0 0 0 1 0 0 0 1 -55.5 -9.865997 132.1 1 1.5 0.5
9 0 1 0 0 0 1 0 0 0 1 -55 -50.366 137.1 1.5 1 0.5
9 0 1 0 0 0 1 0 0 0 1 -56 -45.866 -86.39999 1.5 0.5 1
9 0 1 0 0 0 1 0 0 0 1 -57.5 1.134003 -46.89999 1 0.5 1.5
9 0 1 0 0 0 1 0 0 0 1 -59 -17.366 131.1 0.5 3 0.5
9 0 1 0 0 0 1 0 0 0 1 -58 -49.366 136.1 1.5 1 0.5
9 0 1 0 0 0 1 0 0 0 1 -62 -42.866 -77.39999 1.5 0.5 1
9 0 1 0 0 0 1 0 0 0 1 -65.5 -41.866 -71.89999 1 0.5 1.5
9 0 1 0 0 0 1 0 0 0 1 -67 -40.866 -68.39999 1.5 0.5 1
9 0 1 0 0 0 1 0 0 0 1 -71 -35.866 -56.39999 0.5 0.5 3
9 0 1 0 0 0 1 0 0 0 1 -70 -40.366 128.1 1.5 1 0.5
9 0 1 0 0 0 1 0 0 0 1 -72 -34.866 -54.39999 1.5 0.5 1
9 0 1 0 0 0 1 0 0 0 1 -75 -36.366 -51.89999 0.5 1 1.5
9 0 1 0 0 0 1 0 0 0 1 -75.5 -33.866 -41.89999 1 0.5 1.5
9 0 1 0 0 0 1 0 0 0 1 -75.5 -33.866 115.1 1 0.5 1.5
9 0 1 0 0 0 1 0 0 0 1 -76 -35.866 -46.39999 0.5 0.5 3
9 0 1 0 0 0 1 0 0 0 1 75 -37.866 121.1 0.5 0.5 2.5
9 0 1 0 0 0 1 0 0 0 1 76 -40.866 33.10001 2.5 0.5 0.5
9 0 1 0 0 0 1 0 0 0 1 61 -24.866 131.1 0.5 2.5 0.5
9 0 1 0 0 0 1 0 0 0 1 60 -27.866 132.1 0.5 2.5 0.5
9 0 1 0 0 0 1 0 0 0 1 59 -23.866 132.1 0.5 2.5 0.5
9 0 1 0 0 0 1 0 0 0 1 58 -12.866 131.1 0.5 2.5 0.5
9 0 1 0 0 0 1 0 0 0 1 57 -29.866 133.1 0.5 2.5 0.5
9 0 1 0 0 0 1 0 0 0 1 46 -53.866 137.1 2.5 0.5 0.5
9 0 1 0 0 0 1 0 0 0 1 32 -10.866 -87.89999 2.5 0.5 0.5
9 0 1 0 0 0 1 0 0 0 1 29 -57.866 137.1 2.5 0.5 0.5
9 0 1 0 0 0 1 0 0 0 1 28 -6.865997 -85.89999 2.5 0.5 0.5
9 0 1 0 0 0 1 0 0 0 1 25 1.134003 -73.89999 2.5 0.5 0.5
9 0 1 0 0 0 1 0 0 0 1 23 -18.866 -96.89999 2.5 0.5 0.5
9 0 1 0 0 0 1 0 0 0 1 20 -10.866 -91.89999 2.5 0.5 0.5
9 0 1 0 0 0 1 0 0 0 1 19 -11.866 -92.89999 2.5 0.5 0.5
9 0 1 0 0 0 1 0 0 0 1 14 -60.866 138.1 2.5 0.5 0.5
9 0 1 0 0 0 1 0 0 0 1 10 -20.866 -102.9 2.5 0.5 0.5
9 0 1 0 0 0 1 0 0 0 1 0 5.134003 -84.89999 2.5 0.5 0.5
9 0 1 0 0 0 1 0 0 0 1 0 4.134003 134.1 2.5 0.5 0.5
9 0 1 0 0 0 1 0 0 0 1 0 2.134003 -89.89999 2.5 0.5 0.5
9 0 1 0 0 0 1 0 0 0 1 0 2.134003 136.1 2.5 0.5 0.5
9 0 1 0 0 0 1 0 0 0 1 0 1.134003 -83.89999 2.5 0.5 0.5
9 0 1 0 0 0 1 0 0 0 1 0 0.1340027 130.1 2.5 0.5 0.5
9 0 1 0 0 0 1 0 0 0 1 0 -0.8659973 -94.89999 2.5 0.5 0.5
9 0 1 0 0 0 1 0 0 0 1 0 -1.865997 -88.89999 2.5 0.5 0.5
9 0 1 0 0 0 1 0 0 0 1 0 -3.865997 -95.89999 2.5 0.5 0.5
9 0 1 0 0 0 1 0 0 0 1 0 -4.865997 -92.89999 2.5 0.5 0.5
9 0 1 0 0 0 1 0 0 0 1 0 -6.865997 -101.9 2.5 0.5 0.5
9 0 1 0 0 0 1 0 0 0 1 0 -7.865997 -102.9 2.5 0.5 0.5
9 0 1 0 0 0 1 0 0 0 1 0 -9.865997 -104.9 2.5 0.5 0.5
9 0 1 0 0 0 1 0 0 0 1 0 -12.866 -99.89999 2.5 0.5 0.5
9 0 1 0 0 0 1 0 0 0 1 0 -13.866 -108.9 2.5 0.5 0.5
9 0 1 0 0 0 1 0 0 0 1 0 -14.866 -101.9 2.5 0.5 0.5
9 0 1 0 0 0 1 0 0 0 1 0 -17.866 -111.9 2.5 0.5 0.5
9 0 1 0 0 0 1 0 0 0 1 0 -17.866 -103.9 2.5 0.5 0.5
9 0 1 0 0 0 1 0 0 0 1 0 -20.866 -113.9 2.5 0.5 0.5
9 0 1 0 0 0 1 0 0 0 1 0 -21.866 -106.9 2.5 0.5 0.5
9 0 1 0 0 0 1 0 0 0 1 0 -24.866 -116.9 2.5 0.5 0.5
9 0 1 0 0 0 1 0 0 0 1 0 -26.866 -109.9 2.5 0.5 0.5
9 0 1 0 0 0 1 0 0 0 1 0 -31.866 -112.9 2.5 0.5 0.5
9 0 1 0 0 0 1 0 0 0 1 0 -50.866 -126.9 2.5 0.5 0.5
9 0 1 0 0 0 1 0 0 0 1 0 -53.866 -129.9 2.5 0.5 0.5
9 0 1 0 0 0 1 0 0 0 1 -10 -20.866 -102.9 2.5 0.5 0.5
9 0 1 0 0 0 1 0 0 0 1 -10 -58.866 134.1 2.5 0.5 0.5
9 0 1 0 0 0 1 0 0 0 1 -14 -60.866 138.1 2.5 0.5 0.5
9 0 1 0 0 0 1 0 0 0 1 -18 0.1340027 -78.89999 2.5 0.5 0.5
9 0 1 0 0 0 1 0 0 0 1 -19 -11.866 -92.89999 2.5 0.5 0.5
9 0 1 0 0 0 1 0 0 0 1 -23 -10.866 -90.89999 2.5 0.5 0.5
9 0 1 0 0 0 1 0 0 0 1 -28 -6.865997 -85.89999 2.5 0.5 0.5
9 0 1 0 0 0 1 0 0 0 1 -31 -4.865997 -81.89999 2.5 0.5 0.5
9 0 1 0 0 0 1 0 0 0 1 -58 -12.866 131.1 0.5 2.5 0.5
9 0 1 0 0 0 1 0 0 0 1 -58 -34.866 133.1 0.5 2.5 0.5
9 0 1 0 0 0 1 0 0 0 1 -59 -23.866 132.1 0.5 2.5 0.5
9 0 1 0 0 0 1 0 0 0 1 -60 -27.866 132.1 0.5 2.5 0.5
9 0 1 0 0 0 1 0 0 0 1 -61 -24.866 131.1 0.5 2.5 0.5
9 0 1 0 0 0 1 0 0 0 1 -74 -35.866 117.1 0.5 0.5 2.5
9 0 1 0 0 0 1 0 0 0 1 -75 -36.866 117.1 0.5 0.5 2.5
9 0 1 0 0 0 1 0 0 0 1 -75 -37.866 121.1 0.5 0.5 2.5
9 0 1 0 0 0 1 0 0 0 1 -76 -40.866 33.10001 2.5 0.5 0.5
9 0 1 0 0 0 1 0 0 0 1 76 -35.366 118.6 0.5 1 1
9 0 1 0 0 0 1 0 0 0 1 75 -35.366 -43.89999 0.5 2 0.5
9 0 1 0 0 0 1 0 0 0 1 73 -36.366 -49.39999 0.5 1 1
9 0 1 0 0 0 1 0 0 0 1 73 -37.366 -57.39999 0.5 1 1
9 0 1 0 0 0 1 0 0 0 1 73.5 -38.866 124.6 1 0.5 1
9 0 1 0 0 0 1 0 0 0 1 72 -33.366 -49.39999 0.5 1 1
9 0 1 0 0 0 1 0 0 0 1 72.5 -35.866 123.6 1 0.5 1
9 0 1 0 0 0 1 0 0 0 1 72 -37.866 -55.39999 0.5 0.5 2
9 0 1 0 0 0 1 0 0 0 1 72 -38.866 -58.39999 0.5 0.5 2
9 0 1 0 0 0 1 0 0 0 1 71 -37.366 125.6 0.5 1 1
9 0 1 0 0 0 1 0 0 0 1 70.5 -35.866 -58.39999 1 0.5 1
9 0 1 0 0 0 1 0 0 0 1 70 -39.366 -64.39999 0.5 1 1
9 0 1 0 0 0 1 0 0 0 1 69.5 -36.866 -61.39999 1 0.5 1
9 0 1 0 0 0 1 0 0 0 1 68 -37.366 -62.39999 0.5 1 1
9 0 1 0 0 0 1 0 0 0 1 66.5 -43.866 131.1 2 0.5 0.5
9 0 1 0 0 0 1 0 0 0 1 62 -22.366 130.1 0.5 2 0.5
9 0 1 0 0 0 1 0 0 0 1 61.5 -43.866 -78.39999 1 0.5 1
9 0 1 0 0 0 1 0 0 0 1 60 -20.366 131.1 0.5 2 0.5
9 0 1 0 0 0 1 0 0 0 1 61.5 -40.866 -76.89999 2 0.5 0.5
9 0 1 0 0 0 1 0 0 0 1 61.5 -44.866 133.1 2 0.5 0.5
9 0 1 0 0 0 1 0 0 0 1 60 -46.866 134.6 0.5 0.5 2
9 0 1 0 0 0 1 0 0 0 1 59.5 -44.866 -81.39999 1 0.5 1
9 0 1 0 0 0 1 0 0 0 1 58.5 -41.866 -81.39999 1 0.5 1
9 0 1 0 0 0 1 0 0 0 1 57 -43.366 -82.39999 0.5 1 1
9 0 1 0 0 0 1 0 0 0 1 57.5 -49.866 135.6 1 0.5 1
9 0 1 0 0 0 1 0 0 0 1 55 -9.365997 132.1 0.5 2 0.5
9 0 1 0 0 0 1 0 0 0 1 55 -44.366 -85.39999 0.5 1 1
9 0 1 0 0 0 1 0 0 0 1 55.5 -46.866 -87.39999 1 0.5 1
9 0 1 0 0 0 1 0 0 0 1 54.5 0.1340027 -54.39999 1 0.5 1
9 0 1 0 0 0 1 0 0 0 1 53.5 -9.365997 133.1 1 1 0.5
9 0 1 0 0 0 1 0 0 0 1 52.5 -44.866 -89.89999 2 0.5 0.5
9 0 1 0 0 0 1 0 0 0 1 50.5 -50.866 135.6 1 0.5 1
9 0 1 0 0 0 1 0 0 0 1 49 1.634003 -57.39999 0.5 1 1
9 0 1 0 0 0 1 0 0 0 1 49.5 -48.866 -93.39999 1 0.5 1
9 0 1 0 0 0 1 0 0 0 1 49.5 -45.866 -92.89999 2 0.5 0.5
9 0 1 0 0 0 1 0 0 0 1 46.5 -46.866 -95.89999 2 0.5 0.5
9 0 1 0 0 0 1 0 0 0 1 44.5 -48.366 -96.89999 1 1 0.5
9 0 1 0 0 0 1 0 0 0 1 44.5 1.134003 -62.89999 2 0.5 0.5
9 0 1 0 0 0 1 0 0 0 1 40.5 2.134003 -65.39999 1 0.5 1
9 0 1 0 0 0 1 0 0 0 1 40.5 0.1340027 -68.39999 1 0.5 1
9 0 1 0 0 0 1 0 0 0 1 40.5 -51.366 -103.9 1 1 0.5
9 0 1 0 0 0 1 0 0 0 1 38.5 -8.365997 -80.89999 1 1 0.5
9 0 1 0 0 0 1 0 0 0 1 38 -9.365997 -82.39999 0.5 1 1
9 0 1 0 0 0 1 0 0 0 1 39.5 -52.866 -102.9 2 0.5 0.5
9 0 1 0 0 0 1 0 0 0 1 38.5 -54.866 135.6 1 0.5 1
9 0 1 0 0 0 1 0 0 0 1 37.5 -50.366 -102.9 1 1 0.5
9 0 1 0 0 0 1 0 0 0 1 37.5 -52.366 -105.9 1 1 0.5
9 0 1 0 0 0 1 0 0 0 1 34.5 -0.8659973 -74.39999 1 0.5 1
9 0 1 0 0 0 1 0 0 0 1 34.5 -2.865997 -77.39999 1 0.5 1
9 0 1 0 0 0 1 0 0 0 1 34.5 -53.366 -107.9 1 1 0.5
9 0 1 0 0 0 1 0 0 0 1 34.5 -55.866 135.6 1 0.5 1
9 0 1 0 0 0 1 0 0 0 1 33.5 -3.365997 -78.89999 1 1 0.5
9 0 1 0 0 0 1 0 0 0 1 33.5 -4.865997 -80.39999 1 0.5 1
9 0 1 0 0 0 1 0 0 0 1 33.5 -9.365997 -84.89999 1 1 0.5
9 0 1 0 0 0 1 0 0 0 1 32.5 1.134003 -73.39999 1 0.5 1
9 0 1 0 0 0 1 0 0 0 1 32.5 -0.3659973 -74.89999 1 1 0.5
9 0 1 0 0 0 1 0 0 0 1 32.5 -5.365997 -81.89999 1 1 0.5
9 0 1 0 0 0 1 0 0 0 1 32.5 -6.865997 -83.39999 1 0.5 1
9 0 1 0 0 0 1 0 0 0 1 32.5 -13.866 -89.39999 1 0.5 1
9 0 1 0 0 0 1 0 0 0 1 31.5 -10.366 -86.89999 1 1 0.5
9 0 1 0 0 0 1 0 0 0 1 31.5 -54.366 -109.9 1 1 0.5
9 0 1 0 0 0 1 0 0 0 1 31 -58.366 136.1 0.5 2 0.5
9 0 1 0 0 0 1 0 0 0 1 30.5 -55.866 -108.9 2 0.5 0.5
9 0 1 0 0 0 1 0 0 0 1 29.5 -9.865997 -87.89999 2 0.5 0.5
9 0 1 0 0 0 1 0 0 0 1 28.5 -53.366 -108.9 1 1 0.5
9 0 1 0 0 0 1 0 0 0 1 28.5 -10.866 -88.89999 2 0.5 0.5
9 0 1 0 0 0 1 0 0 0 1 26.5 -7.365997 -86.89999 1 1 0.5
9 0 1 0 0 0 1 0 0 0 1 27.5 -15.866 -92.89999 2 0.5 0.5
9 0 1 0 0 0 1 0 0 0 1 27.5 -56.866 -110.9 2 0.5 0.5
9 0 1 0 0 0 1 0 0 0 1 26.5 -3.865997 -81.89999 2 0.5 0.5
9 0 1 0 0 0 1 0 0 0 1 25.5 0.1340027 -78.89999 2 0.5 0.5
9 0 1 0 0 0 1 0 0 0 1 24.5 -11.366 -90.89999 1 1 0.5
9 0 1 0 0 0 1 0 0 0 1 23.5 -7.865997 -88.39999 1 0.5 1
9 0 1 0 0 0 1 0 0 0 1 23.5 -57.366 -114.9 1 1 0.5
9 0 1 0 0 0 1 0 0 0 1 22.5 -13.366 -92.89999 1 1 0.5
9 0 1 0 0 0 1 0 0 0 1 21.5 -19.366 -97.89999 1 1 0.5
9 0 1 0 0 0 1 0 0 0 1 22.5 -58.866 -113.9 2 0.5 0.5
9 0 1 0 0 0 1 0 0 0 1 22.5 -59.866 134.1 2 0.5 0.5
9 0 1 0 0 0 1 0 0 0 1 22.5 -59.866 138.1 2 0.5 0.5
9 0 1 0 0 0 1 0 0 0 1 20.5 -0.8659973 -79.39999 1 0.5 1
9 0 1 0 0 0 1 0 0 0 1 20.5 -3.865997 -83.89999 2 0.5 0.5
9 0 1 0 0 0 1 0 0 0 1 19.5 -13.366 -93.89999 1 1 0.5
9 0 1 0 0 0 1 0 0 0 1 18.5 -3.365997 -84.89999 1 1 0.5
9 0 1 0 0 0 1 0 0 0 1 18.5 -14.366 -94.89999 1 1 0.5
9 0 1 0 0 0 1 0 0 0 1 18.5 -59.866 -116.4 1 0.5 1
9 0 1 0 0 0 1 0 0 0 1 18.5 -0.8659973 -82.89999 2 0.5 0.5
9 0 1 0 0 0 1 0 0 0 1 16.5 -4.865997 -86.89999 2 0.5 0.5
9 0 1 0 0 0 1 0 0 0 1 16.5 -7.865997 -89.89999 2 0.5 0.5
9 0 1 0 0 0 1 0 0 0 1 16.5 -8.865997 -90.89999 2 0.5 0.5
9 0 1 0 0 0 1 0 0 0 1 14.5 0.1340027 -80.39999 1 0.5 1
9 0 1 0 0 0 1 0 0 0 1 15.5 -1.865997 -82.89999 2 0.5 0.5
9 0 1 0 0 0 1 0 0 0 1 14.5 -23.366 -102.9 1 1 0.5
9 0 1 0 0 0 1 0 0 0 1 15.5 -57.866 -116.9 2 0.5 0.5
9 0 1 0 0 0 1 0 0 0 1 14.5 2.134003 -80.89999 2 0.5 0.5
9 0 1 0 0 0 1 0 0 0 1 13 1.634003 -79.39999 0.5 1 1
9 0 1 0 0 0 1 0 0 0 1 14.5 -13.866 -95.89999 2 0.5 0.5
9 0 1 0 0 0 1 0 0 0 1 14.5 -16.866 -97.89999 2 0.5 0.5
9 0 1 0 0 0 1 0 0 0 1 14.5 -17.866 -98.89999 2 0.5 0.5
9 0 1 0 0 0 1 0 0 0 1 13.5 -14.866 -96.89999 2 0.5 0.5
9 0 1 0 0 0 1 0 0 0 1 12.5 -22.366 -102.9 1 1 0.5
9 0 1 0 0 0 1 0 0 0 1 12.5 -59.366 -117.9 1 1 0.5
9 0 1 0 0 0 1 0 0 0 1 12.5 -60.366 -120.9 1 1 0.5
9 0 1 0 0 0 1 0 0 0 1 12.5 -12.866 -95.89999 2 0.5 0.5
9 0 1 0 0 0 1 0 0 0 1 11.5 -23.366 -103.9 1 1 0.5
9 0 1 0 0 0 1 0 0 0 1 10.5 -11.866 -95.89999 2 0.5 0.5
9 0 1 0 0 0 1 0 0 0 1 9.5 -12.866 -96.89999 2 0.5 0.5
9 0 1 0 0 0 1 0 0 0 1 8.5 -10.866 -95.89999 2 0.5 0.5
9 0 1 0 0 0 1 0 0 0 1 7 -49.366 134.1 0.5 2 0.5
9 0 1 0 0 0 1 0 0 0 1 4.5 -63.866 -121.9 2 0.5 0.5
9 0 1 0 0 0 1 0 0 0 1 0.5 -3.865997 -98.39999 1 0.5 1
9 0 1 0 0 0 1 0 0 0 1 -4.5 -63.866 -121.9 2 0.5 0.5
9 0 1 0 0 0 1 0 0 0 1 -5.5 -47.866 134.1 2 0.5 0.5
9 0 1 0 0 0 1 0 0 0 1 -7 -60.366 134.6 0.5 1 1
9 0 1 0 0 0 1 0 0 0 1 -8.5 -10.866 -95.89999 2 0.5 0.5
9 0 1 0 0 0 1 0 0 0 1 -10.5 -7.865997 -92.39999 1 0.5 1
9 0 1 0 0 0 1 0 0 0 1 -9.5 -12.866 -96.89999 2 0.5 0.5
9 0 1 0 0 0 1 0 0 0 1 -10.5 -22.366 -103.9 1 1 0.5
9 0 1 0 0 0 1 0 0 0 1 -10.5 -11.866 -95.89999 2 0.5 0.5
9 0 1 0 0 0 1 0 0 0 1 -10.5 -62.866 -119.9 2 0.5 0.5
9 0 1 0 0 0 1 0 0 0 1 -13 2.134003 -79.39999 0.5 0.5 2
9 0 1 0 0 0 1 0 0 0 1 -11.5 1.134003 -79.89999 2 0.5 0.5
9 0 1 0 0 0 1 0 0 0 1 -12.5 -14.366 -96.89999 1 1 0.5
9 0 1 0 0 0 1 0 0 0 1 -12.5 -22.366 -102.9 1 1 0.5
9 0 1 0 0 0 1 0 0 0 1 -12.5 -12.866 -95.89999 2 0.5 0.5
9 0 1 0 0 0 1 0 0 0 1 -13.5 -16.366 -97.89999 1 1 0.5
9 0 1 0 0 0 1 0 0 0 1 -14.5 -23.366 -102.9 1 1 0.5
9 0 1 0 0 0 1 0 0 0 1 -14.5 -13.866 -95.89999 2 0.5 0.5
9 0 1 0 0 0 1 0 0 0 1 -15.5 -1.865997 -84.89999 2 0.5 0.5
9 0 1 0 0 0 1 0 0 0 1 -16.5 -4.865997 -86.89999 2 0.5 0.5
9 0 1 0 0 0 1 0 0 0 1 -16.5 -60.866 -116.9 2 0.5 0.5
9 0 1 0 0 0 1 0 0 0 1 -17.5 -3.865997 -84.89999 2 0.5 0.5
9 0 1 0 0 0 1 0 0 0 1 -17.5 -13.866 -94.89999 2 0.5 0.5
9 0 1 0 0 0 1 0 0 0 1 -18.5 -0.8659973 -82.89999 2 0.5 0.5
9 0 1 0 0 0 1 0 0 0 1 -19.5 -13.366 -93.89999 1 1 0.5
9 0 1 0 0 0 1 0 0 0 1 -18.5 -59.866 -115.9 2 0.5 0.5
9 0 1 0 0 0 1 0 0 0 1 -19.5 -0.8659973 -79.89999 2 0.5 0.5
9 0 1 0 0 0 1 0 0 0 1 -19.5 -19.866 -98.89999 2 0.5 0.5
9 0 1 0 0 0 1 0 0 0 1 -20.5 -58.366 -116.9 1 1 0.5
9 0 1 0 0 0 1 0 0 0 1 -21.5 1.134003 -75.39999 1 0.5 1
9 0 1 0 0 0 1 0 0 0 1 -20.5 -18.866 -97.89999 2 0.5 0.5
9 0 1 0 0 0 1 0 0 0 1 -21.5 -12.866 -92.89999 2 0.5 0.5
9 0 1 0 0 0 1 0 0 0 1 -23 -57.366 -115.4 0.5 1 1
9 0 1 0 0 0 1 0 0 0 1 -23.5 -8.865997 -89.39999 1 0.5 1
9 0 1 0 0 0 1 0 0 0 1 -23.5 -12.366 -91.89999 1 1 0.5
9 0 1 0 0 0 1 0 0 0 1 -22.5 -58.866 -113.9 2 0.5 0.5
9 0 1 0 0 0 1 0 0 0 1 -22.5 -59.866 134.1 2 0.5 0.5
9 0 1 0 0 0 1 0 0 0 1 -22.5 -59.866 138.1 2 0.5 0.5
9 0 1 0 0 0 1 0 0 0 1 -24.5 -19.366 -96.89999 1 1 0.5
9 0 1 0 0 0 1 0 0 0 1 -24.5 -0.8659973 -80.89999 2 0.5 0.5
9 0 1 0 0 0 1 0 0 0 1 -26.5 1.134003 -77.39999 1 0.5 1
9 0 1 0 0 0 1 0 0 0 1 -27.5 -4.865997 -84.89999 2 0.5 0.5
9 0 1 0 0 0 1 0 0 0 1 -28.5 -9.365997 -87.89999 1 1 0.5
9 0 1 0 0 0 1 0 0 0 1 -27.5 -15.866 -92.89999 2 0.5 0.5
9 0 1 0 0 0 1 0 0 0 1 -28.5 -53.366 -108.9 1 1 0.5
9 0 1 0 0 0 1 0 0 0 1 -27.5 -56.866 -110.9 2 0.5 0.5
9 0 1 0 0 0 1 0 0 0 1 -29.5 -6.365997 -84.89999 1 1 0.5
9 0 1 0 0 0 1 0 0 0 1 -28.5 -10.866 -88.89999 2 0.5 0.5
9 0 1 0 0 0 1 0 0 0 1 -30.5 -9.865997 -87.39999 1 0.5 1
9 0 1 0 0 0 1 0 0 0 1 -31.5 -6.865997 -84.39999 1 0.5 1
9 0 1 0 0 0 1 0 0 0 1 -31.5 -54.366 -109.9 1 1 0.5
9 0 1 0 0 0 1 0 0 0 1 -30.5 -55.866 -108.9 2 0.5 0.5
9 0 1 0 0 0 1 0 0 0 1 -32.5 -0.3659973 -74.89999 1 1 0.5
9 0 1 0 0 0 1 0 0 0 1 -32.5 -5.865997 -82.39999 1 0.5 1
9 0 1 0 0 0 1 0 0 0 1 -32.5 -13.866 -89.39999 1 0.5 1
9 0 1 0 0 0 1 0 0 0 1 -33.5 -2.865997 -78.39999 1 0.5 1
9 0 1 0 0 0 1 0 0 0 1 -32.5 -3.865997 -79.89999 2 0.5 0.5
9 0 1 0 0 0 1 0 0 0 1 -33.5 -4.865997 -80.39999 1 0.5 1
9 0 1 0 0 0 1 0 0 0 1 -33.5 -9.365997 -84.89999 1 1 0.5
9 0 1 0 0 0 1 0 0 0 1 -34 -13.366 -88.39999 0.5 1 1
9 0 1 0 0 0 1 0 0 0 1 -34.5 -0.8659973 -74.39999 1 0.5 1
9 0 1 0 0 0 1 0 0 0 1 -35 -12.366 -87.39999 0.5 1 1
9 0 1 0 0 0 1 0 0 0 1 -34.5 -53.366 -107.9 1 1 0.5
9 0 1 0 0 0 1 0 0 0 1 -34.5 -55.866 135.6 1 0.5 1
9 0 1 0 0 0 1 0 0 0 1 -33.5 -56.866 137.1 2 0.5 0.5
9 0 1 0 0 0 1 0 0 0 1 -35.5 2.134003 -69.39999 1 0.5 1
9 0 1 0 0 0 1 0 0 0 1 -36.5 0.1340027 -71.39999 1 0.5 1
9 0 1 0 0 0 1 0 0 0 1 -36.5 -10.366 -83.89999 1 1 0.5
9 0 1 0 0 0 1 0 0 0 1 -37.5 -50.366 -102.9 1 1 0.5
9 0 1 0 0 0 1 0 0 0 1 -37.5 -52.366 -105.9 1 1 0.5
9 0 1 0 0 0 1 0 0 0 1 -38.5 -8.365997 -80.89999 1 1 0.5
9 0 1 0 0 0 1 0 0 0 1 -38.5 -54.866 135.6 1 0.5 1
9 0 1 0 0 0 1 0 0 0 1 -40.5 2.134003 -65.39999 1 0.5 1
9 0 1 0 0 0 1 0 0 0 1 -40.5 0.1340027 -68.39999 1 0.5 1
9 0 1 0 0 0 1 0 0 0 1 -40.5 -51.366 -103.9 1 1 0.5
9 0 1 0 0 0 1 0 0 0 1 -39.5 -52.866 -102.9 2 0.5 0.5
9 0 1 0 0 0 1 0 0 0 1 -43.5 -48.366 -97.89999 1 1 0.5
9 0 1 0 0 0 1 0 0 0 1 -45.5 -53.366 134.1 1 1 0.5
9 0 1 0 0 0 1 0 0 0 1 -48.5 -45.866 -93.39999 1 0.5 1
9 0 1 0 0 0 1 0 0 0 1 -51 1.634003 -55.39999 0.5 1 1
9 0 1 0 0 0 1 0 0 0 1 -50.5 -50.866 135.6 1 0.5 1
9 0 1 0 0 0 1 0 0 0 1 -51.5 -44.866 -90.39999 1 0.5 1
9 0 1 0 0 0 1 0 0 0 1 -54 -14.366 133.1 0.5 2 0.5
9 0 1 0 0 0 1 0 0 0 1 -54.5 0.1340027 -54.39999 1 0.5 1
9 0 1 0 0 0 1 0 0 0 1 -55 -12.366 133.1 0.5 2 0.5
9 0 1 0 0 0 1 0 0 0 1 -54.5 -46.866 -88.39999 1 0.5 1
9 0 1 0 0 0 1 0 0 0 1 -55.5 -48.866 135.6 1 0.5 1
9 0 1 0 0 0 1 0 0 0 1 -57 -43.366 -82.39999 0.5 1 1
9 0 1 0 0 0 1 0 0 0 1 -58 -21.366 132.1 0.5 2 0.5
9 0 1 0 0 0 1 0 0 0 1 -58.5 -41.866 -81.39999 1 0.5 1
9 0 1 0 0 0 1 0 0 0 1 -58.5 -44.866 -82.39999 1 0.5 1
9 0 1 0 0 0 1 0 0 0 1 -60 -20.366 131.1 0.5 2 0.5
9 0 1 0 0 0 1 0 0 0 1 -60.5 -43.866 -79.39999 1 0.5 1
9 0 1 0 0 0 1 0 0 0 1 -62 -22.366 130.1 0.5 2 0.5
9 0 1 0 0 0 1 0 0 0 1 -63 -41.366 -76.39999 0.5 1 1
9 0 1 0 0 0 1 0 0 0 1 -63.5 -42.866 -75.39999 1 0.5 1
9 0 1 0 0 0 1 0 0 0 1 -64 -45.866 133.6 0.5 0.5 2
9 0 1 0 0 0 1 0 0 0 1 -64.5 -38.866 -71.39999 1 0.5 1
9 0 1 0 0 0 1 0 0 0 1 -65 -41.366 -74.39999 0.5 1 1
9 0 1 0 0 0 1 0 0 0 1 -65.5 -43.366 131.1 1 1 0.5
9 0 1 0 0 0 1 0 0 0 1 -68 -37.366 -62.39999 0.5 1 1
9 0 1 0 0 0 1 0 0 0 1 -69 -36.866 -61.39999 0.5 0.5 2
9 0 1 0 0 0 1 0 0 0 1 -70 -39.366 -64.39999 0.5 1 1
9 0 1 0 0 0 1 0 0 0 1 -72 -33.366 -49.39999 0.5 1 1
9 0 1 0 0 0 1 0 0 0 1 -72 -37.866 -55.39999 0.5 0.5 2
9 0 1 0 0 0 1 0 0 0 1 -71.5 -38.866 -59.39999 1 0.5 1
9 0 1 0 0 0 1 0 0 0 1 -73 -33.366 -44.39999 0.5 1 1
9 0 1 0 0 0 1 0 0 0 1 -72.5 -35.866 123.6 1 0.5 1
9 0 1 0 0 0 1 0 0 0 1 -73 -36.366 -49.39999 0.5 1 1
9 0 1 0 0 0 1 0 0 0 1 -73 -37.366 -57.39999 0.5 1 1
9 0 1 0 0 0 1 0 0 0 1 -71.5 -39.866 127.1 2 0.5 0.5
9 0 1 0 0 0 1 0 0 0 1 -73.5 -38.866 124.6 1 0.5 1
9 0 1 0 0 0 1 0 0 0 1 75 -34.866 119.1 0.5 0.5 1.5
9 0 1 0 0 0 1 0 0 0 1 75 -36.866 116.1 0.5 0.5 1.5
9 0 1 0 0 0 1 0 0 0 1 74 -34.866 -51.89999 0.5 0.5 1.5
9 0 1 0 0 0 1 0 0 0 1 74 -35.866 -42.89999 0.5 0.5 1.5
9 0 1 0 0 0 1 0 0 0 1 74 -35.866 116.1 0.5 0.5 1.5
9 0 1 0 0 0 1 0 0 0 1 73 -32.866 -44.89999 0.5 0.5 1.5
9 0 1 0 0 0 1 0 0 0 1 73 -33.866 118.1 0.5 1.5 0.5
9 0 1 0 0 0 1 0 0 0 1 71 -36.866 -56.89999 0.5 1.5 0.5
9 0 1 0 0 0 1 0 0 0 1 69 -36.866 -59.89999 0.5 1.5 0.5
9 0 1 0 0 0 1 0 0 0 1 70 -40.866 130.1 1.5 0.5 0.5
9 0 1 0 0 0 1 0 0 0 1 66 -37.866 -65.89999 0.5 1.5 0.5
9 0 1 0 0 0 1 0 0 0 1 67 -42.866 132.1 1.5 0.5 0.5
9 0 1 0 0 0 1 0 0 0 1 65 -38.866 -68.89999 0.5 1.5 0.5
9 0 1 0 0 0 1 0 0 0 1 64 -23.866 129.1 0.5 1.5 0.5
9 0 1 0 0 0 1 0 0 0 1 64 -41.866 -75.89999 0.5 1.5 0.5
9 0 1 0 0 0 1 0 0 0 1 63 -26.866 130.1 0.5 1.5 0.5
9 0 1 0 0 0 1 0 0 0 1 64 -44.866 134.1 1.5 0.5 0.5
9 0 1 0 0 0 1 0 0 0 1 64 -45.866 134.1 0.5 0.5 1.5
9 0 1 0 0 0 1 0 0 0 1 63 -44.866 132.1 0.5 1.5 0.5
9 0 1 0 0 0 1 0 0 0 1 62 -16.866 129.1 0.5 1.5 0.5
9 0 1 0 0 0 1 0 0 0 1 62 -40.866 -74.89999 0.5 1.5 0.5
9 0 1 0 0 0 1 0 0 0 1 61 -17.866 130.1 0.5 1.5 0.5
9 0 1 0 0 0 1 0 0 0 1 60 -14.866 130.1 0.5 1.5 0.5
9 0 1 0 0 0 1 0 0 0 1 59 2.134003 -35.89999 0.5 0.5 1.5
9 0 1 0 0 0 1 0 0 0 1 59 -41.866 -78.89999 0.5 1.5 0.5
9 0 1 0 0 0 1 0 0 0 1 57 -9.865997 131.1 0.5 1.5 0.5
9 0 1 0 0 0 1 0 0 0 1 58 -44.866 -82.89999 1.5 0.5 0.5
9 0 1 0 0 0 1 0 0 0 1 58 -46.866 134.1 1.5 0.5 0.5
9 0 1 0 0 0 1 0 0 0 1 58 -48.866 134.1 1.5 0.5 0.5
9 0 1 0 0 0 1 0 0 0 1 55 -20.866 133.1 0.5 1.5 0.5
9 0 1 0 0 0 1 0 0 0 1 56 -42.866 -84.89999 1.5 0.5 0.5
9 0 1 0 0 0 1 0 0 0 1 55 1.134003 -50.89999 1.5 0.5 0.5
9 0 1 0 0 0 1 0 0 0 1 53 -44.866 -87.89999 0.5 1.5 0.5
9 0 1 0 0 0 1 0 0 0 1 52 1.134003 -54.89999 1.5 0.5 0.5
9 0 1 0 0 0 1 0 0 0 1 51 -1.865997 -62.89999 0.5 0.5 1.5
9 0 1 0 0 0 1 0 0 0 1 52 -47.866 -90.89999 1.5 0.5 0.5
9 0 1 0 0 0 1 0 0 0 1 51 -44.866 -90.89999 1.5 0.5 0.5
9 0 1 0 0 0 1 0 0 0 1 50 -1.865997 -13.89999 1.5 0.5 0.5
9 0 1 0 0 0 1 0 0 0 1 50 -1.865997 6.100006 1.5 0.5 0.5
9 0 1 0 0 0 1 0 0 0 1 50 -1.865997 26.10001 1.5 0.5 0.5
9 0 1 0 0 0 1 0 0 0 1 50 -1.865997 46.10001 1.5 0.5 0.5
9 0 1 0 0 0 1 0 0 0 1 50 -1.865997 66.10001 1.5 0.5 0.5
9 0 1 0 0 0 1 0 0 0 1 50 -1.865997 86.10001 1.5 0.5 0.5
9 0 1 0 0 0 1 0 0 0 1 48 -45.866 -93.89999 1.5 0.5 0.5
9 0 1 0 0 0 1 0 0 0 1 47 -52.866 134.1 1.5 0.5 0.5
9 0 1 0 0 0 1 0 0 0 1 45 -49.866 -99.89999 0.5 1.5 0.5
9 0 1 0 0 0 1 0 0 0 1 42 -51.866 -100.9 1.5 0.5 0.5
9 0 1 0 0 0 1 0 0 0 1 39 -55.866 134.1 1.5 0.5 0.5
9 0 1 0 0 0 1 0 0 0 1 37 -11.866 -84.89999 0.5 1.5 0.5
9 0 1 0 0 0 1 0 0 0 1 37 0.1340027 -70.89999 1.5 0.5 0.5
9 0 1 0 0 0 1 0 0 0 1 36 -8.865997 -82.89999 1.5 0.5 0.5
9 0 1 0 0 0 1 0 0 0 1 36 -53.866 -104.9 1.5 0.5 0.5
9 0 1 0 0 0 1 0 0 0 1 36 -57.866 137.1 1.5 0.5 0.5
9 0 1 0 0 0 1 0 0 0 1 34 -13.866 -88.89999 0.5 1.5 0.5
9 0 1 0 0 0 1 0 0 0 1 34 -1.865997 -75.89999 1.5 0.5 0.5
9 0 1 0 0 0 1 0 0 0 1 34 -54.866 -106.9 1.5 0.5 0.5
9 0 1 0 0 0 1 0 0 0 1 33 2.134003 -71.89999 1.5 0.5 0.5
9 0 1 0 0 0 1 0 0 0 1 33 -7.865997 -83.89999 1.5 0.5 0.5
9 0 1 0 0 0 1 0 0 0 1 32 -57.866 134.1 1.5 0.5 0.5
9 0 1 0 0 0 1 0 0 0 1 32 -58.866 135.1 1.5 0.5 0.5
9 0 1 0 0 0 1 0 0 0 1 31 -14.866 -90.89999 1.5 0.5 0.5
9 0 1 0 0 0 1 0 0 0 1 30 -1.865997 -33.89999 1.5 0.5 0.5
9 0 1 0 0 0 1 0 0 0 1 30 -1.865997 -13.89999 1.5 0.5 0.5
9 0 1 0 0 0 1 0 0 0 1 30 -1.865997 6.100006 1.5 0.5 0.5
9 0 1 0 0 0 1 0 0 0 1 30 -1.865997 26.10001 1.5 0.5 0.5
9 0 1 0 0 0 1 0 0 0 1 30 -1.865997 46.10001 1.5 0.5 0.5
9 0 1 0 0 0 1 0 0 0 1 30 -1.865997 66.10001 1.5 0.5 0.5
9 0 1 0 0 0 1 0 0 0 1 30 -1.865997 86.10001 1.5 0.5 0.5
9 0 1 0 0 0 1 0 0 0 1 30 -1.865997 106.1 1.5 0.5 0.5
9 0 1 0 0 0 1 0 0 0 1 30 -4.865997 -83.89999 1.5 0.5 0.5
9 0 1 0 0 0 1 0 0 0 1 29 2.134003 -74.89999 1.5 0.5 0.5
9 0 1 0 0 0 1 0 0 0 1 29 -3.865997 -80.89999 1.5 0.5 0.5
9 0 1 0 0 0 1 0 0 0 1 28 -16.866 -93.89999 0.5 1.5 0.5
9 0 1 0 0 0 1 0 0 0 1 29 -56.866 135.1 1.5 0.5 0.5
9 0 1 0 0 0 1 0 0 0 1 27 -0.8659973 -76.89999 1.5 0.5 0.5
9 0 1 0 0 0 1 0 0 0 1 27 -2.865997 -79.89999 1.5 0.5 0.5
9 0 1 0 0 0 1 0 0 0 1 27 -11.866 -89.89999 1.5 0.5 0.5
9 0 1 0 0 0 1 0 0 0 1 26 -18.866 -95.89999 0.5 1.5 0.5
9 0 1 0 0 0 1 0 0 0 1 27 -60.866 136.1 1.5 0.5 0.5
9 0 1 0 0 0 1 0 0 0 1 26 -57.866 -111.9 1.5 0.5 0.5
9 0 1 0 0 0 1 0 0 0 1 25 -0.8659973 -80.89999 1.5 0.5 0.5
9 0 1 0 0 0 1 0 0 0 1 24 2.134003 -77.89999 1.5 0.5 0.5
9 0 1 0 0 0 1 0 0 0 1 24 1.134003 -78.89999 1.5 0.5 0.5
9 0 1 0 0 0 1 0 0 0 1 24 -6.865997 -86.89999 1.5 0.5 0.5
9 0 1 0 0 0 1 0 0 0 1 23 -1.865997 -79.89999 1.5 0.5 0.5
9 0 1 0 0 0 1 0 0 0 1 23 -5.865997 -85.89999 1.5 0.5 0.5
9 0 1 0 0 0 1 0 0 0 1 22 1.134003 -79.89999 1.5 0.5 0.5
9 0 1 0 0 0 1 0 0 0 1 22 -14.866 -93.89999 1.5 0.5 0.5
9 0 1 0 0 0 1 0 0 0 1 21 -20.866 -98.89999 1.5 0.5 0.5
9 0 1 0 0 0 1 0 0 0 1 20 -5.865997 -88.89999 1.5 0.5 0.5
9 0 1 0 0 0 1 0 0 0 1 20 -21.866 -99.89999 1.5 0.5 0.5
9 0 1 0 0 0 1 0 0 0 1 18 -57.866 -114.9 0.5 1.5 0.5
9 0 1 0 0 0 1 0 0 0 1 18 -1.865997 -81.89999 1.5 0.5 0.5
9 0 1 0 0 0 1 0 0 0 1 17 -14.866 -95.89999 1.5 0.5 0.5
9 0 1 0 0 0 1 0 0 0 1 16 -2.865997 -83.89999 1.5 0.5 0.5
9 0 1 0 0 0 1 0 0 0 1 16 -7.865997 -91.89999 1.5 0.5 0.5
9 0 1 0 0 0 1 0 0 0 1 16 -15.866 -96.89999 1.5 0.5 0.5
9 0 1 0 0 0 1 0 0 0 1 15 1.134003 -81.89999 1.5 0.5 0.5
9 0 1 0 0 0 1 0 0 0 1 15 0.1340027 -82.89999 1.5 0.5 0.5
9 0 1 0 0 0 1 0 0 0 1 15 -60.866 -118.9 1.5 0.5 0.5
9 0 1 0 0 0 1 0 0 0 1 13 -15.866 -97.89999 1.5 0.5 0.5
9 0 1 0 0 0 1 0 0 0 1 12 -13.866 -96.89999 1.5 0.5 0.5
9 0 1 0 0 0 1 0 0 0 1 12 -16.866 -98.89999 1.5 0.5 0.5
9 0 1 0 0 0 1 0 0 0 1 11 1.134003 -79.89999 1.5 0.5 0.5
9 0 1 0 0 0 1 0 0 0 1 11 -14.866 -97.89999 1.5 0.5 0.5
9 0 1 0 0 0 1 0 0 0 1 10 -1.865997 -53.89999 1.5 0.5 0.5
9 0 1 0 0 0 1 0 0 0 1 10 -1.865997 -33.89999 1.5 0.5 0.5
9 0 1 0 0 0 1 0 0 0 1 10 -1.865997 -13.89999 1.5 0.5 0.5
9 0 1 0 0 0 1 0 0 0 1 10 -1.865997 6.100006 1.5 0.5 0.5
9 0 1 0 0 0 1 0 0 0 1 10 -1.865997 26.10001 1.5 0.5 0.5
9 0 1 0 0 0 1 0 0 0 1 10 -1.865997 46.10001 1.5 0.5 0.5
9 0 1 0 0 0 1 0 0 0 1 10 -1.865997 66.10001 1.5 0.5 0.5
9 0 1 0 0 0 1 0 0 0 1 10 -1.865997 86.10001 1.5 0.5 0.5
9 0 1 0 0 0 1 0 0 0 1 10 -1.865997 106.1 1.5 0.5 0.5
9 0 1 0 0 0 1 0 0 0 1 10 -15.866 -98.89999 1.5 0.5 0.5
9 0 1 0 0 0 1 0 0 0 1 9 -58.866 -118.9 0.5 1.5 0.5
9 0 1 0 0 0 1 0 0 0 1 10 -60.866 136.1 1.5 0.5 0.5
9 0 1 0 0 0 1 0 0 0 1 9 -1.865997 -84.89999 1.5 0.5 0.5
9 0 1 0 0 0 1 0 0 0 1 9 -3.865997 -87.89999 1.5 0.5 0.5
9 0 1 0 0 0 1 0 0 0 1 9 -13.866 -97.89999 1.5 0.5 0.5
9 0 1 0 0 0 1 0 0 0 1 8 -57.866 136.1 0.5 0.5 1.5
9 0 1 0 0 0 1 0 0 0 1 8 -14.866 -98.89999 1.5 0.5 0.5
9 0 1 0 0 0 1 0 0 0 1 8 -31.866 -110.9 1.5 0.5 0.5
9 0 1 0 0 0 1 0 0 0 1 7 -23.866 -105.9 1.5 0.5 0.5
9 0 1 0 0 0 1 0 0 0 1 7 -62.866 -120.9 1.5 0.5 0.5
9 0 1 0 0 0 1 0 0 0 1 5 -47.866 134.1 1.5 0.5 0.5
9 0 1 0 0 0 1 0 0 0 1 4 1.134003 -82.89999 1.5 0.5 0.5
9 0 1 0 0 0 1 0 0 0 1 0 -1.865997 131.1 1.5 0.5 0.5
9 0 1 0 0 0 1 0 0 0 1 -7 -49.866 134.1 0.5 1.5 0.5
9 0 1 0 0 0 1 0 0 0 1 -7 1.134003 -81.89999 1.5 0.5 0.5
9 0 1 0 0 0 1 0 0 0 1 -7 -23.866 -105.9 1.5 0.5 0.5
9 0 1 0 0 0 1 0 0 0 1 -8 -57.866 136.1 0.5 0.5 1.5
9 0 1 0 0 0 1 0 0 0 1 -8 -14.866 -98.89999 1.5 0.5 0.5
9 0 1 0 0 0 1 0 0 0 1 -8 -31.866 -110.9 1.5 0.5 0.5
9 0 1 0 0 0 1 0 0 0 1 -9 -58.866 -118.9 0.5 1.5 0.5
9 0 1 0 0 0 1 0 0 0 1 -9 -13.866 -97.89999 1.5 0.5 0.5
9 0 1 0 0 0 1 0 0 0 1 -10 -1.865997 -53.89999 1.5 0.5 0.5
9 0 1 0 0 0 1 0 0 0 1 -10 -1.865997 -33.89999 1.5 0.5 0.5
9 0 1 0 0 0 1 0 0 0 1 -10 -1.865997 -13.89999 1.5 0.5 0.5
9 0 1 0 0 0 1 0 0 0 1 -10 -1.865997 6.100006 1.5 0.5 0.5
9 0 1 0 0 0 1 0 0 0 1 -10 -1.865997 26.10001 1.5 0.5 0.5
9 0 1 0 0 0 1 0 0 0 1 -10 -1.865997 46.10001 1.5 0.5 0.5
9 0 1 0 0 0 1 0 0 0 1 -10 -1.865997 66.10001 1.5 0.5 0.5
9 0 1 0 0 0 1 0 0 0 1 -10 -1.865997 86.10001 1.5 0.5 0.5
9 0 1 0 0 0 1 0 0 0 1 -10 -1.865997 106.1 1.5 0.5 0.5
9 0 1 0 0 0 1 0 0 0 1 -10 -8.865997 -92.89999 1.5 0.5 0.5
9 0 1 0 0 0 1 0 0 0 1 -10 -15.866 -98.89999 1.5 0.5 0.5
9 0 1 0 0 0 1 0 0 0 1 -10 -60.866 136.1 1.5 0.5 0.5
9 0 1 0 0 0 1 0 0 0 1 -11 -14.866 -97.89999 1.5 0.5 0.5
9 0 1 0 0 0 1 0 0 0 1 -12 -58.866 -117.9 0.5 1.5 0.5
9 0 1 0 0 0 1 0 0 0 1 -12 -1.865997 -83.89999 1.5 0.5 0.5
9 0 1 0 0 0 1 0 0 0 1 -12 -3.865997 -86.89999 1.5 0.5 0.5
9 0 1 0 0 0 1 0 0 0 1 -12 -16.866 -98.89999 1.5 0.5 0.5
9 0 1 0 0 0 1 0 0 0 1 -12 -23.866 -103.9 1.5 0.5 0.5
9 0 1 0 0 0 1 0 0 0 1 -13 0.1340027 -80.89999 1.5 0.5 0.5
9 0 1 0 0 0 1 0 0 0 1 -14 0.1340027 -81.89999 0.5 1.5 0.5
9 0 1 0 0 0 1 0 0 0 1 -14 -17.866 -98.89999 1.5 0.5 0.5
9 0 1 0 0 0 1 0 0 0 1 -15 2.134003 -80.89999 1.5 0.5 0.5
9 0 1 0 0 0 1 0 0 0 1 -15 0.1340027 -82.89999 1.5 0.5 0.5
9 0 1 0 0 0 1 0 0 0 1 -16 -2.865997 -83.89999 1.5 0.5 0.5
9 0 1 0 0 0 1 0 0 0 1 -16 -7.865997 -91.89999 1.5 0.5 0.5
9 0 1 0 0 0 1 0 0 0 1 -16 -7.865997 -89.89999 1.5 0.5 0.5
9 0 1 0 0 0 1 0 0 0 1 -17 -14.866 -95.89999 1.5 0.5 0.5
9 0 1 0 0 0 1 0 0 0 1 -19 -2.865997 -84.89999 1.5 0.5 0.5
9 0 1 0 0 0 1 0 0 0 1 -20 -5.865997 -88.89999 1.5 0.5 0.5
9 0 1 0 0 0 1 0 0 0 1 -20 -6.865997 -89.89999 1.5 0.5 0.5
9 0 1 0 0 0 1 0 0 0 1 -20 -21.866 -99.89999 1.5 0.5 0.5
9 0 1 0 0 0 1 0 0 0 1 -21 -20.866 -98.89999 1.5 0.5 0.5
9 0 1 0 0 0 1 0 0 0 1 -22 1.134003 -79.89999 1.5 0.5 0.5
9 0 1 0 0 0 1 0 0 0 1 -22 -0.8659973 -81.89999 1.5 0.5 0.5
9 0 1 0 0 0 1 0 0 0 1 -22 -14.866 -93.89999 1.5 0.5 0.5
9 0 1 0 0 0 1 0 0 0 1 -22 -19.866 -97.89999 1.5 0.5 0.5
9 0 1 0 0 0 1 0 0 0 1 -23 -1.865997 -79.89999 1.5 0.5 0.5
9 0 1 0 0 0 1 0 0 0 1 -23 -5.865997 -85.89999 1.5 0.5 0.5
9 0 1 0 0 0 1 0 0 0 1 -24 0.1340027 -75.89999 1.5 0.5 0.5
9 0 1 0 0 0 1 0 0 0 1 -24 -3.865997 -82.89999 1.5 0.5 0.5
9 0 1 0 0 0 1 0 0 0 1 -25 -11.866 -90.89999 1.5 0.5 0.5
9 0 1 0 0 0 1 0 0 0 1 -26 -3.865997 -81.89999 1.5 0.5 0.5
9 0 1 0 0 0 1 0 0 0 1 -26 -57.866 -111.9 1.5 0.5 0.5
9 0 1 0 0 0 1 0 0 0 1 -27 -0.8659973 -76.89999 1.5 0.5 0.5
9 0 1 0 0 0 1 0 0 0 1 -27 -2.865997 -79.89999 1.5 0.5 0.5
9 0 1 0 0 0 1 0 0 0 1 -27 -11.866 -89.89999 1.5 0.5 0.5
9 0 1 0 0 0 1 0 0 0 1 -27 -16.866 -93.89999 1.5 0.5 0.5
9 0 1 0 0 0 1 0 0 0 1 -27 -60.866 136.1 1.5 0.5 0.5
9 0 1 0 0 0 1 0 0 0 1 -30 -1.865997 -33.89999 1.5 0.5 0.5
9 0 1 0 0 0 1 0 0 0 1 -30 -1.865997 -13.89999 1.5 0.5 0.5
9 0 1 0 0 0 1 0 0 0 1 -30 -1.865997 6.100006 1.5 0.5 0.5
9 0 1 0 0 0 1 0 0 0 1 -30 -1.865997 26.10001 1.5 0.5 0.5
9 0 1 0 0 0 1 0 0 0 1 -30 -1.865997 46.10001 1.5 0.5 0.5
9 0 1 0 0 0 1 0 0 0 1 -30 -1.865997 66.10001 1.5 0.5 0.5
9 0 1 0 0 0 1 0 0 0 1 -30 -1.865997 86.10001 1.5 0.5 0.5
9 0 1 0 0 0 1 0 0 0 1 -30 -1.865997 106.1 1.5 0.5 0.5
9 0 1 0 0 0 1 0 0 0 1 -31 1.134003 -74.89999 1.5 0.5 0.5
9 0 1 0 0 0 1 0 0 0 1 -31 1.134003 -70.89999 1.5 0.5 0.5
9 0 1 0 0 0 1 0 0 0 1 -31 -8.865997 -85.89999 1.5 0.5 0.5
9 0 1 0 0 0 1 0 0 0 1 -31 -14.866 -90.89999 1.5 0.5 0.5
9 0 1 0 0 0 1 0 0 0 1 -33 -6.865997 -82.89999 1.5 0.5 0.5
9 0 1 0 0 0 1 0 0 0 1 -33 -7.865997 -83.89999 1.5 0.5 0.5
9 0 1 0 0 0 1 0 0 0 1 -34 -1.865997 -75.89999 1.5 0.5 0.5
9 0 1 0 0 0 1 0 0 0 1 -34 -3.865997 -78.89999 1.5 0.5 0.5
9 0 1 0 0 0 1 0 0 0 1 -34 -54.866 -106.9 1.5 0.5 0.5
9 0 1 0 0 0 1 0 0 0 1 -35 -2.865997 -76.89999 1.5 0.5 0.5
9 0 1 0 0 0 1 0 0 0 1 -35 -58.866 136.1 1.5 0.5 0.5
9 0 1 0 0 0 1 0 0 0 1 -37 -11.866 -84.89999 0.5 1.5 0.5
9 0 1 0 0 0 1 0 0 0 1 -36 -53.866 -104.9 1.5 0.5 0.5
9 0 1 0 0 0 1 0 0 0 1 -39 -55.866 134.1 1.5 0.5 0.5
9 0 1 0 0 0 1 0 0 0 1 -39 -57.866 136.1 1.5 0.5 0.5
9 0 1 0 0 0 1 0 0 0 1 -42 -51.866 -100.9 1.5 0.5 0.5
9 0 1 0 0 0 1 0 0 0 1 -45 -48.866 134.1 0.5 1.5 0.5
9 0 1 0 0 0 1 0 0 0 1 -45 -49.866 -99.89999 0.5 1.5 0.5
9 0 1 0 0 0 1 0 0 0 1 -48 2.134003 -58.89999 0.5 0.5 1.5
9 0 1 0 0 0 1 0 0 0 1 -48 -48.866 -96.89999 0.5 1.5 0.5
9 0 1 0 0 0 1 0 0 0 1 -50 -45.866 -90.89999 0.5 1.5 0.5
9 0 1 0 0 0 1 0 0 0 1 -51 -1.865997 -62.89999 0.5 0.5 1.5
9 0 1 0 0 0 1 0 0 0 1 -50 -1.865997 -13.89999 1.5 0.5 0.5
9 0 1 0 0 0 1 0 0 0 1 -50 -1.865997 6.100006 1.5 0.5 0.5
9 0 1 0 0 0 1 0 0 0 1 -50 -1.865997 26.10001 1.5 0.5 0.5
9 0 1 0 0 0 1 0 0 0 1 -50 -1.865997 46.10001 1.5 0.5 0.5
9 0 1 0 0 0 1 0 0 0 1 -50 -1.865997 66.10001 1.5 0.5 0.5
9 0 1 0 0 0 1 0 0 0 1 -50 -1.865997 86.10001 1.5 0.5 0.5
9 0 1 0 0 0 1 0 0 0 1 -50 -48.866 -92.89999 1.5 0.5 0.5
9 0 1 0 0 0 1 0 0 0 1 -52 1.134003 -54.89999 0.5 0.5 1.5
9 0 1 0 0 0 1 0 0 0 1 -52 -47.866 -90.89999 1.5 0.5 0.5
9 0 1 0 0 0 1 0 0 0 1 -54 -43.866 -86.89999 0.5 0.5 1.5
9 0 1 0 0 0 1 0 0 0 1 -56 -45.866 -87.89999 0.5 1.5 0.5
9 0 1 0 0 0 1 0 0 0 1 -57 -9.865997 131.1 0.5 1.5 0.5
9 0 1 0 0 0 1 0 0 0 1 -57 -20.866 133.1 0.5 1.5 0.5
9 0 1 0 0 0 1 0 0 0 1 -56 -42.866 -84.89999 1.5 0.5 0.5
9 0 1 0 0 0 1 0 0 0 1 -59 2.134003 -35.89999 0.5 0.5 1.5
9 0 1 0 0 0 1 0 0 0 1 -58 -46.866 134.1 1.5 0.5 0.5
9 0 1 0 0 0 1 0 0 0 1 -60 -14.866 130.1 0.5 1.5 0.5
9 0 1 0 0 0 1 0 0 0 1 -60 -40.866 -77.89999 0.5 0.5 1.5
9 0 1 0 0 0 1 0 0 0 1 -61 -17.866 130.1 0.5 1.5 0.5
9 0 1 0 0 0 1 0 0 0 1 -62 -16.866 129.1 0.5 1.5 0.5
9 0 1 0 0 0 1 0 0 0 1 -62 -40.866 -74.89999 0.5 1.5 0.5
9 0 1 0 0 0 1 0 0 0 1 -62 -42.866 -78.89999 0.5 1.5 0.5
9 0 1 0 0 0 1 0 0 0 1 -63 -26.866 130.1 0.5 1.5 0.5
9 0 1 0 0 0 1 0 0 0 1 -62 -39.866 -75.89999 1.5 0.5 0.5
9 0 1 0 0 0 1 0 0 0 1 -63 -39.866 -72.89999 0.5 1.5 0.5
9 0 1 0 0 0 1 0 0 0 1 -63 -44.866 132.1 0.5 1.5 0.5
9 0 1 0 0 0 1 0 0 0 1 -64 -23.866 129.1 0.5 1.5 0.5
9 0 1 0 0 0 1 0 0 0 1 -65 -38.866 -68.89999 0.5 1.5 0.5
9 0 1 0 0 0 1 0 0 0 1 -64 -44.866 134.1 1.5 0.5 0.5
9 0 1 0 0 0 1 0 0 0 1 -66 -37.866 -65.89999 0.5 1.5 0.5
9 0 1 0 0 0 1 0 0 0 1 -67 -42.866 132.1 1.5 0.5 0.5
9 0 1 0 0 0 1 0 0 0 1 -67 -43.866 132.1 0.5 0.5 1.5
9 0 1 0 0 0 1 0 0 0 1 -70 -35.866 -58.89999 0.5 0.5 1.5
9 0 1 0 0 0 1 0 0 0 1 -70 -40.866 130.1 1.5 0.5 0.5
9 0 1 0 0 0 1 0 0 0 1 -73 -33.866 118.1 0.5 1.5 0.5
9 0 1 0 0 0 1 0 0 0 1 -72 -36.866 126.1 1.5 0.5 0.5
9 0 1 0 0 0 1 0 0 0 1 -74 -35.866 -42.89999 0.5 0.5 1.5
9 0 1 0 0 0 1 0 0 0 1 -75 -34.866 -48.89999 0.5 0.5 1.5
