9 0 1 0 0 0 1 0 0 0 1 0 160.0004 0 11.5 16.5 0.5
9 0 1 0 0 0 1 0 0 0 1 0 81.00035 0 2.5 57.5 0.5
9 0 1 0 0 0 1 0 0 0 1 0 61.50035 -1 1.5 38 0.5
9 0 1 0 0 0 1 0 0 0 1 0 61.50035 1 1.5 38 0.5
9 0 1 0 0 0 1 0 0 0 1 9 134.0004 0 3.5 9.5 0.5
9 0 1 0 0 0 1 0 0 0 1 -9 134.0004 0 3.5 9.5 0.5
9 0 1 0 0 0 1 0 0 0 1 0 18.00035 0 2.5 2.5 2.5
9 0 1 0 0 0 1 0 0 0 1 0 61.50035 -2 0.5 38 0.5
9 0 1 0 0 0 1 0 0 0 1 0 61.50035 2 0.5 38 0.5
9 0 1 0 0 0 1 0 0 0 1 0 178.5004 0 6.5 2 0.5
9 0 1 0 0 0 1 0 0 0 1 12 159.0004 0 0.5 15.5 0.5
9 0 1 0 0 0 1 0 0 0 1 -12 159.0004 0 0.5 15.5 0.5
9 0 1 0 0 0 1 0 0 0 1 10.5 0.0003499985 0 1 2.5 1.5
9 0 1 0 0 0 1 0 0 0 1 0 10.50035 0 2.5 1 1.5
9 0 1 0 0 0 1 0 0 0 1 0 -10.49965 0 2.5 1 1.5
9 0 1 0 0 0 1 0 0 0 1 -10.5 0.0003499985 0 1 2.5 1.5
9 0 1 0 0 0 1 0 0 0 1 7.5 121.0004 0 2 3.5 0.5
9 0 1 0 0 0 1 0 0 0 1 -7.5 121.0004 0 2 3.5 0.5
9 0 1 0 0 0 1 0 0 0 1 0 9.00035 0 1.5 0.5 1.5
9 0 1 0 0 0 1 0 0 0 1 6.5 115.5004 0 1 2 0.5
9 0 1 0 0 0 1 0 0 0 1 -6.5 115.5004 0 1 2 0.5
9 0 1 0 0 0 1 0 0 0 1 10.5 123.0004 0 1 1.5 0.5
9 0 1 0 0 0 1 0 0 0 1 8 177.5004 0 1.5 1 0.5
9 0 1 0 0 0 1 0 0 0 1 -7.5 178.0004 0 1 1.5 0.5
9 0 1 0 0 0 1 0 0 0 1 -10.5 123.0004 0 1 1.5 0.5
9 0 1 0 0 0 1 0 0 0 1 12 0.0003499985 0 0.5 1.5 0.5
9 0 1 0 0 0 1 0 0 0 1 9 0.0003499985 0 0.5 1.5 0.5
9 0 1 0 0 0 1 0 0 0 1 6 112.0004 0 0.5 1.5 0.5
9 0 1 0 0 0 1 0 0 0 1 0 139.0004 0 1.5 0.5 0.5
9 0 1 0 0 0 1 0 0 0 1 0 12.00035 0 1.5 0.5 0.5
9 0 1 0 0 0 1 0 0 0 1 0 -8.99965 0 1.5 0.5 0.5
9 0 1 0 0 0 1 0 0 0 1 0 -11.99965 0 1.5 0.5 0.5
9 0 1 0 0 0 1 0 0 0 1 -6 112.0004 0 0.5 1.5 0.5
9 0 1 0 0 0 1 0 0 0 1 -9 0.0003499985 0 0.5 1.5 0.5
9 0 1 0 0 0 1 0 0 0 1 -12 0.0003499985 0 0.5 1.5 0.5
