9 0 1 0 0 0 1 0 0 0 1 120 -0.3040161 0 118.5 1.5 1.5
9 0 1 0 0 0 1 0 0 0 1 120 -142.304 0 118.5 1.5 1.5
9 0 1 0 0 0 1 0 0 0 1 120 1.695984 0 118.5 0.5 0.5
9 0 1 0 0 0 1 0 0 0 1 120 -0.3040161 -2 118.5 0.5 0.5
9 0 1 0 0 0 1 0 0 0 1 120 -0.3040161 2 118.5 0.5 0.5
9 0 1 0 0 0 1 0 0 0 1 120 -140.304 0 118.5 0.5 0.5
9 0 1 0 0 0 1 0 0 0 1 120 -142.304 -2 118.5 0.5 0.5
9 0 1 0 0 0 1 0 0 0 1 120 -142.304 2 118.5 0.5 0.5
9 0 1 0 0 0 1 0 0 0 1 120 -144.304 0 118.5 0.5 0.5
9 0 1 0 0 0 1 0 0 0 1 218 -71.30402 0 0.5 65.5 0.5
9 0 1 0 0 0 1 0 0 0 1 22 -71.30402 0 0.5 65.5 0.5
9 0 1 0 0 0 1 0 0 0 1 207.5 1.695984 -1 9 0.5 0.5
9 0 1 0 0 0 1 0 0 0 1 149.5 1.695984 -1 9 0.5 0.5
9 0 1 0 0 0 1 0 0 0 1 91.5 1.695984 -1 9 0.5 0.5
9 0 1 0 0 0 1 0 0 0 1 90.5 1.695984 1 9 0.5 0.5
9 0 1 0 0 0 1 0 0 0 1 32.5 1.695984 1 9 0.5 0.5
9 0 1 0 0 0 1 0 0 0 1 206 1.695984 1 8.5 0.5 0.5
9 0 1 0 0 0 1 0 0 0 1 148 1.695984 1 8.5 0.5 0.5
9 0 1 0 0 0 1 0 0 0 1 34 1.695984 -1 8.5 0.5 0.5
9 0 1 0 0 0 1 0 0 0 1 41.5 0.6959839 2 8 0.5 0.5
9 0 1 0 0 0 1 0 0 0 1 215 0.6959839 2 7.5 0.5 0.5
9 0 1 0 0 0 1 0 0 0 1 199 0.6959839 -2 7.5 0.5 0.5
9 0 1 0 0 0 1 0 0 0 1 157 0.6959839 2 7.5 0.5 0.5
9 0 1 0 0 0 1 0 0 0 1 141 0.6959839 -2 7.5 0.5 0.5
9 0 1 0 0 0 1 0 0 0 1 99 0.6959839 2 7.5 0.5 0.5
9 0 1 0 0 0 1 0 0 0 1 83 0.6959839 -2 7.5 0.5 0.5
9 0 1 0 0 0 1 0 0 0 1 25 0.6959839 -2 7.5 0.5 0.5
9 0 1 0 0 0 1 0 0 0 1 196 -134.804 0 0.5 2 0.5
9 0 1 0 0 0 1 0 0 0 1 181 -134.804 0 0.5 2 0.5
9 0 1 0 0 0 1 0 0 0 1 180.5 -7.804016 0 1 1 0.5
9 0 1 0 0 0 1 0 0 0 1 150 -134.804 0 0.5 2 0.5
9 0 1 0 0 0 1 0 0 0 1 135 -134.804 0 0.5 2 0.5
9 0 1 0 0 0 1 0 0 0 1 120 -134.804 0 0.5 2 0.5
9 0 1 0 0 0 1 0 0 0 1 105 -134.804 0 0.5 2 0.5
9 0 1 0 0 0 1 0 0 0 1 90 -134.804 0 0.5 2 0.5
9 0 1 0 0 0 1 0 0 0 1 59 -134.804 0 0.5 2 0.5
9 0 1 0 0 0 1 0 0 0 1 44 -134.804 0 0.5 2 0.5
9 0 1 0 0 0 1 0 0 0 1 212 -6.304016 0 1.5 0.5 0.5
9 0 1 0 0 0 1 0 0 0 1 212 -32.30402 0 1.5 0.5 0.5
9 0 1 0 0 0 1 0 0 0 1 212 -57.30402 0 1.5 0.5 0.5
9 0 1 0 0 0 1 0 0 0 1 212 -83.30402 0 1.5 0.5 0.5
9 0 1 0 0 0 1 0 0 0 1 212 -109.304 0 1.5 0.5 0.5
9 0 1 0 0 0 1 0 0 0 1 196 -7.304016 0 0.5 1.5 0.5
9 0 1 0 0 0 1 0 0 0 1 150 -7.304016 0 0.5 1.5 0.5
9 0 1 0 0 0 1 0 0 0 1 135 -7.304016 0 0.5 1.5 0.5
9 0 1 0 0 0 1 0 0 0 1 120 -7.304016 0 0.5 1.5 0.5
9 0 1 0 0 0 1 0 0 0 1 105 -7.304016 0 0.5 1.5 0.5
9 0 1 0 0 0 1 0 0 0 1 90 -7.304016 0 0.5 1.5 0.5
9 0 1 0 0 0 1 0 0 0 1 59 -7.304016 0 0.5 1.5 0.5
9 0 1 0 0 0 1 0 0 0 1 44 -7.304016 0 0.5 1.5 0.5
9 0 1 0 0 0 1 0 0 0 1 28 -6.304016 0 1.5 0.5 0.5
9 0 1 0 0 0 1 0 0 0 1 28 -32.30402 0 1.5 0.5 0.5
9 0 1 0 0 0 1 0 0 0 1 28 -57.30402 0 1.5 0.5 0.5
9 0 1 0 0 0 1 0 0 0 1 28 -83.30402 0 1.5 0.5 0.5
9 0 1 0 0 0 1 0 0 0 1 28 -109.304 0 1.5 0.5 0.5
