9 0 1 0 0 0 1 0 0 0 1 0.198 4.845 15.558 4 3 1
9 0 1 0 0 0 1 0 0 0 1 -8.302 7.345 13.558 1.5 4.5 1
9 0 1 0 0 0 1 0 0 0 1 6.698 7.345 14.058 2.5 4.5 0.5
9 0 1 0 0 0 1 0 0 0 1 0.198 -1.655 15.058 3 3.5 0.5
9 0 1 0 0 0 1 0 0 0 1 14.698 2.345 2.557999 0.5 2.5 3
9 0 1 0 0 0 1 0 0 0 1 0.698 5.345 17.558 1.5 2.5 1
9 0 1 0 0 0 1 0 0 0 1 0.198 2.345 -14.942 3 2.5 0.5
9 0 1 0 0 0 1 0 0 0 1 13.698 5.345 7.057999 0.5 4.5 1.5
9 0 1 0 0 0 1 0 0 0 1 8.698 7.345 13.058 1.5 4.5 0.5
9 0 1 0 0 0 1 0 0 0 1 -5.802 5.845 14.558 1 3 1
9 0 1 0 0 0 1 0 0 0 1 -14.302 4.845 5.057999 0.5 4 1.5
9 0 1 0 0 0 1 0 0 0 1 12.698 6.345 8.557999 0.5 5.5 1
9 0 1 0 0 0 1 0 0 0 1 -0.302 -6.655 9.557999 2.5 0.5 2
9 0 1 0 0 0 1 0 0 0 1 11.698 6.345 10.558 0.5 4.5 1
9 0 1 0 0 0 1 0 0 0 1 10.698 6.845 11.558 0.5 4 1
9 0 1 0 0 0 1 0 0 0 1 -9.802 5.845 12.058 1 4 0.5
9 0 1 0 0 0 1 0 0 0 1 -13.302 4.845 7.557999 0.5 4 1
9 0 1 0 0 0 1 0 0 0 1 -0.302 -5.655 14.058 2.5 0.5 1.5
9 0 1 0 0 0 1 0 0 0 1 -10.802 5.345 11.058 1 3.5 0.5
9 0 1 0 0 0 1 0 0 0 1 -11.802 5.345 10.058 1 3.5 0.5
9 0 1 0 0 0 1 0 0 0 1 14.698 6.845 5.057999 0.5 2 1.5
9 0 1 0 0 0 1 0 0 0 1 5.698 5.845 15.058 1.5 2 0.5
9 0 1 0 0 0 1 0 0 0 1 0.198 10.845 15.058 1 3 0.5
9 0 1 0 0 0 1 0 0 0 1 0.198 -5.655 -8.942001 2 0.5 1.5
9 0 1 0 0 0 1 0 0 0 1 0.198 -8.655 -0.9420013 2 0.5 1.5
9 0 1 0 0 0 1 0 0 0 1 -1.802 4.845 17.058 1 3 0.5
9 0 1 0 0 0 1 0 0 0 1 -4.802 -0.1549997 14.058 1 3 0.5
9 0 1 0 0 0 1 0 0 0 1 9.698 7.345 12.058 0.5 5.5 0.5
9 0 1 0 0 0 1 0 0 0 1 0.198 18.345 -15.942 1 2.5 0.5
9 0 1 0 0 0 1 0 0 0 1 -12.302 5.845 9.057999 0.5 5 0.5
9 0 1 0 0 0 1 0 0 0 1 14.698 14.845 0.5579987 0.5 2 1
9 0 1 0 0 0 1 0 0 0 1 8.198 8.845 15.558 1 1 1
9 0 1 0 0 0 1 0 0 0 1 -5.802 10.845 14.058 1 2 0.5
9 0 1 0 0 0 1 0 0 0 1 -7.802 8.845 15.058 1 2 0.5
9 0 1 0 0 0 1 0 0 0 1 12.698 5.345 10.058 0.5 3.5 0.5
9 0 1 0 0 0 1 0 0 0 1 9.698 10.345 14.558 0.5 1.5 1
9 0 1 0 0 0 1 0 0 0 1 8.198 -4.655 -2.942001 1 0.5 1.5
9 0 1 0 0 0 1 0 0 0 1 5.198 -1.655 14.058 1 1.5 0.5
9 0 1 0 0 0 1 0 0 0 1 -0.302 8.345 16.558 1.5 0.5 1
9 0 1 0 0 0 1 0 0 0 1 -0.302 -1.155 -14.942 1.5 1 0.5
9 0 1 0 0 0 1 0 0 0 1 -0.302 -6.655 12.558 1.5 0.5 1
9 0 1 0 0 0 1 0 0 0 1 -4.302 6.845 15.058 0.5 1 1.5
9 0 1 0 0 0 1 0 0 0 1 -8.302 -5.655 1.557999 0.5 0.5 3
9 0 1 0 0 0 1 0 0 0 1 -13.302 3.345 9.557999 0.5 1.5 1
9 0 1 0 0 0 1 0 0 0 1 -14.302 11.345 3.557999 0.5 1.5 1
9 0 1 0 0 0 1 0 0 0 1 -14.302 3.345 7.557999 0.5 1.5 1
9 0 1 0 0 0 1 0 0 0 1 -14.802 3.345 3.057999 1 1.5 0.5
9 0 1 0 0 0 1 0 0 0 1 13.698 3.345 9.057999 0.5 2.5 0.5
9 0 1 0 0 0 1 0 0 0 1 8.698 -5.655 1.057999 0.5 0.5 2.5
9 0 1 0 0 0 1 0 0 0 1 2.698 4.345 17.058 0.5 2.5 0.5
9 0 1 0 0 0 1 0 0 0 1 14.698 2.845 6.057999 0.5 2 0.5
9 0 1 0 0 0 1 0 0 0 1 13.698 10.845 6.557999 0.5 1 1
9 0 1 0 0 0 1 0 0 0 1 7.198 -4.655 -5.442001 1 0.5 1
9 0 1 0 0 0 1 0 0 0 1 6.198 7.345 16.058 2 0.5 0.5
9 0 1 0 0 0 1 0 0 0 1 5.198 -5.655 -7.442001 1 0.5 1
9 0 1 0 0 0 1 0 0 0 1 0.198 2.845 -15.942 1 1 0.5
9 0 1 0 0 0 1 0 0 0 1 0.198 -6.655 -7.942001 2 0.5 0.5
9 0 1 0 0 0 1 0 0 0 1 -3.302 4.845 17.058 0.5 2 0.5
9 0 1 0 0 0 1 0 0 0 1 -2.802 -5.655 -8.442001 1 0.5 1
9 0 1 0 0 0 1 0 0 0 1 -2.802 8.345 15.058 2 0.5 0.5
9 0 1 0 0 0 1 0 0 0 1 -5.802 6.845 16.058 1 1 0.5
9 0 1 0 0 0 1 0 0 0 1 -7.302 -5.155 -4.442001 0.5 1 1
9 0 1 0 0 0 1 0 0 0 1 -7.802 12.345 13.558 1 0.5 1
9 0 1 0 0 0 1 0 0 0 1 -10.302 10.845 11.058 0.5 2 0.5
9 0 1 0 0 0 1 0 0 0 1 -11.302 3.845 12.058 0.5 2 0.5
9 0 1 0 0 0 1 0 0 0 1 14.698 12.345 2.057999 0.5 1.5 0.5
9 0 1 0 0 0 1 0 0 0 1 7.698 -5.655 -2.942001 0.5 0.5 1.5
9 0 1 0 0 0 1 0 0 0 1 7.698 -5.655 3.057999 0.5 0.5 1.5
9 0 1 0 0 0 1 0 0 0 1 4.698 1.345 14.058 0.5 1.5 0.5
9 0 1 0 0 0 1 0 0 0 1 2.698 -6.655 9.057999 0.5 0.5 1.5
9 0 1 0 0 0 1 0 0 0 1 0.698 2.345 17.058 1.5 0.5 0.5
9 0 1 0 0 0 1 0 0 0 1 0.698 1.345 16.058 1.5 0.5 0.5
9 0 1 0 0 0 1 0 0 0 1 -0.302 -8.655 1.057999 1.5 0.5 0.5
9 0 1 0 0 0 1 0 0 0 1 -3.302 3.345 -14.942 0.5 1.5 0.5
9 0 1 0 0 0 1 0 0 0 1 -4.302 12.345 14.058 0.5 1.5 0.5
9 0 1 0 0 0 1 0 0 0 1 -4.302 4.345 15.058 0.5 1.5 0.5
9 0 1 0 0 0 1 0 0 0 1 -7.302 5.345 15.058 0.5 1.5 0.5
9 0 1 0 0 0 1 0 0 0 1 -7.302 -5.655 4.057999 0.5 0.5 1.5
9 0 1 0 0 0 1 0 0 0 1 -8.302 9.345 16.058 0.5 1.5 0.5
9 0 1 0 0 0 1 0 0 0 1 -8.302 -4.655 -3.942001 0.5 0.5 1.5
9 0 1 0 0 0 1 0 0 0 1 -9.302 11.345 12.058 0.5 1.5 0.5
9 0 1 0 0 0 1 0 0 0 1 -9.302 10.345 15.058 0.5 1.5 0.5
9 0 1 0 0 0 1 0 0 0 1 -12.302 3.345 11.058 0.5 1.5 0.5
9 0 1 0 0 0 1 0 0 0 1 -13.302 10.345 7.057999 0.5 1.5 0.5
9 0 1 0 0 0 1 0 0 0 1 -14.302 0.3450003 4.057999 0.5 0.5 1.5
9 0 1 0 0 0 1 0 0 0 1 -15.302 4.345 4.057999 0.5 1.5 0.5
