9 0 1 0 0 0 1 0 0 0 1 0.2310028 -100.769 0 20.5 2.5 13
9 0 1 0 0 0 1 0 0 0 1 -99.269 -1.768997 0 2 29.5 11
9 0 1 0 0 0 1 0 0 0 1 -1.768997 100.231 2.5 22.5 3.5 6.5
9 0 1 0 0 0 1 0 0 0 1 100.731 0.2310028 3 4 20.5 6
9 0 1 0 0 0 1 0 0 0 1 -102.769 0.2310028 0 1.5 19.5 11
9 0 1 0 0 0 1 0 0 0 1 98.231 -26.769 0 3.5 6.5 8
9 0 1 0 0 0 1 0 0 0 1 29.231 -97.269 0 7.5 3 8
9 0 1 0 0 0 1 0 0 0 1 -0.2689972 -104.269 0 20 1 8
9 0 1 0 0 0 1 0 0 0 1 -31.269 96.731 0.5 7 3 7.5
9 0 1 0 0 0 1 0 0 0 1 -8.768997 100.231 -8 15.5 2.5 4
9 0 1 0 0 0 1 0 0 0 1 101.231 -6.768997 -7.5 2.5 13.5 4.5
9 0 1 0 0 0 1 0 0 0 1 -96.269 33.231 0 3 5.5 9
9 0 1 0 0 0 1 0 0 0 1 93.231 -40.769 0 2.5 5.5 10
9 0 1 0 0 0 1 0 0 0 1 41.731 -92.769 0 5 2.5 11
9 0 1 0 0 0 1 0 0 0 1 97.731 27.731 2.5 3 7 6.5
9 0 1 0 0 0 1 0 0 0 1 27.731 97.731 3 7 3 6
9 0 1 0 0 0 1 0 0 0 1 -9.768997 -97.769 0 31.5 0.5 8
9 0 1 0 0 0 1 0 0 0 1 -91.769 44.231 0 2.5 5.5 9
9 0 1 0 0 0 1 0 0 0 1 52.231 -87.269 0 4.5 3 9
9 0 1 0 0 0 1 0 0 0 1 -43.769 91.731 0.5 4.5 3 8.5
9 0 1 0 0 0 1 0 0 0 1 -95.269 -34.269 -0.5 2 6 9.5
9 0 1 0 0 0 1 0 0 0 1 -85.769 54.731 0 2.5 4 11
9 0 1 0 0 0 1 0 0 0 1 -56.269 84.731 0 4 3 9
9 0 1 0 0 0 1 0 0 0 1 -37.769 -94.769 -0.5 6.5 2.5 6.5
9 0 1 0 0 0 1 0 0 0 1 100.731 0.2310028 11 3 17.5 2
9 0 1 0 0 0 1 0 0 0 1 0.2310028 100.731 11 17.5 3 2
9 0 1 0 0 0 1 0 0 0 1 -77.269 66.231 0 3 3.5 10
9 0 1 0 0 0 1 0 0 0 1 85.231 -55.769 0.5 3.5 3.5 8.5
9 0 1 0 0 0 1 0 0 0 1 -105.269 -0.2689972 0 1 17 6
9 0 1 0 0 0 1 0 0 0 1 65.731 -77.769 0 4 2.5 10
9 0 1 0 0 0 1 0 0 0 1 76.231 -67.769 0 3.5 3.5 8
9 0 1 0 0 0 1 0 0 0 1 -67.769 76.231 0 3.5 3.5 8
9 0 1 0 0 0 1 0 0 0 1 -0.7689972 104.731 2 19.5 1 5
9 0 1 0 0 0 1 0 0 0 1 93.231 41.231 2 3.5 5.5 5
9 0 1 0 0 0 1 0 0 0 1 -85.269 -55.769 -1 3 4.5 7
9 0 1 0 0 0 1 0 0 0 1 43.731 91.731 3 5 3 6
9 0 1 0 0 0 1 0 0 0 1 -26.269 -99.769 0 6 1.5 10
9 0 1 0 0 0 1 0 0 0 1 59.731 -82.269 0 4 2 11
9 0 1 0 0 0 1 0 0 0 1 89.231 -49.269 0 3.5 3 8
9 0 1 0 0 0 1 0 0 0 1 78.231 66.231 0.5 3.5 3.5 6.5
9 0 1 0 0 0 1 0 0 0 1 86.231 54.231 2.5 2.5 5.5 5.5
9 0 1 0 0 0 1 0 0 0 1 58.731 83.731 0 5 3 5
9 0 1 0 0 0 1 0 0 0 1 -48.269 -89.769 -2 6 2.5 5
9 0 1 0 0 0 1 0 0 0 1 -100.269 0.7310028 -13 2 18 2
9 0 1 0 0 0 1 0 0 0 1 -100.269 0.7310028 13 2 18 2
9 0 1 0 0 0 1 0 0 0 1 -79.769 -64.269 0 2.5 4 7
9 0 1 0 0 0 1 0 0 0 1 -93.769 -43.769 0 2.5 3.5 8
9 0 1 0 0 0 1 0 0 0 1 99.231 19.731 -7.5 2.5 11 2.5
9 0 1 0 0 0 1 0 0 0 1 72.731 70.231 0 2 3.5 9
9 0 1 0 0 0 1 0 0 0 1 67.731 76.231 3 3 3.5 6
9 0 1 0 0 0 1 0 0 0 1 20.231 98.731 -8 10.5 2 3
9 0 1 0 0 0 1 0 0 0 1 -61.769 -81.269 -2 3.5 3 6
9 0 1 0 0 0 1 0 0 0 1 -81.769 60.731 1 4.5 2 7
9 0 1 0 0 0 1 0 0 0 1 105.731 0.2310028 1 1 15.5 4
9 0 1 0 0 0 1 0 0 0 1 -74.769 -69.769 -0.5 2.5 4.5 5.5
9 0 1 0 0 0 1 0 0 0 1 70.731 -73.269 2.5 4 2 7.5
9 0 1 0 0 0 1 0 0 0 1 -50.269 88.731 1 2 3 10
9 0 1 0 0 0 1 0 0 0 1 36.731 94.231 0.5 2 3.5 8.5
9 0 1 0 0 0 1 0 0 0 1 -72.769 71.231 1 5.5 1.5 7
9 0 1 0 0 0 1 0 0 0 1 -89.769 -49.769 1 1.5 5.5 7
9 0 1 0 0 0 1 0 0 0 1 79.731 -61.769 0.5 2 2.5 11.5
9 0 1 0 0 0 1 0 0 0 1 0.2310028 -106.269 0 9.5 1 6
9 0 1 0 0 0 1 0 0 0 1 51.231 86.231 0.5 2.5 2.5 8.5
9 0 1 0 0 0 1 0 0 0 1 81.731 59.231 2.5 2 3.5 7.5
9 0 1 0 0 0 1 0 0 0 1 -62.269 81.231 1.5 2 3.5 7.5
9 0 1 0 0 0 1 0 0 0 1 -69.269 -75.269 -2 3 4 4
9 0 1 0 0 0 1 0 0 0 1 -96.269 21.731 0 1 6 8
9 0 1 0 0 0 1 0 0 0 1 -1.268997 104.231 -7 10 1.5 3
9 0 1 0 0 0 1 0 0 0 1 -87.769 47.731 0 1.5 3 10
9 0 1 0 0 0 1 0 0 0 1 97.731 -5.768997 -6 1 14.5 3
9 0 1 0 0 0 1 0 0 0 1 -24.769 87.731 0.5 14.5 6 0.5
9 0 1 0 0 0 1 0 0 0 1 97.731 -36.269 0 2 3 7
9 0 1 0 0 0 1 0 0 0 1 0.2310028 100.731 -14 10.5 2 2
9 0 1 0 0 0 1 0 0 0 1 -44.269 -81.269 0.5 14 6 0.5
9 0 1 0 0 0 1 0 0 0 1 -87.769 -25.269 0.5 5.5 15 0.5
9 0 1 0 0 0 1 0 0 0 1 -96.269 -21.769 0.5 1 6.5 6.5
9 0 1 0 0 0 1 0 0 0 1 88.231 23.231 0.5 6.5 12.5 0.5
9 0 1 0 0 0 1 0 0 0 1 88.231 -22.769 0.5 6.5 12.5 0.5
9 0 1 0 0 0 1 0 0 0 1 -0.2689972 100.231 14.5 18 1.5 1.5
9 0 1 0 0 0 1 0 0 0 1 62.231 78.731 2 2.5 2 8
9 0 1 0 0 0 1 0 0 0 1 -49.269 -88.769 7 4 2.5 4
9 0 1 0 0 0 1 0 0 0 1 94.231 37.231 -7.5 2.5 4.5 3.5
9 0 1 0 0 0 1 0 0 0 1 30.231 -85.769 0.5 17.5 4.5 0.5
9 0 1 0 0 0 1 0 0 0 1 27.231 -101.269 0 6.5 1 6
9 0 1 0 0 0 1 0 0 0 1 22.731 88.231 0.5 12 6.5 0.5
9 0 1 0 0 0 1 0 0 0 1 -87.269 25.731 0.5 6 13 0.5
9 0 1 0 0 0 1 0 0 0 1 -20.269 -89.769 0.5 10 7.5 0.5
9 0 1 0 0 0 1 0 0 0 1 -69.269 -74.769 5.5 3 3.5 3.5
9 0 1 0 0 0 1 0 0 0 1 100.231 -5.268997 -14 1.5 12 2
9 0 1 0 0 0 1 0 0 0 1 -0.2689972 106.731 0 6 1 6
9 0 1 0 0 0 1 0 0 0 1 -28.269 101.231 0 4 1.5 6
9 0 1 0 0 0 1 0 0 0 1 -32.769 -95.769 9.5 6.5 1.5 3.5
9 0 1 0 0 0 1 0 0 0 1 91.231 49.731 0.5 2.5 3 4.5
9 0 1 0 0 0 1 0 0 0 1 89.231 -43.769 0 1.5 2.5 9
9 0 1 0 0 0 1 0 0 0 1 -98.269 -35.269 0 1 4 8
9 0 1 0 0 0 1 0 0 0 1 -102.269 -23.269 0 1 4 8
9 0 1 0 0 0 1 0 0 0 1 103.231 12.731 -6.5 1.5 6 3.5
9 0 1 0 0 0 1 0 0 0 1 100.731 0.2310028 14.5 2 10.5 1.5
9 0 1 0 0 0 1 0 0 0 1 83.231 -62.269 0 1.5 3 7
9 0 1 0 0 0 1 0 0 0 1 40.231 -96.769 0 3.5 1.5 6
9 0 1 0 0 0 1 0 0 0 1 33.231 -93.269 0 3.5 1 9
9 0 1 0 0 0 1 0 0 0 1 -95.269 43.231 0 1 4.5 7
9 0 1 0 0 0 1 0 0 0 1 -55.769 -84.769 6 2.5 2.5 5
9 0 1 0 0 0 1 0 0 0 1 -62.769 -79.769 7.5 3.5 2.5 3.5
9 0 1 0 0 0 1 0 0 0 1 0.2310028 -100.769 -14.5 13.5 1.5 1.5
9 0 1 0 0 0 1 0 0 0 1 0.2310028 -100.769 14.5 13.5 1.5 1.5
9 0 1 0 0 0 1 0 0 0 1 104.731 -0.7689972 -7 1 7.5 4
9 0 1 0 0 0 1 0 0 0 1 97.731 -27.269 10.5 2 6 2.5
9 0 1 0 0 0 1 0 0 0 1 13.731 102.731 -7 5 2 3
9 0 1 0 0 0 1 0 0 0 1 -102.269 24.731 0 1 5 6
9 0 1 0 0 0 1 0 0 0 1 49.731 -91.769 0.5 3 1.5 6.5
9 0 1 0 0 0 1 0 0 0 1 -76.769 -49.769 0.5 5.5 10.5 0.5
9 0 1 0 0 0 1 0 0 0 1 -106.769 0.2310028 -0.5 0.5 10.5 5.5
9 0 1 0 0 0 1 0 0 0 1 -77.269 49.231 0.5 6 9.5 0.5
9 0 1 0 0 0 1 0 0 0 1 -28.769 97.231 10.5 4.5 2.5 2.5
9 0 1 0 0 0 1 0 0 0 1 68.731 75.231 -7 2 3.5 4
9 0 1 0 0 0 1 0 0 0 1 28.731 -97.269 10 7 2 2
9 0 1 0 0 0 1 0 0 0 1 -23.769 -102.269 0 3.5 1 8
9 0 1 0 0 0 1 0 0 0 1 -24.269 -96.269 -4 7 1 4
9 0 1 0 0 0 1 0 0 0 1 -38.769 -91.269 1 3.5 1 8
9 0 1 0 0 0 1 0 0 0 1 -42.269 95.731 0 4 1 7
9 0 1 0 0 0 1 0 0 0 1 -100.269 31.731 0 1 4 7
9 0 1 0 0 0 1 0 0 0 1 101.731 26.231 1 1 5.5 5
9 0 1 0 0 0 1 0 0 0 1 26.231 101.731 1 5.5 1 5
9 0 1 0 0 0 1 0 0 0 1 86.731 52.731 -7 3 3 3
9 0 1 0 0 0 1 0 0 0 1 59.731 -85.769 0 3 1.5 6
9 0 1 0 0 0 1 0 0 0 1 43.731 92.731 -6 3 3 3
9 0 1 0 0 0 1 0 0 0 1 -28.769 97.731 -10 4.5 2 3
9 0 1 0 0 0 1 0 0 0 1 -39.769 -93.269 -10 4.5 2 3
9 0 1 0 0 0 1 0 0 0 1 -89.769 53.731 0 1.5 3 6
9 0 1 0 0 0 1 0 0 0 1 57.231 84.231 8 3.5 2.5 3
9 0 1 0 0 0 1 0 0 0 1 41.731 81.231 0.5 7 7.5 0.5
9 0 1 0 0 0 1 0 0 0 1 -46.769 -93.769 0 2.5 1.5 7
9 0 1 0 0 0 1 0 0 0 1 -54.769 -84.769 -4 3.5 2.5 3
9 0 1 0 0 0 1 0 0 0 1 -49.769 76.731 0.5 10.5 5 0.5
9 0 1 0 0 0 1 0 0 0 1 78.231 46.231 0.5 5.5 9.5 0.5
9 0 1 0 0 0 1 0 0 0 1 97.731 27.231 11 2 6.5 2
9 0 1 0 0 0 1 0 0 0 1 79.231 -44.269 0.5 6.5 8 0.5
9 0 1 0 0 0 1 0 0 0 1 27.231 97.731 11 6.5 2 2
9 0 1 0 0 0 1 0 0 0 1 70.731 -69.769 0.5 2 1.5 8.5
9 0 1 0 0 0 1 0 0 0 1 -72.269 68.231 -0.5 2 1.5 8.5
9 0 1 0 0 0 1 0 0 0 1 92.731 41.731 9.5 2 5 2.5
9 0 1 0 0 0 1 0 0 0 1 28.731 -97.269 -10.5 5 2 2.5
9 0 1 0 0 0 1 0 0 0 1 16.731 -96.769 0 5 0.5 10
9 0 1 0 0 0 1 0 0 0 1 100.231 12.231 -13 1.5 5.5 3
9 0 1 0 0 0 1 0 0 0 1 51.731 90.231 2.5 3 1.5 5.5
9 0 1 0 0 0 1 0 0 0 1 50.731 -75.769 0.5 11 4.5 0.5
9 0 1 0 0 0 1 0 0 0 1 29.231 95.731 -7.5 5.5 1 4.5
9 0 1 0 0 0 1 0 0 0 1 102.731 -23.769 0 1 3.5 7
9 0 1 0 0 0 1 0 0 0 1 -83.769 -62.269 0 1.5 2 8
9 0 1 0 0 0 1 0 0 0 1 -85.269 -55.269 9 2 4 3
9 0 1 0 0 0 1 0 0 0 1 97.231 -27.769 -11.5 1.5 4.5 3.5
9 0 1 0 0 0 1 0 0 0 1 90.231 44.731 -7 1.5 5 3
9 0 1 0 0 0 1 0 0 0 1 87.731 46.231 0 1 2.5 9
9 0 1 0 0 0 1 0 0 0 1 59.231 82.731 -7.5 4.5 2 2.5
9 0 1 0 0 0 1 0 0 0 1 -29.269 -96.769 -11 5 1.5 3
9 0 1 0 0 0 1 0 0 0 1 -54.769 89.231 0 2.5 1.5 6
9 0 1 0 0 0 1 0 0 0 1 -81.769 65.231 0 1.5 2.5 6
9 0 1 0 0 0 1 0 0 0 1 -89.769 -47.269 -8.5 1.5 6 2.5
9 0 1 0 0 0 1 0 0 0 1 -73.269 74.731 -0.5 2 2 5.5
9 0 1 0 0 0 1 0 0 0 1 -74.769 -68.769 8.5 2.5 2.5 3.5
9 0 1 0 0 0 1 0 0 0 1 -7.268997 97.231 -6.5 17 0.5 2.5
9 0 1 0 0 0 1 0 0 0 1 -22.769 -96.269 3.5 8.5 1 2.5
9 0 1 0 0 0 1 0 0 0 1 70.731 -73.269 -8.5 3 2 3.5
9 0 1 0 0 0 1 0 0 0 1 -71.269 -72.269 -9.5 2 3 3.5
9 0 1 0 0 0 1 0 0 0 1 -18.769 96.231 1.5 5.5 0.5 7.5
9 0 1 0 0 0 1 0 0 0 1 -63.769 -76.769 -1.5 2.5 1.5 5.5
9 0 1 0 0 0 1 0 0 0 1 78.231 61.231 1 1.5 1.5 9
9 0 1 0 0 0 1 0 0 0 1 41.731 96.231 1.5 3 1.5 4.5
9 0 1 0 0 0 1 0 0 0 1 15.731 99.731 -13 5 2 2
9 0 1 0 0 0 1 0 0 0 1 -49.269 -88.769 -9 4 2.5 2
9 0 1 0 0 0 1 0 0 0 1 -91.269 -44.269 10.5 2 4 2.5
9 0 1 0 0 0 1 0 0 0 1 -39.769 -93.269 10 6.5 1 3
9 0 1 0 0 0 1 0 0 0 1 -95.769 -32.769 11 1.5 6.5 2
9 0 1 0 0 0 1 0 0 0 1 107.231 -0.2689972 -0.5 0.5 7 5.5
9 0 1 0 0 0 1 0 0 0 1 97.731 38.231 1.5 1 3.5 5.5
9 0 1 0 0 0 1 0 0 0 1 -35.769 -99.269 -0.5 3.5 1 5.5
9 0 1 0 0 0 1 0 0 0 1 -46.769 87.231 -0.5 1.5 1.5 8.5
9 0 1 0 0 0 1 0 0 0 1 57.231 88.231 0 2.5 1.5 5
9 0 1 0 0 0 1 0 0 0 1 0.2310028 -92.269 0.5 7.5 5 0.5
9 0 1 0 0 0 1 0 0 0 1 -38.269 94.231 -10.5 5 1.5 2.5
9 0 1 0 0 0 1 0 0 0 1 -79.769 -62.769 10 2.5 2.5 3
9 0 1 0 0 0 1 0 0 0 1 -95.769 31.731 11.5 1.5 5 2.5
9 0 1 0 0 0 1 0 0 0 1 -92.269 0.2310028 0.5 5 7.5 0.5
9 0 1 0 0 0 1 0 0 0 1 80.731 -57.269 0 1 2 9
9 0 1 0 0 0 1 0 0 0 1 65.731 -81.769 0 2 1.5 6
9 0 1 0 0 0 1 0 0 0 1 53.731 -83.269 0 2 1 9
9 0 1 0 0 0 1 0 0 0 1 43.731 -89.269 -4.5 4 1 4.5
9 0 1 0 0 0 1 0 0 0 1 41.231 92.731 11 4.5 2 2
9 0 1 0 0 0 1 0 0 0 1 -0.2689972 -104.269 -10 9 1 2
9 0 1 0 0 0 1 0 0 0 1 -0.2689972 -104.269 10 9 1 2
9 0 1 0 0 0 1 0 0 0 1 -21.269 98.731 12 3 2 3
9 0 1 0 0 0 1 0 0 0 1 -38.769 93.731 11 4.5 2 2
9 0 1 0 0 0 1 0 0 0 1 -55.769 -88.769 0 1.5 1.5 8
9 0 1 0 0 0 1 0 0 0 1 -59.769 -85.769 0 1.5 1.5 8
9 0 1 0 0 0 1 0 0 0 1 -65.769 81.731 0 1.5 2 6
9 0 1 0 0 0 1 0 0 0 1 -81.769 59.731 -10 1.5 3 4
9 0 1 0 0 0 1 0 0 0 1 -92.269 -50.269 0 1 3 6
9 0 1 0 0 0 1 0 0 0 1 -95.769 32.731 -11 1.5 6 2
9 0 1 0 0 0 1 0 0 0 1 85.731 54.231 10.5 2 3.5 2.5
9 0 1 0 0 0 1 0 0 0 1 83.231 58.231 -7 3.5 2.5 2
9 0 1 0 0 0 1 0 0 0 1 77.231 66.231 -8 2.5 3.5 2
9 0 1 0 0 0 1 0 0 0 1 77.231 66.231 9 2.5 3.5 2
9 0 1 0 0 0 1 0 0 0 1 98.231 -0.2689972 -11.5 0.5 23 1.5
9 0 1 0 0 0 1 0 0 0 1 -22.769 -97.769 11 11.5 0.5 3
9 0 1 0 0 0 1 0 0 0 1 0.2310028 104.731 9 8.5 1 2
9 0 1 0 0 0 1 0 0 0 1 95.231 30.231 -8.5 1.5 2.5 4.5
9 0 1 0 0 0 1 0 0 0 1 92.231 0.2310028 0.5 4.5 7.5 0.5
9 0 1 0 0 0 1 0 0 0 1 0.2310028 92.231 0.5 7.5 4.5 0.5
9 0 1 0 0 0 1 0 0 0 1 -86.769 -48.769 4.5 1.5 2.5 4.5
9 0 1 0 0 0 1 0 0 0 1 96.731 -42.269 -0.5 1 3 5.5
9 0 1 0 0 0 1 0 0 0 1 71.731 -76.769 -0.5 2 1.5 5.5
9 0 1 0 0 0 1 0 0 0 1 65.731 82.231 -0.5 2 1.5 5.5
9 0 1 0 0 0 1 0 0 0 1 44.731 -89.269 6.5 3 1 5.5
9 0 1 0 0 0 1 0 0 0 1 23.731 -103.269 -0.5 3 1 5.5
9 0 1 0 0 0 1 0 0 0 1 54.731 50.231 0.5 13 2.5 0.5
9 0 1 0 0 0 1 0 0 0 1 54.731 -49.769 0.5 13 2.5 0.5
9 0 1 0 0 0 1 0 0 0 1 -49.769 54.731 0.5 2.5 13 0.5
9 0 1 0 0 0 1 0 0 0 1 93.731 31.731 5 1 4 4
9 0 1 0 0 0 1 0 0 0 1 -35.269 92.731 -4 4 1 4
9 0 1 0 0 0 1 0 0 0 1 -62.269 76.731 0 2 1 8
9 0 1 0 0 0 1 0 0 0 1 -76.269 -63.269 1 1 2 8
9 0 1 0 0 0 1 0 0 0 1 96.231 -15.769 0 0.5 4.5 7
9 0 1 0 0 0 1 0 0 0 1 93.731 -31.769 -4.5 1 3.5 4.5
9 0 1 0 0 0 1 0 0 0 1 90.231 -53.769 0 1.5 1.5 7
9 0 1 0 0 0 1 0 0 0 1 76.231 -62.769 0 1.5 1.5 7
9 0 1 0 0 0 1 0 0 0 1 -43.269 91.231 -11.5 3 1.5 3.5
9 0 1 0 0 0 1 0 0 0 1 -78.769 -69.769 0 1.5 1.5 7
9 0 1 0 0 0 1 0 0 0 1 -92.269 -36.769 5.5 1 3.5 4.5
9 0 1 0 0 0 1 0 0 0 1 99.231 21.231 -4.5 2.5 12.5 0.5
9 0 1 0 0 0 1 0 0 0 1 38.231 94.231 -10.5 2.5 2.5 2.5
9 0 1 0 0 0 1 0 0 0 1 -75.769 -67.769 -10.5 2.5 2.5 2.5
9 0 1 0 0 0 1 0 0 0 1 -82.769 -58.769 -10.5 2.5 2.5 2.5
9 0 1 0 0 0 1 0 0 0 1 88.731 -49.269 10.5 2 3 2.5
9 0 1 0 0 0 1 0 0 0 1 76.731 71.231 2 2 1.5 5
9 0 1 0 0 0 1 0 0 0 1 76.731 -66.769 10 3 2.5 2
9 0 1 0 0 0 1 0 0 0 1 72.231 75.731 2 1.5 2 5
9 0 1 0 0 0 1 0 0 0 1 69.731 70.231 0 1 1.5 10
9 0 1 0 0 0 1 0 0 0 1 63.731 78.731 -9.5 3 2 2.5
9 0 1 0 0 0 1 0 0 0 1 31.731 93.731 -5 3 1 5
9 0 1 0 0 0 1 0 0 0 1 -0.2689972 103.731 -11.5 10 1 1.5
9 0 1 0 0 0 1 0 0 0 1 -17.269 99.231 -14 5 1.5 2
9 0 1 0 0 0 1 0 0 0 1 -36.769 92.231 5 2.5 1.5 4
9 0 1 0 0 0 1 0 0 0 1 -59.269 -82.269 -10.5 3 2 2.5
9 0 1 0 0 0 1 0 0 0 1 -62.269 80.731 -8.5 2 3 2.5
9 0 1 0 0 0 1 0 0 0 1 -54.269 -72.769 0.5 12 2.5 0.5
9 0 1 0 0 0 1 0 0 0 1 -64.769 -78.269 -10 2.5 3 2
9 0 1 0 0 0 1 0 0 0 1 -67.269 -80.769 -1 2 1.5 5
9 0 1 0 0 0 1 0 0 0 1 -67.269 76.231 10 3 2.5 2
9 0 1 0 0 0 1 0 0 0 1 -89.269 -42.769 -1 2 1.5 5
9 0 1 0 0 0 1 0 0 0 1 -91.769 -37.769 -5 1.5 2.5 4
9 0 1 0 0 0 1 0 0 0 1 -92.269 41.731 -11.5 2 3 2.5
9 0 1 0 0 0 1 0 0 0 1 -92.269 41.731 11.5 2 3 2.5
9 0 1 0 0 0 1 0 0 0 1 -97.269 41.231 0 1 2.5 6
9 0 1 0 0 0 1 0 0 0 1 -100.269 -33.769 0 1 2.5 6
9 0 1 0 0 0 1 0 0 0 1 -104.769 0.2310028 8.5 0.5 11.5 2.5
9 0 1 0 0 0 1 0 0 0 1 -104.769 0.2310028 -9 0.5 9.5 3
9 0 1 0 0 0 1 0 0 0 1 93.731 -31.269 4.5 1 4 3.5
9 0 1 0 0 0 1 0 0 0 1 80.731 -66.269 2 1 2 7
9 0 1 0 0 0 1 0 0 0 1 27.731 98.731 -4 7 2 1
9 0 1 0 0 0 1 0 0 0 1 16.731 96.231 0 4 0.5 8
9 0 1 0 0 0 1 0 0 0 1 -50.269 84.731 0 2 1 7
9 0 1 0 0 0 1 0 0 0 1 -70.769 72.731 -10 3.5 2 2
9 0 1 0 0 0 1 0 0 0 1 -86.269 -49.269 -3.5 2 2 3.5
9 0 1 0 0 0 1 0 0 0 1 54.231 75.731 0.5 5.5 5 0.5
9 0 1 0 0 0 1 0 0 0 1 -49.769 -56.269 0.5 2.5 11 0.5
9 0 1 0 0 0 1 0 0 0 1 -98.269 -22.769 -13.5 1 5.5 2.5
9 0 1 0 0 0 1 0 0 0 1 105.231 0.2310028 7 0.5 13.5 2
9 0 1 0 0 0 1 0 0 0 1 90.231 49.731 8 1.5 3 3
9 0 1 0 0 0 1 0 0 0 1 37.731 98.731 0.5 3 1 4.5
9 0 1 0 0 0 1 0 0 0 1 31.731 93.731 5.5 3 1 4.5
9 0 1 0 0 0 1 0 0 0 1 -81.769 59.731 11 1.5 3 3
9 0 1 0 0 0 1 0 0 0 1 -98.769 -21.769 13 1.5 4.5 2
9 0 1 0 0 0 1 0 0 0 1 -103.269 0.2310028 -12 1 13.5 1
9 0 1 0 0 0 1 0 0 0 1 -103.269 0.2310028 12 1 13.5 1
9 0 1 0 0 0 1 0 0 0 1 93.231 -38.769 12.5 1.5 3.5 2.5
9 0 1 0 0 0 1 0 0 0 1 88.231 -50.769 -10.5 1.5 3.5 2.5
9 0 1 0 0 0 1 0 0 0 1 85.231 -55.269 -10.5 1.5 4 2.5
9 0 1 0 0 0 1 0 0 0 1 -78.769 -63.769 -9.5 3.5 1.5 2.5
9 0 1 0 0 0 1 0 0 0 1 -86.769 -51.769 -11.5 1.5 2.5 3.5
9 0 1 0 0 0 1 0 0 0 1 65.731 -73.769 0.5 1 1.5 8.5
9 0 1 0 0 0 1 0 0 0 1 -85.269 49.231 0.5 1 1.5 8.5
9 0 1 0 0 0 1 0 0 0 1 99.231 -19.269 11.5 2.5 2 2.5
9 0 1 0 0 0 1 0 0 0 1 96.231 18.231 0 0.5 2.5 10
9 0 1 0 0 0 1 0 0 0 1 93.731 -48.769 0 1 2.5 5
9 0 1 0 0 0 1 0 0 0 1 84.231 -56.769 11 2.5 2.5 2
9 0 1 0 0 0 1 0 0 0 1 76.231 -67.269 -10.5 2.5 2 2.5
9 0 1 0 0 0 1 0 0 0 1 68.231 75.231 11 2.5 2.5 2
9 0 1 0 0 0 1 0 0 0 1 50.231 87.731 11.5 2.5 2 2.5
9 0 1 0 0 0 1 0 0 0 1 10.731 106.231 0 5 0.5 5
9 0 1 0 0 0 1 0 0 0 1 -40.769 97.731 0 2.5 1 5
9 0 1 0 0 0 1 0 0 0 1 -60.769 81.231 11 2.5 2.5 2
9 0 1 0 0 0 1 0 0 0 1 -66.269 77.231 -10.5 2 2.5 2.5
9 0 1 0 0 0 1 0 0 0 1 -69.769 -73.769 11 2.5 2.5 2
9 0 1 0 0 0 1 0 0 0 1 -71.769 71.731 10.5 2.5 2 2.5
9 0 1 0 0 0 1 0 0 0 1 -92.269 36.231 -5 1 2.5 5
9 0 1 0 0 0 1 0 0 0 1 76.231 -72.769 -0.5 1.5 1.5 5.5
9 0 1 0 0 0 1 0 0 0 1 -13.769 -105.769 -0.5 4.5 0.5 5.5
9 0 1 0 0 0 1 0 0 0 1 -80.769 -58.769 6.5 1.5 1.5 5.5
9 0 1 0 0 0 1 0 0 0 1 89.231 43.231 3 0.5 3.5 7
9 0 1 0 0 0 1 0 0 0 1 45.231 88.731 -6.5 3.5 1 3.5
9 0 1 0 0 0 1 0 0 0 1 85.731 -61.269 0 1 2 6
9 0 1 0 0 0 1 0 0 0 1 85.231 61.731 1 1.5 2 4
9 0 1 0 0 0 1 0 0 0 1 72.731 70.731 11 2 3 2
9 0 1 0 0 0 1 0 0 0 1 63.231 75.731 0 1.5 1 8
9 0 1 0 0 0 1 0 0 0 1 53.731 86.731 -10 3 2 2
9 0 1 0 0 0 1 0 0 0 1 53.731 -86.269 -11 3 2 2
9 0 1 0 0 0 1 0 0 0 1 53.731 -86.269 11 3 2 2
9 0 1 0 0 0 1 0 0 0 1 -28.269 -94.269 -4 3 1 4
9 0 1 0 0 0 1 0 0 0 1 -44.269 90.731 12 4 1 3
9 0 1 0 0 0 1 0 0 0 1 -50.269 92.731 0 2 1 6
9 0 1 0 0 0 1 0 0 0 1 -58.269 80.231 -4 2 1.5 4
9 0 1 0 0 0 1 0 0 0 1 -92.269 35.731 5 1 3 4
9 0 1 0 0 0 1 0 0 0 1 -95.769 -33.269 -12 1.5 4 2
9 0 1 0 0 0 1 0 0 0 1 18.231 -95.769 -0.5 3.5 0.5 6.5
9 0 1 0 0 0 1 0 0 0 1 -94.769 -24.769 0.5 0.5 3.5 6.5
9 0 1 0 0 0 1 0 0 0 1 100.231 -23.269 -10.5 1.5 3 2.5
9 0 1 0 0 0 1 0 0 0 1 94.231 -36.269 -12.5 1.5 3 2.5
9 0 1 0 0 0 1 0 0 0 1 89.731 55.231 1.5 1 2.5 4.5
9 0 1 0 0 0 1 0 0 0 1 89.731 -39.769 -0.5 1 1.5 7.5
9 0 1 0 0 0 1 0 0 0 1 48.231 -88.769 -12 2.5 1.5 3
9 0 1 0 0 0 1 0 0 0 1 23.231 103.731 0.5 2.5 1 4.5
9 0 1 0 0 0 1 0 0 0 1 25.231 97.731 -13.5 4.5 1 2.5
9 0 1 0 0 0 1 0 0 0 1 14.231 -105.769 0 4.5 0.5 5
9 0 1 0 0 0 1 0 0 0 1 -10.769 106.231 0 4.5 0.5 5
9 0 1 0 0 0 1 0 0 0 1 -14.769 -15.269 0.5 4.5 5 0.5
9 0 1 0 0 0 1 0 0 0 1 -15.769 103.731 -6.5 4.5 1 2.5
9 0 1 0 0 0 1 0 0 0 1 -55.269 85.231 10.5 3 2.5 1.5
9 0 1 0 0 0 1 0 0 0 1 -70.769 -69.769 5 1.5 1.5 5
9 0 1 0 0 0 1 0 0 0 1 -92.769 -43.269 -10.5 1.5 3 2.5
9 0 1 0 0 0 1 0 0 0 1 -96.769 13.231 0 0.5 2.5 9
9 0 1 0 0 0 1 0 0 0 1 103.231 24.731 -0.5 0.5 4 5.5
9 0 1 0 0 0 1 0 0 0 1 -0.7689972 104.731 -3.5 21.5 1 0.5
9 0 1 0 0 0 1 0 0 0 1 106.231 0.2310028 -5.5 0.5 8.5 2.5
9 0 1 0 0 0 1 0 0 0 1 93.231 32.231 -2 1.5 3.5 2
9 0 1 0 0 0 1 0 0 0 1 58.231 -88.269 0 1.5 1 7
9 0 1 0 0 0 1 0 0 0 1 51.731 89.731 -6.5 3 1 3.5
9 0 1 0 0 0 1 0 0 0 1 22.231 102.231 -6 3.5 1.5 2
9 0 1 0 0 0 1 0 0 0 1 -43.769 -90.269 6.5 1.5 2 3.5
9 0 1 0 0 0 1 0 0 0 1 -49.269 -85.769 -3.5 2 1.5 3.5
9 0 1 0 0 0 1 0 0 0 1 -50.769 88.231 -11 3.5 1.5 2
9 0 1 0 0 0 1 0 0 0 1 -56.269 84.731 -11 3 2 2
9 0 1 0 0 0 1 0 0 0 1 -80.269 -58.769 -3.5 2 1.5 3.5
9 0 1 0 0 0 1 0 0 0 1 -81.269 57.231 4.5 2 1.5 3.5
9 0 1 0 0 0 1 0 0 0 1 -88.269 43.231 1 1 1.5 7
9 0 1 0 0 0 1 0 0 0 1 -89.269 -56.769 0 1 1.5 7
9 0 1 0 0 0 1 0 0 0 1 -98.769 22.231 -13 1.5 3.5 2
9 0 1 0 0 0 1 0 0 0 1 -98.769 22.231 13 1.5 3.5 2
9 0 1 0 0 0 1 0 0 0 1 -100.769 -0.2689972 -15.5 1.5 14 0.5
9 0 1 0 0 0 1 0 0 0 1 -100.769 -0.2689972 15.5 1.5 14 0.5
9 0 1 0 0 0 1 0 0 0 1 -103.769 -22.769 0 0.5 3.5 6
9 0 1 0 0 0 1 0 0 0 1 60.231 -78.769 -4.5 1.5 1.5 4.5
9 0 1 0 0 0 1 0 0 0 1 29.231 -96.769 13.5 4.5 1.5 1.5
9 0 1 0 0 0 1 0 0 0 1 15.231 15.231 0.5 4.5 4.5 0.5
9 0 1 0 0 0 1 0 0 0 1 15.231 -14.769 0.5 4.5 4.5 0.5
9 0 1 0 0 0 1 0 0 0 1 -14.769 15.231 0.5 4.5 4.5 0.5
9 0 1 0 0 0 1 0 0 0 1 -51.769 -84.769 5.5 1.5 1.5 4.5
9 0 1 0 0 0 1 0 0 0 1 104.731 -12.269 -5.5 1 4 2.5
9 0 1 0 0 0 1 0 0 0 1 99.731 15.731 14 2 5 1
9 0 1 0 0 0 1 0 0 0 1 73.731 65.731 0 1 1 10
9 0 1 0 0 0 1 0 0 0 1 72.731 70.231 -11 2 2.5 2
9 0 1 0 0 0 1 0 0 0 1 46.231 87.731 5 2.5 1 4
9 0 1 0 0 0 1 0 0 0 1 39.731 92.731 -5.5 1 4 2.5
9 0 1 0 0 0 1 0 0 0 1 7.731003 100.231 -8 1 2.5 4
9 0 1 0 0 0 1 0 0 0 1 -57.769 80.731 5 2.5 1 4
9 0 1 0 0 0 1 0 0 0 1 -60.769 -83.269 8 2.5 1 4
9 0 1 0 0 0 1 0 0 0 1 -92.269 51.731 0 1 2 5
9 0 1 0 0 0 1 0 0 0 1 -94.269 25.731 0 1 2 5
9 0 1 0 0 0 1 0 0 0 1 -96.269 -24.269 -8.5 1 4 2.5
9 0 1 0 0 0 1 0 0 0 1 -97.269 -42.269 0 1 2 5
9 0 1 0 0 0 1 0 0 0 1 -104.269 21.731 0 1 2 5
9 0 1 0 0 0 1 0 0 0 1 104.231 -0.2689972 10.5 0.5 13 1.5
9 0 1 0 0 0 1 0 0 0 1 102.731 0.2310028 -13.5 1 6.5 1.5
9 0 1 0 0 0 1 0 0 0 1 33.231 95.231 12 6.5 0.5 3
9 0 1 0 0 0 1 0 0 0 1 -17.769 -97.769 -11 6.5 0.5 3
9 0 1 0 0 0 1 0 0 0 1 -73.269 -75.769 0.5 1 1.5 6.5
9 0 1 0 0 0 1 0 0 0 1 20.231 -92.269 0.5 9.5 2 0.5
9 0 1 0 0 0 1 0 0 0 1 98.231 34.231 -7.5 1.5 2.5 2.5
9 0 1 0 0 0 1 0 0 0 1 96.231 37.231 9.5 1.5 2.5 2.5
9 0 1 0 0 0 1 0 0 0 1 92.231 -41.769 -12.5 1.5 2.5 2.5
9 0 1 0 0 0 1 0 0 0 1 87.231 52.231 -11.5 2.5 2.5 1.5
9 0 1 0 0 0 1 0 0 0 1 79.231 63.231 -11.5 2.5 2.5 1.5
9 0 1 0 0 0 1 0 0 0 1 70.231 0.2310028 0.5 2.5 7.5 0.5
9 0 1 0 0 0 1 0 0 0 1 50.231 60.231 0.5 2.5 7.5 0.5
9 0 1 0 0 0 1 0 0 0 1 50.231 0.2310028 0.5 2.5 7.5 0.5
9 0 1 0 0 0 1 0 0 0 1 50.231 -59.769 0.5 2.5 7.5 0.5
9 0 1 0 0 0 1 0 0 0 1 10.231 0.2310028 6.5 2.5 7.5 0.5
9 0 1 0 0 0 1 0 0 0 1 0.2310028 70.231 0.5 7.5 2.5 0.5
9 0 1 0 0 0 1 0 0 0 1 0.2310028 50.231 0.5 7.5 2.5 0.5
9 0 1 0 0 0 1 0 0 0 1 0.2310028 10.231 6.5 7.5 2.5 0.5
9 0 1 0 0 0 1 0 0 0 1 0.2310028 -9.768997 6.5 7.5 2.5 0.5
9 0 1 0 0 0 1 0 0 0 1 0.2310028 -49.769 0.5 7.5 2.5 0.5
9 0 1 0 0 0 1 0 0 0 1 0.2310028 -69.769 0.5 7.5 2.5 0.5
9 0 1 0 0 0 1 0 0 0 1 -9.768997 0.2310028 6.5 2.5 7.5 0.5
9 0 1 0 0 0 1 0 0 0 1 -49.769 0.2310028 0.5 2.5 7.5 0.5
9 0 1 0 0 0 1 0 0 0 1 -54.769 -85.769 -10.5 1.5 2.5 2.5
9 0 1 0 0 0 1 0 0 0 1 -59.769 50.231 0.5 7.5 2.5 0.5
9 0 1 0 0 0 1 0 0 0 1 -59.769 -49.769 0.5 7.5 2.5 0.5
9 0 1 0 0 0 1 0 0 0 1 -69.769 0.2310028 0.5 2.5 7.5 0.5
9 0 1 0 0 0 1 0 0 0 1 -77.769 65.231 11.5 2.5 2.5 1.5
9 0 1 0 0 0 1 0 0 0 1 -88.769 48.231 12.5 1.5 2.5 2.5
9 0 1 0 0 0 1 0 0 0 1 99.731 23.731 -11.5 1 6 1.5
9 0 1 0 0 0 1 0 0 0 1 97.731 27.231 -12.5 1 4.5 2.5
9 0 1 0 0 0 1 0 0 0 1 95.731 24.731 -7 1 3 3
9 0 1 0 0 0 1 0 0 0 1 94.731 -32.269 11 1 3 3
9 0 1 0 0 0 1 0 0 0 1 93.731 44.731 -7.5 1 2 4.5
9 0 1 0 0 0 1 0 0 0 1 90.731 44.731 -11.5 2 3 1.5
9 0 1 0 0 0 1 0 0 0 1 82.731 64.231 3 1 1.5 6
9 0 1 0 0 0 1 0 0 0 1 82.731 -58.269 -11 1 3 3
9 0 1 0 0 0 1 0 0 0 1 82.731 58.231 -12 2 1.5 3
9 0 1 0 0 0 1 0 0 0 1 64.731 -78.269 11.5 3 2 1.5
9 0 1 0 0 0 1 0 0 0 1 62.731 82.231 8 2 1.5 3
9 0 1 0 0 0 1 0 0 0 1 60.231 -78.769 5 1.5 1.5 4
9 0 1 0 0 0 1 0 0 0 1 49.231 -88.269 12 1.5 2 3
9 0 1 0 0 0 1 0 0 0 1 48.231 -94.269 0 1.5 1 6
9 0 1 0 0 0 1 0 0 0 1 44.731 91.231 -10.5 4 1.5 1.5
9 0 1 0 0 0 1 0 0 0 1 42.731 -91.769 12.5 4 1.5 1.5
9 0 1 0 0 0 1 0 0 0 1 37.731 -93.769 -13 3 1.5 2
9 0 1 0 0 0 1 0 0 0 1 34.731 -91.769 0 2 0.5 9
9 0 1 0 0 0 1 0 0 0 1 25.231 -100.269 -10 4.5 1 2
9 0 1 0 0 0 1 0 0 0 1 25.231 -100.269 10 4.5 1 2
9 0 1 0 0 0 1 0 0 0 1 17.731 -97.769 -11 6 0.5 3
9 0 1 0 0 0 1 0 0 0 1 -23.269 -103.769 0 3 0.5 6
9 0 1 0 0 0 1 0 0 0 1 -24.269 -99.769 -11.5 4 1.5 1.5
9 0 1 0 0 0 1 0 0 0 1 -24.269 -99.769 11.5 4 1.5 1.5
9 0 1 0 0 0 1 0 0 0 1 -30.269 -101.769 0 3 0.5 6
9 0 1 0 0 0 1 0 0 0 1 -33.769 100.731 0 1.5 1 6
9 0 1 0 0 0 1 0 0 0 1 -61.769 85.731 0 1.5 1 6
9 0 1 0 0 0 1 0 0 0 1 -68.269 -75.269 -10 1 3 3
9 0 1 0 0 0 1 0 0 0 1 -70.269 -69.769 -3 2 1.5 3
9 0 1 0 0 0 1 0 0 0 1 -81.269 57.231 -3 2 1.5 3
9 0 1 0 0 0 1 0 0 0 1 -87.269 -45.269 0 1 1 9
9 0 1 0 0 0 1 0 0 0 1 -87.769 -49.269 12 1.5 2 3
9 0 1 0 0 0 1 0 0 0 1 -101.769 -30.269 0 0.5 3 6
9 0 1 0 0 0 1 0 0 0 1 73.231 -70.269 -10.5 3.5 1 2.5
9 0 1 0 0 0 1 0 0 0 1 -27.769 -94.269 3.5 3.5 1 2.5
9 0 1 0 0 0 1 0 0 0 1 -39.769 -89.769 0 2.5 0.5 7
9 0 1 0 0 0 1 0 0 0 1 -79.769 -32.269 0.5 2.5 7 0.5
9 0 1 0 0 0 1 0 0 0 1 71.731 -67.269 0.5 1 1 8.5
9 0 1 0 0 0 1 0 0 0 1 102.731 12.231 -11.5 1 5.5 1.5
9 0 1 0 0 0 1 0 0 0 1 -18.769 -99.269 -14.5 5.5 1 1.5
9 0 1 0 0 0 1 0 0 0 1 -18.769 -99.269 14.5 5.5 1 1.5
9 0 1 0 0 0 1 0 0 0 1 -68.769 80.731 -0.5 1.5 1 5.5
9 0 1 0 0 0 1 0 0 0 1 -84.269 64.231 -0.5 1 1.5 5.5
9 0 1 0 0 0 1 0 0 0 1 -87.269 60.231 -0.5 1 1.5 5.5
9 0 1 0 0 0 1 0 0 0 1 -94.269 -48.769 -0.5 1 1.5 5.5
9 0 1 0 0 0 1 0 0 0 1 68.231 72.231 3.5 2.5 0.5 6.5
9 0 1 0 0 0 1 0 0 0 1 0.2310028 30.231 0.5 6.5 2.5 0.5
9 0 1 0 0 0 1 0 0 0 1 -29.769 0.2310028 0.5 2.5 6.5 0.5
9 0 1 0 0 0 1 0 0 0 1 -96.769 1.231003 3.5 0.5 6.5 2.5
9 0 1 0 0 0 1 0 0 0 1 100.731 21.731 11 1 4 2
9 0 1 0 0 0 1 0 0 0 1 99.731 36.731 0 1 2 4
9 0 1 0 0 0 1 0 0 0 1 94.731 36.731 -12 2 4 1
9 0 1 0 0 0 1 0 0 0 1 90.731 -44.269 12 2 2 2
9 0 1 0 0 0 1 0 0 0 1 81.731 62.731 -8 2 2 2
9 0 1 0 0 0 1 0 0 0 1 81.731 59.731 12 2 2 2
9 0 1 0 0 0 1 0 0 0 1 78.731 58.731 0 1 1 8
9 0 1 0 0 0 1 0 0 0 1 71.731 -71.269 12 2 2 2
9 0 1 0 0 0 1 0 0 0 1 65.731 76.731 -5 1 4 2
9 0 1 0 0 0 1 0 0 0 1 50.731 92.731 1 2 1 4
9 0 1 0 0 0 1 0 0 0 1 36.731 -94.269 13 4 1 2
9 0 1 0 0 0 1 0 0 0 1 32.731 98.731 -7 2 2 2
9 0 1 0 0 0 1 0 0 0 1 21.731 100.731 11 4 1 2
9 0 1 0 0 0 1 0 0 0 1 17.731 -99.269 14 4 2 1
9 0 1 0 0 0 1 0 0 0 1 -43.269 -91.269 13 4 1 2
9 0 1 0 0 0 1 0 0 0 1 -64.269 -76.269 8 2 1 4
9 0 1 0 0 0 1 0 0 0 1 -73.269 65.731 0 1 1 8
9 0 1 0 0 0 1 0 0 0 1 -75.269 -69.269 -7 2 4 1
9 0 1 0 0 0 1 0 0 0 1 -93.769 -38.269 11 0.5 8 2
9 0 1 0 0 0 1 0 0 0 1 100.231 -13.769 14.5 1.5 3.5 1.5
9 0 1 0 0 0 1 0 0 0 1 75.231 -55.769 0.5 4.5 3.5 0.5
9 0 1 0 0 0 1 0 0 0 1 0.2310028 102.231 14.5 10.5 0.5 1.5
9 0 1 0 0 0 1 0 0 0 1 -13.769 -96.769 -4.5 3.5 0.5 4.5
9 0 1 0 0 0 1 0 0 0 1 105.231 18.731 0 0.5 3 5
9 0 1 0 0 0 1 0 0 0 1 102.231 -29.769 0 0.5 2.5 6
9 0 1 0 0 0 1 0 0 0 1 99.231 14.731 -3.5 2.5 6 0.5
9 0 1 0 0 0 1 0 0 0 1 97.231 -34.269 -10.5 1.5 2 2.5
9 0 1 0 0 0 1 0 0 0 1 97.231 -35.269 9.5 1.5 2 2.5
9 0 1 0 0 0 1 0 0 0 1 86.231 47.231 0 0.5 1.5 10
9 0 1 0 0 0 1 0 0 0 1 86.231 54.731 -3.5 2.5 6 0.5
9 0 1 0 0 0 1 0 0 0 1 82.731 54.231 -5 1 1.5 5
9 0 1 0 0 0 1 0 0 0 1 68.231 -74.769 12 2.5 1.5 2
9 0 1 0 0 0 1 0 0 0 1 67.731 80.231 2 3 0.5 5
9 0 1 0 0 0 1 0 0 0 1 66.231 -76.769 -12 2.5 1.5 2
9 0 1 0 0 0 1 0 0 0 1 64.231 78.231 12 1.5 2.5 2
9 0 1 0 0 0 1 0 0 0 1 58.731 83.231 -11.5 2 2.5 1.5
9 0 1 0 0 0 1 0 0 0 1 48.731 88.231 -12.5 2 1.5 2.5
9 0 1 0 0 0 1 0 0 0 1 36.731 -96.269 -10.5 3 1 2.5
9 0 1 0 0 0 1 0 0 0 1 30.231 -0.2689972 0.5 2.5 6 0.5
9 0 1 0 0 0 1 0 0 0 1 33.731 -78.769 0.5 6 2.5 0.5
9 0 1 0 0 0 1 0 0 0 1 22.731 98.231 14 5 1.5 1
9 0 1 0 0 0 1 0 0 0 1 18.731 -99.269 -14.5 5 1 1.5
9 0 1 0 0 0 1 0 0 0 1 15.731 -97.769 10.5 6 0.5 2.5
9 0 1 0 0 0 1 0 0 0 1 -0.2689972 -29.769 0.5 6 2.5 0.5
9 0 1 0 0 0 1 0 0 0 1 -20.269 -96.769 8.5 6 0.5 2.5
9 0 1 0 0 0 1 0 0 0 1 -30.269 94.731 -9.5 3 1 2.5
9 0 1 0 0 0 1 0 0 0 1 -35.769 97.231 -9 2.5 1.5 2
9 0 1 0 0 0 1 0 0 0 1 -31.769 79.731 0.5 7.5 2 0.5
9 0 1 0 0 0 1 0 0 0 1 -36.769 -96.269 -10 2.5 1 3
9 0 1 0 0 0 1 0 0 0 1 -42.769 88.231 0 2.5 0.5 6
9 0 1 0 0 0 1 0 0 0 1 -42.769 -90.269 -10 2.5 1 3
9 0 1 0 0 0 1 0 0 0 1 -49.769 -87.769 -13 2.5 1.5 2
9 0 1 0 0 0 1 0 0 0 1 -49.769 -87.769 13 2.5 1.5 2
9 0 1 0 0 0 1 0 0 0 1 -50.769 -93.269 0 1.5 1 5
9 0 1 0 0 0 1 0 0 0 1 -54.769 -85.269 12.5 2.5 2 1.5
9 0 1 0 0 0 1 0 0 0 1 -56.769 -81.269 6 1.5 1 5
9 0 1 0 0 0 1 0 0 0 1 -58.769 -88.269 0 1.5 1 5
9 0 1 0 0 0 1 0 0 0 1 -62.769 -85.269 0 1.5 1 5
9 0 1 0 0 0 1 0 0 0 1 -73.769 69.231 -12 2.5 1.5 2
9 0 1 0 0 0 1 0 0 0 1 -77.269 65.731 -12 2 2 2
9 0 1 0 0 0 1 0 0 0 1 -76.269 61.731 0.5 1 1 7.5
9 0 1 0 0 0 1 0 0 0 1 -78.769 33.731 0.5 2.5 6 0.5
9 0 1 0 0 0 1 0 0 0 1 -85.769 53.231 -13 1.5 2.5 2
9 0 1 0 0 0 1 0 0 0 1 -88.769 48.231 -12.5 1.5 2.5 2.5
9 0 1 0 0 0 1 0 0 0 1 -85.769 53.231 13 1.5 2.5 2
9 0 1 0 0 0 1 0 0 0 1 -86.269 -61.769 0 1 1.5 5
9 0 1 0 0 0 1 0 0 0 1 -96.769 -0.2689972 -3 0.5 5 3
9 0 1 0 0 0 1 0 0 0 1 -96.769 -12.769 0 0.5 2.5 9
9 0 1 0 0 0 1 0 0 0 1 -104.769 -19.769 0 0.5 2.5 6
9 0 1 0 0 0 1 0 0 0 1 0.2310028 -105.769 7.5 9.5 0.5 1.5
9 0 1 0 0 0 1 0 0 0 1 96.231 13.731 0 0.5 2 7
9 0 1 0 0 0 1 0 0 0 1 94.731 31.231 11 1 3.5 2
9 0 1 0 0 0 1 0 0 0 1 84.731 -50.269 -3.5 1 2 3.5
9 0 1 0 0 0 1 0 0 0 1 46.731 86.731 -3.5 2 1 3.5
9 0 1 0 0 0 1 0 0 0 1 45.731 89.731 12.5 2 1 3.5
9 0 1 0 0 0 1 0 0 0 1 45.731 -87.269 -3.5 2 1 3.5
9 0 1 0 0 0 1 0 0 0 1 31.231 95.731 -14 3.5 1 2
9 0 1 0 0 0 1 0 0 0 1 -0.2689972 -107.769 0 7 0.5 2
9 0 1 0 0 0 1 0 0 0 1 -20.269 95.231 -0.5 4 0.5 3.5
9 0 1 0 0 0 1 0 0 0 1 -90.269 -39.269 4.5 1 2 3.5
9 0 1 0 0 0 1 0 0 0 1 -105.769 -0.2689972 -8 0.5 7 2
9 0 1 0 0 0 1 0 0 0 1 -105.769 -0.2689972 8 0.5 7 2
9 0 1 0 0 0 1 0 0 0 1 105.231 -18.769 -0.5 0.5 2.5 5.5
9 0 1 0 0 0 1 0 0 0 1 104.231 -22.769 -0.5 0.5 2.5 5.5
9 0 1 0 0 0 1 0 0 0 1 -96.769 -20.769 9.5 0.5 5.5 2.5
9 0 1 0 0 0 1 0 0 0 1 97.731 25.231 14.5 1 4.5 1.5
9 0 1 0 0 0 1 0 0 0 1 97.231 -27.769 14 1.5 4.5 1
9 0 1 0 0 0 1 0 0 0 1 93.231 38.731 13.5 1.5 3 1.5
9 0 1 0 0 0 1 0 0 0 1 84.731 -50.769 5.5 1 1.5 4.5
9 0 1 0 0 0 1 0 0 0 1 82.731 54.231 5.5 1 1.5 4.5
9 0 1 0 0 0 1 0 0 0 1 76.231 71.231 -6 1.5 1.5 3
9 0 1 0 0 0 1 0 0 0 1 58.231 79.731 -4.5 1.5 1 4.5
9 0 1 0 0 0 1 0 0 0 1 52.231 83.231 0 1.5 0.5 9
9 0 1 0 0 0 1 0 0 0 1 43.731 -91.769 -12.5 3 1.5 1.5
9 0 1 0 0 0 1 0 0 0 1 28.731 -96.769 -14.5 3 1.5 1.5
9 0 1 0 0 0 1 0 0 0 1 -29.769 -96.269 14.5 4.5 1 1.5
9 0 1 0 0 0 1 0 0 0 1 -49.269 88.231 12.5 3 1.5 1.5
9 0 1 0 0 0 1 0 0 0 1 -56.769 -80.769 -3 1.5 1.5 3
9 0 1 0 0 0 1 0 0 0 1 -78.769 61.231 -9 1.5 1.5 3
9 0 1 0 0 0 1 0 0 0 1 -82.769 -57.269 10.5 0.5 3 4.5
9 0 1 0 0 0 1 0 0 0 1 -96.269 30.231 -14.5 1 4.5 1.5
9 0 1 0 0 0 1 0 0 0 1 -98.769 30.731 -10.5 1.5 3 1.5
9 0 1 0 0 0 1 0 0 0 1 -98.769 30.731 10.5 1.5 3 1.5
9 0 1 0 0 0 1 0 0 0 1 0.2310028 -105.769 -8 6.5 0.5 2
9 0 1 0 0 0 1 0 0 0 1 -107.769 0.2310028 0 0.5 6.5 2
9 0 1 0 0 0 1 0 0 0 1 106.231 0.2310028 6.5 0.5 8.5 1.5
9 0 1 0 0 0 1 0 0 0 1 100.731 -23.769 10.5 1 2.5 2.5
9 0 1 0 0 0 1 0 0 0 1 100.231 -35.769 0 0.5 2.5 5
9 0 1 0 0 0 1 0 0 0 1 79.231 31.731 0.5 2.5 5 0.5
9 0 1 0 0 0 1 0 0 0 1 58.231 83.231 12 2.5 2.5 1
9 0 1 0 0 0 1 0 0 0 1 49.231 -91.269 -8.5 2.5 1 2.5
9 0 1 0 0 0 1 0 0 0 1 46.231 -95.769 0 2.5 0.5 5
9 0 1 0 0 0 1 0 0 0 1 39.231 -98.769 0 2.5 0.5 5
9 0 1 0 0 0 1 0 0 0 1 -26.769 103.231 0 2.5 0.5 5
9 0 1 0 0 0 1 0 0 0 1 -26.769 100.731 -8.5 2.5 1 2.5
9 0 1 0 0 0 1 0 0 0 1 -26.769 100.731 8.5 2.5 1 2.5
9 0 1 0 0 0 1 0 0 0 1 -32.769 -94.269 -10.5 2.5 1 2.5
9 0 1 0 0 0 1 0 0 0 1 -35.769 96.731 10.5 2.5 1 2.5
9 0 1 0 0 0 1 0 0 0 1 -73.769 72.231 -7 2.5 2.5 1
9 0 1 0 0 0 1 0 0 0 1 -84.769 -55.269 -11.5 2.5 1 2.5
9 0 1 0 0 0 1 0 0 0 1 -90.269 -44.769 -13.5 1 2.5 2.5
9 0 1 0 0 0 1 0 0 0 1 -93.269 36.231 11.5 1 2.5 2.5
9 0 1 0 0 0 1 0 0 0 1 -93.269 -37.769 -12.5 1 2.5 2.5
9 0 1 0 0 0 1 0 0 0 1 -96.769 21.731 10.5 0.5 5 2.5
9 0 1 0 0 0 1 0 0 0 1 -101.769 32.231 0 0.5 2.5 5
9 0 1 0 0 0 1 0 0 0 1 102.231 22.231 -7.5 0.5 3.5 3.5
9 0 1 0 0 0 1 0 0 0 1 90.231 43.231 10.5 0.5 3.5 3.5
9 0 1 0 0 0 1 0 0 0 1 93.231 39.231 -3.5 3.5 3.5 0.5
9 0 1 0 0 0 1 0 0 0 1 -30.769 93.231 4.5 3.5 0.5 3.5
9 0 1 0 0 0 1 0 0 0 1 -48.769 -91.769 6.5 3.5 0.5 3.5
9 0 1 0 0 0 1 0 0 0 1 -92.769 -31.769 -3.5 0.5 3.5 3.5
9 0 1 0 0 0 1 0 0 0 1 95.731 31.731 14.5 1 4 1.5
9 0 1 0 0 0 1 0 0 0 1 95.231 -29.269 -11 0.5 4 3
9 0 1 0 0 0 1 0 0 0 1 94.231 48.731 0 0.5 2 6
9 0 1 0 0 0 1 0 0 0 1 92.231 45.731 -7 0.5 4 3
9 0 1 0 0 0 1 0 0 0 1 89.731 -56.269 0 1 1 6
9 0 1 0 0 0 1 0 0 0 1 88.731 48.731 12.5 2 2 1.5
9 0 1 0 0 0 1 0 0 0 1 82.731 -66.269 0 1 1 6
9 0 1 0 0 0 1 0 0 0 1 80.231 -61.269 -13 1.5 2 2
9 0 1 0 0 0 1 0 0 0 1 79.731 -30.269 0.5 2 6 0.5
9 0 1 0 0 0 1 0 0 0 1 78.731 63.731 12.5 2 2 1.5
9 0 1 0 0 0 1 0 0 0 1 75.731 74.231 0 1 1.5 4
9 0 1 0 0 0 1 0 0 0 1 72.231 75.231 -6 1.5 1.5 3
9 0 1 0 0 0 1 0 0 0 1 63.731 -79.269 -11.5 4 1 1.5
9 0 1 0 0 0 1 0 0 0 1 58.231 79.731 5 1.5 1 4
9 0 1 0 0 0 1 0 0 0 1 58.731 -82.269 12.5 2 2 1.5
9 0 1 0 0 0 1 0 0 0 1 58.731 -85.269 9 2 1 3
9 0 1 0 0 0 1 0 0 0 1 55.731 87.731 8 2 1 3
9 0 1 0 0 0 1 0 0 0 1 55.731 86.731 -6.5 2 2 1.5
9 0 1 0 0 0 1 0 0 0 1 54.231 -91.269 0 1.5 1 4
9 0 1 0 0 0 1 0 0 0 1 46.231 95.731 1 1.5 1 4
9 0 1 0 0 0 1 0 0 0 1 46.231 -87.269 5 1.5 1 4
9 0 1 0 0 0 1 0 0 0 1 42.731 91.731 -13.5 2 2 1.5
9 0 1 0 0 0 1 0 0 0 1 39.731 -96.269 8 3 1 2
9 0 1 0 0 0 1 0 0 0 1 -0.2689972 -97.769 12 3 0.5 4
9 0 1 0 0 0 1 0 0 0 1 -0.2689972 -96.769 -3 4 0.5 3
9 0 1 0 0 0 1 0 0 0 1 -28.269 97.231 -14 4 1.5 1
9 0 1 0 0 0 1 0 0 0 1 -28.269 97.231 14 4 1.5 1
9 0 1 0 0 0 1 0 0 0 1 -34.269 -100.769 0 2 0.5 6
9 0 1 0 0 0 1 0 0 0 1 -37.769 90.731 -4 1.5 1 4
9 0 1 0 0 0 1 0 0 0 1 -41.269 -95.269 9 2 1 3
9 0 1 0 0 0 1 0 0 0 1 -46.269 -92.269 -10 2 1 3
9 0 1 0 0 0 1 0 0 0 1 -53.269 91.731 0 1 1 6
9 0 1 0 0 0 1 0 0 0 1 -58.269 88.731 0 1 1 6
9 0 1 0 0 0 1 0 0 0 1 -60.269 81.231 -13 2 1.5 2
9 0 1 0 0 0 1 0 0 0 1 -60.269 -80.769 13 2 1.5 2
9 0 1 0 0 0 1 0 0 0 1 -74.269 -72.269 8 2 1 3
9 0 1 0 0 0 1 0 0 0 1 -74.269 68.731 12 3 1 2
9 0 1 0 0 0 1 0 0 0 1 -77.269 -65.769 10 4 0.5 3
9 0 1 0 0 0 1 0 0 0 1 -81.269 -55.769 -4 1 1.5 4
9 0 1 0 0 0 1 0 0 0 1 -83.269 -65.269 0 1 1 6
9 0 1 0 0 0 1 0 0 0 1 -96.269 -29.269 14.5 1 4 1.5
9 0 1 0 0 0 1 0 0 0 1 -105.269 18.231 0 1 1.5 4
9 0 1 0 0 0 1 0 0 0 1 99.231 -19.769 -14.5 1.5 2.5 1.5
9 0 1 0 0 0 1 0 0 0 1 91.231 -46.769 -11.5 1.5 2.5 1.5
9 0 1 0 0 0 1 0 0 0 1 88.231 42.231 0.5 0.5 1.5 7.5
9 0 1 0 0 0 1 0 0 0 1 83.231 -60.769 9.5 1.5 1.5 2.5
9 0 1 0 0 0 1 0 0 0 1 59.231 -81.769 -13.5 1.5 1.5 2.5
9 0 1 0 0 0 1 0 0 0 1 58.231 -85.769 -8.5 1.5 1.5 2.5
9 0 1 0 0 0 1 0 0 0 1 54.231 -81.769 -0.5 1.5 0.5 7.5
9 0 1 0 0 0 1 0 0 0 1 -85.769 -53.769 13.5 1.5 2.5 1.5
9 0 1 0 0 0 1 0 0 0 1 -96.769 21.231 -10.5 0.5 4.5 2.5
9 0 1 0 0 0 1 0 0 0 1 71.731 51.731 0.5 1 11 0.5
9 0 1 0 0 0 1 0 0 0 1 70.731 -79.269 -0.5 1 1 5.5
9 0 1 0 0 0 1 0 0 0 1 67.731 70.731 0.5 1 1 5.5
9 0 1 0 0 0 1 0 0 0 1 15.231 98.731 -4.5 5.5 2 0.5
9 0 1 0 0 0 1 0 0 0 1 -45.269 -96.269 -0.5 1 1 5.5
9 0 1 0 0 0 1 0 0 0 1 -72.269 77.731 -0.5 1 1 5.5
9 0 1 0 0 0 1 0 0 0 1 -76.269 73.731 -0.5 1 1 5.5
9 0 1 0 0 0 1 0 0 0 1 -79.269 70.731 -0.5 1 1 5.5
9 0 1 0 0 0 1 0 0 0 1 -82.269 54.731 -5.5 1 1 5.5
9 0 1 0 0 0 1 0 0 0 1 -93.769 -26.269 -0.5 0.5 2 5.5
9 0 1 0 0 0 1 0 0 0 1 105.231 10.231 -6 0.5 3.5 3
9 0 1 0 0 0 1 0 0 0 1 101.731 24.231 7.5 1 3.5 1.5
9 0 1 0 0 0 1 0 0 0 1 100.231 7.731003 -6.5 1.5 1 3.5
9 0 1 0 0 0 1 0 0 0 1 95.731 31.231 -14.5 1 3.5 1.5
9 0 1 0 0 0 1 0 0 0 1 90.731 51.231 -7.5 1 1.5 3.5
9 0 1 0 0 0 1 0 0 0 1 31.231 -94.769 -11 3.5 0.5 3
9 0 1 0 0 0 1 0 0 0 1 25.731 94.231 -3.5 3 0.5 3.5
9 0 1 0 0 0 1 0 0 0 1 24.231 101.731 7.5 3.5 1 1.5
9 0 1 0 0 0 1 0 0 0 1 24.231 -101.769 7 3.5 1.5 1
9 0 1 0 0 0 1 0 0 0 1 14.231 102.731 -11.5 3.5 1 1.5
9 0 1 0 0 0 1 0 0 0 1 -0.2689972 -97.769 -11.5 3 0.5 3.5
9 0 1 0 0 0 1 0 0 0 1 0.2310028 -102.769 -14 10.5 0.5 1
9 0 1 0 0 0 1 0 0 0 1 0.2310028 -102.769 14 10.5 0.5 1
9 0 1 0 0 0 1 0 0 0 1 -20.769 101.731 10.5 3.5 1 1.5
9 0 1 0 0 0 1 0 0 0 1 -34.769 94.731 -14.5 3.5 1 1.5
9 0 1 0 0 0 1 0 0 0 1 -34.769 94.731 14.5 3.5 1 1.5
9 0 1 0 0 0 1 0 0 0 1 -64.769 -74.269 -3.5 1.5 1 3.5
9 0 1 0 0 0 1 0 0 0 1 -79.269 61.231 11.5 1 1.5 3.5
9 0 1 0 0 0 1 0 0 0 1 -81.269 -55.769 4.5 1 1.5 3.5
9 0 1 0 0 0 1 0 0 0 1 -82.269 54.231 4.5 1 1.5 3.5
9 0 1 0 0 0 1 0 0 0 1 -88.769 58.231 0 0.5 1.5 7
9 0 1 0 0 0 1 0 0 0 1 -89.269 52.231 -9.5 1 1.5 3.5
9 0 1 0 0 0 1 0 0 0 1 -89.269 52.231 9.5 1 1.5 3.5
9 0 1 0 0 0 1 0 0 0 1 -92.269 -40.769 14.5 1 3.5 1.5
9 0 1 0 0 0 1 0 0 0 1 -93.769 35.731 -12.5 0.5 3 3.5
9 0 1 0 0 0 1 0 0 0 1 -100.269 -20.769 -12.5 1 3.5 1.5
9 0 1 0 0 0 1 0 0 0 1 104.231 23.231 0 0.5 2.5 4
9 0 1 0 0 0 1 0 0 0 1 99.731 -28.769 -10 1 2.5 2
9 0 1 0 0 0 1 0 0 0 1 87.231 -44.269 0 0.5 2 5
9 0 1 0 0 0 1 0 0 0 1 87.731 -60.269 0 1 1 5
9 0 1 0 0 0 1 0 0 0 1 86.231 -53.269 12 2.5 1 2
9 0 1 0 0 0 1 0 0 0 1 84.731 55.731 -12.5 2 1 2.5
9 0 1 0 0 0 1 0 0 0 1 80.731 -69.269 0 1 1 5
9 0 1 0 0 0 1 0 0 0 1 68.731 74.231 -13 1 2.5 2
9 0 1 0 0 0 1 0 0 0 1 49.231 91.731 -6 2.5 1 2
9 0 1 0 0 0 1 0 0 0 1 49.231 -91.269 9 2.5 1 2
9 0 1 0 0 0 1 0 0 0 1 33.731 101.231 0 2 0.5 5
9 0 1 0 0 0 1 0 0 0 1 30.731 79.231 0.5 4 2.5 0.5
9 0 1 0 0 0 1 0 0 0 1 28.731 -102.769 0 2 0.5 5
9 0 1 0 0 0 1 0 0 0 1 21.731 -104.769 0 2 0.5 5
9 0 1 0 0 0 1 0 0 0 1 -0.2689972 -96.769 3.5 4 0.5 2.5
9 0 1 0 0 0 1 0 0 0 1 -0.2689972 104.231 12 10 0.5 1
9 0 1 0 0 0 1 0 0 0 1 -19.269 97.231 -11 5 0.5 2
9 0 1 0 0 0 1 0 0 0 1 -60.269 -77.269 -1 1 1 5
9 0 1 0 0 0 1 0 0 0 1 -63.269 74.731 0 1 1 5
9 0 1 0 0 0 1 0 0 0 1 -84.269 60.731 -8.5 1 2 2.5
9 0 1 0 0 0 1 0 0 0 1 -88.269 -53.269 10.5 1 2 2.5
9 0 1 0 0 0 1 0 0 0 1 -90.269 50.231 0 1 0.5 10
9 0 1 0 0 0 1 0 0 0 1 -91.269 47.231 -11 1 2.5 2
9 0 1 0 0 0 1 0 0 0 1 -91.269 47.231 11 1 2.5 2
9 0 1 0 0 0 1 0 0 0 1 -95.269 41.231 -9 1 2.5 2
9 0 1 0 0 0 1 0 0 0 1 -95.269 41.231 9 1 2.5 2
9 0 1 0 0 0 1 0 0 0 1 -96.769 -25.269 -13.5 0.5 4 2.5
9 0 1 0 0 0 1 0 0 0 1 -102.269 22.231 -8 1 2.5 2
9 0 1 0 0 0 1 0 0 0 1 -102.269 22.231 8 1 2.5 2
9 0 1 0 0 0 1 0 0 0 1 -102.769 -0.2689972 -14 0.5 10 1
9 0 1 0 0 0 1 0 0 0 1 -102.769 -0.2689972 14 0.5 10 1
9 0 1 0 0 0 1 0 0 0 1 37.231 90.231 -0.5 1.5 0.5 6.5
9 0 1 0 0 0 1 0 0 0 1 104.231 0.2310028 -12 0.5 9.5 1
9 0 1 0 0 0 1 0 0 0 1 99.231 19.731 -14.5 1.5 2 1.5
9 0 1 0 0 0 1 0 0 0 1 98.231 -40.769 0 0.5 1.5 6
9 0 1 0 0 0 1 0 0 0 1 98.231 19.231 11 1.5 1.5 2
9 0 1 0 0 0 1 0 0 0 1 97.231 -18.769 -11 0.5 4.5 2
9 0 1 0 0 0 1 0 0 0 1 94.231 -26.269 -4.5 0.5 2 4.5
9 0 1 0 0 0 1 0 0 0 1 93.231 38.731 -14 1.5 3 1
9 0 1 0 0 0 1 0 0 0 1 87.731 48.231 -12 1 1.5 3
9 0 1 0 0 0 1 0 0 0 1 80.731 -60.769 13.5 2 1.5 1.5
9 0 1 0 0 0 1 0 0 0 1 77.231 -60.269 0 0.5 1 9
9 0 1 0 0 0 1 0 0 0 1 78.231 -63.769 14 1.5 1.5 2
9 0 1 0 0 0 1 0 0 0 1 76.231 61.731 0 0.5 1 9
9 0 1 0 0 0 1 0 0 0 1 76.231 67.731 12.5 1.5 2 1.5
9 0 1 0 0 0 1 0 0 0 1 74.231 75.231 0 0.5 1.5 6
9 0 1 0 0 0 1 0 0 0 1 78.231 -64.769 -10 4.5 0.5 2
9 0 1 0 0 0 1 0 0 0 1 66.231 76.731 -13.5 1.5 2 1.5
9 0 1 0 0 0 1 0 0 0 1 63.231 78.731 -13.5 1.5 2 1.5
9 0 1 0 0 0 1 0 0 0 1 61.231 79.731 13 1.5 1 3
9 0 1 0 0 0 1 0 0 0 1 55.231 84.731 -13.5 1.5 2 1.5
9 0 1 0 0 0 1 0 0 0 1 52.231 86.731 -13.5 1.5 2 1.5
9 0 1 0 0 0 1 0 0 0 1 50.731 -83.769 0 1 0.5 9
9 0 1 0 0 0 1 0 0 0 1 41.731 92.231 14 3 1.5 1
9 0 1 0 0 0 1 0 0 0 1 38.731 93.231 -14.5 2 1.5 1.5
9 0 1 0 0 0 1 0 0 0 1 36.731 96.731 10.5 3 1 1.5
9 0 1 0 0 0 1 0 0 0 1 32.731 98.231 -10.5 2 1.5 1.5
9 0 1 0 0 0 1 0 0 0 1 27.731 -93.769 -4.5 2 0.5 4.5
9 0 1 0 0 0 1 0 0 0 1 30.731 -94.769 9.5 6 0.5 1.5
9 0 1 0 0 0 1 0 0 0 1 23.231 -97.769 14 1.5 1.5 2
9 0 1 0 0 0 1 0 0 0 1 25.231 99.731 -12 4.5 1 1
9 0 1 0 0 0 1 0 0 0 1 22.231 95.731 -6 1.5 1 3
9 0 1 0 0 0 1 0 0 0 1 19.731 104.731 1.5 1 1 4.5
9 0 1 0 0 0 1 0 0 0 1 19.231 98.231 11 1.5 1.5 2
9 0 1 0 0 0 1 0 0 0 1 -25.769 -97.269 -15 4.5 1 1
9 0 1 0 0 0 1 0 0 0 1 -37.269 -93.769 -14.5 2 1.5 1.5
9 0 1 0 0 0 1 0 0 0 1 -37.269 -93.769 14.5 2 1.5 1.5
9 0 1 0 0 0 1 0 0 0 1 -38.769 91.731 -11 1.5 1 3
9 0 1 0 0 0 1 0 0 0 1 -39.269 92.731 14.5 3 1 1.5
9 0 1 0 0 0 1 0 0 0 1 -42.269 84.731 0.5 3 3 0.5
9 0 1 0 0 0 1 0 0 0 1 -43.269 -91.269 -14.5 3 1 1.5
9 0 1 0 0 0 1 0 0 0 1 -48.269 91.231 -10.5 2 1.5 1.5
9 0 1 0 0 0 1 0 0 0 1 -48.769 -85.269 4 1.5 1 3
9 0 1 0 0 0 1 0 0 0 1 -51.769 85.731 -12 1.5 1 3
9 0 1 0 0 0 1 0 0 0 1 -53.769 88.731 9 1.5 1 3
9 0 1 0 0 0 1 0 0 0 1 -53.769 85.231 14 1.5 1.5 2
9 0 1 0 0 0 1 0 0 0 1 -56.769 83.731 13.5 1.5 2 1.5
9 0 1 0 0 0 1 0 0 0 1 -57.269 -85.769 -10 1 1.5 3
9 0 1 0 0 0 1 0 0 0 1 -62.769 -78.769 -14 1.5 1.5 2
9 0 1 0 0 0 1 0 0 0 1 -63.769 -78.269 13.5 1.5 2 1.5
9 0 1 0 0 0 1 0 0 0 1 -64.769 77.231 14 1.5 1.5 2
9 0 1 0 0 0 1 0 0 0 1 -64.769 -74.269 4 1.5 1 3
9 0 1 0 0 0 1 0 0 0 1 -67.269 -79.769 7 1 1.5 3
9 0 1 0 0 0 1 0 0 0 1 -69.769 76.231 -10 1.5 1.5 2
9 0 1 0 0 0 1 0 0 0 1 -72.769 -69.769 14 1.5 1.5 2
9 0 1 0 0 0 1 0 0 0 1 -73.269 74.231 6.5 2 1.5 1.5
9 0 1 0 0 0 1 0 0 0 1 -78.769 -62.769 -14 1.5 1.5 2
9 0 1 0 0 0 1 0 0 0 1 -81.269 64.231 -9 1 1.5 3
9 0 1 0 0 0 1 0 0 0 1 -81.269 64.231 9 1 1.5 3
9 0 1 0 0 0 1 0 0 0 1 -89.769 -42.769 6 1.5 1.5 2
9 0 1 0 0 0 1 0 0 0 1 -92.769 31.731 -4.5 0.5 2 4.5
9 0 1 0 0 0 1 0 0 0 1 -96.269 30.231 15 1 4.5 1
9 0 1 0 0 0 1 0 0 0 1 -98.269 -29.269 12.5 1 3 1.5
9 0 1 0 0 0 1 0 0 0 1 -99.769 37.231 0 0.5 1.5 6
9 0 1 0 0 0 1 0 0 0 1 92.231 -32.769 -3.5 0.5 2.5 3.5
9 0 1 0 0 0 1 0 0 0 1 26.231 94.231 4.5 2.5 0.5 3.5
9 0 1 0 0 0 1 0 0 0 1 -22.769 104.231 1.5 2.5 0.5 3.5
9 0 1 0 0 0 1 0 0 0 1 -45.769 -89.769 13.5 3.5 0.5 2.5
9 0 1 0 0 0 1 0 0 0 1 -54.769 -84.769 -0.5 3.5 2.5 0.5
9 0 1 0 0 0 1 0 0 0 1 105.231 0.2310028 10 0.5 8.5 1
9 0 1 0 0 0 1 0 0 0 1 68.231 -70.269 -0.5 0.5 1 8.5
9 0 1 0 0 0 1 0 0 0 1 64.231 -74.269 0.5 0.5 1 8.5
9 0 1 0 0 0 1 0 0 0 1 0.2310028 106.231 -7 8.5 0.5 1
9 0 1 0 0 0 1 0 0 0 1 0.2310028 106.231 7 8.5 0.5 1
9 0 1 0 0 0 1 0 0 0 1 -66.269 72.231 -0.5 1 0.5 8.5
9 0 1 0 0 0 1 0 0 0 1 -69.269 69.231 0.5 1 0.5 8.5
9 0 1 0 0 0 1 0 0 0 1 65.231 -83.769 -0.5 1.5 0.5 5.5
9 0 1 0 0 0 1 0 0 0 1 35.231 -100.769 -0.5 1.5 0.5 5.5
9 0 1 0 0 0 1 0 0 0 1 -28.769 -102.769 -0.5 1.5 0.5 5.5
9 0 1 0 0 0 1 0 0 0 1 -47.769 95.231 -0.5 1.5 0.5 5.5
9 0 1 0 0 0 1 0 0 0 1 -80.769 69.231 -0.5 0.5 1.5 5.5
9 0 1 0 0 0 1 0 0 0 1 -83.769 -45.769 0.5 1.5 5.5 0.5
9 0 1 0 0 0 1 0 0 0 1 -94.769 22.231 -0.5 0.5 1.5 5.5
9 0 1 0 0 0 1 0 0 0 1 -102.769 -28.769 -0.5 0.5 1.5 5.5
9 0 1 0 0 0 1 0 0 0 1 101.731 32.731 0 1 1 4
9 0 1 0 0 0 1 0 0 0 1 98.231 -7.268997 -9.5 0.5 16 0.5
9 0 1 0 0 0 1 0 0 0 1 97.231 43.731 0 0.5 2 4
9 0 1 0 0 0 1 0 0 0 1 96.731 -38.269 -9 1 2 2
9 0 1 0 0 0 1 0 0 0 1 95.731 44.731 -5 1 2 2
9 0 1 0 0 0 1 0 0 0 1 95.231 18.731 0 0.5 2 4
9 0 1 0 0 0 1 0 0 0 1 95.231 -34.269 0 0.5 1 8
9 0 1 0 0 0 1 0 0 0 1 94.231 25.731 -4 0.5 2 4
9 0 1 0 0 0 1 0 0 0 1 92.231 33.731 5 0.5 2 4
9 0 1 0 0 0 1 0 0 0 1 92.231 -33.269 5 0.5 2 4
9 0 1 0 0 0 1 0 0 0 1 91.731 53.731 0 1 1 4
9 0 1 0 0 0 1 0 0 0 1 85.731 39.731 0.5 2 4 0.5
9 0 1 0 0 0 1 0 0 0 1 82.731 66.731 0 1 1 4
9 0 1 0 0 0 1 0 0 0 1 80.731 64.731 9 1 2 2
9 0 1 0 0 0 1 0 0 0 1 75.731 67.731 -12 1 4 1
9 0 1 0 0 0 1 0 0 0 1 75.731 -67.269 13 2 2 1
9 0 1 0 0 0 1 0 0 0 1 68.731 -81.269 0 1 1 4
9 0 1 0 0 0 1 0 0 0 1 55.731 90.731 0 1 1 4
9 0 1 0 0 0 1 0 0 0 1 49.731 45.731 0.5 4 2 0.5
9 0 1 0 0 0 1 0 0 0 1 41.731 95.731 8 2 1 2
9 0 1 0 0 0 1 0 0 0 1 39.731 -89.769 5 2 0.5 4
9 0 1 0 0 0 1 0 0 0 1 36.731 100.231 0 2 0.5 4
9 0 1 0 0 0 1 0 0 0 1 35.731 -90.769 0 1 0.5 8
9 0 1 0 0 0 1 0 0 0 1 34.731 93.731 12 2 1 2
9 0 1 0 0 0 1 0 0 0 1 27.731 103.231 0 2 0.5 4
9 0 1 0 0 0 1 0 0 0 1 27.731 -93.769 5 2 0.5 4
9 0 1 0 0 0 1 0 0 0 1 26.731 -101.269 -7 4 1 1
9 0 1 0 0 0 1 0 0 0 1 21.231 -99.269 0 0.5 1 8
9 0 1 0 0 0 1 0 0 0 1 18.731 95.231 0 2 0.5 4
9 0 1 0 0 0 1 0 0 0 1 12.731 105.231 -6 4 0.5 2
9 0 1 0 0 0 1 0 0 0 1 12.731 -103.769 -10 4 0.5 2
9 0 1 0 0 0 1 0 0 0 1 12.731 -103.769 10 4 0.5 2
9 0 1 0 0 0 1 0 0 0 1 -12.269 -96.769 5 2 0.5 4
9 0 1 0 0 0 1 0 0 0 1 -13.269 -103.769 -10 4 0.5 2
9 0 1 0 0 0 1 0 0 0 1 -13.269 -103.769 10 4 0.5 2
9 0 1 0 0 0 1 0 0 0 1 -14.269 101.731 -13 4 1 1
9 0 1 0 0 0 1 0 0 0 1 -20.269 96.231 -8 4 0.5 2
9 0 1 0 0 0 1 0 0 0 1 -22.269 -104.769 0 2 0.5 4
9 0 1 0 0 0 1 0 0 0 1 -29.269 93.231 -4 2 0.5 4
9 0 1 0 0 0 1 0 0 0 1 -45.269 92.731 11 2 1 2
9 0 1 0 0 0 1 0 0 0 1 -51.269 -85.269 -9 2 1 2
9 0 1 0 0 0 1 0 0 0 1 -59.269 78.731 5 1 1 4
9 0 1 0 0 0 1 0 0 0 1 -65.269 79.731 11 2 1 2
9 0 1 0 0 0 1 0 0 0 1 -66.269 -83.269 0 1 1 4
9 0 1 0 0 0 1 0 0 0 1 -74.269 -64.269 -3 1 1 4
9 0 1 0 0 0 1 0 0 0 1 -78.269 -68.269 9 1 2 2
9 0 1 0 0 0 1 0 0 0 1 -85.769 46.731 0 0.5 1 8
9 0 1 0 0 0 1 0 0 0 1 -88.769 40.731 0 0.5 1 8
9 0 1 0 0 0 1 0 0 0 1 -89.769 -39.269 -4 0.5 2 4
9 0 1 0 0 0 1 0 0 0 1 -90.769 36.731 -4 0.5 2 4
9 0 1 0 0 0 1 0 0 0 1 -90.269 -50.269 10 1 2 2
9 0 1 0 0 0 1 0 0 0 1 -94.269 -36.269 14 1 4 1
9 0 1 0 0 0 1 0 0 0 1 -98.269 -33.269 -10 1 2 2
9 0 1 0 0 0 1 0 0 0 1 -103.769 25.731 0 0.5 2 4
9 0 1 0 0 0 1 0 0 0 1 99.231 -19.769 15 1.5 2.5 1
9 0 1 0 0 0 1 0 0 0 1 95.231 -47.769 0 0.5 1.5 5
9 0 1 0 0 0 1 0 0 0 1 92.731 48.231 7.5 1 1.5 2.5
9 0 1 0 0 0 1 0 0 0 1 91.231 37.231 -7 0.5 2.5 3
9 0 1 0 0 0 1 0 0 0 1 91.731 -47.769 10.5 1 1.5 2.5
9 0 1 0 0 0 1 0 0 0 1 90.231 -36.769 0 0.5 1.5 5
9 0 1 0 0 0 1 0 0 0 1 91.231 -48.769 -9 1.5 2.5 1
9 0 1 0 0 0 1 0 0 0 1 89.731 46.231 -14.5 1 2.5 1.5
9 0 1 0 0 0 1 0 0 0 1 87.731 -49.769 -14.5 1 2.5 1.5
9 0 1 0 0 0 1 0 0 0 1 87.731 -49.769 14.5 1 2.5 1.5
9 0 1 0 0 0 1 0 0 0 1 85.731 53.231 14.5 1 2.5 1.5
9 0 1 0 0 0 1 0 0 0 1 85.231 47.731 -0.5 0.5 1 7.5
9 0 1 0 0 0 1 0 0 0 1 84.731 -54.769 -14.5 1 2.5 1.5
9 0 1 0 0 0 1 0 0 0 1 75.231 -70.269 10.5 1.5 1 2.5
9 0 1 0 0 0 1 0 0 0 1 71.231 -76.269 7.5 1.5 1 2.5
9 0 1 0 0 0 1 0 0 0 1 65.731 75.231 -9.5 1 1.5 2.5
9 0 1 0 0 0 1 0 0 0 1 65.231 -81.269 -8.5 1.5 1 2.5
9 0 1 0 0 0 1 0 0 0 1 65.231 -81.269 8.5 1.5 1 2.5
9 0 1 0 0 0 1 0 0 0 1 58.231 81.231 8 2.5 0.5 3
9 0 1 0 0 0 1 0 0 0 1 54.231 85.231 12 1.5 2.5 1
9 0 1 0 0 0 1 0 0 0 1 53.231 -85.769 14 2.5 1.5 1
9 0 1 0 0 0 1 0 0 0 1 43.231 93.731 -10.5 2.5 1 1.5
9 0 1 0 0 0 1 0 0 0 1 39.231 -96.769 -7 2.5 1.5 1
9 0 1 0 0 0 1 0 0 0 1 35.231 94.731 -10.5 0.5 3 2.5
9 0 1 0 0 0 1 0 0 0 1 30.231 96.731 14.5 2.5 1 1.5
9 0 1 0 0 0 1 0 0 0 1 28.731 101.231 -6.5 3 0.5 2.5
9 0 1 0 0 0 1 0 0 0 1 21.231 101.731 -9.5 2.5 1 1.5
9 0 1 0 0 0 1 0 0 0 1 13.731 104.231 8.5 5 0.5 1.5
9 0 1 0 0 0 1 0 0 0 1 0.2310028 -103.769 -13 7.5 0.5 1
9 0 1 0 0 0 1 0 0 0 1 0.2310028 -103.769 13 7.5 0.5 1
9 0 1 0 0 0 1 0 0 0 1 -11.769 96.231 0 1.5 0.5 5
9 0 1 0 0 0 1 0 0 0 1 -13.269 104.231 8.5 5 0.5 1.5
9 0 1 0 0 0 1 0 0 0 1 -22.769 -94.769 -3 2.5 0.5 3
9 0 1 0 0 0 1 0 0 0 1 -23.269 -95.769 8.5 3 0.5 2.5
9 0 1 0 0 0 1 0 0 0 1 -31.269 94.231 10.5 3 0.5 2.5
9 0 1 0 0 0 1 0 0 0 1 -33.769 -99.269 7.5 1.5 1 2.5
9 0 1 0 0 0 1 0 0 0 1 -36.769 100.231 0 1.5 0.5 5
9 0 1 0 0 0 1 0 0 0 1 -36.769 -93.269 6.5 7.5 1 0.5
9 0 1 0 0 0 1 0 0 0 1 -42.769 -97.769 0 1.5 0.5 5
9 0 1 0 0 0 1 0 0 0 1 -44.769 89.231 -11 2.5 0.5 3
9 0 1 0 0 0 1 0 0 0 1 -44.769 -50.269 0.5 2.5 3 0.5
9 0 1 0 0 0 1 0 0 0 1 -49.769 87.731 -14.5 2.5 1 1.5
9 0 1 0 0 0 1 0 0 0 1 -53.769 -85.269 -14.5 2.5 1 1.5
9 0 1 0 0 0 1 0 0 0 1 -55.769 -90.769 0 1.5 0.5 5
9 0 1 0 0 0 1 0 0 0 1 -62.769 78.731 -13.5 1.5 1 2.5
9 0 1 0 0 0 1 0 0 0 1 -67.769 75.231 13 1.5 2.5 1
9 0 1 0 0 0 1 0 0 0 1 -67.769 -76.269 -6.5 1.5 5 0.5
9 0 1 0 0 0 1 0 0 0 1 -70.269 -76.769 -8.5 1 1.5 2.5
9 0 1 0 0 0 1 0 0 0 1 -79.269 -66.769 -9.5 1 1.5 2.5
9 0 1 0 0 0 1 0 0 0 1 -90.269 -44.769 14.5 1 2.5 1.5
9 0 1 0 0 0 1 0 0 0 1 -88.769 -48.269 -12.5 2.5 1 1.5
9 0 1 0 0 0 1 0 0 0 1 -96.769 -17.769 -9 0.5 2.5 3
9 0 1 0 0 0 1 0 0 0 1 -98.769 40.231 0 0.5 1.5 5
9 0 1 0 0 0 1 0 0 0 1 -98.269 -33.769 9.5 1 2.5 1.5
9 0 1 0 0 0 1 0 0 0 1 -99.769 -37.769 0 0.5 1.5 5
9 0 1 0 0 0 1 0 0 0 1 -106.769 0.2310028 6 0.5 7.5 1
9 0 1 0 0 0 1 0 0 0 1 97.231 19.231 -12 0.5 3.5 2
9 0 1 0 0 0 1 0 0 0 1 95.231 -18.269 0.5 0.5 2 3.5
9 0 1 0 0 0 1 0 0 0 1 94.231 25.731 4.5 0.5 2 3.5
9 0 1 0 0 0 1 0 0 0 1 89.231 -45.269 -12.5 0.5 2 3.5
9 0 1 0 0 0 1 0 0 0 1 86.231 -50.269 11.5 0.5 2 3.5
9 0 1 0 0 0 1 0 0 0 1 84.231 64.731 0 0.5 1 7
9 0 1 0 0 0 1 0 0 0 1 84.731 62.231 -5.5 1 1.5 2.5
9 0 1 0 0 0 1 0 0 0 1 79.231 70.731 0 0.5 1 7
9 0 1 0 0 0 1 0 0 0 1 78.731 -58.269 -3.5 1 1 3.5
9 0 1 0 0 0 1 0 0 0 1 74.231 63.731 -1 0.5 1 7
9 0 1 0 0 0 1 0 0 0 1 63.731 74.231 0 1 0.5 7
9 0 1 0 0 0 1 0 0 0 1 60.731 87.231 0 1 0.5 7
9 0 1 0 0 0 1 0 0 0 1 32.731 92.231 -3.5 2 0.5 3.5
9 0 1 0 0 0 1 0 0 0 1 -0.2689972 103.231 -14 7 0.5 1
9 0 1 0 0 0 1 0 0 0 1 -0.2689972 103.231 14 7 0.5 1
9 0 1 0 0 0 1 0 0 0 1 -20.769 -96.769 -10 3.5 0.5 2
9 0 1 0 0 0 1 0 0 0 1 -26.769 -80.269 0.5 3.5 2 0.5
9 0 1 0 0 0 1 0 0 0 1 -23.269 -97.769 15 7 0.5 1
9 0 1 0 0 0 1 0 0 0 1 -70.269 -79.769 0 1 0.5 7
9 0 1 0 0 0 1 0 0 0 1 -71.269 -67.269 -2.5 1 1 3.5
9 0 1 0 0 0 1 0 0 0 1 -74.269 -64.269 4.5 1 1 3.5
9 0 1 0 0 0 1 0 0 0 1 -74.769 -75.269 0 0.5 1 7
9 0 1 0 0 0 1 0 0 0 1 -78.269 -59.269 4.5 1 1 3.5
9 0 1 0 0 0 1 0 0 0 1 -83.769 56.231 13 0.5 3.5 2
9 0 1 0 0 0 1 0 0 0 1 -92.769 30.731 4.5 0.5 2 3.5
9 0 1 0 0 0 1 0 0 0 1 -92.769 -31.269 4.5 0.5 2 3.5
9 0 1 0 0 0 1 0 0 0 1 -89.269 11.731 0.5 7 1 0.5
9 0 1 0 0 0 1 0 0 0 1 -95.269 -32.769 -15 1 3.5 1
9 0 1 0 0 0 1 0 0 0 1 -98.269 -39.769 0 1 0.5 7
9 0 1 0 0 0 1 0 0 0 1 102.231 -10.769 -13.5 0.5 4.5 1.5
9 0 1 0 0 0 1 0 0 0 1 92.231 43.231 13.5 1.5 1.5 1.5
9 0 1 0 0 0 1 0 0 0 1 88.231 57.231 -5.5 1.5 1.5 1.5
9 0 1 0 0 0 1 0 0 0 1 86.231 52.231 -14.5 1.5 1.5 1.5
9 0 1 0 0 0 1 0 0 0 1 85.231 59.231 9.5 1.5 1.5 1.5
9 0 1 0 0 0 1 0 0 0 1 84.231 -55.769 14.5 1.5 1.5 1.5
9 0 1 0 0 0 1 0 0 0 1 80.231 61.231 -14.5 1.5 1.5 1.5
9 0 1 0 0 0 1 0 0 0 1 81.231 60.231 -11 3.5 0.5 2
9 0 1 0 0 0 1 0 0 0 1 71.231 71.231 -14.5 1.5 1.5 1.5
9 0 1 0 0 0 1 0 0 0 1 71.231 71.231 14.5 1.5 1.5 1.5
9 0 1 0 0 0 1 0 0 0 1 70.231 -72.769 -13.5 1.5 1.5 1.5
9 0 1 0 0 0 1 0 0 0 1 67.231 -73.769 -9.5 0.5 1.5 4.5
9 0 1 0 0 0 1 0 0 0 1 64.231 -77.769 14.5 1.5 1.5 1.5
9 0 1 0 0 0 1 0 0 0 1 57.231 83.231 14.5 1.5 1.5 1.5
9 0 1 0 0 0 1 0 0 0 1 53.231 -85.769 -14.5 1.5 1.5 1.5
9 0 1 0 0 0 1 0 0 0 1 44.231 88.231 -1.5 4.5 0.5 1.5
9 0 1 0 0 0 1 0 0 0 1 0.2310028 -98.769 13.5 13.5 0.5 0.5
9 0 1 0 0 0 1 0 0 0 1 -15.769 105.231 -5.5 4.5 0.5 1.5
9 0 1 0 0 0 1 0 0 0 1 -15.769 103.231 -10.5 4.5 0.5 1.5
9 0 1 0 0 0 1 0 0 0 1 -53.769 -88.769 7.5 0.5 1.5 4.5
9 0 1 0 0 0 1 0 0 0 1 -53.769 89.231 -7.5 1.5 1.5 1.5
9 0 1 0 0 0 1 0 0 0 1 -57.769 -82.769 -14.5 1.5 1.5 1.5
9 0 1 0 0 0 1 0 0 0 1 -59.769 81.231 14.5 1.5 1.5 1.5
9 0 1 0 0 0 1 0 0 0 1 -60.769 -78.769 -9.5 1.5 1.5 1.5
9 0 1 0 0 0 1 0 0 0 1 -66.769 -75.769 -14.5 1.5 1.5 1.5
9 0 1 0 0 0 1 0 0 0 1 -67.769 -74.769 14.5 1.5 1.5 1.5
9 0 1 0 0 0 1 0 0 0 1 -69.769 73.231 -13.5 1.5 1.5 1.5
9 0 1 0 0 0 1 0 0 0 1 -69.769 -72.769 -14.5 1.5 1.5 1.5
9 0 1 0 0 0 1 0 0 0 1 -72.769 -69.769 -14.5 1.5 1.5 1.5
9 0 1 0 0 0 1 0 0 0 1 -74.769 -71.769 -9.5 1.5 1.5 1.5
9 0 1 0 0 0 1 0 0 0 1 -77.769 64.231 14.5 1.5 1.5 1.5
9 0 1 0 0 0 1 0 0 0 1 -78.769 -62.769 14.5 1.5 1.5 1.5
9 0 1 0 0 0 1 0 0 0 1 -82.769 -57.769 -14.5 1.5 1.5 1.5
9 0 1 0 0 0 1 0 0 0 1 -84.769 -49.769 5.5 0.5 1.5 4.5
9 0 1 0 0 0 1 0 0 0 1 -86.769 -46.769 -4.5 1.5 0.5 4.5
9 0 1 0 0 0 1 0 0 0 1 -94.769 34.231 -14.5 0.5 4.5 1.5
9 0 1 0 0 0 1 0 0 0 1 103.231 0.2310028 14 0.5 6.5 1
9 0 1 0 0 0 1 0 0 0 1 81.231 -54.269 -0.5 0.5 1 6.5
9 0 1 0 0 0 1 0 0 0 1 75.731 7.231003 0.5 1 0.5 6.5
9 0 1 0 0 0 1 0 0 0 1 55.731 7.231003 0.5 1 0.5 6.5
9 0 1 0 0 0 1 0 0 0 1 52.731 82.231 0.5 1 0.5 6.5
9 0 1 0 0 0 1 0 0 0 1 35.731 7.231003 0.5 1 0.5 6.5
9 0 1 0 0 0 1 0 0 0 1 7.231003 75.731 0.5 0.5 1 6.5
9 0 1 0 0 0 1 0 0 0 1 7.231003 55.731 0.5 0.5 1 6.5
9 0 1 0 0 0 1 0 0 0 1 7.231003 35.731 0.5 0.5 1 6.5
9 0 1 0 0 0 1 0 0 0 1 7.231003 -44.269 0.5 0.5 1 6.5
9 0 1 0 0 0 1 0 0 0 1 7.231003 -64.269 0.5 0.5 1 6.5
9 0 1 0 0 0 1 0 0 0 1 7.231003 -84.269 0.5 0.5 1 6.5
9 0 1 0 0 0 1 0 0 0 1 -44.269 7.231003 0.5 1 0.5 6.5
9 0 1 0 0 0 1 0 0 0 1 -51.269 83.231 1.5 1 0.5 6.5
9 0 1 0 0 0 1 0 0 0 1 -64.269 7.231003 0.5 1 0.5 6.5
9 0 1 0 0 0 1 0 0 0 1 -54.269 71.231 0.5 13 0.5 0.5
9 0 1 0 0 0 1 0 0 0 1 -84.269 7.231003 0.5 1 0.5 6.5
9 0 1 0 0 0 1 0 0 0 1 97.231 39.231 -6.5 0.5 2.5 2.5
9 0 1 0 0 0 1 0 0 0 1 50.231 -44.769 0.5 2.5 2.5 0.5
9 0 1 0 0 0 1 0 0 0 1 55.231 -70.769 0.5 12.5 0.5 0.5
9 0 1 0 0 0 1 0 0 0 1 43.231 -89.769 -11.5 2.5 0.5 2.5
9 0 1 0 0 0 1 0 0 0 1 37.231 98.231 -6.5 2.5 0.5 2.5
9 0 1 0 0 0 1 0 0 0 1 -32.769 -89.769 0.5 2.5 2.5 0.5
9 0 1 0 0 0 1 0 0 0 1 -40.769 -88.769 0 1.5 0.5 7
9 0 1 0 0 0 1 0 0 0 1 -44.769 50.231 0.5 2.5 2.5 0.5
9 0 1 0 0 0 1 0 0 0 1 -88.769 -44.769 10.5 0.5 2.5 2.5
9 0 1 0 0 0 1 0 0 0 1 -101.769 -21.769 -10.5 0.5 2.5 2.5
9 0 1 0 0 0 1 0 0 0 1 -101.769 -21.769 10.5 0.5 2.5 2.5
9 0 1 0 0 0 1 0 0 0 1 104.231 -18.269 -6 0.5 2 3
9 0 1 0 0 0 1 0 0 0 1 101.231 21.731 -11.5 0.5 4 1.5
9 0 1 0 0 0 1 0 0 0 1 101.231 -34.269 0 0.5 1 6
9 0 1 0 0 0 1 0 0 0 1 99.231 16.731 15.5 1.5 4 0.5
9 0 1 0 0 0 1 0 0 0 1 96.231 25.731 -13 0.5 2 3
9 0 1 0 0 0 1 0 0 0 1 96.731 -38.769 9 1 1.5 2
9 0 1 0 0 0 1 0 0 0 1 96.231 -46.269 0 0.5 1 6
9 0 1 0 0 0 1 0 0 0 1 95.731 41.731 8.5 1 2 1.5
9 0 1 0 0 0 1 0 0 0 1 95.231 -27.269 11 0.5 2 3
9 0 1 0 0 0 1 0 0 0 1 94.231 -25.269 4 0.5 2 3
9 0 1 0 0 0 1 0 0 0 1 94.231 42.231 -8 1.5 0.5 4
9 0 1 0 0 0 1 0 0 0 1 92.231 -53.269 0 0.5 1 6
9 0 1 0 0 0 1 0 0 0 1 89.231 38.731 0 0.5 1 6
9 0 1 0 0 0 1 0 0 0 1 89.231 -58.269 0 0.5 1 6
9 0 1 0 0 0 1 0 0 0 1 88.231 53.731 10 0.5 3 2
9 0 1 0 0 0 1 0 0 0 1 87.731 47.731 10 1 3 1
9 0 1 0 0 0 1 0 0 0 1 84.731 61.731 6.5 1 2 1.5
9 0 1 0 0 0 1 0 0 0 1 82.731 56.731 13 1 1 3
9 0 1 0 0 0 1 0 0 0 1 82.731 -62.769 -9 1 1.5 2
9 0 1 0 0 0 1 0 0 0 1 80.731 66.231 -8 1 1.5 2
9 0 1 0 0 0 1 0 0 0 1 80.731 -66.769 -7 1 1.5 2
9 0 1 0 0 0 1 0 0 0 1 77.731 64.731 -14.5 1 2 1.5
9 0 1 0 0 0 1 0 0 0 1 78.231 -64.269 -14 1.5 1 2
9 0 1 0 0 0 1 0 0 0 1 76.731 -62.769 -9 1 1.5 2
9 0 1 0 0 0 1 0 0 0 1 76.231 70.731 9 1.5 1 2
9 0 1 0 0 0 1 0 0 0 1 74.731 -72.269 -9 1 1 3
9 0 1 0 0 0 1 0 0 0 1 74.231 68.731 -14 1.5 2 1
9 0 1 0 0 0 1 0 0 0 1 72.731 -68.269 -11 1 1 3
9 0 1 0 0 0 1 0 0 0 1 71.731 78.731 0 1 1 3
9 0 1 0 0 0 1 0 0 0 1 72.231 74.731 9 1.5 1 2
9 0 1 0 0 0 1 0 0 0 1 71.231 -76.269 -8 1.5 1 2
9 0 1 0 0 0 1 0 0 0 1 68.231 79.731 -5 1.5 1 2
9 0 1 0 0 0 1 0 0 0 1 68.231 74.731 14 1.5 2 1
9 0 1 0 0 0 1 0 0 0 1 67.231 78.731 11 1.5 1 2
9 0 1 0 0 0 1 0 0 0 1 65.231 81.731 -8 1.5 1 2
9 0 1 0 0 0 1 0 0 0 1 64.231 -84.769 0 1.5 0.5 4
9 0 1 0 0 0 1 0 0 0 1 62.731 81.731 -11.5 2 1 1.5
9 0 1 0 0 0 1 0 0 0 1 60.731 -79.269 12 1 1 3
9 0 1 0 0 0 1 0 0 0 1 58.731 86.731 -6.5 1 2 1.5
9 0 1 0 0 0 1 0 0 0 1 58.731 82.231 -14 2 1.5 1
9 0 1 0 0 0 1 0 0 0 1 57.731 -79.269 -3 1 1 3
9 0 1 0 0 0 1 0 0 0 1 57.731 -79.269 4 1 1 3
9 0 1 0 0 0 1 0 0 0 1 56.231 -83.269 -13 1.5 1 2
9 0 1 0 0 0 1 0 0 0 1 50.731 90.731 9.5 2 1 1.5
9 0 1 0 0 0 1 0 0 0 1 47.731 85.731 4 1 1 3
9 0 1 0 0 0 1 0 0 0 1 47.231 91.731 11 1.5 1 2
9 0 1 0 0 0 1 0 0 0 1 46.231 -89.269 14 1.5 1 2
9 0 1 0 0 0 1 0 0 0 1 45.231 -96.769 0 1.5 0.5 4
9 0 1 0 0 0 1 0 0 0 1 42.731 96.731 -4.5 2 1 1.5
9 0 1 0 0 0 1 0 0 0 1 44.731 72.231 0.5 4 1.5 0.5
9 0 1 0 0 0 1 0 0 0 1 42.731 -91.269 15 3 1 1
9 0 1 0 0 0 1 0 0 0 1 38.231 -99.769 0 1.5 0.5 4
9 0 1 0 0 0 1 0 0 0 1 37.731 -96.269 11.5 2 1 1.5
9 0 1 0 0 0 1 0 0 0 1 33.231 92.231 5 1.5 0.5 4
9 0 1 0 0 0 1 0 0 0 1 16.731 99.231 -15.5 4 1.5 0.5
9 0 1 0 0 0 1 0 0 0 1 11.731 96.231 0 1 0.5 6
9 0 1 0 0 0 1 0 0 0 1 9.231003 99.231 -8 0.5 1.5 4
9 0 1 0 0 0 1 0 0 0 1 -10.769 -106.769 0 1.5 0.5 4
9 0 1 0 0 0 1 0 0 0 1 -22.269 95.231 6 2 0.5 3
9 0 1 0 0 0 1 0 0 0 1 -32.269 -95.769 -15 2 1.5 1
9 0 1 0 0 0 1 0 0 0 1 -33.769 -99.269 -8 1.5 1 2
9 0 1 0 0 0 1 0 0 0 1 -37.769 90.231 5 1.5 0.5 4
9 0 1 0 0 0 1 0 0 0 1 -35.269 76.231 0.5 4 1.5 0.5
9 0 1 0 0 0 1 0 0 0 1 -39.269 99.231 0 1 0.5 6
9 0 1 0 0 0 1 0 0 0 1 -40.269 96.231 8 2 1.5 1
9 0 1 0 0 0 1 0 0 0 1 -38.269 93.231 -14.5 4 0.5 1.5
9 0 1 0 0 0 1 0 0 0 1 -44.769 93.731 -10 1.5 1 2
9 0 1 0 0 0 1 0 0 0 1 -49.269 94.231 0 1 0.5 6
9 0 1 0 0 0 1 0 0 0 1 -56.269 84.231 -14 2 1.5 1
9 0 1 0 0 0 1 0 0 0 1 -65.269 81.231 -8 1 1.5 2
9 0 1 0 0 0 1 0 0 0 1 -65.269 76.731 -14.5 2 1 1.5
9 0 1 0 0 0 1 0 0 0 1 -67.269 -70.769 0 1 0.5 6
9 0 1 0 0 0 1 0 0 0 1 -68.269 72.231 10 1 1.5 2
9 0 1 0 0 0 1 0 0 0 1 -67.769 -77.269 11 1.5 1 2
9 0 1 0 0 0 1 0 0 0 1 -70.769 54.731 0.5 0.5 12 0.5
9 0 1 0 0 0 1 0 0 0 1 -70.769 -54.269 0.5 0.5 12 0.5
9 0 1 0 0 0 1 0 0 0 1 -71.269 75.231 10 1 1.5 2
9 0 1 0 0 0 1 0 0 0 1 -70.269 -72.269 14.5 2 1 1.5
9 0 1 0 0 0 1 0 0 0 1 -71.769 -68.269 -8 1.5 1 2
9 0 1 0 0 0 1 0 0 0 1 -75.269 71.231 10 1 1.5 2
9 0 1 0 0 0 1 0 0 0 1 -74.769 -67.269 14 1.5 1 2
9 0 1 0 0 0 1 0 0 0 1 -77.769 -72.269 0 0.5 1 6
9 0 1 0 0 0 1 0 0 0 1 -79.269 62.231 -14 1 1.5 2
9 0 1 0 0 0 1 0 0 0 1 -79.269 -59.769 -9 1 1.5 2
9 0 1 0 0 0 1 0 0 0 1 -80.769 -61.769 -10 3.5 0.5 2
9 0 1 0 0 0 1 0 0 0 1 -80.769 -69.269 0 0.5 1 6
9 0 1 0 0 0 1 0 0 0 1 -83.769 -56.269 14 0.5 3 2
9 0 1 0 0 0 1 0 0 0 1 -84.269 60.731 9.5 1 2 1.5
9 0 1 0 0 0 1 0 0 0 1 -84.269 57.731 -12.5 1 2 1.5
9 0 1 0 0 0 1 0 0 0 1 -84.769 -52.769 -12 0.5 1.5 4
9 0 1 0 0 0 1 0 0 0 1 -85.269 41.731 0.5 2 3 0.5
9 0 1 0 0 0 1 0 0 0 1 -86.269 -57.769 -10 1 1.5 2
9 0 1 0 0 0 1 0 0 0 1 -86.769 -48.269 -9 1.5 1 2
9 0 1 0 0 0 1 0 0 0 1 -90.269 37.731 4 1 1 3
9 0 1 0 0 0 1 0 0 0 1 -91.269 42.731 -15 1 3 1
9 0 1 0 0 0 1 0 0 0 1 -91.269 42.731 15 1 3 1
9 0 1 0 0 0 1 0 0 0 1 -91.769 -41.269 -14.5 0.5 4 1.5
9 0 1 0 0 0 1 0 0 0 1 -92.269 -38.269 11.5 1 2 1.5
9 0 1 0 0 0 1 0 0 0 1 -92.269 -47.769 -10 1 1.5 2
9 0 1 0 0 0 1 0 0 0 1 -93.269 38.731 15 1 3 1
9 0 1 0 0 0 1 0 0 0 1 -94.769 48.731 0 0.5 1 6
9 0 1 0 0 0 1 0 0 0 1 -95.769 14.231 0 0.5 1.5 4
9 0 1 0 0 0 1 0 0 0 1 -95.769 -23.269 9 0.5 3 2
9 0 1 0 0 0 1 0 0 0 1 -95.269 -39.269 -11.5 1 2 1.5
9 0 1 0 0 0 1 0 0 0 1 -95.269 -42.269 9.5 1 2 1.5
9 0 1 0 0 0 1 0 0 0 1 -96.769 45.231 0 0.5 1.5 4
9 0 1 0 0 0 1 0 0 0 1 -95.769 37.731 11 1.5 1 2
9 0 1 0 0 0 1 0 0 0 1 -98.269 28.731 -13 1 3 1
9 0 1 0 0 0 1 0 0 0 1 -98.269 28.731 13 1 3 1
9 0 1 0 0 0 1 0 0 0 1 -98.269 21.731 -15.5 1 6 0.5
9 0 1 0 0 0 1 0 0 0 1 -98.269 21.731 15.5 1 6 0.5
9 0 1 0 0 0 1 0 0 0 1 -98.269 -22.269 15.5 1 6 0.5
9 0 1 0 0 0 1 0 0 0 1 -100.269 30.731 -8 1 3 1
9 0 1 0 0 0 1 0 0 0 1 -100.269 30.731 8 1 3 1
9 0 1 0 0 0 1 0 0 0 1 -104.769 13.731 -7.5 0.5 4 1.5
9 0 1 0 0 0 1 0 0 0 1 -104.769 -13.269 -7.5 0.5 4 1.5
9 0 1 0 0 0 1 0 0 0 1 -105.769 -18.769 0 0.5 1.5 4
9 0 1 0 0 0 1 0 0 0 1 -0.7689972 98.231 -12.5 11.5 0.5 0.5
9 0 1 0 0 0 1 0 0 0 1 95.731 35.231 1.5 1 0.5 5.5
9 0 1 0 0 0 1 0 0 0 1 95.231 -32.769 15 0.5 5.5 1
9 0 1 0 0 0 1 0 0 0 1 78.731 -71.769 -0.5 1 0.5 5.5
9 0 1 0 0 0 1 0 0 0 1 75.731 -74.769 -0.5 1 0.5 5.5
9 0 1 0 0 0 1 0 0 0 1 74.731 -75.769 -0.5 1 0.5 5.5
9 0 1 0 0 0 1 0 0 0 1 72.231 65.731 0.5 0.5 1 5.5
9 0 1 0 0 0 1 0 0 0 1 71.731 -46.769 0.5 1 5.5 0.5
9 0 1 0 0 0 1 0 0 0 1 62.731 -74.769 -0.5 1 0.5 5.5
9 0 1 0 0 0 1 0 0 0 1 57.731 -89.769 -0.5 1 0.5 5.5
9 0 1 0 0 0 1 0 0 0 1 4.731003 4.231003 -2.5 1 0.5 5.5
9 0 1 0 0 0 1 0 0 0 1 -3.768997 -5.268997 -2.5 0.5 1 5.5
9 0 1 0 0 0 1 0 0 0 1 -4.768997 -4.268997 -2.5 0.5 1 5.5
9 0 1 0 0 0 1 0 0 0 1 -40.269 -98.769 -0.5 1 0.5 5.5
9 0 1 0 0 0 1 0 0 0 1 -47.269 85.231 -0.5 1 0.5 5.5
9 0 1 0 0 0 1 0 0 0 1 -47.269 -95.769 -0.5 1 0.5 5.5
9 0 1 0 0 0 1 0 0 0 1 -55.269 91.231 -0.5 1 0.5 5.5
9 0 1 0 0 0 1 0 0 0 1 -61.269 87.231 -0.5 1 0.5 5.5
9 0 1 0 0 0 1 0 0 0 1 -65.269 84.231 -0.5 1 0.5 5.5
9 0 1 0 0 0 1 0 0 0 1 -82.769 -67.269 -0.5 0.5 1 5.5
9 0 1 0 0 0 1 0 0 0 1 -83.769 49.731 0.5 0.5 1 5.5
9 0 1 0 0 0 1 0 0 0 1 -88.769 -59.269 -0.5 0.5 1 5.5
9 0 1 0 0 0 1 0 0 0 1 -91.769 -54.269 -0.5 0.5 1 5.5
9 0 1 0 0 0 1 0 0 0 1 -93.769 50.731 -0.5 0.5 1 5.5
9 0 1 0 0 0 1 0 0 0 1 -94.269 -15.769 0.5 1 5.5 0.5
9 0 1 0 0 0 1 0 0 0 1 -96.769 -45.269 -0.5 0.5 1 5.5
9 0 1 0 0 0 1 0 0 0 1 102.231 0.2310028 -15.5 0.5 10.5 0.5
9 0 1 0 0 0 1 0 0 0 1 102.231 -20.769 10.5 0.5 3.5 1.5
9 0 1 0 0 0 1 0 0 0 1 95.231 -38.769 11.5 0.5 3.5 1.5
9 0 1 0 0 0 1 0 0 0 1 93.231 31.231 -7.5 0.5 1.5 3.5
9 0 1 0 0 0 1 0 0 0 1 90.231 -42.769 -12.5 0.5 1.5 3.5
9 0 1 0 0 0 1 0 0 0 1 86.231 -49.769 -11.5 0.5 1.5 3.5
9 0 1 0 0 0 1 0 0 0 1 74.231 59.231 0.5 1.5 3.5 0.5
9 0 1 0 0 0 1 0 0 0 1 60.231 79.231 -9.5 0.5 1.5 3.5
9 0 1 0 0 0 1 0 0 0 1 54.231 83.231 -8.5 0.5 1.5 3.5
9 0 1 0 0 0 1 0 0 0 1 48.231 93.231 -6.5 1.5 0.5 3.5
9 0 1 0 0 0 1 0 0 0 1 0.2310028 -98.769 -14.5 3.5 0.5 1.5
9 0 1 0 0 0 1 0 0 0 1 -16.769 -100.769 -14.5 3.5 0.5 1.5
9 0 1 0 0 0 1 0 0 0 1 -16.769 -100.769 14.5 3.5 0.5 1.5
9 0 1 0 0 0 1 0 0 0 1 -23.769 -101.769 -9.5 3.5 0.5 1.5
9 0 1 0 0 0 1 0 0 0 1 -23.769 -101.769 9.5 3.5 0.5 1.5
9 0 1 0 0 0 1 0 0 0 1 -32.769 92.231 4.5 1.5 0.5 3.5
9 0 1 0 0 0 1 0 0 0 1 -33.769 -91.769 -3.5 1.5 0.5 3.5
9 0 1 0 0 0 1 0 0 0 1 -33.769 -91.769 4.5 1.5 0.5 3.5
9 0 1 0 0 0 1 0 0 0 1 -34.769 91.231 -3.5 1.5 0.5 3.5
9 0 1 0 0 0 1 0 0 0 1 -45.769 -89.769 -14.5 3.5 0.5 1.5
9 0 1 0 0 0 1 0 0 0 1 -48.269 -90.269 -12 3 1 1
9 0 1 0 0 0 1 0 0 0 1 -54.769 81.231 -3.5 1.5 0.5 3.5
9 0 1 0 0 0 1 0 0 0 1 -58.769 -80.769 7.5 0.5 1.5 3.5
9 0 1 0 0 0 1 0 0 0 1 -58.769 78.231 -3.5 1.5 0.5 3.5
9 0 1 0 0 0 1 0 0 0 1 -68.769 -69.769 3.5 0.5 1.5 3.5
9 0 1 0 0 0 1 0 0 0 1 -69.769 -78.769 5.5 1.5 0.5 3.5
9 0 1 0 0 0 1 0 0 0 1 -82.769 52.231 -3.5 0.5 1.5 3.5
9 0 1 0 0 0 1 0 0 0 1 -100.769 -20.769 12.5 0.5 3.5 1.5
9 0 1 0 0 0 1 0 0 0 1 103.731 19.731 -5.5 1 1 2.5
9 0 1 0 0 0 1 0 0 0 1 102.231 20.231 11 0.5 2.5 2
9 0 1 0 0 0 1 0 0 0 1 102.231 -22.269 -9.5 0.5 2 2.5
9 0 1 0 0 0 1 0 0 0 1 100.231 -28.769 10 0.5 2.5 2
9 0 1 0 0 0 1 0 0 0 1 98.731 31.231 -7.5 2 0.5 2.5
9 0 1 0 0 0 1 0 0 0 1 94.231 -30.769 -11 0.5 2.5 2
9 0 1 0 0 0 1 0 0 0 1 91.231 -39.769 12 0.5 2.5 2
9 0 1 0 0 0 1 0 0 0 1 90.731 -44.769 15 1 2.5 1
9 0 1 0 0 0 1 0 0 0 1 89.231 44.731 12.5 0.5 2 2.5
9 0 1 0 0 0 1 0 0 0 1 87.231 60.731 2 0.5 1 5
9 0 1 0 0 0 1 0 0 0 1 87.731 -55.269 -10.5 1 1 2.5
9 0 1 0 0 0 1 0 0 0 1 86.231 -45.269 0 0.5 1 5
9 0 1 0 0 0 1 0 0 0 1 86.731 49.231 -6.5 2 0.5 2.5
9 0 1 0 0 0 1 0 0 0 1 84.731 -60.269 -9.5 1 1 2.5
9 0 1 0 0 0 1 0 0 0 1 76.731 -63.269 9.5 1 1 2.5
9 0 1 0 0 0 1 0 0 0 1 74.231 -63.269 0 0.5 1 5
9 0 1 0 0 0 1 0 0 0 1 72.731 -68.269 11.5 1 1 2.5
9 0 1 0 0 0 1 0 0 0 1 70.231 67.731 0 0.5 1 5
9 0 1 0 0 0 1 0 0 0 1 65.731 81.731 7.5 1 1 2.5
9 0 1 0 0 0 1 0 0 0 1 60.731 76.231 0 1 0.5 5
9 0 1 0 0 0 1 0 0 0 1 60.731 -87.769 0 1 0.5 5
9 0 1 0 0 0 1 0 0 0 1 54.231 87.731 0 0.5 1 5
9 0 1 0 0 0 1 0 0 0 1 54.731 -83.269 11.5 1 1 2.5
9 0 1 0 0 0 1 0 0 0 1 53.731 92.231 0 1 0.5 5
9 0 1 0 0 0 1 0 0 0 1 51.231 86.731 15 2.5 1 1
9 0 1 0 0 0 1 0 0 0 1 49.731 -86.269 -11.5 1 1 2.5
9 0 1 0 0 0 1 0 0 0 1 43.231 -91.269 -15 2.5 1 1
9 0 1 0 0 0 1 0 0 0 1 38.731 91.231 -10.5 2 0.5 2.5
9 0 1 0 0 0 1 0 0 0 1 37.231 98.231 7 2.5 0.5 2
9 0 1 0 0 0 1 0 0 0 1 34.231 -93.269 10 2.5 1 1
9 0 1 0 0 0 1 0 0 0 1 32.731 94.231 -12.5 2 0.5 2.5
9 0 1 0 0 0 1 0 0 0 1 32.231 -93.769 -11 2.5 0.5 2
9 0 1 0 0 0 1 0 0 0 1 30.231 -94.769 13 2.5 0.5 2
9 0 1 0 0 0 1 0 0 0 1 23.231 -101.769 -10 2.5 0.5 2
9 0 1 0 0 0 1 0 0 0 1 23.231 -101.769 10 2.5 0.5 2
9 0 1 0 0 0 1 0 0 0 1 13.231 -21.269 0.5 2.5 2 0.5
9 0 1 0 0 0 1 0 0 0 1 9.731003 -96.769 -3.5 2 0.5 2.5
9 0 1 0 0 0 1 0 0 0 1 8.231003 107.231 0 2.5 0.5 2
9 0 1 0 0 0 1 0 0 0 1 -21.269 13.231 0.5 2 2.5 0.5
9 0 1 0 0 0 1 0 0 0 1 -21.269 -12.769 0.5 2 2.5 0.5
9 0 1 0 0 0 1 0 0 0 1 -22.269 103.231 -6.5 2 0.5 2.5
9 0 1 0 0 0 1 0 0 0 1 -22.269 95.231 -6.5 2 0.5 2.5
9 0 1 0 0 0 1 0 0 0 1 -23.269 -96.769 13.5 2 0.5 2.5
9 0 1 0 0 0 1 0 0 0 1 -27.769 -94.769 -10 2.5 0.5 2
9 0 1 0 0 0 1 0 0 0 1 -30.769 -93.769 9 2.5 0.5 2
9 0 1 0 0 0 1 0 0 0 1 -30.769 -99.269 -11 2.5 1 1
9 0 1 0 0 0 1 0 0 0 1 -30.769 -99.269 11 2.5 1 1
9 0 1 0 0 0 1 0 0 0 1 -35.769 96.731 -12 2.5 1 1
9 0 1 0 0 0 1 0 0 0 1 -39.769 -91.269 10 2.5 1 1
9 0 1 0 0 0 1 0 0 0 1 -41.269 -95.769 -9.5 2 0.5 2.5
9 0 1 0 0 0 1 0 0 0 1 -44.269 97.231 0 1 0.5 5
9 0 1 0 0 0 1 0 0 0 1 -44.269 89.231 11.5 2 0.5 2.5
9 0 1 0 0 0 1 0 0 0 1 -45.269 -86.769 -2.5 2 0.5 2.5
9 0 1 0 0 0 1 0 0 0 1 -47.769 88.731 15 2.5 1 1
9 0 1 0 0 0 1 0 0 0 1 -51.269 84.731 9.5 1 1 2.5
9 0 1 0 0 0 1 0 0 0 1 -48.269 -86.769 2 5 0.5 1
9 0 1 0 0 0 1 0 0 0 1 -53.769 -85.269 15 2.5 1 1
9 0 1 0 0 0 1 0 0 0 1 -57.269 81.731 -11.5 1 1 2.5
9 0 1 0 0 0 1 0 0 0 1 -57.269 -82.269 13.5 1 1 2.5
9 0 1 0 0 0 1 0 0 0 1 -60.269 88.231 0 1 0.5 5
9 0 1 0 0 0 1 0 0 0 1 -62.269 77.731 11.5 1 1 2.5
9 0 1 0 0 0 1 0 0 0 1 -63.269 76.731 -10.5 1 1 2.5
9 0 1 0 0 0 1 0 0 0 1 -64.269 85.231 0 1 0.5 5
9 0 1 0 0 0 1 0 0 0 1 -71.269 -67.269 3.5 1 1 2.5
9 0 1 0 0 0 1 0 0 0 1 -76.269 -60.769 0 1 0.5 5
9 0 1 0 0 0 1 0 0 0 1 -76.269 -64.269 11.5 1 1 2.5
9 0 1 0 0 0 1 0 0 0 1 -74.269 70.231 -9 5 0.5 1
9 0 1 0 0 0 1 0 0 0 1 -69.269 71.231 -7 2 1.5 1
9 0 1 0 0 0 1 0 0 0 1 -81.269 -59.769 14 1 2.5 1
9 0 1 0 0 0 1 0 0 0 1 -83.269 -61.269 10.5 1 1 2.5
9 0 1 0 0 0 1 0 0 0 1 -89.769 57.731 0 0.5 1 5
9 0 1 0 0 0 1 0 0 0 1 -89.269 44.731 -12.5 1 1 2.5
9 0 1 0 0 0 1 0 0 0 1 -89.269 44.731 12.5 1 1 2.5
9 0 1 0 0 0 1 0 0 0 1 -89.269 -54.269 -8.5 1 1 2.5
9 0 1 0 0 0 1 0 0 0 1 -90.769 -56.269 0 0.5 1 5
9 0 1 0 0 0 1 0 0 0 1 -91.769 54.731 0 0.5 1 5
9 0 1 0 0 0 1 0 0 0 1 -91.769 -33.269 -2.5 0.5 2 2.5
9 0 1 0 0 0 1 0 0 0 1 -92.269 37.731 -12.5 1 1 2.5
9 0 1 0 0 0 1 0 0 0 1 -94.769 25.231 7 0.5 2.5 2
9 0 1 0 0 0 1 0 0 0 1 -94.769 -25.769 -8 0.5 2.5 2
9 0 1 0 0 0 1 0 0 0 1 -95.769 24.731 10.5 0.5 2 2.5
9 0 1 0 0 0 1 0 0 0 1 -95.769 -13.269 0.5 0.5 2 2.5
9 0 1 0 0 0 1 0 0 0 1 -95.769 -26.769 -13 0.5 2.5 2
9 0 1 0 0 0 1 0 0 0 1 -97.769 16.231 -13 0.5 2.5 2
9 0 1 0 0 0 1 0 0 0 1 -97.769 16.231 13 0.5 2.5 2
9 0 1 0 0 0 1 0 0 0 1 -101.269 21.231 -12 1 2.5 1
9 0 1 0 0 0 1 0 0 0 1 -101.269 21.231 12 1 2.5 1
9 0 1 0 0 0 1 0 0 0 1 -104.769 0.7310028 12 0.5 5 1
9 0 1 0 0 0 1 0 0 0 1 104.231 0.2310028 12.5 0.5 9.5 0.5
9 0 1 0 0 0 1 0 0 0 1 20.231 -103.769 0.5 0.5 0.5 9.5
9 0 1 0 0 0 1 0 0 0 1 107.231 -8.768997 0 0.5 1.5 3
9 0 1 0 0 0 1 0 0 0 1 106.231 -11.269 -4.5 0.5 3 1.5
9 0 1 0 0 0 1 0 0 0 1 104.231 -12.269 -9.5 0.5 3 1.5
9 0 1 0 0 0 1 0 0 0 1 100.231 28.731 10.5 0.5 3 1.5
9 0 1 0 0 0 1 0 0 0 1 96.731 -28.769 -15.5 1 4.5 0.5
9 0 1 0 0 0 1 0 0 0 1 96.731 -28.769 15.5 1 4.5 0.5
9 0 1 0 0 0 1 0 0 0 1 96.731 -41.769 6.5 1 1.5 1.5
9 0 1 0 0 0 1 0 0 0 1 95.231 48.231 0 0.5 1.5 3
9 0 1 0 0 0 1 0 0 0 1 93.231 48.231 -7 0.5 1.5 3
9 0 1 0 0 0 1 0 0 0 1 93.231 33.731 10.5 0.5 3 1.5
9 0 1 0 0 0 1 0 0 0 1 93.731 -43.769 11.5 1 1.5 1.5
9 0 1 0 0 0 1 0 0 0 1 93.731 -47.769 -6.5 1 1.5 1.5
9 0 1 0 0 0 1 0 0 0 1 93.731 -47.769 6.5 1 1.5 1.5
9 0 1 0 0 0 1 0 0 0 1 92.231 43.231 -14 1.5 1.5 1
9 0 1 0 0 0 1 0 0 0 1 91.231 40.231 -13 0.5 1.5 3
9 0 1 0 0 0 1 0 0 0 1 90.231 54.231 -6 0.5 1.5 3
9 0 1 0 0 0 1 0 0 0 1 90.731 -45.769 -14.5 1 1.5 1.5
9 0 1 0 0 0 1 0 0 0 1 89.231 58.731 0.5 0.5 1 4.5
9 0 1 0 0 0 1 0 0 0 1 89.731 54.231 7.5 1 1.5 1.5
9 0 1 0 0 0 1 0 0 0 1 90.231 48.731 -11.5 1.5 1 1.5
9 0 1 0 0 0 1 0 0 0 1 87.231 -38.269 0.5 1.5 3 0.5
9 0 1 0 0 0 1 0 0 0 1 84.231 55.731 14.5 0.5 3 1.5
9 0 1 0 0 0 1 0 0 0 1 83.231 51.731 -4.5 0.5 1 4.5
9 0 1 0 0 0 1 0 0 0 1 83.731 7.231003 2.5 1 0.5 4.5
9 0 1 0 0 0 1 0 0 0 1 82.731 64.231 -4.5 1 1.5 1.5
9 0 1 0 0 0 1 0 0 0 1 82.731 -63.769 8.5 1 1.5 1.5
9 0 1 0 0 0 1 0 0 0 1 81.231 -57.769 -12 0.5 1.5 3
9 0 1 0 0 0 1 0 0 0 1 82.231 -58.269 14.5 1.5 1 1.5
9 0 1 0 0 0 1 0 0 0 1 80.231 61.231 15 1.5 1.5 1
9 0 1 0 0 0 1 0 0 0 1 79.231 57.231 0 0.5 0.5 9
9 0 1 0 0 0 1 0 0 0 1 79.231 -57.769 4 0.5 1.5 3
9 0 1 0 0 0 1 0 0 0 1 77.231 65.231 15 1.5 1.5 1
9 0 1 0 0 0 1 0 0 0 1 76.231 68.731 -10.5 1.5 3 0.5
9 0 1 0 0 0 1 0 0 0 1 76.231 -66.269 -14.5 1.5 1 1.5
9 0 1 0 0 0 1 0 0 0 1 75.731 -72.769 6.5 1 1.5 1.5
9 0 1 0 0 0 1 0 0 0 1 72.231 74.231 -10 1.5 1.5 1
9 0 1 0 0 0 1 0 0 0 1 72.231 -70.269 -14.5 1.5 1 1.5
9 0 1 0 0 0 1 0 0 0 1 69.231 81.231 0 1.5 0.5 3
9 0 1 0 0 0 1 0 0 0 1 66.231 -71.769 0 0.5 0.5 9
9 0 1 0 0 0 1 0 0 0 1 65.231 84.231 0 1.5 0.5 3
9 0 1 0 0 0 1 0 0 0 1 63.731 7.231003 2.5 1 0.5 4.5
9 0 1 0 0 0 1 0 0 0 1 63.231 -78.769 -15 1.5 1.5 1
9 0 1 0 0 0 1 0 0 0 1 62.231 84.731 6.5 1.5 1 1.5
9 0 1 0 0 0 1 0 0 0 1 62.231 -81.269 -12.5 1.5 1 1.5
9 0 1 0 0 0 1 0 0 0 1 62.231 -81.269 12.5 1.5 1 1.5
9 0 1 0 0 0 1 0 0 0 1 59.231 -81.769 15 1.5 1.5 1
9 0 1 0 0 0 1 0 0 0 1 55.231 -80.769 0 0.5 0.5 9
9 0 1 0 0 0 1 0 0 0 1 54.231 84.731 14.5 1.5 1 1.5
9 0 1 0 0 0 1 0 0 0 1 52.231 -89.269 -10.5 1.5 1 1.5
9 0 1 0 0 0 1 0 0 0 1 52.231 -89.269 10.5 1.5 1 1.5
9 0 1 0 0 0 1 0 0 0 1 51.231 -93.769 0 1.5 0.5 3
9 0 1 0 0 0 1 0 0 0 1 50.231 94.231 0 1.5 0.5 3
9 0 1 0 0 0 1 0 0 0 1 49.231 86.231 -11 1.5 0.5 3
9 0 1 0 0 0 1 0 0 0 1 46.231 90.731 -13.5 1.5 1 1.5
9 0 1 0 0 0 1 0 0 0 1 45.231 89.231 -13 1.5 0.5 3
9 0 1 0 0 0 1 0 0 0 1 43.731 7.231003 2.5 1 0.5 4.5
9 0 1 0 0 0 1 0 0 0 1 42.731 88.231 5.5 1 0.5 4.5
9 0 1 0 0 0 1 0 0 0 1 43.231 -87.769 4 1.5 0.5 3
9 0 1 0 0 0 1 0 0 0 1 42.231 98.231 0 1.5 0.5 3
9 0 1 0 0 0 1 0 0 0 1 42.231 90.231 12 1.5 0.5 3
9 0 1 0 0 0 1 0 0 0 1 38.731 -89.769 -4.5 1 0.5 4.5
9 0 1 0 0 0 1 0 0 0 1 35.731 94.231 -14.5 1 1.5 1.5
9 0 1 0 0 0 1 0 0 0 1 35.231 -98.269 -9.5 1.5 1 1.5
9 0 1 0 0 0 1 0 0 0 1 36.231 94.231 15 4.5 0.5 1
9 0 1 0 0 0 1 0 0 0 1 28.731 100.231 10.5 3 0.5 1.5
9 0 1 0 0 0 1 0 0 0 1 28.731 -96.769 15.5 3 1.5 0.5
9 0 1 0 0 0 1 0 0 0 1 21.231 -13.269 0.5 1.5 3 0.5
9 0 1 0 0 0 1 0 0 0 1 20.731 102.231 10.5 3 0.5 1.5
9 0 1 0 0 0 1 0 0 0 1 20.731 -96.769 -11.5 3 0.5 1.5
9 0 1 0 0 0 1 0 0 0 1 21.231 -97.769 -15 4.5 0.5 1
9 0 1 0 0 0 1 0 0 0 1 18.731 -98.769 15.5 3 1.5 0.5
9 0 1 0 0 0 1 0 0 0 1 18.231 -100.769 -14 4.5 0.5 1
9 0 1 0 0 0 1 0 0 0 1 14.731 97.231 10.5 3 0.5 1.5
9 0 1 0 0 0 1 0 0 0 1 13.231 -95.769 0 1.5 0.5 3
9 0 1 0 0 0 1 0 0 0 1 13.731 21.231 0.5 3 1.5 0.5
9 0 1 0 0 0 1 0 0 0 1 7.231003 83.731 -1.5 0.5 1 4.5
9 0 1 0 0 0 1 0 0 0 1 7.231003 63.731 -1.5 0.5 1 4.5
9 0 1 0 0 0 1 0 0 0 1 7.231003 43.731 -1.5 0.5 1 4.5
9 0 1 0 0 0 1 0 0 0 1 7.231003 -36.269 -1.5 0.5 1 4.5
9 0 1 0 0 0 1 0 0 0 1 7.231003 -56.269 -1.5 0.5 1 4.5
9 0 1 0 0 0 1 0 0 0 1 7.231003 -76.269 -1.5 0.5 1 4.5
9 0 1 0 0 0 1 0 0 0 1 -7.768997 107.231 0 1.5 0.5 3
9 0 1 0 0 0 1 0 0 0 1 -13.269 21.231 0.5 3 1.5 0.5
9 0 1 0 0 0 1 0 0 0 1 -15.769 -95.769 -3 1.5 0.5 3
9 0 1 0 0 0 1 0 0 0 1 -15.269 98.231 14.5 3 0.5 1.5
9 0 1 0 0 0 1 0 0 0 1 -15.269 97.231 10.5 3 0.5 1.5
9 0 1 0 0 0 1 0 0 0 1 -23.269 99.231 -13.5 1 1.5 1.5
9 0 1 0 0 0 1 0 0 0 1 -22.769 -94.769 4 1.5 0.5 3
9 0 1 0 0 0 1 0 0 0 1 -23.269 98.231 15.5 3 1.5 0.5
9 0 1 0 0 0 1 0 0 0 1 -29.769 -92.769 -3 1.5 0.5 3
9 0 1 0 0 0 1 0 0 0 1 -32.269 100.231 -7.5 3 0.5 1.5
9 0 1 0 0 0 1 0 0 0 1 -32.269 100.231 7.5 3 0.5 1.5
9 0 1 0 0 0 1 0 0 0 1 -32.269 -94.769 14.5 3 0.5 1.5
9 0 1 0 0 0 1 0 0 0 1 -36.269 7.231003 2.5 1 0.5 4.5
9 0 1 0 0 0 1 0 0 0 1 -39.769 96.731 -8.5 1.5 1 1.5
9 0 1 0 0 0 1 0 0 0 1 -46.769 87.731 9.5 1.5 1 1.5
9 0 1 0 0 0 1 0 0 0 1 -54.269 -81.769 -4.5 1 0.5 4.5
9 0 1 0 0 0 1 0 0 0 1 -56.269 7.231003 2.5 1 0.5 4.5
9 0 1 0 0 0 1 0 0 0 1 -56.769 81.731 10.5 1.5 1 1.5
9 0 1 0 0 0 1 0 0 0 1 -57.269 -79.769 5.5 1 0.5 4.5
9 0 1 0 0 0 1 0 0 0 1 -59.769 84.731 10.5 1.5 1 1.5
9 0 1 0 0 0 1 0 0 0 1 -65.269 81.231 7.5 1 1.5 1.5
9 0 1 0 0 0 1 0 0 0 1 -66.769 -73.769 -10 0.5 1.5 3
9 0 1 0 0 0 1 0 0 0 1 -64.269 -76.769 -7.5 3 1.5 0.5
9 0 1 0 0 0 1 0 0 0 1 -70.269 72.231 14.5 1 1.5 1.5
9 0 1 0 0 0 1 0 0 0 1 -72.769 68.231 9 1.5 1.5 1
9 0 1 0 0 0 1 0 0 0 1 -73.769 63.731 -0.5 0.5 1 4.5
9 0 1 0 0 0 1 0 0 0 1 -74.769 -67.269 -14.5 1.5 1 1.5
9 0 1 0 0 0 1 0 0 0 1 -75.769 66.731 14.5 1.5 1 1.5
9 0 1 0 0 0 1 0 0 0 1 -76.269 7.231003 2.5 1 0.5 4.5
9 0 1 0 0 0 1 0 0 0 1 -76.269 -34.769 0.5 1 4.5 0.5
9 0 1 0 0 0 1 0 0 0 1 -76.769 -65.269 -14.5 1.5 1 1.5
9 0 1 0 0 0 1 0 0 0 1 -80.769 -60.269 -14.5 1.5 1 1.5
9 0 1 0 0 0 1 0 0 0 1 -82.269 55.231 9.5 1 1.5 1.5
9 0 1 0 0 0 1 0 0 0 1 -84.769 -59.769 9 1.5 0.5 3
9 0 1 0 0 0 1 0 0 0 1 -86.769 49.231 -13 0.5 1.5 3
9 0 1 0 0 0 1 0 0 0 1 -86.769 49.231 13 0.5 1.5 3
9 0 1 0 0 0 1 0 0 0 1 -87.769 -55.769 7 0.5 4.5 1
9 0 1 0 0 0 1 0 0 0 1 -92.269 -49.769 7.5 1 1.5 1.5
9 0 1 0 0 0 1 0 0 0 1 -92.769 -48.769 -7 1.5 1.5 1
9 0 1 0 0 0 1 0 0 0 1 -94.769 34.231 15 0.5 4.5 1
9 0 1 0 0 0 1 0 0 0 1 -95.269 -42.769 -9.5 1 1.5 1.5
9 0 1 0 0 0 1 0 0 0 1 -98.269 -29.769 -12.5 1 1.5 1.5
9 0 1 0 0 0 1 0 0 0 1 -104.769 14.731 7.5 0.5 3 1.5
9 0 1 0 0 0 1 0 0 0 1 -104.769 -14.269 7.5 0.5 3 1.5
9 0 1 0 0 0 1 0 0 0 1 -106.769 12.231 0 0.5 1.5 3
9 0 1 0 0 0 1 0 0 0 1 -106.769 -11.769 0 0.5 1.5 3
9 0 1 0 0 0 1 0 0 0 1 72.231 -65.769 -0.5 0.5 0.5 8.5
9 0 1 0 0 0 1 0 0 0 1 0.2310028 105.231 -10.5 8.5 0.5 0.5
9 0 1 0 0 0 1 0 0 0 1 -38.769 94.231 0.5 0.5 0.5 8.5
9 0 1 0 0 0 1 0 0 0 1 -69.769 68.231 0.5 0.5 0.5 8.5
9 0 1 0 0 0 1 0 0 0 1 -71.769 66.231 -0.5 0.5 0.5 8.5
9 0 1 0 0 0 1 0 0 0 1 107.231 8.731003 0 0.5 2 2
9 0 1 0 0 0 1 0 0 0 1 103.231 -28.269 0 0.5 1 4
9 0 1 0 0 0 1 0 0 0 1 102.231 10.731 -14 0.5 4 1
9 0 1 0 0 0 1 0 0 0 1 102.731 -22.269 8 1 2 1
9 0 1 0 0 0 1 0 0 0 1 99.731 22.731 14 1 2 1
9 0 1 0 0 0 1 0 0 0 1 99.231 -40.269 0 0.5 1 4
9 0 1 0 0 0 1 0 0 0 1 98.231 38.731 -6 0.5 2 2
9 0 1 0 0 0 1 0 0 0 1 97.231 35.731 -11 0.5 4 1
9 0 1 0 0 0 1 0 0 0 1 97.731 25.731 -15.5 1 4 0.5
9 0 1 0 0 0 1 0 0 0 1 97.231 15.731 11 0.5 2 2
9 0 1 0 0 0 1 0 0 0 1 94.731 -42.269 -11 1 2 1
9 0 1 0 0 0 1 0 0 0 1 93.231 -33.269 10 0.5 2 2
9 0 1 0 0 0 1 0 0 0 1 92.231 -37.269 -12 0.5 2 2
9 0 1 0 0 0 1 0 0 0 1 91.231 55.731 0 0.5 1 4
9 0 1 0 0 0 1 0 0 0 1 89.731 -53.269 9 1 1 2
9 0 1 0 0 0 1 0 0 0 1 87.731 56.731 -9 1 1 2
9 0 1 0 0 0 1 0 0 0 1 87.731 49.731 15 1 2 1
9 0 1 0 0 0 1 0 0 0 1 87.731 -55.269 11 1 1 2
9 0 1 0 0 0 1 0 0 0 1 86.231 49.731 12 0.5 1 4
9 0 1 0 0 0 1 0 0 0 1 85.731 58.731 -10 1 2 1
9 0 1 0 0 0 1 0 0 0 1 85.231 -48.269 5 0.5 1 4
9 0 1 0 0 0 1 0 0 0 1 85.731 -60.269 8 1 1 2
9 0 1 0 0 0 1 0 0 0 1 85.731 -63.769 0 1 0.5 4
9 0 1 0 0 0 1 0 0 0 1 85.731 -53.269 15 2 1 1
9 0 1 0 0 0 1 0 0 0 1 83.231 51.731 5 0.5 1 4
9 0 1 0 0 0 1 0 0 0 1 83.231 -51.269 -4 0.5 1 4
9 0 1 0 0 0 1 0 0 0 1 82.231 -68.269 0 0.5 1 4
9 0 1 0 0 0 1 0 0 0 1 81.231 54.731 -4 0.5 1 4
9 0 1 0 0 0 1 0 0 0 1 80.731 -58.269 11 1 1 2
9 0 1 0 0 0 1 0 0 0 1 79.231 -67.269 -10 0.5 2 2
9 0 1 0 0 0 1 0 0 0 1 71.731 77.731 -5 1 1 2
9 0 1 0 0 0 1 0 0 0 1 70.231 -67.769 0 0.5 0.5 8
9 0 1 0 0 0 1 0 0 0 1 68.731 -72.269 12 1 1 2
9 0 1 0 0 0 1 0 0 0 1 65.731 -74.269 -10 1 1 2
9 0 1 0 0 0 1 0 0 0 1 62.731 81.731 12 2 1 1
9 0 1 0 0 0 1 0 0 0 1 62.731 78.731 -6.5 2 2 0.5
9 0 1 0 0 0 1 0 0 0 1 60.731 -76.769 -4 1 0.5 4
9 0 1 0 0 0 1 0 0 0 1 60.731 -76.769 5 1 0.5 4
9 0 1 0 0 0 1 0 0 0 1 60.731 -85.269 -8 1 1 2
9 0 1 0 0 0 1 0 0 0 1 58.731 78.231 -4 1 0.5 4
9 0 1 0 0 0 1 0 0 0 1 58.731 85.731 -9 2 1 1
9 0 1 0 0 0 1 0 0 0 1 57.731 -87.269 9 1 1 2
9 0 1 0 0 0 1 0 0 0 1 56.731 -90.769 0 1 0.5 4
9 0 1 0 0 0 1 0 0 0 1 47.731 85.231 -4 1 0.5 4
9 0 1 0 0 0 1 0 0 0 1 47.731 -93.269 -8 1 1 2
9 0 1 0 0 0 1 0 0 0 1 46.731 87.731 11 1 1 2
9 0 1 0 0 0 1 0 0 0 1 37.731 -92.269 13 1 1 2
9 0 1 0 0 0 1 0 0 0 1 37.731 97.231 -10 2 0.5 2
9 0 1 0 0 0 1 0 0 0 1 35.731 -93.269 -10 1 2 1
9 0 1 0 0 0 1 0 0 0 1 33.731 -96.269 -14 2 1 1
9 0 1 0 0 0 1 0 0 0 1 25.731 96.231 -14 2 0.5 2
9 0 1 0 0 0 1 0 0 0 1 22.731 -102.769 -8 2 0.5 2
9 0 1 0 0 0 1 0 0 0 1 21.731 12.731 0.5 2 2 0.5
9 0 1 0 0 0 1 0 0 0 1 20.731 -94.769 0 1 0.5 4
9 0 1 0 0 0 1 0 0 0 1 21.731 98.731 15.5 4 1 0.5
9 0 1 0 0 0 1 0 0 0 1 11.731 -86.269 0.5 1 4 0.5
9 0 1 0 0 0 1 0 0 0 1 11.731 -106.769 0 2 0.5 2
9 0 1 0 0 0 1 0 0 0 1 9.731003 -97.769 -10 2 0.5 2
9 0 1 0 0 0 1 0 0 0 1 5.731003 5.731003 6.5 2 2 0.5
9 0 1 0 0 0 1 0 0 0 1 -11.269 99.731 -14 1 1 2
9 0 1 0 0 0 1 0 0 0 1 -12.269 -22.269 0.5 2 2 0.5
9 0 1 0 0 0 1 0 0 0 1 -14.269 101.231 -15 4 0.5 1
9 0 1 0 0 0 1 0 0 0 1 -28.269 96.731 -15.5 4 1 0.5
9 0 1 0 0 0 1 0 0 0 1 -29.269 95.231 -14 2 0.5 2
9 0 1 0 0 0 1 0 0 0 1 -34.269 -101.769 0 1 0.5 4
9 0 1 0 0 0 1 0 0 0 1 -36.269 -97.769 -10 2 0.5 2
9 0 1 0 0 0 1 0 0 0 1 -36.269 -97.769 10 2 0.5 2
9 0 1 0 0 0 1 0 0 0 1 -41.269 -93.269 -14 2 1 1
9 0 1 0 0 0 1 0 0 0 1 -41.269 -93.269 14 2 1 1
9 0 1 0 0 0 1 0 0 0 1 -45.269 -94.269 -9 1 1 2
9 0 1 0 0 0 1 0 0 0 1 -47.269 -93.269 9 1 1 2
9 0 1 0 0 0 1 0 0 0 1 -50.269 -83.769 -4 1 0.5 4
9 0 1 0 0 0 1 0 0 0 1 -50.269 -43.269 0.5 2 2 0.5
9 0 1 0 0 0 1 0 0 0 1 -52.269 -82.769 5 1 0.5 4
9 0 1 0 0 0 1 0 0 0 1 -54.269 -81.769 5 1 0.5 4
9 0 1 0 0 0 1 0 0 0 1 -55.269 87.731 -11 1 1 2
9 0 1 0 0 0 1 0 0 0 1 -54.269 -82.769 -9 2 0.5 2
9 0 1 0 0 0 1 0 0 0 1 -58.769 -77.769 0 0.5 0.5 8
9 0 1 0 0 0 1 0 0 0 1 -59.269 80.731 -10 1 2 1
9 0 1 0 0 0 1 0 0 0 1 -59.269 -85.269 -10 1 1 2
9 0 1 0 0 0 1 0 0 0 1 -59.269 -85.269 10 1 1 2
9 0 1 0 0 0 1 0 0 0 1 -60.269 -81.269 -14 1 2 1
9 0 1 0 0 0 1 0 0 0 1 -61.269 84.731 -8 1 1 2
9 0 1 0 0 0 1 0 0 0 1 -61.269 -87.769 0 1 0.5 4
9 0 1 0 0 0 1 0 0 0 1 -62.269 -86.769 0 1 0.5 4
9 0 1 0 0 0 1 0 0 0 1 -63.269 -82.269 -10 1 1 2
9 0 1 0 0 0 1 0 0 0 1 -64.269 -83.269 6 1 1 2
9 0 1 0 0 0 1 0 0 0 1 -64.269 -79.269 11.5 2 2 0.5
9 0 1 0 0 0 1 0 0 0 1 -68.269 82.231 0 1 0.5 4
9 0 1 0 0 0 1 0 0 0 1 -71.269 71.231 -14 2 0.5 2
9 0 1 0 0 0 1 0 0 0 1 -72.769 -78.269 0 0.5 1 4
9 0 1 0 0 0 1 0 0 0 1 -74.269 66.731 -12 1 1 2
9 0 1 0 0 0 1 0 0 0 1 -73.269 60.731 0.5 2 2 0.5
9 0 1 0 0 0 1 0 0 0 1 -75.269 71.731 -10 1 1 2
9 0 1 0 0 0 1 0 0 0 1 -74.269 -73.769 7 2 0.5 2
9 0 1 0 0 0 1 0 0 0 1 -76.769 60.231 0 0.5 0.5 8
9 0 1 0 0 0 1 0 0 0 1 -77.269 64.731 -15 1 2 1
9 0 1 0 0 0 1 0 0 0 1 -79.269 58.731 -8 1 1 2
9 0 1 0 0 0 1 0 0 0 1 -79.269 -71.769 0 1 0.5 4
9 0 1 0 0 0 1 0 0 0 1 -81.269 59.731 -15 1 2 1
9 0 1 0 0 0 1 0 0 0 1 -81.269 59.731 15 1 2 1
9 0 1 0 0 0 1 0 0 0 1 -82.269 56.231 -10 1 0.5 4
9 0 1 0 0 0 1 0 0 0 1 -83.269 56.731 -15 1 2 1
9 0 1 0 0 0 1 0 0 0 1 -83.769 -50.269 -4 0.5 1 4
9 0 1 0 0 0 1 0 0 0 1 -85.269 57.731 12 1 2 1
9 0 1 0 0 0 1 0 0 0 1 -88.769 -40.769 1 0.5 0.5 8
9 0 1 0 0 0 1 0 0 0 1 -89.269 54.731 -8 1 1 2
9 0 1 0 0 0 1 0 0 0 1 -89.269 54.731 8 1 1 2
9 0 1 0 0 0 1 0 0 0 1 -89.269 -51.269 -12 1 2 1
9 0 1 0 0 0 1 0 0 0 1 -90.769 -36.269 5 0.5 1 4
9 0 1 0 0 0 1 0 0 0 1 -91.269 -39.269 -11 1 1 2
9 0 1 0 0 0 1 0 0 0 1 -92.769 -33.269 -9 0.5 2 2
9 0 1 0 0 0 1 0 0 0 1 -93.769 31.731 11 0.5 2 2
9 0 1 0 0 0 1 0 0 0 1 -93.769 -33.269 -12 0.5 2 2
9 0 1 0 0 0 1 0 0 0 1 -93.769 -51.269 0 0.5 1 4
9 0 1 0 0 0 1 0 0 0 1 -94.269 16.731 0.5 1 4 0.5
9 0 1 0 0 0 1 0 0 0 1 -95.769 23.731 -10 0.5 2 2
9 0 1 0 0 0 1 0 0 0 1 -96.769 40.731 -8 0.5 2 2
9 0 1 0 0 0 1 0 0 0 1 -96.769 40.731 8 0.5 2 2
9 0 1 0 0 0 1 0 0 0 1 -96.769 -23.269 14 0.5 2 2
9 0 1 0 0 0 1 0 0 0 1 -97.769 -15.269 -13 0.5 2 2
9 0 1 0 0 0 1 0 0 0 1 -97.769 -15.269 13 0.5 2 2
9 0 1 0 0 0 1 0 0 0 1 -99.769 -33.269 -8 0.5 2 2
9 0 1 0 0 0 1 0 0 0 1 -99.769 -33.269 8 0.5 2 2
9 0 1 0 0 0 1 0 0 0 1 106.231 11.231 -4.5 0.5 2.5 1.5
9 0 1 0 0 0 1 0 0 0 1 103.231 23.231 6.5 0.5 2.5 1.5
9 0 1 0 0 0 1 0 0 0 1 102.231 28.231 -5.5 0.5 2.5 1.5
9 0 1 0 0 0 1 0 0 0 1 98.231 15.231 -14.5 0.5 2.5 1.5
9 0 1 0 0 0 1 0 0 0 1 98.231 -14.769 -14.5 0.5 2.5 1.5
9 0 1 0 0 0 1 0 0 0 1 98.231 -14.769 14.5 0.5 2.5 1.5
9 0 1 0 0 0 1 0 0 0 1 97.231 -14.769 10.5 0.5 2.5 1.5
9 0 1 0 0 0 1 0 0 0 1 96.231 -20.769 -9.5 0.5 2.5 1.5
9 0 1 0 0 0 1 0 0 0 1 93.231 27.231 -2.5 0.5 1.5 2.5
9 0 1 0 0 0 1 0 0 0 1 90.231 38.231 -6.5 0.5 1.5 2.5
9 0 1 0 0 0 1 0 0 0 1 90.231 -39.769 9.5 0.5 1.5 2.5
9 0 1 0 0 0 1 0 0 0 1 85.231 58.231 -4.5 1.5 2.5 0.5
9 0 1 0 0 0 1 0 0 0 1 84.231 53.231 -12.5 0.5 1.5 2.5
9 0 1 0 0 0 1 0 0 0 1 80.231 24.231 0.5 1.5 2.5 0.5
9 0 1 0 0 0 1 0 0 0 1 76.231 -60.769 -0.5 0.5 0.5 7.5
9 0 1 0 0 0 1 0 0 0 1 76.231 -33.769 0.5 1.5 2.5 0.5
9 0 1 0 0 0 1 0 0 0 1 72.231 -61.769 0.5 1.5 2.5 0.5
9 0 1 0 0 0 1 0 0 0 1 62.231 72.231 0.5 2.5 1.5 0.5
9 0 1 0 0 0 1 0 0 0 1 60.231 81.231 14.5 2.5 0.5 1.5
9 0 1 0 0 0 1 0 0 0 1 53.231 91.231 -5.5 1.5 0.5 2.5
9 0 1 0 0 0 1 0 0 0 1 51.231 85.231 11.5 1.5 0.5 2.5
9 0 1 0 0 0 1 0 0 0 1 47.231 -80.769 0.5 7.5 0.5 0.5
9 0 1 0 0 0 1 0 0 0 1 39.231 -91.769 -13.5 1.5 0.5 2.5
9 0 1 0 0 0 1 0 0 0 1 37.231 -74.769 0.5 2.5 1.5 0.5
9 0 1 0 0 0 1 0 0 0 1 32.231 97.231 -13.5 2.5 0.5 1.5
9 0 1 0 0 0 1 0 0 0 1 28.231 102.231 -5.5 2.5 0.5 1.5
9 0 1 0 0 0 1 0 0 0 1 27.231 -98.769 13.5 2.5 0.5 1.5
9 0 1 0 0 0 1 0 0 0 1 25.231 -79.769 0.5 2.5 1.5 0.5
9 0 1 0 0 0 1 0 0 0 1 24.231 80.231 0.5 2.5 1.5 0.5
9 0 1 0 0 0 1 0 0 0 1 24.231 -99.769 13.5 2.5 0.5 1.5
9 0 1 0 0 0 1 0 0 0 1 23.231 103.231 6.5 2.5 0.5 1.5
9 0 1 0 0 0 1 0 0 0 1 23.231 99.231 -14.5 2.5 0.5 1.5
9 0 1 0 0 0 1 0 0 0 1 22.231 -98.769 -10.5 1.5 0.5 2.5
9 0 1 0 0 0 1 0 0 0 1 19.231 -95.769 7.5 2.5 0.5 1.5
9 0 1 0 0 0 1 0 0 0 1 15.231 98.231 14.5 2.5 0.5 1.5
9 0 1 0 0 0 1 0 0 0 1 11.231 -98.769 -14.5 2.5 0.5 1.5
9 0 1 0 0 0 1 0 0 0 1 -10.769 -98.769 -14.5 2.5 0.5 1.5
9 0 1 0 0 0 1 0 0 0 1 -22.769 96.231 11.5 1.5 0.5 2.5
9 0 1 0 0 0 1 0 0 0 1 -25.769 95.231 -9.5 1.5 0.5 2.5
9 0 1 0 0 0 1 0 0 0 1 -29.769 -92.769 3.5 1.5 0.5 2.5
9 0 1 0 0 0 1 0 0 0 1 -32.769 -94.769 -7.5 1.5 2.5 0.5
9 0 1 0 0 0 1 0 0 0 1 -35.769 92.231 -10.5 1.5 0.5 2.5
9 0 1 0 0 0 1 0 0 0 1 -35.769 98.231 9.5 2.5 0.5 1.5
9 0 1 0 0 0 1 0 0 0 1 -38.769 91.231 11.5 1.5 0.5 2.5
9 0 1 0 0 0 1 0 0 0 1 -38.769 -90.769 -9.5 1.5 0.5 2.5
9 0 1 0 0 0 1 0 0 0 1 -39.769 -73.769 0.5 2.5 1.5 0.5
9 0 1 0 0 0 1 0 0 0 1 -43.769 87.231 -2.5 1.5 0.5 2.5
9 0 1 0 0 0 1 0 0 0 1 -43.769 -87.769 5.5 1.5 0.5 2.5
9 0 1 0 0 0 1 0 0 0 1 -43.769 -88.769 -9.5 1.5 0.5 2.5
9 0 1 0 0 0 1 0 0 0 1 -45.769 88.231 -11.5 1.5 0.5 2.5
9 0 1 0 0 0 1 0 0 0 1 -50.769 86.231 13.5 1.5 0.5 2.5
9 0 1 0 0 0 1 0 0 0 1 -74.769 37.231 0.5 1.5 2.5 0.5
9 0 1 0 0 0 1 0 0 0 1 -79.769 25.231 0.5 1.5 2.5 0.5
9 0 1 0 0 0 1 0 0 0 1 -91.769 -37.769 -0.5 1.5 2.5 0.5
9 0 1 0 0 0 1 0 0 0 1 -94.769 25.231 -7.5 0.5 1.5 2.5
9 0 1 0 0 0 1 0 0 0 1 -101.769 27.231 -7.5 0.5 2.5 1.5
9 0 1 0 0 0 1 0 0 0 1 -101.769 27.231 7.5 0.5 2.5 1.5
9 0 1 0 0 0 1 0 0 0 1 -106.769 0.2310028 -6.5 0.5 7.5 0.5
9 0 1 0 0 0 1 0 0 0 1 105.731 -15.769 0.5 1 0.5 3.5
9 0 1 0 0 0 1 0 0 0 1 96.231 -16.769 8 0.5 3.5 1
9 0 1 0 0 0 1 0 0 0 1 94.731 -34.769 -15.5 1 3.5 0.5
9 0 1 0 0 0 1 0 0 0 1 92.231 38.231 -12 0.5 3.5 1
9 0 1 0 0 0 1 0 0 0 1 92.731 -39.769 15.5 1 3.5 0.5
9 0 1 0 0 0 1 0 0 0 1 91.231 34.731 4.5 0.5 1 3.5
9 0 1 0 0 0 1 0 0 0 1 91.231 -34.269 -3.5 0.5 1 3.5
9 0 1 0 0 0 1 0 0 0 1 86.231 45.231 0 0.5 0.5 7
9 0 1 0 0 0 1 0 0 0 1 83.231 -51.269 4.5 0.5 1 3.5
9 0 1 0 0 0 1 0 0 0 1 81.231 54.731 4.5 0.5 1 3.5
9 0 1 0 0 0 1 0 0 0 1 58.731 78.231 4.5 1 0.5 3.5
9 0 1 0 0 0 1 0 0 0 1 55.731 80.231 -3.5 1 0.5 3.5
9 0 1 0 0 0 1 0 0 0 1 53.231 86.231 10 0.5 3.5 1
9 0 1 0 0 0 1 0 0 0 1 51.231 -82.769 0 0.5 0.5 7
9 0 1 0 0 0 1 0 0 0 1 46.731 -85.769 -3.5 1 0.5 3.5
9 0 1 0 0 0 1 0 0 0 1 46.731 -85.769 4.5 1 0.5 3.5
9 0 1 0 0 0 1 0 0 0 1 42.731 -87.769 -3.5 1 0.5 3.5
9 0 1 0 0 0 1 0 0 0 1 40.731 -88.769 4.5 1 0.5 3.5
9 0 1 0 0 0 1 0 0 0 1 38.231 -93.269 -15.5 3.5 1 0.5
9 0 1 0 0 0 1 0 0 0 1 31.731 -91.769 -0.5 1 0.5 3.5
9 0 1 0 0 0 1 0 0 0 1 27.731 93.231 -3.5 1 0.5 3.5
9 0 1 0 0 0 1 0 0 0 1 24.231 -100.269 -12.5 3.5 1 0.5
9 0 1 0 0 0 1 0 0 0 1 0.2310028 -98.769 15 3.5 0.5 1
9 0 1 0 0 0 1 0 0 0 1 -0.2689972 -106.769 -6.5 7 0.5 0.5
9 0 1 0 0 0 1 0 0 0 1 -0.2689972 -106.769 6.5 7 0.5 0.5
9 0 1 0 0 0 1 0 0 0 1 -21.269 105.231 0.5 1 0.5 3.5
9 0 1 0 0 0 1 0 0 0 1 -17.269 94.231 0.5 7 0.5 0.5
9 0 1 0 0 0 1 0 0 0 1 -44.269 87.231 4.5 1 0.5 3.5
9 0 1 0 0 0 1 0 0 0 1 -40.269 95.231 -7.5 7 0.5 0.5
9 0 1 0 0 0 1 0 0 0 1 -75.769 -74.769 0 0.5 0.5 7
9 0 1 0 0 0 1 0 0 0 1 -77.769 -59.269 -3.5 0.5 1 3.5
9 0 1 0 0 0 1 0 0 0 1 -81.269 -21.769 0.5 1 3.5 0.5
9 0 1 0 0 0 1 0 0 0 1 -90.769 -40.769 -6 0.5 0.5 7
9 0 1 0 0 0 1 0 0 0 1 -91.769 32.731 -3.5 0.5 1 3.5
9 0 1 0 0 0 1 0 0 0 1 -99.769 -20.769 -15 0.5 3.5 1
9 0 1 0 0 0 1 0 0 0 1 -99.769 -27.769 -12 0.5 3.5 1
9 0 1 0 0 0 1 0 0 0 1 -100.269 17.231 -15.5 1 3.5 0.5
9 0 1 0 0 0 1 0 0 0 1 -100.269 17.231 15.5 1 3.5 0.5
9 0 1 0 0 0 1 0 0 0 1 -102.769 -16.769 -12 0.5 3.5 1
9 0 1 0 0 0 1 0 0 0 1 -102.769 -16.769 12 0.5 3.5 1
9 0 1 0 0 0 1 0 0 0 1 -103.769 -0.2689972 -13.5 0.5 7 0.5
9 0 1 0 0 0 1 0 0 0 1 -103.769 -0.2689972 13.5 0.5 7 0.5
9 0 1 0 0 0 1 0 0 0 1 77.231 59.231 -0.5 0.5 0.5 6.5
9 0 1 0 0 0 1 0 0 0 1 75.231 -6.768997 0.5 0.5 0.5 6.5
9 0 1 0 0 0 1 0 0 0 1 55.231 -6.768997 0.5 0.5 0.5 6.5
9 0 1 0 0 0 1 0 0 0 1 52.231 38.231 0.5 0.5 0.5 6.5
9 0 1 0 0 0 1 0 0 0 1 38.231 52.231 0.5 0.5 0.5 6.5
9 0 1 0 0 0 1 0 0 0 1 35.231 -6.768997 0.5 0.5 0.5 6.5
9 0 1 0 0 0 1 0 0 0 1 0.2310028 -105.769 9.5 6.5 0.5 0.5
9 0 1 0 0 0 1 0 0 0 1 -6.768997 75.231 0.5 0.5 0.5 6.5
9 0 1 0 0 0 1 0 0 0 1 -6.768997 55.231 0.5 0.5 0.5 6.5
9 0 1 0 0 0 1 0 0 0 1 -6.768997 35.231 0.5 0.5 0.5 6.5
9 0 1 0 0 0 1 0 0 0 1 -6.768997 -44.769 0.5 0.5 0.5 6.5
9 0 1 0 0 0 1 0 0 0 1 -6.768997 -64.769 0.5 0.5 0.5 6.5
9 0 1 0 0 0 1 0 0 0 1 -6.768997 -84.769 0.5 0.5 0.5 6.5
9 0 1 0 0 0 1 0 0 0 1 -44.769 -6.768997 0.5 0.5 0.5 6.5
9 0 1 0 0 0 1 0 0 0 1 -61.769 75.231 -0.5 0.5 0.5 6.5
9 0 1 0 0 0 1 0 0 0 1 -64.769 -6.768997 0.5 0.5 0.5 6.5
9 0 1 0 0 0 1 0 0 0 1 -84.769 -6.768997 0.5 0.5 0.5 6.5
9 0 1 0 0 0 1 0 0 0 1 107.231 -0.2689972 5.5 0.5 6 0.5
9 0 1 0 0 0 1 0 0 0 1 106.231 17.231 0 0.5 1.5 2
9 0 1 0 0 0 1 0 0 0 1 105.231 16.731 -6 0.5 3 1
9 0 1 0 0 0 1 0 0 0 1 105.231 16.731 6 0.5 3 1
9 0 1 0 0 0 1 0 0 0 1 101.231 35.231 0 0.5 1.5 2
9 0 1 0 0 0 1 0 0 0 1 101.231 29.731 7.5 0.5 2 1.5
9 0 1 0 0 0 1 0 0 0 1 100.231 33.731 -6.5 0.5 2 1.5
9 0 1 0 0 0 1 0 0 0 1 99.231 40.231 0 0.5 1.5 2
9 0 1 0 0 0 1 0 0 0 1 99.731 36.231 5 1 1.5 1
9 0 1 0 0 0 1 0 0 0 1 99.231 31.731 -11.5 0.5 2 1.5
9 0 1 0 0 0 1 0 0 0 1 99.731 23.231 -14 1 1.5 1
9 0 1 0 0 0 1 0 0 0 1 99.231 -24.269 -14.5 0.5 2 1.5
9 0 1 0 0 0 1 0 0 0 1 99.231 -24.269 14.5 0.5 2 1.5
9 0 1 0 0 0 1 0 0 0 1 99.231 -32.769 -10 0.5 1.5 2
9 0 1 0 0 0 1 0 0 0 1 98.231 42.731 0 0.5 1 3
9 0 1 0 0 0 1 0 0 0 1 98.731 35.731 8.5 1 1 1.5
9 0 1 0 0 0 1 0 0 0 1 98.231 33.731 -11.5 0.5 2 1.5
9 0 1 0 0 0 1 0 0 0 1 98.731 35.231 -4.5 2 1.5 0.5
9 0 1 0 0 0 1 0 0 0 1 97.231 34.231 11 1.5 0.5 2
9 0 1 0 0 0 1 0 0 0 1 96.231 25.731 14.5 0.5 2 1.5
9 0 1 0 0 0 1 0 0 0 1 97.731 -34.769 -7.5 2 1.5 0.5
9 0 1 0 0 0 1 0 0 0 1 96.731 -34.769 13 1 1.5 1
9 0 1 0 0 0 1 0 0 0 1 96.731 -41.269 -7.5 1 1 1.5
9 0 1 0 0 0 1 0 0 0 1 95.731 37.231 13 1 1.5 1
9 0 1 0 0 0 1 0 0 0 1 95.231 26.231 11 0.5 1.5 2
9 0 1 0 0 0 1 0 0 0 1 94.231 33.731 -14.5 0.5 2 1.5
9 0 1 0 0 0 1 0 0 0 1 94.231 33.731 14.5 0.5 2 1.5
9 0 1 0 0 0 1 0 0 0 1 93.231 -52.269 0 0.5 1 3
9 0 1 0 0 0 1 0 0 0 1 92.731 51.231 -5 1 1.5 1
9 0 1 0 0 0 1 0 0 0 1 92.731 39.731 -15.5 1 3 0.5
9 0 1 0 0 0 1 0 0 0 1 92.731 39.731 15.5 1 3 0.5
9 0 1 0 0 0 1 0 0 0 1 92.731 -40.269 -15.5 1 3 0.5
9 0 1 0 0 0 1 0 0 0 1 91.731 46.231 13 1 1.5 1
9 0 1 0 0 0 1 0 0 0 1 91.231 40.231 14 0.5 1.5 2
9 0 1 0 0 0 1 0 0 0 1 91.231 34.231 -2 0.5 1.5 2
9 0 1 0 0 0 1 0 0 0 1 91.231 -34.269 4 0.5 1 3
9 0 1 0 0 0 1 0 0 0 1 91.231 44.731 -3.5 1.5 2 0.5
9 0 1 0 0 0 1 0 0 0 1 89.231 -47.269 15 0.5 3 1
9 0 1 0 0 0 1 0 0 0 1 89.231 -44.269 9.5 1.5 2 0.5
9 0 1 0 0 0 1 0 0 0 1 88.231 -45.269 -10.5 0.5 2 1.5
9 0 1 0 0 0 1 0 0 0 1 86.731 -53.269 -14.5 1 1 1.5
9 0 1 0 0 0 1 0 0 0 1 85.231 -47.269 -3 0.5 1 3
9 0 1 0 0 0 1 0 0 0 1 85.231 -49.769 -9 0.5 1.5 2
9 0 1 0 0 0 1 0 0 0 1 85.731 -53.269 9.5 3 1 0.5
9 0 1 0 0 0 1 0 0 0 1 83.231 -53.769 -10 0.5 1.5 2
9 0 1 0 0 0 1 0 0 0 1 83.231 61.731 -11 1.5 1 1
9 0 1 0 0 0 1 0 0 0 1 82.731 -57.769 -15 1 1.5 1
9 0 1 0 0 0 1 0 0 0 1 82.231 58.731 15 1.5 1 1
9 0 1 0 0 0 1 0 0 0 1 80.731 70.231 0 1 0.5 3
9 0 1 0 0 0 1 0 0 0 1 80.231 58.731 -12 0.5 1 3
9 0 1 0 0 0 1 0 0 0 1 80.731 -65.269 10.5 1 1 1.5
9 0 1 0 0 0 1 0 0 0 1 78.231 71.231 -5 0.5 1.5 2
9 0 1 0 0 0 1 0 0 0 1 79.231 66.731 -11 1.5 1 1
9 0 1 0 0 0 1 0 0 0 1 78.731 60.731 11.5 1 1 1.5
9 0 1 0 0 0 1 0 0 0 1 77.731 73.231 0 1 0.5 3
9 0 1 0 0 0 1 0 0 0 1 78.231 61.731 -9 1.5 1 1
9 0 1 0 0 0 1 0 0 0 1 77.731 -62.269 -12.5 1 1 1.5
9 0 1 0 0 0 1 0 0 0 1 76.231 65.731 -14.5 0.5 2 1.5
9 0 1 0 0 0 1 0 0 0 1 75.731 73.731 -5.5 1 1 1.5
9 0 1 0 0 0 1 0 0 0 1 75.731 73.731 5.5 1 1 1.5
9 0 1 0 0 0 1 0 0 0 1 76.231 -66.269 15 1.5 1 1
9 0 1 0 0 0 1 0 0 0 1 74.731 68.231 15 1 1.5 1
9 0 1 0 0 0 1 0 0 0 1 75.231 -68.269 -14 1.5 1 1
9 0 1 0 0 0 1 0 0 0 1 74.231 -68.269 15 1.5 1 1
9 0 1 0 0 0 1 0 0 0 1 73.231 67.231 -11 1.5 0.5 2
9 0 1 0 0 0 1 0 0 0 1 73.231 67.231 11 1.5 0.5 2
9 0 1 0 0 0 1 0 0 0 1 72.231 -70.269 15 1.5 1 1
9 0 1 0 0 0 1 0 0 0 1 72.231 -74.269 11 1.5 1 1
9 0 1 0 0 0 1 0 0 0 1 71.231 73.231 -13 1.5 0.5 2
9 0 1 0 0 0 1 0 0 0 1 70.731 -78.269 6.5 1 1 1.5
9 0 1 0 0 0 1 0 0 0 1 69.731 71.731 11.5 1 1 1.5
9 0 1 0 0 0 1 0 0 0 1 70.231 -72.269 15 1.5 1 1
9 0 1 0 0 0 1 0 0 0 1 69.731 -76.269 -11.5 1 1 1.5
9 0 1 0 0 0 1 0 0 0 1 68.231 -73.769 -14 0.5 1.5 2
9 0 1 0 0 0 1 0 0 0 1 69.231 -77.269 11 1.5 1 1
9 0 1 0 0 0 1 0 0 0 1 68.231 79.231 -9 1.5 0.5 2
9 0 1 0 0 0 1 0 0 0 1 68.231 -74.269 15 1.5 1 1
9 0 1 0 0 0 1 0 0 0 1 66.731 -75.769 -15 1 1.5 1
9 0 1 0 0 0 1 0 0 0 1 66.731 80.231 8.5 2 0.5 1.5
9 0 1 0 0 0 1 0 0 0 1 65.231 76.731 15 1.5 1 1
9 0 1 0 0 0 1 0 0 0 1 63.731 76.231 -11 1 0.5 3
9 0 1 0 0 0 1 0 0 0 1 63.731 -85.769 0 1 0.5 3
9 0 1 0 0 0 1 0 0 0 1 62.731 -77.269 -11.5 1 1 1.5
9 0 1 0 0 0 1 0 0 0 1 61.731 85.231 -6.5 2 0.5 1.5
9 0 1 0 0 0 1 0 0 0 1 60.731 79.731 -14.5 1 1 1.5
9 0 1 0 0 0 1 0 0 0 1 62.731 -79.269 -13.5 3 1 0.5
9 0 1 0 0 0 1 0 0 0 1 58.731 87.731 6.5 1 1 1.5
9 0 1 0 0 0 1 0 0 0 1 59.231 -84.269 -12 1.5 1 1
9 0 1 0 0 0 1 0 0 0 1 55.731 83.231 -11 1 1.5 1
9 0 1 0 0 0 1 0 0 0 1 56.231 -85.269 -14 1.5 1 1
9 0 1 0 0 0 1 0 0 0 1 53.731 -83.769 -12 1 0.5 3
9 0 1 0 0 0 1 0 0 0 1 52.731 84.231 -11 1 0.5 3
9 0 1 0 0 0 1 0 0 0 1 50.231 83.231 0 0.5 0.5 6
9 0 1 0 0 0 1 0 0 0 1 51.231 41.731 0.5 1.5 2 0.5
9 0 1 0 0 0 1 0 0 0 1 50.231 92.731 6 1.5 1 1
9 0 1 0 0 0 1 0 0 0 1 50.731 91.231 -9.5 2 0.5 1.5
9 0 1 0 0 0 1 0 0 0 1 50.731 90.231 -11.5 2 0.5 1.5
9 0 1 0 0 0 1 0 0 0 1 48.731 95.231 0 1 0.5 3
9 0 1 0 0 0 1 0 0 0 1 49.231 88.731 15 1.5 1 1
9 0 1 0 0 0 1 0 0 0 1 48.731 94.231 -4.5 2 0.5 1.5
9 0 1 0 0 0 1 0 0 0 1 47.731 90.231 -6 1 0.5 3
9 0 1 0 0 0 1 0 0 0 1 48.231 -91.269 -12 1.5 1 1
9 0 1 0 0 0 1 0 0 0 1 48.231 -91.269 12 1.5 1 1
9 0 1 0 0 0 1 0 0 0 1 48.231 -92.769 9 1.5 0.5 2
9 0 1 0 0 0 1 0 0 0 1 46.731 -87.769 12 1 0.5 3
9 0 1 0 0 0 1 0 0 0 1 47.731 87.231 -9 3 0.5 1
9 0 1 0 0 0 1 0 0 0 1 45.731 86.231 4 1 0.5 3
9 0 1 0 0 0 1 0 0 0 1 46.231 -87.269 -8 1.5 1 1
9 0 1 0 0 0 1 0 0 0 1 43.731 87.231 -3 1 0.5 3
9 0 1 0 0 0 1 0 0 0 1 44.231 -88.769 -11 1.5 0.5 2
9 0 1 0 0 0 1 0 0 0 1 43.731 -95.769 -7.5 2 0.5 1.5
9 0 1 0 0 0 1 0 0 0 1 42.231 96.231 -8 1.5 0.5 2
9 0 1 0 0 0 1 0 0 0 1 42.231 -94.269 -12 1.5 1 1
9 0 1 0 0 0 1 0 0 0 1 42.231 -94.269 12 1.5 1 1
9 0 1 0 0 0 1 0 0 0 1 41.731 91.731 15.5 3 1 0.5
9 0 1 0 0 0 1 0 0 0 1 37.731 92.731 14.5 1 1 1.5
9 0 1 0 0 0 1 0 0 0 1 38.731 -97.769 7.5 2 0.5 1.5
9 0 1 0 0 0 1 0 0 0 1 38.731 -93.269 15.5 3 1 0.5
9 0 1 0 0 0 1 0 0 0 1 36.731 99.231 -5.5 2 0.5 1.5
9 0 1 0 0 0 1 0 0 0 1 34.731 -96.269 13.5 1 1 1.5
9 0 1 0 0 0 1 0 0 0 1 33.231 102.231 0 1.5 0.5 2
9 0 1 0 0 0 1 0 0 0 1 31.231 94.231 12 1.5 0.5 2
9 0 1 0 0 0 1 0 0 0 1 31.731 -99.769 -9.5 2 0.5 1.5
9 0 1 0 0 0 1 0 0 0 1 31.731 -99.769 9.5 2 0.5 1.5
9 0 1 0 0 0 1 0 0 0 1 29.731 101.231 7.5 2 0.5 1.5
9 0 1 0 0 0 1 0 0 0 1 30.731 -100.769 7 3 0.5 1
9 0 1 0 0 0 1 0 0 0 1 25.731 101.231 -10.5 2 0.5 1.5
9 0 1 0 0 0 1 0 0 0 1 25.731 96.231 14.5 2 0.5 1.5
9 0 1 0 0 0 1 0 0 0 1 26.731 -98.769 -14 3 0.5 1
9 0 1 0 0 0 1 0 0 0 1 23.731 -96.769 -14.5 2 0.5 1.5
9 0 1 0 0 0 1 0 0 0 1 21.731 105.231 0 1 0.5 3
9 0 1 0 0 0 1 0 0 0 1 22.231 96.231 -11 1.5 0.5 2
9 0 1 0 0 0 1 0 0 0 1 21.731 104.231 -5 3 0.5 1
9 0 1 0 0 0 1 0 0 0 1 20.731 100.231 14 3 0.5 1
9 0 1 0 0 0 1 0 0 0 1 19.231 97.231 -13 1.5 0.5 2
9 0 1 0 0 0 1 0 0 0 1 19.731 -96.769 11.5 2 0.5 1.5
9 0 1 0 0 0 1 0 0 0 1 11.731 -104.769 -9 3 0.5 1
9 0 1 0 0 0 1 0 0 0 1 11.731 -104.769 9 3 0.5 1
9 0 1 0 0 0 1 0 0 0 1 10.731 -98.769 15 3 0.5 1
9 0 1 0 0 0 1 0 0 0 1 0.2310028 -96.769 -13 1.5 0.5 2
9 0 1 0 0 0 1 0 0 0 1 -5.268997 -5.768997 6.5 2 1.5 0.5
9 0 1 0 0 0 1 0 0 0 1 -9.268997 -97.769 -9.5 2 0.5 1.5
9 0 1 0 0 0 1 0 0 0 1 -9.268997 -97.769 9.5 2 0.5 1.5
9 0 1 0 0 0 1 0 0 0 1 -9.268997 -105.769 -7 3 0.5 1
9 0 1 0 0 0 1 0 0 0 1 -16.269 106.231 0 1 0.5 3
9 0 1 0 0 0 1 0 0 0 1 -17.769 99.231 11 0.5 1.5 2
9 0 1 0 0 0 1 0 0 0 1 -19.269 -105.769 0 1 0.5 3
9 0 1 0 0 0 1 0 0 0 1 -21.269 97.231 -14 3 0.5 1
9 0 1 0 0 0 1 0 0 0 1 -22.769 96.231 -12 1.5 0.5 2
9 0 1 0 0 0 1 0 0 0 1 -22.269 -95.769 -9.5 2 0.5 1.5
9 0 1 0 0 0 1 0 0 0 1 -26.269 102.231 -7.5 2 0.5 1.5
9 0 1 0 0 0 1 0 0 0 1 -26.269 102.231 7.5 2 0.5 1.5
9 0 1 0 0 0 1 0 0 0 1 -27.269 -98.769 -14 3 0.5 1
9 0 1 0 0 0 1 0 0 0 1 -27.269 -98.769 14 3 0.5 1
9 0 1 0 0 0 1 0 0 0 1 -29.269 96.231 15.5 2 1.5 0.5
9 0 1 0 0 0 1 0 0 0 1 -33.269 102.231 0 1 0.5 3
9 0 1 0 0 0 1 0 0 0 1 -32.269 93.231 9.5 2 0.5 1.5
9 0 1 0 0 0 1 0 0 0 1 -33.769 -92.769 -10 1.5 0.5 2
9 0 1 0 0 0 1 0 0 0 1 -36.769 -98.769 7 1.5 0.5 2
9 0 1 0 0 0 1 0 0 0 1 -39.769 97.731 -6 1.5 1 1
9 0 1 0 0 0 1 0 0 0 1 -39.769 97.731 6 1.5 1 1
9 0 1 0 0 0 1 0 0 0 1 -40.269 -89.769 8.5 2 0.5 1.5
9 0 1 0 0 0 1 0 0 0 1 -40.769 -96.769 8 1.5 0.5 2
9 0 1 0 0 0 1 0 0 0 1 -42.269 91.731 -15.5 3 1 0.5
9 0 1 0 0 0 1 0 0 0 1 -43.269 88.231 -7.5 2 0.5 1.5
9 0 1 0 0 0 1 0 0 0 1 -43.269 88.231 7.5 2 0.5 1.5
9 0 1 0 0 0 1 0 0 0 1 -43.269 -91.269 15.5 3 1 0.5
9 0 1 0 0 0 1 0 0 0 1 -44.769 -94.769 9 1.5 0.5 2
9 0 1 0 0 0 1 0 0 0 1 -46.769 96.231 0 0.5 0.5 6
9 0 1 0 0 0 1 0 0 0 1 -44.269 90.731 15.5 3 1 0.5
9 0 1 0 0 0 1 0 0 0 1 -46.269 -85.769 -3 1 0.5 3
9 0 1 0 0 0 1 0 0 0 1 -46.269 -88.269 -12.5 1 1 1.5
9 0 1 0 0 0 1 0 0 0 1 -45.269 -88.769 12.5 2 0.5 1.5
9 0 1 0 0 0 1 0 0 0 1 -47.269 90.731 -13.5 1 1 1.5
9 0 1 0 0 0 1 0 0 0 1 -49.269 92.731 -7.5 1 1 1.5
9 0 1 0 0 0 1 0 0 0 1 -49.269 92.731 7.5 1 1 1.5
9 0 1 0 0 0 1 0 0 0 1 -47.269 89.231 -15 3 0.5 1
9 0 1 0 0 0 1 0 0 0 1 -48.769 86.231 -11 1.5 0.5 2
9 0 1 0 0 0 1 0 0 0 1 -48.769 -85.769 9 1.5 0.5 2
9 0 1 0 0 0 1 0 0 0 1 -49.269 -91.769 -10 1 0.5 3
9 0 1 0 0 0 1 0 0 0 1 -48.769 -91.269 12 1.5 1 1
9 0 1 0 0 0 1 0 0 0 1 -50.269 87.231 15 3 0.5 1
9 0 1 0 0 0 1 0 0 0 1 -51.769 -85.269 -12 1.5 1 1
9 0 1 0 0 0 1 0 0 0 1 -52.769 -92.769 0 0.5 0.5 6
9 0 1 0 0 0 1 0 0 0 1 -54.269 -89.269 -9.5 1 1 1.5
9 0 1 0 0 0 1 0 0 0 1 -54.769 -85.269 -7.5 1.5 2 0.5
9 0 1 0 0 0 1 0 0 0 1 -55.269 -88.269 9.5 1 1 1.5
9 0 1 0 0 0 1 0 0 0 1 -56.269 88.731 -7.5 1 1 1.5
9 0 1 0 0 0 1 0 0 0 1 -56.269 88.731 7.5 1 1 1.5
9 0 1 0 0 0 1 0 0 0 1 -57.269 79.231 4 1 0.5 3
9 0 1 0 0 0 1 0 0 0 1 -56.769 -81.269 -7 1.5 1 1
9 0 1 0 0 0 1 0 0 0 1 -57.769 -89.769 0 0.5 0.5 6
9 0 1 0 0 0 1 0 0 0 1 -56.269 -83.769 15 3 0.5 1
9 0 1 0 0 0 1 0 0 0 1 -59.769 84.231 -11 0.5 1.5 2
9 0 1 0 0 0 1 0 0 0 1 -59.769 -83.269 13 1.5 1 1
9 0 1 0 0 0 1 0 0 0 1 -61.269 -76.769 7 1 0.5 3
9 0 1 0 0 0 1 0 0 0 1 -62.269 80.231 14 1 1.5 1
9 0 1 0 0 0 1 0 0 0 1 -63.269 81.231 -12 1 1.5 1
9 0 1 0 0 0 1 0 0 0 1 -63.769 76.731 10.5 0.5 2 1.5
9 0 1 0 0 0 1 0 0 0 1 -64.769 -77.769 -14 0.5 1.5 2
9 0 1 0 0 0 1 0 0 0 1 -64.769 -84.769 0 0.5 0.5 6
9 0 1 0 0 0 1 0 0 0 1 -65.769 -72.269 -3 0.5 1 3
9 0 1 0 0 0 1 0 0 0 1 -64.769 -74.769 -9 1.5 0.5 2
9 0 1 0 0 0 1 0 0 0 1 -65.269 -74.269 8.5 1 1 1.5
9 0 1 0 0 0 1 0 0 0 1 -66.769 -74.269 11 0.5 2 2
9 0 1 0 0 0 1 0 0 0 1 -65.769 -76.769 14 0.5 1.5 2
9 0 1 0 0 0 1 0 0 0 1 -65.769 -78.769 -2 0.5 0.5 6
9 0 1 0 0 0 1 0 0 0 1 -65.769 74.231 -10 1.5 0.5 2
9 0 1 0 0 0 1 0 0 0 1 -67.269 74.731 -14.5 1 1 1.5
9 0 1 0 0 0 1 0 0 0 1 -67.269 75.231 15 1 1.5 1
9 0 1 0 0 0 1 0 0 0 1 -67.769 -69.769 0 0.5 0.5 6
9 0 1 0 0 0 1 0 0 0 1 -68.269 -71.769 -10 1 0.5 3
9 0 1 0 0 0 1 0 0 0 1 -68.269 -79.269 -8.5 1 1 1.5
9 0 1 0 0 0 1 0 0 0 1 -69.769 -67.769 0 0.5 0.5 6
9 0 1 0 0 0 1 0 0 0 1 -69.769 -80.769 0 0.5 0.5 6
9 0 1 0 0 0 1 0 0 0 1 -70.269 -70.269 11.5 1 1 1.5
9 0 1 0 0 0 1 0 0 0 1 -71.769 76.231 -8 0.5 1.5 2
9 0 1 0 0 0 1 0 0 0 1 -72.269 71.231 14 1 1.5 1
9 0 1 0 0 0 1 0 0 0 1 -72.269 -76.269 -7.5 1 1 1.5
9 0 1 0 0 0 1 0 0 0 1 -72.769 69.731 -15 1.5 1 1
9 0 1 0 0 0 1 0 0 0 1 -73.769 68.731 15 1.5 1 1
9 0 1 0 0 0 1 0 0 0 1 -74.269 66.731 11.5 1 1 1.5
9 0 1 0 0 0 1 0 0 0 1 -73.269 -61.769 0.5 2 1.5 0.5
9 0 1 0 0 0 1 0 0 0 1 -72.769 -64.769 0 0.5 0.5 6
9 0 1 0 0 0 1 0 0 0 1 -74.769 67.731 -15 1.5 1 1
9 0 1 0 0 0 1 0 0 0 1 -75.269 -69.269 13.5 1 1 1.5
9 0 1 0 0 0 1 0 0 0 1 -77.269 69.231 -11 1 1.5 1
9 0 1 0 0 0 1 0 0 0 1 -77.269 61.731 9.5 1 1 1.5
9 0 1 0 0 0 1 0 0 0 1 -76.269 -65.769 14.5 2 0.5 1.5
9 0 1 0 0 0 1 0 0 0 1 -77.769 70.731 -7 1.5 1 1
9 0 1 0 0 0 1 0 0 0 1 -78.769 57.731 -3 0.5 1 3
9 0 1 0 0 0 1 0 0 0 1 -79.769 65.731 -11.5 0.5 2 1.5
9 0 1 0 0 0 1 0 0 0 1 -79.769 -56.269 4 0.5 1 3
9 0 1 0 0 0 1 0 0 0 1 -81.769 68.731 0 0.5 1 3
9 0 1 0 0 0 1 0 0 0 1 -81.769 -53.269 -3 0.5 1 3
9 0 1 0 0 0 1 0 0 0 1 -81.769 -68.769 0 0.5 0.5 6
9 0 1 0 0 0 1 0 0 0 1 -82.769 51.731 4 0.5 1 3
9 0 1 0 0 0 1 0 0 0 1 -83.269 63.731 -7.5 1 1 1.5
9 0 1 0 0 0 1 0 0 0 1 -83.269 63.731 7.5 1 1 1.5
9 0 1 0 0 0 1 0 0 0 1 -83.769 -50.269 4 0.5 1 3
9 0 1 0 0 0 1 0 0 0 1 -83.269 -53.269 -9.5 1 1 1.5
9 0 1 0 0 0 1 0 0 0 1 -84.769 -55.269 -8.5 3.5 1 0.5
9 0 1 0 0 0 1 0 0 0 1 -84.769 -64.769 0 0.5 0.5 6
9 0 1 0 0 0 1 0 0 0 1 -85.769 63.731 0 0.5 1 3
9 0 1 0 0 0 1 0 0 0 1 -85.269 49.731 -9.5 1 1 1.5
9 0 1 0 0 0 1 0 0 0 1 -85.769 -49.769 11 0.5 1.5 2
9 0 1 0 0 0 1 0 0 0 1 -84.769 -55.269 -15 1.5 1 1
9 0 1 0 0 0 1 0 0 0 1 -86.269 59.731 -7.5 1 1 1.5
9 0 1 0 0 0 1 0 0 0 1 -87.769 53.731 -12 0.5 3 1
9 0 1 0 0 0 1 0 0 0 1 -87.769 53.731 12 0.5 3 1
9 0 1 0 0 0 1 0 0 0 1 -87.769 -60.769 0 0.5 0.5 6
9 0 1 0 0 0 1 0 0 0 1 -88.269 -46.269 -12.5 1 1 1.5
9 0 1 0 0 0 1 0 0 0 1 -88.269 -47.769 -15 1 1.5 1
9 0 1 0 0 0 1 0 0 0 1 -89.769 42.731 -12 0.5 1 3
9 0 1 0 0 0 1 0 0 0 1 -89.769 42.731 12 0.5 1 3
9 0 1 0 0 0 1 0 0 0 1 -89.769 37.731 -3 0.5 1 3
9 0 1 0 0 0 1 0 0 0 1 -90.769 52.731 -7.5 0.5 2 1.5
9 0 1 0 0 0 1 0 0 0 1 -90.769 52.731 7.5 0.5 2 1.5
9 0 1 0 0 0 1 0 0 0 1 -90.769 35.731 4 0.5 1 3
9 0 1 0 0 0 1 0 0 0 1 -91.769 51.731 -6.5 0.5 2 1.5
9 0 1 0 0 0 1 0 0 0 1 -91.769 51.731 6.5 0.5 2 1.5
9 0 1 0 0 0 1 0 0 0 1 -91.769 37.731 12 0.5 1 3
9 0 1 0 0 0 1 0 0 0 1 -92.769 46.731 -10.5 0.5 2 1.5
9 0 1 0 0 0 1 0 0 0 1 -92.769 46.731 10.5 0.5 2 1.5
9 0 1 0 0 0 1 0 0 0 1 -92.769 35.231 -12 0.5 1.5 2
9 0 1 0 0 0 1 0 0 0 1 -92.769 -42.269 -14.5 0.5 2 1.5
9 0 1 0 0 0 1 0 0 0 1 -93.269 40.231 -15 1 1.5 1
9 0 1 0 0 0 1 0 0 0 1 -93.769 31.231 -11 0.5 1.5 2
9 0 1 0 0 0 1 0 0 0 1 -94.769 -25.269 8 0.5 3 1
9 0 1 0 0 0 1 0 0 0 1 -94.269 -36.269 15.5 1 3 0.5
9 0 1 0 0 0 1 0 0 0 1 -95.269 40.231 -12 1 1.5 1
9 0 1 0 0 0 1 0 0 0 1 -95.269 40.231 12 1 1.5 1
9 0 1 0 0 0 1 0 0 0 1 -95.769 -48.269 0 0.5 1 3
9 0 1 0 0 0 1 0 0 0 1 -96.769 23.731 -14.5 0.5 2 1.5
9 0 1 0 0 0 1 0 0 0 1 -96.769 23.731 14.5 0.5 2 1.5
9 0 1 0 0 0 1 0 0 0 1 -96.769 6.231003 -2 0.5 1.5 2
9 0 1 0 0 0 1 0 0 0 1 -96.769 -41.769 -7 0.5 1.5 2
9 0 1 0 0 0 1 0 0 0 1 -96.769 -41.769 7 0.5 1.5 2
9 0 1 0 0 0 1 0 0 0 1 -97.769 35.731 -10.5 0.5 2 1.5
9 0 1 0 0 0 1 0 0 0 1 -97.769 35.731 10.5 0.5 2 1.5
9 0 1 0 0 0 1 0 0 0 1 -97.769 -36.769 -10 0.5 1.5 2
9 0 1 0 0 0 1 0 0 0 1 -98.769 -41.269 0 0.5 1 3
9 0 1 0 0 0 1 0 0 0 1 -100.769 36.731 0 0.5 1 3
9 0 1 0 0 0 1 0 0 0 1 -101.769 -34.269 0 0.5 1 3
9 0 1 0 0 0 1 0 0 0 1 -102.769 30.731 0 0.5 1 3
9 0 1 0 0 0 1 0 0 0 1 -102.769 16.731 -12 0.5 3 1
9 0 1 0 0 0 1 0 0 0 1 -102.769 16.731 12 0.5 3 1
9 0 1 0 0 0 1 0 0 0 1 -102.769 -21.269 -9.5 0.5 2 1.5
9 0 1 0 0 0 1 0 0 0 1 -102.769 -21.269 9.5 0.5 2 1.5
9 0 1 0 0 0 1 0 0 0 1 -103.769 21.731 -6.5 0.5 2 1.5
9 0 1 0 0 0 1 0 0 0 1 -103.769 21.731 6.5 0.5 2 1.5
9 0 1 0 0 0 1 0 0 0 1 -103.769 -27.269 0 0.5 1 3
9 0 1 0 0 0 1 0 0 0 1 -104.769 -23.269 0 0.5 1 3
9 0 1 0 0 0 1 0 0 0 1 -105.769 9.731003 -7 0.5 3 1
9 0 1 0 0 0 1 0 0 0 1 -105.769 9.731003 7 0.5 3 1
9 0 1 0 0 0 1 0 0 0 1 103.231 -11.769 -12.5 0.5 5.5 0.5
9 0 1 0 0 0 1 0 0 0 1 96.231 11.231 0.5 0.5 0.5 5.5
9 0 1 0 0 0 1 0 0 0 1 85.231 64.231 -0.5 0.5 0.5 5.5
9 0 1 0 0 0 1 0 0 0 1 80.231 -70.769 -0.5 0.5 0.5 5.5
9 0 1 0 0 0 1 0 0 0 1 74.231 -76.769 -0.5 0.5 0.5 5.5
9 0 1 0 0 0 1 0 0 0 1 66.231 71.231 0.5 0.5 0.5 5.5
9 0 1 0 0 0 1 0 0 0 1 65.231 72.231 0.5 0.5 0.5 5.5
9 0 1 0 0 0 1 0 0 0 1 53.231 -92.769 -0.5 0.5 0.5 5.5
9 0 1 0 0 0 1 0 0 0 1 49.231 -83.769 0.5 0.5 0.5 5.5
9 0 1 0 0 0 1 0 0 0 1 38.231 89.231 0.5 0.5 0.5 5.5
9 0 1 0 0 0 1 0 0 0 1 4.231003 5.231003 -2.5 0.5 0.5 5.5
9 0 1 0 0 0 1 0 0 0 1 -5.768997 -3.768997 -2.5 0.5 0.5 5.5
9 0 1 0 0 0 1 0 0 0 1 -70.769 80.231 -0.5 0.5 0.5 5.5
9 0 1 0 0 0 1 0 0 0 1 -71.769 79.231 -0.5 0.5 0.5 5.5
9 0 1 0 0 0 1 0 0 0 1 -73.769 77.231 -0.5 0.5 0.5 5.5
9 0 1 0 0 0 1 0 0 0 1 -77.769 73.231 -0.5 0.5 0.5 5.5
9 0 1 0 0 0 1 0 0 0 1 -78.769 72.231 -0.5 0.5 0.5 5.5
9 0 1 0 0 0 1 0 0 0 1 -85.769 -63.769 -0.5 0.5 0.5 5.5
9 0 1 0 0 0 1 0 0 0 1 105.231 -15.769 6 0.5 2.5 1
9 0 1 0 0 0 1 0 0 0 1 103.231 23.231 -7 0.5 2.5 1
9 0 1 0 0 0 1 0 0 0 1 102.231 20.231 -12 0.5 2.5 1
9 0 1 0 0 0 1 0 0 0 1 102.231 -12.769 14 0.5 2.5 1
9 0 1 0 0 0 1 0 0 0 1 97.231 32.231 14 0.5 2.5 1
9 0 1 0 0 0 1 0 0 0 1 97.231 -20.769 -14 0.5 2.5 1
9 0 1 0 0 0 1 0 0 0 1 96.231 47.231 0 0.5 0.5 5
9 0 1 0 0 0 1 0 0 0 1 96.231 -10.769 0 0.5 0.5 5
9 0 1 0 0 0 1 0 0 0 1 96.231 -15.769 -8 0.5 2.5 1
9 0 1 0 0 0 1 0 0 0 1 95.731 21.231 -6.5 1 0.5 2.5
9 0 1 0 0 0 1 0 0 0 1 94.231 -23.269 -2.5 0.5 1 2.5
9 0 1 0 0 0 1 0 0 0 1 93.231 -27.269 -2.5 0.5 1 2.5
9 0 1 0 0 0 1 0 0 0 1 91.231 -55.769 0 0.5 0.5 5
9 0 1 0 0 0 1 0 0 0 1 90.731 44.231 15.5 1 2.5 0.5
9 0 1 0 0 0 1 0 0 0 1 90.231 -40.269 -10.5 0.5 1 2.5
9 0 1 0 0 0 1 0 0 0 1 88.231 45.731 -11.5 0.5 1 2.5
9 0 1 0 0 0 1 0 0 0 1 87.231 -45.269 -7.5 0.5 1 2.5
9 0 1 0 0 0 1 0 0 0 1 87.231 -45.269 7.5 0.5 1 2.5
9 0 1 0 0 0 1 0 0 0 1 87.231 -61.769 0 0.5 0.5 5
9 0 1 0 0 0 1 0 0 0 1 85.231 -51.269 12.5 0.5 1 2.5
9 0 1 0 0 0 1 0 0 0 1 84.231 48.231 0 0.5 0.5 5
9 0 1 0 0 0 1 0 0 0 1 84.231 -65.769 0 0.5 0.5 5
9 0 1 0 0 0 1 0 0 0 1 83.231 54.731 12.5 0.5 1 2.5
9 0 1 0 0 0 1 0 0 0 1 80.731 -21.769 0.5 1 2.5 0.5
9 0 1 0 0 0 1 0 0 0 1 78.231 -72.769 0 0.5 0.5 5
9 0 1 0 0 0 1 0 0 0 1 76.231 60.231 0 0.5 0.5 5
9 0 1 0 0 0 1 0 0 0 1 75.731 34.231 0.5 1 2.5 0.5
9 0 1 0 0 0 1 0 0 0 1 74.231 -74.269 -7.5 0.5 1 2.5
9 0 1 0 0 0 1 0 0 0 1 73.731 69.231 13.5 1 2.5 0.5
9 0 1 0 0 0 1 0 0 0 1 73.231 64.231 0 0.5 0.5 5
9 0 1 0 0 0 1 0 0 0 1 72.231 -78.769 0 0.5 0.5 5
9 0 1 0 0 0 1 0 0 0 1 71.231 66.231 0 0.5 0.5 5
9 0 1 0 0 0 1 0 0 0 1 70.231 -80.769 0 0.5 0.5 5
9 0 1 0 0 0 1 0 0 0 1 69.231 68.231 0 0.5 0.5 5
9 0 1 0 0 0 1 0 0 0 1 71.231 -70.269 9.5 2.5 1 0.5
9 0 1 0 0 0 1 0 0 0 1 68.231 70.731 -7.5 0.5 1 2.5
9 0 1 0 0 0 1 0 0 0 1 68.231 69.231 0 0.5 0.5 5
9 0 1 0 0 0 1 0 0 0 1 64.731 -75.769 12.5 1 0.5 2.5
9 0 1 0 0 0 1 0 0 0 1 62.231 77.731 12.5 0.5 1 2.5
9 0 1 0 0 0 1 0 0 0 1 61.731 -84.769 8.5 1 0.5 2.5
9 0 1 0 0 0 1 0 0 0 1 59.231 79.731 -11.5 0.5 1 2.5
9 0 1 0 0 0 1 0 0 0 1 59.231 79.731 11.5 0.5 1 2.5
9 0 1 0 0 0 1 0 0 0 1 57.731 -79.769 -8.5 1 0.5 2.5
9 0 1 0 0 0 1 0 0 0 1 56.231 -83.269 13.5 0.5 1 2.5
9 0 1 0 0 0 1 0 0 0 1 55.731 89.231 -7.5 1 0.5 2.5
9 0 1 0 0 0 1 0 0 0 1 55.731 89.231 7.5 1 0.5 2.5
9 0 1 0 0 0 1 0 0 0 1 55.731 80.231 3.5 1 0.5 2.5
9 0 1 0 0 0 1 0 0 0 1 53.731 -90.769 -6.5 1 0.5 2.5
9 0 1 0 0 0 1 0 0 0 1 53.731 -90.769 6.5 1 0.5 2.5
9 0 1 0 0 0 1 0 0 0 1 52.231 -86.269 15.5 2.5 1 0.5
9 0 1 0 0 0 1 0 0 0 1 51.231 86.731 -15.5 2.5 1 0.5
9 0 1 0 0 0 1 0 0 0 1 49.731 -85.769 11.5 1 0.5 2.5
9 0 1 0 0 0 1 0 0 0 1 50.231 90.231 12 2.5 0.5 1
9 0 1 0 0 0 1 0 0 0 1 49.231 91.731 -3.5 2.5 1 0.5
9 0 1 0 0 0 1 0 0 0 1 47.231 -89.269 -15.5 2.5 1 0.5
9 0 1 0 0 0 1 0 0 0 1 44.231 90.731 -15.5 2.5 1 0.5
9 0 1 0 0 0 1 0 0 0 1 41.231 88.731 -5.5 0.5 1 2.5
9 0 1 0 0 0 1 0 0 0 1 39.731 97.231 -5.5 1 0.5 2.5
9 0 1 0 0 0 1 0 0 0 1 36.231 96.231 13 2.5 0.5 1
9 0 1 0 0 0 1 0 0 0 1 34.231 -90.769 0 0.5 0.5 5
9 0 1 0 0 0 1 0 0 0 1 33.731 91.231 -2.5 1 0.5 2.5
9 0 1 0 0 0 1 0 0 0 1 34.231 -95.269 -15.5 2.5 1 0.5
9 0 1 0 0 0 1 0 0 0 1 34.231 -95.269 15.5 2.5 1 0.5
9 0 1 0 0 0 1 0 0 0 1 27.731 93.231 3.5 1 0.5 2.5
9 0 1 0 0 0 1 0 0 0 1 25.231 -94.769 -9 2.5 0.5 1
9 0 1 0 0 0 1 0 0 0 1 23.231 -103.269 5.5 2.5 1 0.5
9 0 1 0 0 0 1 0 0 0 1 18.231 96.231 -9 2.5 0.5 1
9 0 1 0 0 0 1 0 0 0 1 18.231 96.231 9 2.5 0.5 1
9 0 1 0 0 0 1 0 0 0 1 11.231 -96.769 4 0.5 0.5 5
9 0 1 0 0 0 1 0 0 0 1 12.231 -105.769 -6 2.5 0.5 1
9 0 1 0 0 0 1 0 0 0 1 12.231 -105.769 6 2.5 0.5 1
9 0 1 0 0 0 1 0 0 0 1 11.231 105.231 8 2.5 0.5 1
9 0 1 0 0 0 1 0 0 0 1 13.731 101.231 -10.5 5 0.5 0.5
9 0 1 0 0 0 1 0 0 0 1 6.731003 -32.769 0.5 1 2.5 0.5
9 0 1 0 0 0 1 0 0 0 1 -10.769 105.231 8 2.5 0.5 1
9 0 1 0 0 0 1 0 0 0 1 -10.769 -98.769 15 2.5 0.5 1
9 0 1 0 0 0 1 0 0 0 1 -11.769 -104.769 -9 2.5 0.5 1
9 0 1 0 0 0 1 0 0 0 1 -11.769 -104.769 9 2.5 0.5 1
9 0 1 0 0 0 1 0 0 0 1 -11.769 -105.769 6 2.5 0.5 1
9 0 1 0 0 0 1 0 0 0 1 -15.769 -101.769 -14 2.5 0.5 1
9 0 1 0 0 0 1 0 0 0 1 -15.769 -101.769 14 2.5 0.5 1
9 0 1 0 0 0 1 0 0 0 1 -18.769 -97.769 -15 2.5 0.5 1
9 0 1 0 0 0 1 0 0 0 1 -19.769 103.231 10 2.5 0.5 1
9 0 1 0 0 0 1 0 0 0 1 -19.769 101.731 12.5 2.5 1 0.5
9 0 1 0 0 0 1 0 0 0 1 -20.769 101.231 -13 2.5 0.5 1
9 0 1 0 0 0 1 0 0 0 1 -18.269 -81.769 0.5 5 0.5 0.5
9 0 1 0 0 0 1 0 0 0 1 -23.269 94.231 -2.5 1 0.5 2.5
9 0 1 0 0 0 1 0 0 0 1 -21.769 80.731 0.5 2.5 1 0.5
9 0 1 0 0 0 1 0 0 0 1 -26.769 -103.769 0 0.5 0.5 5
9 0 1 0 0 0 1 0 0 0 1 -26.769 100.231 -12 2.5 0.5 1
9 0 1 0 0 0 1 0 0 0 1 -26.769 100.231 12 2.5 0.5 1
9 0 1 0 0 0 1 0 0 0 1 -27.769 -95.769 -15 2.5 0.5 1
9 0 1 0 0 0 1 0 0 0 1 -28.769 95.231 14 2.5 0.5 1
9 0 1 0 0 0 1 0 0 0 1 -34.769 96.231 -14 2.5 0.5 1
9 0 1 0 0 0 1 0 0 0 1 -34.769 96.231 14 2.5 0.5 1
9 0 1 0 0 0 1 0 0 0 1 -38.269 -91.769 13.5 1 0.5 2.5
9 0 1 0 0 0 1 0 0 0 1 -47.269 92.231 -8.5 1 2.5 0.5
9 0 1 0 0 0 1 0 0 0 1 -47.769 82.731 0.5 2.5 1 0.5
9 0 1 0 0 0 1 0 0 0 1 -49.769 -94.769 0 0.5 0.5 5
9 0 1 0 0 0 1 0 0 0 1 -48.769 -88.269 -15.5 2.5 1 0.5
9 0 1 0 0 0 1 0 0 0 1 -48.769 -88.269 15.5 2.5 1 0.5
9 0 1 0 0 0 1 0 0 0 1 -51.269 84.231 -9.5 1 0.5 2.5
9 0 1 0 0 0 1 0 0 0 1 -51.769 82.231 0 0.5 0.5 5
9 0 1 0 0 0 1 0 0 0 1 -52.269 -83.769 -9.5 1 0.5 2.5
9 0 1 0 0 0 1 0 0 0 1 -52.769 -87.269 -13.5 0.5 1 2.5
9 0 1 0 0 0 1 0 0 0 1 -53.269 90.231 8.5 1 0.5 2.5
9 0 1 0 0 0 1 0 0 0 1 -54.269 81.231 3.5 1 0.5 2.5
9 0 1 0 0 0 1 0 0 0 1 -54.769 -91.769 0 0.5 0.5 5
9 0 1 0 0 0 1 0 0 0 1 -58.269 -78.769 6.5 1 0.5 2.5
9 0 1 0 0 0 1 0 0 0 1 -58.269 -87.769 -7.5 1 0.5 2.5
9 0 1 0 0 0 1 0 0 0 1 -58.269 -87.769 7.5 1 0.5 2.5
9 0 1 0 0 0 1 0 0 0 1 -60.769 -75.769 0 0.5 0.5 5
9 0 1 0 0 0 1 0 0 0 1 -61.269 -78.769 13.5 1 0.5 2.5
9 0 1 0 0 0 1 0 0 0 1 -62.269 -84.769 -7.5 1 0.5 2.5
9 0 1 0 0 0 1 0 0 0 1 -62.269 -84.769 7.5 1 0.5 2.5
9 0 1 0 0 0 1 0 0 0 1 -63.269 75.231 -7.5 1 0.5 2.5
9 0 1 0 0 0 1 0 0 0 1 -65.269 -72.769 3.5 1 0.5 2.5
9 0 1 0 0 0 1 0 0 0 1 -66.269 -77.769 -12.5 1 2.5 0.5
9 0 1 0 0 0 1 0 0 0 1 -67.269 80.231 -8.5 1 0.5 2.5
9 0 1 0 0 0 1 0 0 0 1 -67.769 -82.769 0 0.5 0.5 5
9 0 1 0 0 0 1 0 0 0 1 -71.769 -65.769 0 0.5 0.5 5
9 0 1 0 0 0 1 0 0 0 1 -75.769 75.231 0 0.5 0.5 5
9 0 1 0 0 0 1 0 0 0 1 -74.769 -65.769 6 2.5 0.5 1
9 0 1 0 0 0 1 0 0 0 1 -78.769 57.731 3.5 0.5 1 2.5
9 0 1 0 0 0 1 0 0 0 1 -77.769 63.231 -11 2.5 0.5 1
9 0 1 0 0 0 1 0 0 0 1 -79.769 58.731 10.5 0.5 1 2.5
9 0 1 0 0 0 1 0 0 0 1 -79.769 -56.269 -2.5 0.5 1 2.5
9 0 1 0 0 0 1 0 0 0 1 -79.769 -67.269 9.5 0.5 1 2.5
9 0 1 0 0 0 1 0 0 0 1 -80.769 66.731 -8.5 0.5 1 2.5
9 0 1 0 0 0 1 0 0 0 1 -80.769 66.731 8.5 0.5 1 2.5
9 0 1 0 0 0 1 0 0 0 1 -80.769 54.731 -2.5 0.5 1 2.5
9 0 1 0 0 0 1 0 0 0 1 -81.269 -56.769 10.5 1 0.5 2.5
9 0 1 0 0 0 1 0 0 0 1 -81.269 -59.769 -7.5 1 2.5 0.5
9 0 1 0 0 0 1 0 0 0 1 -82.769 57.231 15 0.5 2.5 1
9 0 1 0 0 0 1 0 0 0 1 -82.769 -53.269 8.5 0.5 1 2.5
9 0 1 0 0 0 1 0 0 0 1 -85.769 49.731 11.5 0.5 1 2.5
9 0 1 0 0 0 1 0 0 0 1 -85.269 -53.769 15.5 1 2.5 0.5
9 0 1 0 0 0 1 0 0 0 1 -87.769 -43.269 6.5 0.5 1 2.5
9 0 1 0 0 0 1 0 0 0 1 -87.769 -46.269 11.5 0.5 1 2.5
9 0 1 0 0 0 1 0 0 0 1 -88.769 42.731 -8.5 0.5 1 2.5
9 0 1 0 0 0 1 0 0 0 1 -88.769 39.231 0 0.5 0.5 5
9 0 1 0 0 0 1 0 0 0 1 -88.269 -48.769 15.5 1 2.5 0.5
9 0 1 0 0 0 1 0 0 0 1 -89.269 47.231 -15.5 1 2.5 0.5
9 0 1 0 0 0 1 0 0 0 1 -89.269 47.231 15.5 1 2.5 0.5
9 0 1 0 0 0 1 0 0 0 1 -90.769 -39.269 11.5 0.5 1 2.5
9 0 1 0 0 0 1 0 0 0 1 -91.769 -34.269 -7.5 0.5 1 2.5
9 0 1 0 0 0 1 0 0 0 1 -92.769 28.731 -2.5 0.5 1 2.5
9 0 1 0 0 0 1 0 0 0 1 -93.269 -37.769 -15.5 1 2.5 0.5
9 0 1 0 0 0 1 0 0 0 1 -94.769 -41.769 12 0.5 2.5 1
9 0 1 0 0 0 1 0 0 0 1 -95.769 48.231 0 0.5 0.5 5
9 0 1 0 0 0 1 0 0 0 1 -95.769 -35.769 14 0.5 2.5 1
9 0 1 0 0 0 1 0 0 0 1 -96.769 -7.768997 -2 0.5 2.5 1
9 0 1 0 0 0 1 0 0 0 1 -97.769 -34.769 12 0.5 2.5 1
9 0 1 0 0 0 1 0 0 0 1 -99.769 -19.269 15.5 0.5 5 0.5
9 0 1 0 0 0 1 0 0 0 1 -99.769 -28.769 12 0.5 2.5 1
9 0 1 0 0 0 1 0 0 0 1 -104.769 0.7310028 -12.5 0.5 5 0.5
9 0 1 0 0 0 1 0 0 0 1 -105.769 -9.768997 -7 0.5 2.5 1
9 0 1 0 0 0 1 0 0 0 1 -105.769 -9.768997 7 0.5 2.5 1
9 0 1 0 0 0 1 0 0 0 1 104.231 11.231 -10.5 0.5 4.5 0.5
9 0 1 0 0 0 1 0 0 0 1 103.231 20.231 -9.5 0.5 1.5 1.5
9 0 1 0 0 0 1 0 0 0 1 103.231 -18.769 10.5 0.5 1.5 1.5
9 0 1 0 0 0 1 0 0 0 1 103.231 -21.769 -8.5 0.5 1.5 1.5
9 0 1 0 0 0 1 0 0 0 1 101.231 -18.769 -13.5 0.5 1.5 1.5
9 0 1 0 0 0 1 0 0 0 1 101.231 -27.769 -9.5 0.5 1.5 1.5
9 0 1 0 0 0 1 0 0 0 1 101.231 -27.769 9.5 0.5 1.5 1.5
9 0 1 0 0 0 1 0 0 0 1 99.231 -34.769 8.5 0.5 1.5 1.5
9 0 1 0 0 0 1 0 0 0 1 98.231 -37.769 -8.5 0.5 1.5 1.5
9 0 1 0 0 0 1 0 0 0 1 97.231 33.231 -13.5 0.5 1.5 1.5
9 0 1 0 0 0 1 0 0 0 1 96.231 22.231 -11.5 0.5 1.5 1.5
9 0 1 0 0 0 1 0 0 0 1 95.231 44.231 -8.5 0.5 1.5 1.5
9 0 1 0 0 0 1 0 0 0 1 95.231 41.231 11.5 0.5 1.5 1.5
9 0 1 0 0 0 1 0 0 0 1 95.231 36.231 -14.5 0.5 1.5 1.5
9 0 1 0 0 0 1 0 0 0 1 95.231 26.231 -11.5 0.5 1.5 1.5
9 0 1 0 0 0 1 0 0 0 1 95.231 -23.769 -9.5 0.5 1.5 1.5
9 0 1 0 0 0 1 0 0 0 1 94.231 -27.769 9.5 0.5 1.5 1.5
9 0 1 0 0 0 1 0 0 0 1 94.231 -35.769 15.5 0.5 4.5 0.5
9 0 1 0 0 0 1 0 0 0 1 94.231 -40.769 -13.5 0.5 1.5 1.5
9 0 1 0 0 0 1 0 0 0 1 93.231 -45.769 -11.5 0.5 1.5 1.5
9 0 1 0 0 0 1 0 0 0 1 93.231 -47.769 9.5 0.5 1.5 1.5
9 0 1 0 0 0 1 0 0 0 1 92.231 51.231 6.5 0.5 1.5 1.5
9 0 1 0 0 0 1 0 0 0 1 92.231 35.231 10.5 0.5 1.5 1.5
9 0 1 0 0 0 1 0 0 0 1 91.231 -50.769 9.5 0.5 1.5 1.5
9 0 1 0 0 0 1 0 0 0 1 90.231 -50.769 -11.5 0.5 1.5 1.5
9 0 1 0 0 0 1 0 0 0 1 90.231 -47.769 13.5 1.5 1.5 0.5
9 0 1 0 0 0 1 0 0 0 1 89.231 -48.769 -14.5 0.5 1.5 1.5
9 0 1 0 0 0 1 0 0 0 1 87.231 60.231 -5.5 0.5 1.5 1.5
9 0 1 0 0 0 1 0 0 0 1 87.231 50.231 -14.5 1.5 0.5 1.5
9 0 1 0 0 0 1 0 0 0 1 85.231 46.231 0.5 0.5 0.5 4.5
9 0 1 0 0 0 1 0 0 0 1 83.231 57.231 -15.5 1.5 1.5 0.5
9 0 1 0 0 0 1 0 0 0 1 82.231 62.231 11.5 1.5 0.5 1.5
9 0 1 0 0 0 1 0 0 0 1 80.231 -57.769 -10.5 0.5 1.5 1.5
9 0 1 0 0 0 1 0 0 0 1 79.231 56.231 0.5 0.5 0.5 4.5
9 0 1 0 0 0 1 0 0 0 1 80.231 -60.769 15.5 1.5 1.5 0.5
9 0 1 0 0 0 1 0 0 0 1 77.231 68.231 -12.5 0.5 1.5 1.5
9 0 1 0 0 0 1 0 0 0 1 76.231 64.231 12.5 0.5 1.5 1.5
9 0 1 0 0 0 1 0 0 0 1 67.231 -70.769 -4.5 0.5 0.5 4.5
9 0 1 0 0 0 1 0 0 0 1 63.231 -79.769 14.5 1.5 0.5 1.5
9 0 1 0 0 0 1 0 0 0 1 57.231 83.231 -15.5 1.5 1.5 0.5
9 0 1 0 0 0 1 0 0 0 1 52.231 89.231 -11.5 1.5 0.5 1.5
9 0 1 0 0 0 1 0 0 0 1 51.231 -86.769 -14.5 0.5 1.5 1.5
9 0 1 0 0 0 1 0 0 0 1 51.231 -40.769 0.5 1.5 1.5 0.5
9 0 1 0 0 0 1 0 0 0 1 45.231 95.231 7.5 1.5 0.5 1.5
9 0 1 0 0 0 1 0 0 0 1 45.231 -95.769 6.5 1.5 0.5 1.5
9 0 1 0 0 0 1 0 0 0 1 43.231 -89.769 13.5 1.5 0.5 1.5
9 0 1 0 0 0 1 0 0 0 1 42.231 95.231 -10.5 1.5 0.5 1.5
9 0 1 0 0 0 1 0 0 0 1 41.231 95.231 11.5 1.5 0.5 1.5
9 0 1 0 0 0 1 0 0 0 1 41.231 -95.769 -10.5 1.5 0.5 1.5
9 0 1 0 0 0 1 0 0 0 1 40.231 97.231 7.5 1.5 0.5 1.5
9 0 1 0 0 0 1 0 0 0 1 38.231 -98.769 -6.5 1.5 0.5 1.5
9 0 1 0 0 0 1 0 0 0 1 38.231 -98.769 6.5 1.5 0.5 1.5
9 0 1 0 0 0 1 0 0 0 1 36.231 99.231 6.5 1.5 0.5 1.5
9 0 1 0 0 0 1 0 0 0 1 35.231 98.231 10.5 1.5 0.5 1.5
9 0 1 0 0 0 1 0 0 0 1 35.231 92.231 10.5 1.5 0.5 1.5
9 0 1 0 0 0 1 0 0 0 1 35.231 -92.769 12.5 1.5 0.5 1.5
9 0 1 0 0 0 1 0 0 0 1 33.231 93.231 -11.5 1.5 0.5 1.5
9 0 1 0 0 0 1 0 0 0 1 28.231 -92.769 -1.5 1.5 0.5 1.5
9 0 1 0 0 0 1 0 0 0 1 27.231 94.231 -8.5 1.5 0.5 1.5
9 0 1 0 0 0 1 0 0 0 1 25.231 95.231 10.5 1.5 0.5 1.5
9 0 1 0 0 0 1 0 0 0 1 22.231 -95.769 -9.5 1.5 0.5 1.5
9 0 1 0 0 0 1 0 0 0 1 20.231 103.231 -9.5 1.5 0.5 1.5
9 0 1 0 0 0 1 0 0 0 1 19.231 103.231 10.5 1.5 0.5 1.5
9 0 1 0 0 0 1 0 0 0 1 15.231 -94.769 0.5 4.5 0.5 0.5
9 0 1 0 0 0 1 0 0 0 1 8.231003 -97.769 9.5 1.5 0.5 1.5
9 0 1 0 0 0 1 0 0 0 1 8.231003 -105.769 -7.5 1.5 0.5 1.5
9 0 1 0 0 0 1 0 0 0 1 10.231 106.231 -5.5 4.5 0.5 0.5
9 0 1 0 0 0 1 0 0 0 1 6.231003 -5.768997 6.5 1.5 1.5 0.5
9 0 1 0 0 0 1 0 0 0 1 0.2310028 -96.769 13.5 1.5 0.5 1.5
9 0 1 0 0 0 1 0 0 0 1 1.231003 -102.769 -15.5 4.5 0.5 0.5
9 0 1 0 0 0 1 0 0 0 1 1.231003 -102.769 15.5 4.5 0.5 0.5
9 0 1 0 0 0 1 0 0 0 1 -0.7689972 -104.769 -12.5 4.5 0.5 0.5
9 0 1 0 0 0 1 0 0 0 1 -0.7689972 -104.769 12.5 4.5 0.5 0.5
9 0 1 0 0 0 1 0 0 0 1 -5.768997 6.231003 6.5 1.5 1.5 0.5
9 0 1 0 0 0 1 0 0 0 1 -18.769 -95.769 7.5 1.5 0.5 1.5
9 0 1 0 0 0 1 0 0 0 1 -21.769 104.231 -5.5 1.5 0.5 1.5
9 0 1 0 0 0 1 0 0 0 1 -21.769 -102.769 -9.5 1.5 0.5 1.5
9 0 1 0 0 0 1 0 0 0 1 -21.769 -102.769 9.5 1.5 0.5 1.5
9 0 1 0 0 0 1 0 0 0 1 -23.769 -94.769 -7.5 1.5 0.5 1.5
9 0 1 0 0 0 1 0 0 0 1 -24.769 -94.769 8.5 1.5 0.5 1.5
9 0 1 0 0 0 1 0 0 0 1 -31.769 93.231 -9.5 1.5 0.5 1.5
9 0 1 0 0 0 1 0 0 0 1 -34.769 99.231 -8.5 1.5 0.5 1.5
9 0 1 0 0 0 1 0 0 0 1 -36.769 -98.769 -7.5 1.5 0.5 1.5
9 0 1 0 0 0 1 0 0 0 1 -38.769 -91.769 -14.5 1.5 0.5 1.5
9 0 1 0 0 0 1 0 0 0 1 -39.769 96.231 10.5 1.5 0.5 1.5
9 0 1 0 0 0 1 0 0 0 1 -40.769 51.231 0.5 1.5 1.5 0.5
9 0 1 0 0 0 1 0 0 0 1 -40.769 -96.769 -8.5 1.5 0.5 1.5
9 0 1 0 0 0 1 0 0 0 1 -43.769 92.231 14.5 1.5 0.5 1.5
9 0 1 0 0 0 1 0 0 0 1 -43.769 -90.769 10.5 1.5 1.5 0.5
9 0 1 0 0 0 1 0 0 0 1 -44.769 95.231 8.5 1.5 0.5 1.5
9 0 1 0 0 0 1 0 0 0 1 -44.769 94.231 10.5 1.5 0.5 1.5
9 0 1 0 0 0 1 0 0 0 1 -48.769 92.231 10.5 1.5 0.5 1.5
9 0 1 0 0 0 1 0 0 0 1 -49.769 90.231 12.5 1.5 0.5 1.5
9 0 1 0 0 0 1 0 0 0 1 -50.769 -85.769 12.5 1.5 0.5 1.5
9 0 1 0 0 0 1 0 0 0 1 -50.769 -92.769 -6.5 1.5 0.5 1.5
9 0 1 0 0 0 1 0 0 0 1 -50.769 -92.769 6.5 1.5 0.5 1.5
9 0 1 0 0 0 1 0 0 0 1 -51.769 90.231 -10.5 1.5 0.5 1.5
9 0 1 0 0 0 1 0 0 0 1 -53.769 85.231 -14.5 0.5 1.5 1.5
9 0 1 0 0 0 1 0 0 0 1 -54.769 -83.769 -14.5 1.5 0.5 1.5
9 0 1 0 0 0 1 0 0 0 1 -57.769 -78.769 -4.5 0.5 0.5 4.5
9 0 1 0 0 0 1 0 0 0 1 -57.769 -84.769 12.5 0.5 1.5 1.5
9 0 1 0 0 0 1 0 0 0 1 -58.769 80.231 -8.5 1.5 1.5 0.5
9 0 1 0 0 0 1 0 0 0 1 -59.769 77.231 -4.5 0.5 0.5 4.5
9 0 1 0 0 0 1 0 0 0 1 -59.769 81.231 -15.5 1.5 1.5 0.5
9 0 1 0 0 0 1 0 0 0 1 -64.769 81.231 10.5 1.5 0.5 1.5
9 0 1 0 0 0 1 0 0 0 1 -67.769 80.231 7.5 1.5 0.5 1.5
9 0 1 0 0 0 1 0 0 0 1 -71.769 -68.769 -11.5 1.5 0.5 1.5
9 0 1 0 0 0 1 0 0 0 1 -72.769 68.231 -9.5 1.5 1.5 0.5
9 0 1 0 0 0 1 0 0 0 1 -74.769 -73.769 -7.5 1.5 0.5 1.5
9 0 1 0 0 0 1 0 0 0 1 -81.769 -53.769 5.5 0.5 0.5 4.5
9 0 1 0 0 0 1 0 0 0 1 -84.769 47.231 -0.5 0.5 0.5 4.5
9 0 1 0 0 0 1 0 0 0 1 -84.769 -49.769 -8.5 0.5 1.5 1.5
9 0 1 0 0 0 1 0 0 0 1 -85.769 53.231 -15.5 1.5 1.5 0.5
9 0 1 0 0 0 1 0 0 0 1 -85.769 53.231 15.5 1.5 1.5 0.5
9 0 1 0 0 0 1 0 0 0 1 -87.769 -55.769 -10.5 0.5 1.5 1.5
9 0 1 0 0 0 1 0 0 0 1 -87.769 -56.769 9.5 0.5 1.5 1.5
9 0 1 0 0 0 1 0 0 0 1 -89.769 -53.769 9.5 0.5 1.5 1.5
9 0 1 0 0 0 1 0 0 0 1 -92.769 -34.769 11.5 0.5 1.5 1.5
9 0 1 0 0 0 1 0 0 0 1 -93.769 -26.769 6.5 0.5 1.5 1.5
9 0 1 0 0 0 1 0 0 0 1 -93.769 -44.769 8.5 0.5 4.5 0.5
9 0 1 0 0 0 1 0 0 0 1 -93.769 -48.769 6.5 0.5 1.5 1.5
9 0 1 0 0 0 1 0 0 0 1 -94.769 45.231 8.5 0.5 1.5 1.5
9 0 1 0 0 0 1 0 0 0 1 -94.769 -27.769 -11.5 0.5 1.5 1.5
9 0 1 0 0 0 1 0 0 0 1 -94.769 -30.769 14.5 0.5 1.5 1.5
9 0 1 0 0 0 1 0 0 0 1 -95.769 -18.769 -7.5 0.5 1.5 1.5
9 0 1 0 0 0 1 0 0 0 1 -98.769 -12.769 -15.5 0.5 4.5 0.5
9 0 1 0 0 0 1 0 0 0 1 -101.769 -25.769 -9.5 0.5 1.5 1.5
9 0 1 0 0 0 1 0 0 0 1 -101.769 -25.769 9.5 0.5 1.5 1.5
9 0 1 0 0 0 1 0 0 0 1 -101.769 -28.769 -7.5 0.5 1.5 1.5
9 0 1 0 0 0 1 0 0 0 1 -101.769 -28.769 7.5 0.5 1.5 1.5
9 0 1 0 0 0 1 0 0 0 1 -102.769 -0.7689972 -15.5 0.5 4.5 0.5
9 0 1 0 0 0 1 0 0 0 1 -102.769 -0.7689972 15.5 0.5 4.5 0.5
9 0 1 0 0 0 1 0 0 0 1 -103.769 -20.769 -7.5 0.5 1.5 1.5
9 0 1 0 0 0 1 0 0 0 1 -103.769 -20.769 7.5 0.5 1.5 1.5
9 0 1 0 0 0 1 0 0 0 1 106.231 -17.269 0 0.5 1 2
9 0 1 0 0 0 1 0 0 0 1 105.731 14.731 -4 1 1 1
9 0 1 0 0 0 1 0 0 0 1 105.231 -21.769 0 0.5 0.5 4
9 0 1 0 0 0 1 0 0 0 1 104.231 22.731 -5 0.5 2 1
9 0 1 0 0 0 1 0 0 0 1 104.231 22.731 5 0.5 2 1
9 0 1 0 0 0 1 0 0 0 1 104.231 -25.769 0 0.5 0.5 4
9 0 1 0 0 0 1 0 0 0 1 103.231 29.731 0 0.5 1 2
9 0 1 0 0 0 1 0 0 0 1 103.231 19.731 10 0.5 2 1
9 0 1 0 0 0 1 0 0 0 1 102.231 14.731 13.5 0.5 4 0.5
9 0 1 0 0 0 1 0 0 0 1 102.231 -17.269 -13 0.5 2 1
9 0 1 0 0 0 1 0 0 0 1 102.231 -26.269 -8 0.5 2 1
9 0 1 0 0 0 1 0 0 0 1 102.231 -26.269 8 0.5 2 1
9 0 1 0 0 0 1 0 0 0 1 102.231 -32.769 0 0.5 0.5 4
9 0 1 0 0 0 1 0 0 0 1 99.231 -28.269 -13 0.5 2 1
9 0 1 0 0 0 1 0 0 0 1 98.231 -42.769 0 0.5 0.5 4
9 0 1 0 0 0 1 0 0 0 1 97.231 -12.269 -10 0.5 2 1
9 0 1 0 0 0 1 0 0 0 1 96.231 -19.269 10 0.5 2 1
9 0 1 0 0 0 1 0 0 0 1 96.731 -33.269 -14 1 1 1
9 0 1 0 0 0 1 0 0 0 1 96.731 -37.269 -12 1 1 1
9 0 1 0 0 0 1 0 0 0 1 95.231 15.731 0 0.5 1 2
9 0 1 0 0 0 1 0 0 0 1 95.231 -23.269 9 0.5 2 1
9 0 1 0 0 0 1 0 0 0 1 95.231 -29.269 -15 0.5 2 1
9 0 1 0 0 0 1 0 0 0 1 93.731 42.731 -12.5 1 2 0.5
9 0 1 0 0 0 1 0 0 0 1 92.231 30.731 3 0.5 1 2
9 0 1 0 0 0 1 0 0 0 1 92.231 -30.269 3 0.5 1 2
9 0 1 0 0 0 1 0 0 0 1 93.731 -34.269 -9.5 2 1 0.5
9 0 1 0 0 0 1 0 0 0 1 92.731 36.231 8 2 0.5 1
9 0 1 0 0 0 1 0 0 0 1 91.231 -38.269 -12 0.5 1 2
9 0 1 0 0 0 1 0 0 0 1 90.231 40.731 -12 0.5 1 2
9 0 1 0 0 0 1 0 0 0 1 90.231 -37.269 7 0.5 1 2
9 0 1 0 0 0 1 0 0 0 1 90.231 -53.269 -9 0.5 1 2
9 0 1 0 0 0 1 0 0 0 1 90.231 -57.769 0 0.5 0.5 4
9 0 1 0 0 0 1 0 0 0 1 89.231 53.731 11 0.5 1 2
9 0 1 0 0 0 1 0 0 0 1 89.731 47.731 15 1 1 1
9 0 1 0 0 0 1 0 0 0 1 89.231 -37.769 0 0.5 0.5 4
9 0 1 0 0 0 1 0 0 0 1 89.231 -59.769 0 0.5 0.5 4
9 0 1 0 0 0 1 0 0 0 1 88.731 51.731 13 1 1 1
9 0 1 0 0 0 1 0 0 0 1 88.231 40.231 0 0.5 0.5 4
9 0 1 0 0 0 1 0 0 0 1 87.231 42.731 -2 0.5 1 2
9 0 1 0 0 0 1 0 0 0 1 87.731 -57.269 -9 1 1 1
9 0 1 0 0 0 1 0 0 0 1 86.231 61.731 -5 0.5 1 2
9 0 1 0 0 0 1 0 0 0 1 86.231 -60.269 -8 0.5 1 2
9 0 1 0 0 0 1 0 0 0 1 85.731 57.731 -12 1 1 1
9 0 1 0 0 0 1 0 0 0 1 85.231 49.731 10 0.5 1 2
9 0 1 0 0 0 1 0 0 0 1 85.231 -64.769 0 0.5 0.5 4
9 0 1 0 0 0 1 0 0 0 1 84.231 61.731 10 0.5 1 2
9 0 1 0 0 0 1 0 0 0 1 84.731 58.731 12 1 1 1
9 0 1 0 0 0 1 0 0 0 1 82.231 68.731 0 0.5 1 2
9 0 1 0 0 0 1 0 0 0 1 82.731 63.731 10 1 1 1
9 0 1 0 0 0 1 0 0 0 1 82.231 55.731 -12 0.5 1 2
9 0 1 0 0 0 1 0 0 0 1 81.731 61.731 -5.5 2 1 0.5
9 0 1 0 0 0 1 0 0 0 1 80.731 -63.269 13 1 1 1
9 0 1 0 0 0 1 0 0 0 1 79.231 -56.769 -4 0.5 0.5 4
9 0 1 0 0 0 1 0 0 0 1 79.231 -58.269 -9 0.5 1 2
9 0 1 0 0 0 1 0 0 0 1 78.731 66.731 12 1 1 1
9 0 1 0 0 0 1 0 0 0 1 78.231 -58.269 3 0.5 1 2
9 0 1 0 0 0 1 0 0 0 1 78.731 63.231 15 2 0.5 1
9 0 1 0 0 0 1 0 0 0 1 77.731 -69.769 -10 1 0.5 2
9 0 1 0 0 0 1 0 0 0 1 77.731 -69.769 10 1 0.5 2
9 0 1 0 0 0 1 0 0 0 1 76.231 -64.269 14 0.5 1 2
9 0 1 0 0 0 1 0 0 0 1 75.231 76.231 0 0.5 0.5 4
9 0 1 0 0 0 1 0 0 0 1 75.731 72.731 8 1 1 1
9 0 1 0 0 0 1 0 0 0 1 75.731 70.731 12 1 1 1
9 0 1 0 0 0 1 0 0 0 1 75.231 62.231 -4 0.5 0.5 4
9 0 1 0 0 0 1 0 0 0 1 78.731 -63.769 -11.5 4 0.5 0.5
9 0 1 0 0 0 1 0 0 0 1 75.731 -71.769 10 1 0.5 2
9 0 1 0 0 0 1 0 0 0 1 74.231 77.231 0 0.5 0.5 4
9 0 1 0 0 0 1 0 0 0 1 73.231 78.231 0 0.5 0.5 4
9 0 1 0 0 0 1 0 0 0 1 72.731 -72.269 -13 1 1 1
9 0 1 0 0 0 1 0 0 0 1 71.731 78.231 5 1 0.5 2
9 0 1 0 0 0 1 0 0 0 1 71.731 76.231 9 1 0.5 2
9 0 1 0 0 0 1 0 0 0 1 70.731 79.231 -5 1 0.5 2
9 0 1 0 0 0 1 0 0 0 1 70.231 75.731 -12 0.5 2 1
9 0 1 0 0 0 1 0 0 0 1 70.731 -68.769 -10 1 0.5 2
9 0 1 0 0 0 1 0 0 0 1 70.731 -77.769 -8 1 0.5 2
9 0 1 0 0 0 1 0 0 0 1 69.731 70.731 -11 1 1 1
9 0 1 0 0 0 1 0 0 0 1 69.231 -70.269 -10 0.5 1 2
9 0 1 0 0 0 1 0 0 0 1 68.731 82.231 0 1 0.5 2
9 0 1 0 0 0 1 0 0 0 1 68.231 70.731 8 0.5 1 2
9 0 1 0 0 0 1 0 0 0 1 67.231 73.731 -13 0.5 1 2
9 0 1 0 0 0 1 0 0 0 1 66.731 -76.269 15 1 1 1
9 0 1 0 0 0 1 0 0 0 1 65.231 -77.269 -15 0.5 2 1
9 0 1 0 0 0 1 0 0 0 1 64.731 85.231 0 1 0.5 2
9 0 1 0 0 0 1 0 0 0 1 64.731 75.231 11 1 0.5 2
9 0 1 0 0 0 1 0 0 0 1 64.731 -82.769 -8 1 0.5 2
9 0 1 0 0 0 1 0 0 0 1 64.731 -82.769 8 1 0.5 2
9 0 1 0 0 0 1 0 0 0 1 63.731 78.731 15 1 1 1
9 0 1 0 0 0 1 0 0 0 1 63.231 -73.769 -1 0.5 0.5 4
9 0 1 0 0 0 1 0 0 0 1 61.231 -80.269 -15 0.5 2 1
9 0 1 0 0 0 1 0 0 0 1 60.731 88.231 0 1 0.5 2
9 0 1 0 0 0 1 0 0 0 1 59.731 82.731 14 1 1 1
9 0 1 0 0 0 1 0 0 0 1 58.731 -79.769 11 1 0.5 2
9 0 1 0 0 0 1 0 0 0 1 57.731 90.231 0 1 0.5 2
9 0 1 0 0 0 1 0 0 0 1 57.731 87.231 -10 1 0.5 2
9 0 1 0 0 0 1 0 0 0 1 57.231 -83.269 15 0.5 2 1
9 0 1 0 0 0 1 0 0 0 1 57.731 -85.269 13 1 1 1
9 0 1 0 0 0 1 0 0 0 1 57.731 -87.769 -9 1 0.5 2
9 0 1 0 0 0 1 0 0 0 1 56.731 86.731 12 1 1 1
9 0 1 0 0 0 1 0 0 0 1 56.231 -79.769 -4 0.5 0.5 4
9 0 1 0 0 0 1 0 0 0 1 52.731 -83.769 11 1 0.5 2
9 0 1 0 0 0 1 0 0 0 1 51.731 -88.269 14 1 1 1
9 0 1 0 0 0 1 0 0 0 1 50.731 93.231 -5 1 0.5 2
9 0 1 0 0 0 1 0 0 0 1 49.731 92.231 9 1 0.5 2
9 0 1 0 0 0 1 0 0 0 1 49.731 85.231 -10 1 0.5 2
9 0 1 0 0 0 1 0 0 0 1 47.731 95.231 -5 1 0.5 2
9 0 1 0 0 0 1 0 0 0 1 48.731 88.731 -15.5 2 1 0.5
9 0 1 0 0 0 1 0 0 0 1 47.731 -86.769 -11 1 0.5 2
9 0 1 0 0 0 1 0 0 0 1 47.731 -93.769 8 1 0.5 2
9 0 1 0 0 0 1 0 0 0 1 45.731 97.231 0 1 0.5 2
9 0 1 0 0 0 1 0 0 0 1 45.731 88.231 -12 1 0.5 2
9 0 1 0 0 0 1 0 0 0 1 44.231 -97.769 0 0.5 0.5 4
9 0 1 0 0 0 1 0 0 0 1 42.731 89.231 11 1 0.5 2
9 0 1 0 0 0 1 0 0 0 1 39.731 90.231 -10 1 0.5 2
9 0 1 0 0 0 1 0 0 0 1 36.231 -97.269 9 0.5 2 1
9 0 1 0 0 0 1 0 0 0 1 34.231 91.231 5 0.5 0.5 4
9 0 1 0 0 0 1 0 0 0 1 34.731 -101.769 0 1 0.5 2
9 0 1 0 0 0 1 0 0 0 1 32.731 6.731003 0.5 2 1 0.5
9 0 1 0 0 0 1 0 0 0 1 31.731 98.731 -12.5 2 1 0.5
9 0 1 0 0 0 1 0 0 0 1 30.731 92.231 3 1 0.5 2
9 0 1 0 0 0 1 0 0 0 1 30.731 -93.769 11 1 0.5 2
9 0 1 0 0 0 1 0 0 0 1 29.731 98.231 14 2 0.5 1
9 0 1 0 0 0 1 0 0 0 1 31.731 95.231 15.5 4 0.5 0.5
9 0 1 0 0 0 1 0 0 0 1 28.731 -92.769 3 1 0.5 2
9 0 1 0 0 0 1 0 0 0 1 27.731 -103.769 0 1 0.5 2
9 0 1 0 0 0 1 0 0 0 1 24.731 -93.769 -2 1 0.5 2
9 0 1 0 0 0 1 0 0 0 1 24.731 -93.769 3 1 0.5 2
9 0 1 0 0 0 1 0 0 0 1 21.731 -101.269 -7 1 1 1
9 0 1 0 0 0 1 0 0 0 1 22.731 -102.769 9 2 0.5 1
9 0 1 0 0 0 1 0 0 0 1 19.731 -105.769 0 1 0.5 2
9 0 1 0 0 0 1 0 0 0 1 19.731 102.231 -12 2 0.5 1
9 0 1 0 0 0 1 0 0 0 1 18.731 105.231 -5 2 0.5 1
9 0 1 0 0 0 1 0 0 0 1 15.731 95.231 0 1 0.5 2
9 0 1 0 0 0 1 0 0 0 1 15.731 -101.769 -14 2 0.5 1
9 0 1 0 0 0 1 0 0 0 1 15.731 -101.769 14 2 0.5 1
9 0 1 0 0 0 1 0 0 0 1 14.731 102.231 -13.5 4 0.5 0.5
9 0 1 0 0 0 1 0 0 0 1 14.731 102.231 13.5 4 0.5 0.5
9 0 1 0 0 0 1 0 0 0 1 11.731 104.231 -11 2 0.5 1
9 0 1 0 0 0 1 0 0 0 1 11.731 104.231 11 2 0.5 1
9 0 1 0 0 0 1 0 0 0 1 9.731003 106.231 5.5 4 0.5 0.5
9 0 1 0 0 0 1 0 0 0 1 -12.269 102.231 14 2 0.5 1
9 0 1 0 0 0 1 0 0 0 1 -12.269 97.231 -10 2 0.5 1
9 0 1 0 0 0 1 0 0 0 1 -12.269 -95.769 -1 2 0.5 1
9 0 1 0 0 0 1 0 0 0 1 -13.269 -106.769 0 1 0.5 2
9 0 1 0 0 0 1 0 0 0 1 -13.269 104.231 -10 2 0.5 1
9 0 1 0 0 0 1 0 0 0 1 -23.269 94.231 3 1 0.5 2
9 0 1 0 0 0 1 0 0 0 1 -22.269 -96.769 -13 2 0.5 1
9 0 1 0 0 0 1 0 0 0 1 -22.269 -101.769 -12 2 0.5 1
9 0 1 0 0 0 1 0 0 0 1 -22.269 -101.769 12 2 0.5 1
9 0 1 0 0 0 1 0 0 0 1 -24.269 98.731 -15.5 2 1 0.5
9 0 1 0 0 0 1 0 0 0 1 -24.269 -95.769 12 2 0.5 1
9 0 1 0 0 0 1 0 0 0 1 -26.269 99.231 -14 2 0.5 1
9 0 1 0 0 0 1 0 0 0 1 -26.269 99.231 14 2 0.5 1
9 0 1 0 0 0 1 0 0 0 1 -30.269 92.231 -2 1 0.5 2
9 0 1 0 0 0 1 0 0 0 1 -29.269 -101.769 -7 2 0.5 1
9 0 1 0 0 0 1 0 0 0 1 -29.269 -101.769 7 2 0.5 1
9 0 1 0 0 0 1 0 0 0 1 -30.769 -102.769 0 0.5 0.5 4
9 0 1 0 0 0 1 0 0 0 1 -31.269 101.231 -7 2 0.5 1
9 0 1 0 0 0 1 0 0 0 1 -31.269 101.231 7 2 0.5 1
9 0 1 0 0 0 1 0 0 0 1 -36.269 -91.769 11 1 0.5 2
9 0 1 0 0 0 1 0 0 0 1 -36.769 -100.769 0 0.5 0.5 4
9 0 1 0 0 0 1 0 0 0 1 -36.269 94.731 8.5 2 1 0.5
9 0 1 0 0 0 1 0 0 0 1 -36.269 -95.769 -14 2 0.5 1
9 0 1 0 0 0 1 0 0 0 1 -36.269 -95.769 14 2 0.5 1
9 0 1 0 0 0 1 0 0 0 1 -38.269 89.231 -2 1 0.5 2
9 0 1 0 0 0 1 0 0 0 1 -37.269 -88.269 0.5 2 1 0.5
9 0 1 0 0 0 1 0 0 0 1 -41.269 -87.769 0.5 1 0.5 2.5
9 0 1 0 0 0 1 0 0 0 1 -36.269 -89.769 0 1 0.5 2
9 0 1 0 0 0 1 0 0 0 1 -46.269 -85.769 3 1 0.5 2
9 0 1 0 0 0 1 0 0 0 1 -47.269 -93.769 -9 1 0.5 2
9 0 1 0 0 0 1 0 0 0 1 -48.269 -85.769 -9 1 0.5 2
9 0 1 0 0 0 1 0 0 0 1 -49.269 85.231 -9 1 0.5 2
9 0 1 0 0 0 1 0 0 0 1 -49.269 85.231 9 1 0.5 2
9 0 1 0 0 0 1 0 0 0 1 -50.769 94.231 0 0.5 0.5 4
9 0 1 0 0 0 1 0 0 0 1 -52.769 93.231 0 0.5 0.5 4
9 0 1 0 0 0 1 0 0 0 1 -51.269 -89.769 12 2 0.5 1
9 0 1 0 0 0 1 0 0 0 1 -53.269 87.731 13 1 1 1
9 0 1 0 0 0 1 0 0 0 1 -53.269 -91.769 5 1 0.5 2
9 0 1 0 0 0 1 0 0 0 1 -55.269 80.231 -2 1 0.5 2
9 0 1 0 0 0 1 0 0 0 1 -57.769 90.231 0 0.5 0.5 4
9 0 1 0 0 0 1 0 0 0 1 -56.269 83.731 -15.5 2 1 0.5
9 0 1 0 0 0 1 0 0 0 1 -57.269 -79.769 -8 1 0.5 2
9 0 1 0 0 0 1 0 0 0 1 -59.769 89.231 0 0.5 0.5 4
9 0 1 0 0 0 1 0 0 0 1 -59.769 77.231 5 0.5 0.5 4
9 0 1 0 0 0 1 0 0 0 1 -60.269 79.231 -13 1 0.5 2
9 0 1 0 0 0 1 0 0 0 1 -60.269 -79.269 -12 1 1 1
9 0 1 0 0 0 1 0 0 0 1 -61.269 85.731 7 1 1 1
9 0 1 0 0 0 1 0 0 0 1 -62.769 -74.769 -4 0.5 0.5 4
9 0 1 0 0 0 1 0 0 0 1 -62.769 -74.769 5 0.5 0.5 4
9 0 1 0 0 0 1 0 0 0 1 -61.269 -80.269 15.5 2 1 0.5
9 0 1 0 0 0 1 0 0 0 1 -63.269 75.231 7 1 0.5 2
9 0 1 0 0 0 1 0 0 0 1 -62.269 72.731 0.5 2 1 0.5
9 0 1 0 0 0 1 0 0 0 1 -65.269 80.731 -11 1 1 1
9 0 1 0 0 0 1 0 0 0 1 -65.769 -81.269 -7 0.5 2 1
9 0 1 0 0 0 1 0 0 0 1 -66.769 71.231 -4 0.5 0.5 4
9 0 1 0 0 0 1 0 0 0 1 -66.769 71.231 5 0.5 0.5 4
9 0 1 0 0 0 1 0 0 0 1 -67.269 -79.269 11 1 1 1
9 0 1 0 0 0 1 0 0 0 1 -68.769 73.731 15 0.5 2 1
9 0 1 0 0 0 1 0 0 0 1 -68.769 -70.269 -8 0.5 1 2
9 0 1 0 0 0 1 0 0 0 1 -68.769 -80.269 6 0.5 1 2
9 0 1 0 0 0 1 0 0 0 1 -69.269 78.731 -9 1 1 1
9 0 1 0 0 0 1 0 0 0 1 -70.269 74.731 13 1 1 1
9 0 1 0 0 0 1 0 0 0 1 -70.269 70.231 -12 1 0.5 2
9 0 1 0 0 0 1 0 0 0 1 -70.269 -74.269 14 1 1 1
9 0 1 0 0 0 1 0 0 0 1 -70.269 -77.269 10 1 1 1
9 0 1 0 0 0 1 0 0 0 1 -71.269 -67.769 8 1 0.5 2
9 0 1 0 0 0 1 0 0 0 1 -71.769 -79.769 0 0.5 0.5 4
9 0 1 0 0 0 1 0 0 0 1 -72.269 76.731 6 1 1 1
9 0 1 0 0 0 1 0 0 0 1 -72.769 74.731 10 0.5 1 2
9 0 1 0 0 0 1 0 0 0 1 -72.269 72.731 -13 1 1 1
9 0 1 0 0 0 1 0 0 0 1 -72.269 -66.769 -8 1 0.5 2
9 0 1 0 0 0 1 0 0 0 1 -72.769 -73.269 12 0.5 2 1
9 0 1 0 0 0 1 0 0 0 1 -72.769 -75.269 9 0.5 1 2
9 0 1 0 0 0 1 0 0 0 1 -73.269 75.231 -8 1 0.5 2
9 0 1 0 0 0 1 0 0 0 1 -74.269 -37.269 0.5 1 2 0.5
9 0 1 0 0 0 1 0 0 0 1 -74.769 -62.769 -4 0.5 0.5 4
9 0 1 0 0 0 1 0 0 0 1 -74.769 -62.769 5 0.5 0.5 4
9 0 1 0 0 0 1 0 0 0 1 -74.769 -64.269 -9 0.5 1 2
9 0 1 0 0 0 1 0 0 0 1 -74.269 -71.269 -12 1 1 1
9 0 1 0 0 0 1 0 0 0 1 -75.269 -69.269 -14 1 1 1
9 0 1 0 0 0 1 0 0 0 1 -76.769 70.731 10 0.5 1 2
9 0 1 0 0 0 1 0 0 0 1 -76.769 61.731 -9 0.5 1 2
9 0 1 0 0 0 1 0 0 0 1 -77.269 -67.269 13 1 1 1
9 0 1 0 0 0 1 0 0 0 1 -78.269 68.731 11 1 1 1
9 0 1 0 0 0 1 0 0 0 1 -78.769 -57.769 5 0.5 0.5 4
9 0 1 0 0 0 1 0 0 0 1 -77.269 -64.769 15 2 0.5 1
9 0 1 0 0 0 1 0 0 0 1 -78.769 -69.269 -9 0.5 1 2
9 0 1 0 0 0 1 0 0 0 1 -79.269 -60.269 -12 1 1 1
9 0 1 0 0 0 1 0 0 0 1 -79.269 -65.269 -13 1 1 1
9 0 1 0 0 0 1 0 0 0 1 -80.769 55.231 5 0.5 0.5 4
9 0 1 0 0 0 1 0 0 0 1 -80.769 -66.269 -9 0.5 1 2
9 0 1 0 0 0 1 0 0 0 1 -81.769 52.731 -2 0.5 1 2
9 0 1 0 0 0 1 0 0 0 1 -81.269 -62.269 -13 1 1 1
9 0 1 0 0 0 1 0 0 0 1 -82.269 -58.269 15.5 1 2 0.5
9 0 1 0 0 0 1 0 0 0 1 -82.769 -63.269 -10 0.5 1 2
9 0 1 0 0 0 1 0 0 0 1 -82.769 -63.269 10 0.5 1 2
9 0 1 0 0 0 1 0 0 0 1 -83.769 66.731 0 0.5 1 2
9 0 1 0 0 0 1 0 0 0 1 -83.269 54.731 -12 1 1 1
9 0 1 0 0 0 1 0 0 0 1 -83.769 -66.769 0 0.5 0.5 4
9 0 1 0 0 0 1 0 0 0 1 -85.769 57.731 -12 0.5 2 1
9 0 1 0 0 0 1 0 0 0 1 -85.269 -57.269 13 1 1 1
9 0 1 0 0 0 1 0 0 0 1 -85.769 -61.269 -7 0.5 1 2
9 0 1 0 0 0 1 0 0 0 1 -85.769 -61.269 7 0.5 1 2
9 0 1 0 0 0 1 0 0 0 1 -86.769 62.731 0 0.5 1 2
9 0 1 0 0 0 1 0 0 0 1 -86.769 59.731 7 0.5 1 2
9 0 1 0 0 0 1 0 0 0 1 -86.269 -42.269 0.5 1 2 0.5
9 0 1 0 0 0 1 0 0 0 1 -85.769 -45.769 0 0.5 0.5 5
9 0 1 0 0 0 1 0 0 0 1 -86.269 -52.269 -15.5 1 2 0.5
9 0 1 0 0 0 1 0 0 0 1 -87.269 -46.269 -10 1 1 1
9 0 1 0 0 0 1 0 0 0 1 -88.269 44.231 -8 1 0.5 2
9 0 1 0 0 0 1 0 0 0 1 -88.769 42.731 9 0.5 2 1
9 0 1 0 0 0 1 0 0 0 1 -89.769 -58.769 0 0.5 0.5 4
9 0 1 0 0 0 1 0 0 0 1 -90.769 37.731 9 0.5 1 2
9 0 1 0 0 0 1 0 0 0 1 -90.269 -41.769 -13 1 0.5 2
9 0 1 0 0 0 1 0 0 0 1 -90.269 -49.269 13 1 1 1
9 0 1 0 0 0 1 0 0 0 1 -91.769 -32.269 3 0.5 1 2
9 0 1 0 0 0 1 0 0 0 1 -91.769 -37.269 -11 0.5 1 2
9 0 1 0 0 0 1 0 0 0 1 -91.769 -51.269 -8 0.5 1 2
9 0 1 0 0 0 1 0 0 0 1 -92.769 -53.769 0 0.5 0.5 4
9 0 1 0 0 0 1 0 0 0 1 -94.769 45.731 -8 0.5 2 1
9 0 1 0 0 0 1 0 0 0 1 -94.269 27.231 -7 1 0.5 2
9 0 1 0 0 0 1 0 0 0 1 -95.769 20.731 9 0.5 2 1
9 0 1 0 0 0 1 0 0 0 1 -96.269 26.231 -10 1 0.5 2
9 0 1 0 0 0 1 0 0 0 1 -96.269 -27.269 8 1 1 1
9 0 1 0 0 0 1 0 0 0 1 -96.769 -31.269 -15 0.5 2 1
9 0 1 0 0 0 1 0 0 0 1 -97.769 -33.269 -13 0.5 2 1
9 0 1 0 0 0 1 0 0 0 1 -98.269 27.731 -14.5 1 2 0.5
9 0 1 0 0 0 1 0 0 0 1 -98.269 27.731 14.5 1 2 0.5
9 0 1 0 0 0 1 0 0 0 1 -98.769 -12.269 15.5 0.5 4 0.5
9 0 1 0 0 0 1 0 0 0 1 -99.769 39.231 0 0.5 0.5 4
9 0 1 0 0 0 1 0 0 0 1 -99.269 26.731 -11.5 2 1 0.5
9 0 1 0 0 0 1 0 0 0 1 -99.269 26.731 11.5 2 1 0.5
9 0 1 0 0 0 1 0 0 0 1 -102.769 -30.769 0 0.5 0.5 4
9 0 1 0 0 0 1 0 0 0 1 -104.769 19.731 -6 0.5 2 1
9 0 1 0 0 0 1 0 0 0 1 -104.769 19.731 6 0.5 2 1
9 0 1 0 0 0 1 0 0 0 1 101.231 14.231 15.5 0.5 3.5 0.5
9 0 1 0 0 0 1 0 0 0 1 98.231 -25.769 -15.5 0.5 3.5 0.5
9 0 1 0 0 0 1 0 0 0 1 98.231 -25.769 15.5 0.5 3.5 0.5
9 0 1 0 0 0 1 0 0 0 1 98.231 -20.769 8.5 3.5 0.5 0.5
9 0 1 0 0 0 1 0 0 0 1 90.231 -41.769 12.5 0.5 0.5 3.5
9 0 1 0 0 0 1 0 0 0 1 88.231 60.231 2.5 0.5 0.5 3.5
9 0 1 0 0 0 1 0 0 0 1 86.231 49.231 -12.5 0.5 0.5 3.5
9 0 1 0 0 0 1 0 0 0 1 82.231 52.231 -3.5 0.5 0.5 3.5
9 0 1 0 0 0 1 0 0 0 1 83.231 56.231 -9.5 3.5 0.5 0.5
9 0 1 0 0 0 1 0 0 0 1 80.231 -54.769 -0.5 0.5 0.5 3.5
9 0 1 0 0 0 1 0 0 0 1 78.231 57.231 0.5 0.5 0.5 3.5
9 0 1 0 0 0 1 0 0 0 1 75.231 62.231 4.5 0.5 0.5 3.5
9 0 1 0 0 0 1 0 0 0 1 73.231 -67.769 8.5 0.5 3.5 0.5
9 0 1 0 0 0 1 0 0 0 1 67.231 -70.769 4.5 0.5 0.5 3.5
9 0 1 0 0 0 1 0 0 0 1 66.231 72.231 -6.5 0.5 0.5 3.5
9 0 1 0 0 0 1 0 0 0 1 61.231 75.231 0.5 0.5 0.5 3.5
9 0 1 0 0 0 1 0 0 0 1 59.231 77.231 -3.5 0.5 0.5 3.5
9 0 1 0 0 0 1 0 0 0 1 56.231 -79.769 4.5 0.5 0.5 3.5
9 0 1 0 0 0 1 0 0 0 1 53.231 81.231 0.5 0.5 0.5 3.5
9 0 1 0 0 0 1 0 0 0 1 52.231 -81.769 -0.5 0.5 0.5 3.5
9 0 1 0 0 0 1 0 0 0 1 40.231 94.231 13.5 3.5 0.5 0.5
9 0 1 0 0 0 1 0 0 0 1 24.231 97.231 15.5 3.5 0.5 0.5
9 0 1 0 0 0 1 0 0 0 1 24.231 -100.769 12.5 3.5 0.5 0.5
9 0 1 0 0 0 1 0 0 0 1 14.231 101.231 -15.5 3.5 0.5 0.5
9 0 1 0 0 0 1 0 0 0 1 -9.768997 106.231 5.5 3.5 0.5 0.5
9 0 1 0 0 0 1 0 0 0 1 -11.769 104.231 10.5 3.5 0.5 0.5
9 0 1 0 0 0 1 0 0 0 1 -13.769 103.231 -12.5 3.5 0.5 0.5
9 0 1 0 0 0 1 0 0 0 1 -31.769 -94.769 -13.5 3.5 0.5 0.5
9 0 1 0 0 0 1 0 0 0 1 -44.769 90.231 -15.5 3.5 0.5 0.5
9 0 1 0 0 0 1 0 0 0 1 -54.769 -80.769 -3.5 0.5 0.5 3.5
9 0 1 0 0 0 1 0 0 0 1 -54.769 -80.769 4.5 0.5 0.5 3.5
9 0 1 0 0 0 1 0 0 0 1 -58.769 -79.769 -11.5 0.5 0.5 3.5
9 0 1 0 0 0 1 0 0 0 1 -76.769 59.231 -0.5 0.5 0.5 3.5
9 0 1 0 0 0 1 0 0 0 1 -77.769 -68.769 -7.5 0.5 3.5 0.5
9 0 1 0 0 0 1 0 0 0 1 -86.769 44.231 -3.5 0.5 0.5 3.5
9 0 1 0 0 0 1 0 0 0 1 -87.769 41.231 0.5 0.5 0.5 3.5
9 0 1 0 0 0 1 0 0 0 1 -88.769 -39.769 -3.5 0.5 0.5 3.5
9 0 1 0 0 0 1 0 0 0 1 -93.769 -23.769 -0.5 0.5 0.5 3.5
9 0 1 0 0 0 1 0 0 0 1 -97.769 -29.769 14.5 0.5 3.5 0.5
9 0 1 0 0 0 1 0 0 0 1 -98.769 12.231 -15.5 0.5 3.5 0.5
9 0 1 0 0 0 1 0 0 0 1 -98.769 12.231 15.5 0.5 3.5 0.5
9 0 1 0 0 0 1 0 0 0 1 -101.769 23.231 10.5 0.5 3.5 0.5
9 0 1 0 0 0 1 0 0 0 1 106.231 -9.768997 6 0.5 1.5 1
9 0 1 0 0 0 1 0 0 0 1 104.231 15.731 9.5 0.5 3 0.5
9 0 1 0 0 0 1 0 0 0 1 104.231 -21.769 6 0.5 1.5 1
9 0 1 0 0 0 1 0 0 0 1 102.231 24.231 10 0.5 1.5 1
9 0 1 0 0 0 1 0 0 0 1 101.231 33.231 5 0.5 1.5 1
9 0 1 0 0 0 1 0 0 0 1 101.231 32.231 -6 0.5 1.5 1
9 0 1 0 0 0 1 0 0 0 1 101.231 27.231 10 0.5 1.5 1
9 0 1 0 0 0 1 0 0 0 1 101.231 19.231 -14 0.5 1.5 1
9 0 1 0 0 0 1 0 0 0 1 101.231 -35.769 0 0.5 0.5 3
9 0 1 0 0 0 1 0 0 0 1 100.231 -34.269 -6.5 0.5 1 1.5
9 0 1 0 0 0 1 0 0 0 1 100.231 -34.269 6.5 0.5 1 1.5
9 0 1 0 0 0 1 0 0 0 1 99.231 38.231 -5 0.5 1.5 1
9 0 1 0 0 0 1 0 0 0 1 99.231 26.231 -14 0.5 1.5 1
9 0 1 0 0 0 1 0 0 0 1 99.231 26.231 14 0.5 1.5 1
9 0 1 0 0 0 1 0 0 0 1 99.731 -18.769 -12.5 1 1.5 0.5
9 0 1 0 0 0 1 0 0 0 1 98.231 38.231 8 0.5 1.5 1
9 0 1 0 0 0 1 0 0 0 1 98.231 -38.269 8.5 0.5 1 1.5
9 0 1 0 0 0 1 0 0 0 1 97.231 43.231 -5 0.5 1.5 1
9 0 1 0 0 0 1 0 0 0 1 97.231 43.231 5 0.5 1.5 1
9 0 1 0 0 0 1 0 0 0 1 97.231 19.231 14 0.5 1.5 1
9 0 1 0 0 0 1 0 0 0 1 97.231 14.731 -11.5 0.5 1 1.5
9 0 1 0 0 0 1 0 0 0 1 97.231 12.231 10 0.5 1.5 1
9 0 1 0 0 0 1 0 0 0 1 97.731 -21.769 -8.5 1 1.5 0.5
9 0 1 0 0 0 1 0 0 0 1 97.231 -21.769 15 0.5 1.5 1
9 0 1 0 0 0 1 0 0 0 1 96.231 43.231 -8 0.5 1.5 1
9 0 1 0 0 0 1 0 0 0 1 96.231 -38.769 12 0.5 1.5 1
9 0 1 0 0 0 1 0 0 0 1 96.231 -41.269 9.5 0.5 1 1.5
9 0 1 0 0 0 1 0 0 0 1 96.231 -43.269 -7.5 0.5 1 1.5
9 0 1 0 0 0 1 0 0 0 1 96.231 -44.269 6.5 0.5 1 1.5
9 0 1 0 0 0 1 0 0 0 1 96.231 -47.769 0 0.5 0.5 3
9 0 1 0 0 0 1 0 0 0 1 95.231 47.731 -4.5 0.5 1 1.5
9 0 1 0 0 0 1 0 0 0 1 95.231 47.731 4.5 0.5 1 1.5
9 0 1 0 0 0 1 0 0 0 1 95.231 45.231 8 0.5 1.5 1
9 0 1 0 0 0 1 0 0 0 1 95.231 -13.269 0.5 0.5 3 0.5
9 0 1 0 0 0 1 0 0 0 1 95.231 -18.769 -4 0.5 1.5 1
9 0 1 0 0 0 1 0 0 0 1 94.231 51.231 0 0.5 0.5 3
9 0 1 0 0 0 1 0 0 0 1 94.231 35.731 10.5 0.5 1 1.5
9 0 1 0 0 0 1 0 0 0 1 94.231 23.231 -3 0.5 0.5 3
9 0 1 0 0 0 1 0 0 0 1 94.231 22.731 2.5 0.5 1 1.5
9 0 1 0 0 0 1 0 0 0 1 93.231 34.731 13.5 0.5 1 1.5
9 0 1 0 0 0 1 0 0 0 1 93.231 28.731 -6.5 0.5 1 1.5
9 0 1 0 0 0 1 0 0 0 1 93.231 26.731 2.5 0.5 1 1.5
9 0 1 0 0 0 1 0 0 0 1 93.231 -26.269 2.5 0.5 1 1.5
9 0 1 0 0 0 1 0 0 0 1 93.231 -31.769 -10 0.5 1.5 1
9 0 1 0 0 0 1 0 0 0 1 93.231 -34.269 13.5 0.5 1 1.5
9 0 1 0 0 0 1 0 0 0 1 93.231 -48.269 -9.5 0.5 1 1.5
9 0 1 0 0 0 1 0 0 0 1 93.231 -50.269 -6.5 0.5 1 1.5
9 0 1 0 0 0 1 0 0 0 1 93.231 -50.269 6.5 0.5 1 1.5
9 0 1 0 0 0 1 0 0 0 1 92.231 51.231 -7 0.5 1.5 1
9 0 1 0 0 0 1 0 0 0 1 92.231 48.231 11 0.5 1.5 1
9 0 1 0 0 0 1 0 0 0 1 92.231 31.731 -5.5 0.5 1 1.5
9 0 1 0 0 0 1 0 0 0 1 92.231 -33.769 -8 0.5 1.5 1
9 0 1 0 0 0 1 0 0 0 1 91.231 54.231 -5 0.5 1.5 1
9 0 1 0 0 0 1 0 0 0 1 91.231 54.231 5 0.5 1.5 1
9 0 1 0 0 0 1 0 0 0 1 91.231 49.231 12 0.5 1.5 1
9 0 1 0 0 0 1 0 0 0 1 91.731 46.231 -13.5 1 1.5 0.5
9 0 1 0 0 0 1 0 0 0 1 91.231 -40.769 15 0.5 1.5 1
9 0 1 0 0 0 1 0 0 0 1 90.231 58.231 0 0.5 0.5 3
9 0 1 0 0 0 1 0 0 0 1 90.231 56.731 -4.5 0.5 1 1.5
9 0 1 0 0 0 1 0 0 0 1 90.231 42.731 -14.5 0.5 1 1.5
9 0 1 0 0 0 1 0 0 0 1 90.231 43.731 14.5 0.5 3 0.5
9 0 1 0 0 0 1 0 0 0 1 90.231 38.731 8.5 0.5 1 1.5
9 0 1 0 0 0 1 0 0 0 1 90.231 -37.269 -6.5 0.5 1 1.5
9 0 1 0 0 0 1 0 0 0 1 89.231 50.231 -14 0.5 1.5 1
9 0 1 0 0 0 1 0 0 0 1 89.231 -41.769 -10 0.5 1.5 1
9 0 1 0 0 0 1 0 0 0 1 89.231 -55.269 -8.5 0.5 1 1.5
9 0 1 0 0 0 1 0 0 0 1 89.231 -55.269 8.5 0.5 1 1.5
9 0 1 0 0 0 1 0 0 0 1 88.231 45.731 12.5 0.5 1 1.5
9 0 1 0 0 0 1 0 0 0 1 88.231 -40.269 -1.5 0.5 1 1.5
9 0 1 0 0 0 1 0 0 0 1 88.231 -44.769 11 0.5 1.5 1
9 0 1 0 0 0 1 0 0 0 1 88.231 -46.269 -13.5 0.5 1 1.5
9 0 1 0 0 0 1 0 0 0 1 88.231 -46.269 14.5 0.5 1 1.5
9 0 1 0 0 0 1 0 0 0 1 87.231 62.231 0 0.5 0.5 3
9 0 1 0 0 0 1 0 0 0 1 87.231 58.731 -8.5 0.5 1 1.5
9 0 1 0 0 0 1 0 0 0 1 87.231 56.231 -12 0.5 1.5 1
9 0 1 0 0 0 1 0 0 0 1 87.231 53.231 14 0.5 1.5 1
9 0 1 0 0 0 1 0 0 0 1 87.231 42.731 2.5 0.5 1 1.5
9 0 1 0 0 0 1 0 0 0 1 87.231 -57.269 10.5 0.5 1 1.5
9 0 1 0 0 0 1 0 0 0 1 86.231 61.231 6 0.5 1.5 1
9 0 1 0 0 0 1 0 0 0 1 86.731 6.231003 0.5 1 1.5 0.5
9 0 1 0 0 0 1 0 0 0 1 86.731 -46.769 -9.5 1 0.5 1.5
9 0 1 0 0 0 1 0 0 0 1 86.231 54.231 -14 1.5 0.5 1
9 0 1 0 0 0 1 0 0 0 1 85.731 -51.769 -14.5 1 0.5 1.5
9 0 1 0 0 0 1 0 0 0 1 84.231 66.231 0 0.5 0.5 3
9 0 1 0 0 0 1 0 0 0 1 84.231 62.231 -9 0.5 1.5 1
9 0 1 0 0 0 1 0 0 0 1 85.231 54.731 -15.5 1.5 1 0.5
9 0 1 0 0 0 1 0 0 0 1 84.231 -48.769 4 0.5 0.5 3
9 0 1 0 0 0 1 0 0 0 1 84.231 -50.269 -8.5 0.5 1 1.5
9 0 1 0 0 0 1 0 0 0 1 84.731 -61.769 -8.5 1 0.5 1.5
9 0 1 0 0 0 1 0 0 0 1 83.231 53.731 -11.5 0.5 1 1.5
9 0 1 0 0 0 1 0 0 0 1 83.231 50.231 -3 0.5 0.5 3
9 0 1 0 0 0 1 0 0 0 1 82.731 66.231 -5.5 1 0.5 1.5
9 0 1 0 0 0 1 0 0 0 1 82.731 66.231 5.5 1 0.5 1.5
9 0 1 0 0 0 1 0 0 0 1 82.731 65.231 -7.5 1 0.5 1.5
9 0 1 0 0 0 1 0 0 0 1 82.231 52.231 4 0.5 0.5 3
9 0 1 0 0 0 1 0 0 0 1 82.231 -54.269 -9.5 0.5 1 1.5
9 0 1 0 0 0 1 0 0 0 1 82.231 -63.269 11.5 0.5 1 1.5
9 0 1 0 0 0 1 0 0 0 1 81.231 64.231 12 0.5 1.5 1
9 0 1 0 0 0 1 0 0 0 1 81.231 56.731 11.5 0.5 1 1.5
9 0 1 0 0 0 1 0 0 0 1 81.231 -56.269 10.5 0.5 1 1.5
9 0 1 0 0 0 1 0 0 0 1 80.231 71.231 0 0.5 0.5 3
9 0 1 0 0 0 1 0 0 0 1 80.231 68.731 -7.5 0.5 1 1.5
9 0 1 0 0 0 1 0 0 0 1 80.231 68.231 8 0.5 1.5 1
9 0 1 0 0 0 1 0 0 0 1 80.231 55.231 -3 0.5 0.5 3
9 0 1 0 0 0 1 0 0 0 1 81.231 -60.269 -15.5 1.5 1 0.5
9 0 1 0 0 0 1 0 0 0 1 80.731 -64.769 -6.5 1 0.5 1.5
9 0 1 0 0 0 1 0 0 0 1 80.731 -65.769 -10.5 1 0.5 1.5
9 0 1 0 0 0 1 0 0 0 1 79.231 72.231 0 0.5 0.5 3
9 0 1 0 0 0 1 0 0 0 1 80.231 63.231 -14 1.5 0.5 1
9 0 1 0 0 0 1 0 0 0 1 79.231 58.731 -9.5 0.5 1 1.5
9 0 1 0 0 0 1 0 0 0 1 79.231 58.731 9.5 0.5 1 1.5
9 0 1 0 0 0 1 0 0 0 1 79.231 -58.269 8.5 0.5 1 1.5
9 0 1 0 0 0 1 0 0 0 1 79.231 -62.269 -15.5 1.5 1 0.5
9 0 1 0 0 0 1 0 0 0 1 78.731 -65.769 13.5 1 0.5 1.5
9 0 1 0 0 0 1 0 0 0 1 77.231 74.231 0 0.5 0.5 3
9 0 1 0 0 0 1 0 0 0 1 76.731 57.231 0.5 1 1.5 0.5
9 0 1 0 0 0 1 0 0 0 1 76.731 -61.769 8.5 1 0.5 1.5
9 0 1 0 0 0 1 0 0 0 1 76.231 -64.269 -13.5 0.5 1 1.5
9 0 1 0 0 0 1 0 0 0 1 76.731 -71.769 -7.5 1 0.5 1.5
9 0 1 0 0 0 1 0 0 0 1 76.231 70.731 -9.5 1.5 1 0.5
9 0 1 0 0 0 1 0 0 0 1 75.731 64.231 -10.5 1 1.5 0.5
9 0 1 0 0 0 1 0 0 0 1 75.231 -63.269 -8.5 0.5 1 1.5
9 0 1 0 0 0 1 0 0 0 1 75.231 -63.269 8.5 0.5 1 1.5
9 0 1 0 0 0 1 0 0 0 1 74.731 68.231 -15.5 1 1.5 0.5
9 0 1 0 0 0 1 0 0 0 1 74.231 -72.269 11.5 0.5 1 1.5
9 0 1 0 0 0 1 0 0 0 1 73.231 69.231 15 0.5 1.5 1
9 0 1 0 0 0 1 0 0 0 1 73.231 -66.269 -9.5 0.5 1 1.5
9 0 1 0 0 0 1 0 0 0 1 74.231 -68.269 -15.5 1.5 1 0.5
9 0 1 0 0 0 1 0 0 0 1 73.231 -76.269 6.5 0.5 1 1.5
9 0 1 0 0 0 1 0 0 0 1 71.231 80.231 0 0.5 0.5 3
9 0 1 0 0 0 1 0 0 0 1 71.731 69.231 -14.5 1 0.5 1.5
9 0 1 0 0 0 1 0 0 0 1 71.731 69.231 14.5 1 0.5 1.5
9 0 1 0 0 0 1 0 0 0 1 71.231 73.231 14 1.5 0.5 1
9 0 1 0 0 0 1 0 0 0 1 69.231 71.731 14.5 0.5 1 1.5
9 0 1 0 0 0 1 0 0 0 1 69.231 -67.769 0 0.5 0.5 3
9 0 1 0 0 0 1 0 0 0 1 70.231 -72.269 -15.5 1.5 1 0.5
9 0 1 0 0 0 1 0 0 0 1 70.231 -74.769 -13 1.5 0.5 1
9 0 1 0 0 0 1 0 0 0 1 68.731 81.231 -4.5 1 0.5 1.5
9 0 1 0 0 0 1 0 0 0 1 68.731 81.231 4.5 1 0.5 1.5
9 0 1 0 0 0 1 0 0 0 1 68.231 78.231 -12 0.5 1.5 1
9 0 1 0 0 0 1 0 0 0 1 69.231 73.731 -15.5 1.5 1 0.5
9 0 1 0 0 0 1 0 0 0 1 69.231 73.731 15.5 1.5 1 0.5
9 0 1 0 0 0 1 0 0 0 1 68.731 -80.769 -5.5 1 0.5 1.5
9 0 1 0 0 0 1 0 0 0 1 68.731 -80.769 5.5 1 0.5 1.5
9 0 1 0 0 0 1 0 0 0 1 68.231 -82.769 0 0.5 0.5 3
9 0 1 0 0 0 1 0 0 0 1 67.731 80.231 -8.5 1 0.5 1.5
9 0 1 0 0 0 1 0 0 0 1 67.231 77.731 -11.5 0.5 3 0.5
9 0 1 0 0 0 1 0 0 0 1 67.731 72.231 11.5 1 0.5 1.5
9 0 1 0 0 0 1 0 0 0 1 67.231 55.731 -4.5 0.5 1 1.5
9 0 1 0 0 0 1 0 0 0 1 67.231 55.731 5.5 0.5 1 1.5
9 0 1 0 0 0 1 0 0 0 1 67.231 43.731 -4.5 0.5 1 1.5
9 0 1 0 0 0 1 0 0 0 1 67.231 -44.269 -4.5 0.5 1 1.5
9 0 1 0 0 0 1 0 0 0 1 67.231 -44.269 5.5 0.5 1 1.5
9 0 1 0 0 0 1 0 0 0 1 67.231 -56.269 -4.5 0.5 1 1.5
9 0 1 0 0 0 1 0 0 0 1 67.231 -71.769 -8 0.5 0.5 3
9 0 1 0 0 0 1 0 0 0 1 67.231 -81.269 -7.5 0.5 1 1.5
9 0 1 0 0 0 1 0 0 0 1 67.231 77.731 13.5 1.5 1 0.5
9 0 1 0 0 0 1 0 0 0 1 67.231 75.731 -15.5 1.5 1 0.5
9 0 1 0 0 0 1 0 0 0 1 66.231 73.231 -10 0.5 0.5 3
9 0 1 0 0 0 1 0 0 0 1 66.731 6.231003 0.5 1 1.5 0.5
9 0 1 0 0 0 1 0 0 0 1 66.731 -53.769 0.5 1 1.5 0.5
9 0 1 0 0 0 1 0 0 0 1 67.231 -77.269 13.5 1.5 1 0.5
9 0 1 0 0 0 1 0 0 0 1 65.231 -74.269 10.5 0.5 1 1.5
9 0 1 0 0 0 1 0 0 0 1 64.731 84.231 -4.5 1 0.5 1.5
9 0 1 0 0 0 1 0 0 0 1 64.731 84.231 4.5 1 0.5 1.5
9 0 1 0 0 0 1 0 0 0 1 64.731 77.231 -15.5 1 1.5 0.5
9 0 1 0 0 0 1 0 0 0 1 64.231 -72.769 0 0.5 0.5 3
9 0 1 0 0 0 1 0 0 0 1 63.731 75.231 -9.5 1 0.5 1.5
9 0 1 0 0 0 1 0 0 0 1 63.731 -84.769 -5.5 1 0.5 1.5
9 0 1 0 0 0 1 0 0 0 1 63.731 -84.769 5.5 1 0.5 1.5
9 0 1 0 0 0 1 0 0 0 1 62.231 87.231 0 0.5 0.5 3
9 0 1 0 0 0 1 0 0 0 1 62.731 79.231 -15.5 1 1.5 0.5
9 0 1 0 0 0 1 0 0 0 1 63.231 76.231 9 1.5 0.5 1
9 0 1 0 0 0 1 0 0 0 1 62.231 -78.269 14.5 0.5 1 1.5
9 0 1 0 0 0 1 0 0 0 1 62.231 84.231 9 1.5 0.5 1
9 0 1 0 0 0 1 0 0 0 1 62.231 83.231 -11 1.5 0.5 1
9 0 1 0 0 0 1 0 0 0 1 61.731 81.231 -14.5 1 0.5 1.5
9 0 1 0 0 0 1 0 0 0 1 61.231 -75.769 -3 0.5 0.5 3
9 0 1 0 0 0 1 0 0 0 1 61.231 -75.769 4 0.5 0.5 3
9 0 1 0 0 0 1 0 0 0 1 62.231 -82.769 -12 1.5 0.5 1
9 0 1 0 0 0 1 0 0 0 1 62.231 -82.769 12 1.5 0.5 1
9 0 1 0 0 0 1 0 0 0 1 60.731 86.231 -6.5 1 0.5 1.5
9 0 1 0 0 0 1 0 0 0 1 60.731 78.231 11.5 1 0.5 1.5
9 0 1 0 0 0 1 0 0 0 1 60.731 -78.769 -9.5 1 1.5 0.5
9 0 1 0 0 0 1 0 0 0 1 60.231 -88.769 0 0.5 0.5 3
9 0 1 0 0 0 1 0 0 0 1 59.231 -79.269 -10.5 0.5 1 1.5
9 0 1 0 0 0 1 0 0 0 1 60.231 -86.769 7 1.5 0.5 1
9 0 1 0 0 0 1 0 0 0 1 58.231 86.231 -11 1.5 0.5 1
9 0 1 0 0 0 1 0 0 0 1 57.731 80.231 -10.5 1 0.5 1.5
9 0 1 0 0 0 1 0 0 0 1 57.731 80.231 10.5 1 0.5 1.5
9 0 1 0 0 0 1 0 0 0 1 57.231 -81.269 -12.5 0.5 1 1.5
9 0 1 0 0 0 1 0 0 0 1 58.231 -85.769 -12 1.5 0.5 1
9 0 1 0 0 0 1 0 0 0 1 56.731 -83.769 -15.5 1 1.5 0.5
9 0 1 0 0 0 1 0 0 0 1 56.231 90.231 -5 1.5 0.5 1
9 0 1 0 0 0 1 0 0 0 1 56.231 90.231 5 1.5 0.5 1
9 0 1 0 0 0 1 0 0 0 1 55.731 67.231 -4.5 1 0.5 1.5
9 0 1 0 0 0 1 0 0 0 1 55.731 67.231 5.5 1 0.5 1.5
9 0 1 0 0 0 1 0 0 0 1 55.231 -82.769 -10 0.5 1.5 1
9 0 1 0 0 0 1 0 0 0 1 55.231 86.231 14 1.5 0.5 1
9 0 1 0 0 0 1 0 0 0 1 54.731 81.231 6.5 1 0.5 1.5
9 0 1 0 0 0 1 0 0 0 1 54.731 -81.769 8.5 1 0.5 1.5
9 0 1 0 0 0 1 0 0 0 1 55.231 -88.769 -10 1.5 0.5 1
9 0 1 0 0 0 1 0 0 0 1 55.231 -88.769 10 1.5 0.5 1
9 0 1 0 0 0 1 0 0 0 1 54.231 88.231 12 1.5 0.5 1
9 0 1 0 0 0 1 0 0 0 1 54.231 84.731 -15.5 1.5 1 0.5
9 0 1 0 0 0 1 0 0 0 1 52.231 -90.769 -9 0.5 0.5 3
9 0 1 0 0 0 1 0 0 0 1 51.731 84.231 10.5 1 0.5 1.5
9 0 1 0 0 0 1 0 0 0 1 51.731 -88.769 -13.5 1 0.5 1.5
9 0 1 0 0 0 1 0 0 0 1 50.731 -93.769 -4.5 1 0.5 1.5
9 0 1 0 0 0 1 0 0 0 1 50.231 -94.769 0 0.5 0.5 3
9 0 1 0 0 0 1 0 0 0 1 49.731 94.231 4.5 1 0.5 1.5
9 0 1 0 0 0 1 0 0 0 1 49.731 92.231 -9.5 1 0.5 1.5
9 0 1 0 0 0 1 0 0 0 1 51.731 89.231 8.5 3 0.5 0.5
9 0 1 0 0 0 1 0 0 0 1 50.231 81.731 0.5 1.5 1 0.5
9 0 1 0 0 0 1 0 0 0 1 50.231 -92.769 -7 1.5 0.5 1
9 0 1 0 0 0 1 0 0 0 1 49.231 -82.269 0.5 1.5 1 0.5
9 0 1 0 0 0 1 0 0 0 1 49.231 -88.269 15.5 1.5 1 0.5
9 0 1 0 0 0 1 0 0 0 1 47.731 94.231 -7.5 1 0.5 1.5
9 0 1 0 0 0 1 0 0 0 1 47.231 93.231 10 1.5 0.5 1
9 0 1 0 0 0 1 0 0 0 1 46.731 88.231 14.5 1 0.5 1.5
9 0 1 0 0 0 1 0 0 0 1 47.231 86.731 -7.5 1.5 1 0.5
9 0 1 0 0 0 1 0 0 0 1 47.231 86.231 8 1.5 0.5 1
9 0 1 0 0 0 1 0 0 0 1 46.731 6.231003 0.5 1 1.5 0.5
9 0 1 0 0 0 1 0 0 0 1 46.731 -45.769 0.5 1 1.5 0.5
9 0 1 0 0 0 1 0 0 0 1 46.731 -53.769 0.5 1 1.5 0.5
9 0 1 0 0 0 1 0 0 0 1 46.231 96.231 -4 1.5 0.5 1
9 0 1 0 0 0 1 0 0 0 1 46.231 91.231 14 1.5 0.5 1
9 0 1 0 0 0 1 0 0 0 1 44.731 88.231 10.5 1 0.5 1.5
9 0 1 0 0 0 1 0 0 0 1 43.731 67.231 5.5 1 0.5 1.5
9 0 1 0 0 0 1 0 0 0 1 42.731 89.231 -11.5 1 0.5 1.5
9 0 1 0 0 0 1 0 0 0 1 41.731 98.231 -4.5 1 0.5 1.5
9 0 1 0 0 0 1 0 0 0 1 42.231 94.231 -13 1.5 0.5 1
9 0 1 0 0 0 1 0 0 0 1 41.231 88.231 4 0.5 0.5 3
9 0 1 0 0 0 1 0 0 0 1 40.731 51.231 0.5 1 1.5 0.5
9 0 1 0 0 0 1 0 0 0 1 40.731 -89.769 10.5 1 0.5 1.5
9 0 1 0 0 0 1 0 0 0 1 41.231 -95.769 11 1.5 0.5 1
9 0 1 0 0 0 1 0 0 0 1 41.231 -96.769 -9 1.5 0.5 1
9 0 1 0 0 0 1 0 0 0 1 39.231 95.731 7.5 0.5 1 1.5
9 0 1 0 0 0 1 0 0 0 1 39.731 91.231 -14.5 1 0.5 1.5
9 0 1 0 0 0 1 0 0 0 1 39.731 90.231 10.5 1 0.5 1.5
9 0 1 0 0 0 1 0 0 0 1 39.731 -90.769 -12.5 1 0.5 1.5
9 0 1 0 0 0 1 0 0 0 1 41.731 -92.769 14.5 3 0.5 0.5
9 0 1 0 0 0 1 0 0 0 1 38.231 95.231 -14 1.5 0.5 1
9 0 1 0 0 0 1 0 0 0 1 37.731 90.231 7.5 1 0.5 1.5
9 0 1 0 0 0 1 0 0 0 1 37.231 -89.769 -3 0.5 0.5 3
9 0 1 0 0 0 1 0 0 0 1 38.231 -97.769 -9 1.5 0.5 1
9 0 1 0 0 0 1 0 0 0 1 36.231 100.231 -5 1.5 0.5 1
9 0 1 0 0 0 1 0 0 0 1 36.231 100.231 5 1.5 0.5 1
9 0 1 0 0 0 1 0 0 0 1 36.231 98.231 -10 1.5 0.5 1
9 0 1 0 0 0 1 0 0 0 1 35.231 90.231 0 0.5 0.5 3
9 0 1 0 0 0 1 0 0 0 1 35.731 -91.769 10.5 1 0.5 1.5
9 0 1 0 0 0 1 0 0 0 1 35.231 -97.769 -12 1.5 0.5 1
9 0 1 0 0 0 1 0 0 0 1 34.231 96.231 15 1.5 0.5 1
9 0 1 0 0 0 1 0 0 0 1 33.731 92.231 -8.5 1 0.5 1.5
9 0 1 0 0 0 1 0 0 0 1 33.731 -92.769 -10.5 1 0.5 1.5
9 0 1 0 0 0 1 0 0 0 1 33.731 -93.769 -14.5 1 0.5 1.5
9 0 1 0 0 0 1 0 0 0 1 33.231 101.231 -6 1.5 0.5 1
9 0 1 0 0 0 1 0 0 0 1 33.231 101.231 6 1.5 0.5 1
9 0 1 0 0 0 1 0 0 0 1 33.231 75.731 0.5 1.5 1 0.5
9 0 1 0 0 0 1 0 0 0 1 31.731 -100.769 -7.5 1 0.5 1.5
9 0 1 0 0 0 1 0 0 0 1 29.731 94.231 -11.5 1 0.5 1.5
9 0 1 0 0 0 1 0 0 0 1 31.731 -94.769 -14.5 3 0.5 0.5
9 0 1 0 0 0 1 0 0 0 1 29.231 -101.769 7 1.5 0.5 1
9 0 1 0 0 0 1 0 0 0 1 27.731 94.231 9.5 1 0.5 1.5
9 0 1 0 0 0 1 0 0 0 1 26.231 104.231 0 0.5 0.5 3
9 0 1 0 0 0 1 0 0 0 1 27.231 101.231 10 1.5 0.5 1
9 0 1 0 0 0 1 0 0 0 1 26.231 -102.769 -7 1.5 0.5 1
9 0 1 0 0 0 1 0 0 0 1 25.231 102.231 -9 1.5 0.5 1
9 0 1 0 0 0 1 0 0 0 1 25.231 -99.769 -14 1.5 0.5 1
9 0 1 0 0 0 1 0 0 0 1 23.731 -11.769 0.5 1 1.5 0.5
9 0 1 0 0 0 1 0 0 0 1 22.731 94.231 2.5 1 0.5 1.5
9 0 1 0 0 0 1 0 0 0 1 22.231 101.231 -12 1.5 0.5 1
9 0 1 0 0 0 1 0 0 0 1 23.731 100.231 -13.5 3 0.5 0.5
9 0 1 0 0 0 1 0 0 0 1 22.231 -103.769 -7 1.5 0.5 1
9 0 1 0 0 0 1 0 0 0 1 22.231 -103.769 7 1.5 0.5 1
9 0 1 0 0 0 1 0 0 0 1 20.731 16.231 0.5 1 1.5 0.5
9 0 1 0 0 0 1 0 0 0 1 20.231 104.231 -7 1.5 0.5 1
9 0 1 0 0 0 1 0 0 0 1 20.231 104.231 7 1.5 0.5 1
9 0 1 0 0 0 1 0 0 0 1 19.231 101.231 14 1.5 0.5 1
9 0 1 0 0 0 1 0 0 0 1 19.231 -95.769 -8 1.5 0.5 1
9 0 1 0 0 0 1 0 0 0 1 18.231 -103.769 -9 1.5 0.5 1
9 0 1 0 0 0 1 0 0 0 1 18.231 -103.769 9 1.5 0.5 1
9 0 1 0 0 0 1 0 0 0 1 17.231 106.231 0 1.5 0.5 1
9 0 1 0 0 0 1 0 0 0 1 16.231 97.231 -12 1.5 0.5 1
9 0 1 0 0 0 1 0 0 0 1 15.731 7.231003 -4.5 1 0.5 1.5
9 0 1 0 0 0 1 0 0 0 1 15.731 7.231003 5.5 1 0.5 1.5
9 0 1 0 0 0 1 0 0 0 1 16.731 -100.769 -15.5 3 0.5 0.5
9 0 1 0 0 0 1 0 0 0 1 16.731 -100.769 15.5 3 0.5 0.5
9 0 1 0 0 0 1 0 0 0 1 10.231 100.731 -11.5 0.5 3 0.5
9 0 1 0 0 0 1 0 0 0 1 9.731003 -96.769 6.5 1 0.5 1.5
9 0 1 0 0 0 1 0 0 0 1 10.731 -103.769 -12.5 3 0.5 0.5
9 0 1 0 0 0 1 0 0 0 1 10.731 -103.769 12.5 3 0.5 0.5
9 0 1 0 0 0 1 0 0 0 1 7.231003 15.731 -4.5 0.5 1 1.5
9 0 1 0 0 0 1 0 0 0 1 7.231003 15.731 5.5 0.5 1 1.5
9 0 1 0 0 0 1 0 0 0 1 7.231003 -16.269 -4.5 0.5 1 1.5
9 0 1 0 0 0 1 0 0 0 1 7.231003 107.231 -3 1.5 0.5 1
9 0 1 0 0 0 1 0 0 0 1 7.231003 107.231 3 1.5 0.5 1
9 0 1 0 0 0 1 0 0 0 1 6.731003 86.231 0.5 1 1.5 0.5
9 0 1 0 0 0 1 0 0 0 1 6.731003 66.231 0.5 1 1.5 0.5
9 0 1 0 0 0 1 0 0 0 1 6.731003 46.231 0.5 1 1.5 0.5
9 0 1 0 0 0 1 0 0 0 1 6.731003 -13.769 6.5 1 1.5 0.5
9 0 1 0 0 0 1 0 0 0 1 6.731003 -53.769 0.5 1 1.5 0.5
9 0 1 0 0 0 1 0 0 0 1 6.731003 -73.769 0.5 1 1.5 0.5
9 0 1 0 0 0 1 0 0 0 1 -0.2689972 -97.769 -15.5 3 0.5 0.5
9 0 1 0 0 0 1 0 0 0 1 -5.268997 -3.768997 7.5 1 0.5 1.5
9 0 1 0 0 0 1 0 0 0 1 -9.768997 106.231 -6 1.5 0.5 1
9 0 1 0 0 0 1 0 0 0 1 -11.769 23.731 0.5 1.5 1 0.5
9 0 1 0 0 0 1 0 0 0 1 -10.269 -103.769 -12.5 3 0.5 0.5
9 0 1 0 0 0 1 0 0 0 1 -10.269 -103.769 12.5 3 0.5 0.5
9 0 1 0 0 0 1 0 0 0 1 -13.269 6.231003 6.5 1 1.5 0.5
9 0 1 0 0 0 1 0 0 0 1 -12.769 -95.769 2 1.5 0.5 1
9 0 1 0 0 0 1 0 0 0 1 -14.769 96.231 -7 1.5 0.5 1
9 0 1 0 0 0 1 0 0 0 1 -13.269 95.231 0.5 3 0.5 0.5
9 0 1 0 0 0 1 0 0 0 1 -16.269 7.231003 5.5 1 0.5 1.5
9 0 1 0 0 0 1 0 0 0 1 -15.769 -21.269 0.5 1.5 1 0.5
9 0 1 0 0 0 1 0 0 0 1 -15.769 -96.769 -10 1.5 0.5 1
9 0 1 0 0 0 1 0 0 0 1 -18.269 -103.769 -9.5 1 0.5 1.5
9 0 1 0 0 0 1 0 0 0 1 -18.269 -103.769 9.5 1 0.5 1.5
9 0 1 0 0 0 1 0 0 0 1 -19.269 99.231 15.5 1 1.5 0.5
9 0 1 0 0 0 1 0 0 0 1 -19.769 96.231 10 1.5 0.5 1
9 0 1 0 0 0 1 0 0 0 1 -20.269 -16.769 0.5 1 1.5 0.5
9 0 1 0 0 0 1 0 0 0 1 -19.769 -96.769 12 1.5 0.5 1
9 0 1 0 0 0 1 0 0 0 1 -21.269 104.231 6.5 1 0.5 1.5
9 0 1 0 0 0 1 0 0 0 1 -21.269 -103.769 -7.5 1 0.5 1.5
9 0 1 0 0 0 1 0 0 0 1 -21.269 -103.769 7.5 1 0.5 1.5
9 0 1 0 0 0 1 0 0 0 1 -24.269 104.231 -3.5 1 0.5 1.5
9 0 1 0 0 0 1 0 0 0 1 -24.269 -93.769 -1.5 1 0.5 1.5
9 0 1 0 0 0 1 0 0 0 1 -25.769 104.231 0 0.5 0.5 3
9 0 1 0 0 0 1 0 0 0 1 -25.769 103.231 -6 1.5 0.5 1
9 0 1 0 0 0 1 0 0 0 1 -25.769 103.231 6 1.5 0.5 1
9 0 1 0 0 0 1 0 0 0 1 -25.769 94.231 -8 1.5 0.5 1
9 0 1 0 0 0 1 0 0 0 1 -25.769 93.231 -1 1.5 0.5 1
9 0 1 0 0 0 1 0 0 0 1 -26.769 94.231 9 1.5 0.5 1
9 0 1 0 0 0 1 0 0 0 1 -26.769 -93.769 7 1.5 0.5 1
9 0 1 0 0 0 1 0 0 0 1 -29.769 103.231 0 0.5 0.5 3
9 0 1 0 0 0 1 0 0 0 1 -28.769 -93.769 -9 1.5 0.5 1
9 0 1 0 0 0 1 0 0 0 1 -30.269 100.231 -10.5 1 0.5 1.5
9 0 1 0 0 0 1 0 0 0 1 -30.269 100.231 10.5 1 0.5 1.5
9 0 1 0 0 0 1 0 0 0 1 -30.269 92.231 2.5 1 0.5 1.5
9 0 1 0 0 0 1 0 0 0 1 -29.769 -99.269 -12.5 1.5 1 0.5
9 0 1 0 0 0 1 0 0 0 1 -29.769 -99.269 12.5 1.5 1 0.5
9 0 1 0 0 0 1 0 0 0 1 -31.769 -92.769 8 1.5 0.5 1
9 0 1 0 0 0 1 0 0 0 1 -31.769 -93.769 12 1.5 0.5 1
9 0 1 0 0 0 1 0 0 0 1 -33.269 91.231 2.5 1 0.5 1.5
9 0 1 0 0 0 1 0 0 0 1 -33.269 6.231003 0.5 1 1.5 0.5
9 0 1 0 0 0 1 0 0 0 1 -34.269 99.231 9.5 1 0.5 1.5
9 0 1 0 0 0 1 0 0 0 1 -34.269 -90.769 -1.5 1 0.5 1.5
9 0 1 0 0 0 1 0 0 0 1 -33.769 -93.769 -14 1.5 0.5 1
9 0 1 0 0 0 1 0 0 0 1 -33.769 -93.769 14 1.5 0.5 1
9 0 1 0 0 0 1 0 0 0 1 -35.769 101.231 0 0.5 0.5 3
9 0 1 0 0 0 1 0 0 0 1 -34.769 93.231 14 1.5 0.5 1
9 0 1 0 0 0 1 0 0 0 1 -37.769 92.231 -15 1.5 0.5 1
9 0 1 0 0 0 1 0 0 0 1 -38.769 89.231 4 0.5 0.5 3
9 0 1 0 0 0 1 0 0 0 1 -37.769 73.731 0.5 1.5 1 0.5
9 0 1 0 0 0 1 0 0 0 1 -39.269 96.231 -11.5 1 0.5 1.5
9 0 1 0 0 0 1 0 0 0 1 -39.269 94.231 -14.5 1 0.5 1.5
9 0 1 0 0 0 1 0 0 0 1 -39.269 94.231 14.5 1 0.5 1.5
9 0 1 0 0 0 1 0 0 0 1 -38.769 90.231 -9 1.5 0.5 1
9 0 1 0 0 0 1 0 0 0 1 -39.269 -89.769 -8.5 1 0.5 1.5
9 0 1 0 0 0 1 0 0 0 1 -39.769 -99.769 0 0.5 0.5 3
9 0 1 0 0 0 1 0 0 0 1 -40.769 99.231 0 0.5 0.5 3
9 0 1 0 0 0 1 0 0 0 1 -41.269 89.231 -9.5 1 0.5 1.5
9 0 1 0 0 0 1 0 0 0 1 -40.769 -51.269 0.5 1.5 1 0.5
9 0 1 0 0 0 1 0 0 0 1 -41.269 -89.769 11.5 1 0.5 1.5
9 0 1 0 0 0 1 0 0 0 1 -40.769 -94.769 13 1.5 0.5 1
9 0 1 0 0 0 1 0 0 0 1 -41.769 -98.769 0 0.5 0.5 3
9 0 1 0 0 0 1 0 0 0 1 -42.269 97.231 -6.5 1 0.5 1.5
9 0 1 0 0 0 1 0 0 0 1 -42.269 96.231 -8.5 1 0.5 1.5
9 0 1 0 0 0 1 0 0 0 1 -44.269 88.231 10.5 1 0.5 1.5
9 0 1 0 0 0 1 0 0 0 1 -44.269 67.231 -4.5 1 0.5 1.5
9 0 1 0 0 0 1 0 0 0 1 -44.269 67.231 5.5 1 0.5 1.5
9 0 1 0 0 0 1 0 0 0 1 -44.769 -86.769 6 0.5 0.5 3
9 0 1 0 0 0 1 0 0 0 1 -44.269 -87.769 -8.5 1 0.5 1.5
9 0 1 0 0 0 1 0 0 0 1 -44.269 -95.769 7.5 1 0.5 1.5
9 0 1 0 0 0 1 0 0 0 1 -45.769 97.231 0 0.5 0.5 3
9 0 1 0 0 0 1 0 0 0 1 -44.769 95.231 -9 1.5 0.5 1
9 0 1 0 0 0 1 0 0 0 1 -46.269 87.231 -10.5 1 0.5 1.5
9 0 1 0 0 0 1 0 0 0 1 -45.769 46.731 0.5 1.5 1 0.5
9 0 1 0 0 0 1 0 0 0 1 -45.769 -46.269 0.5 1.5 1 0.5
9 0 1 0 0 0 1 0 0 0 1 -45.769 -86.769 -6 1.5 0.5 1
9 0 1 0 0 0 1 0 0 0 1 -46.269 -87.769 12.5 1 0.5 1.5
9 0 1 0 0 0 1 0 0 0 1 -47.769 96.231 0 0.5 0.5 3
9 0 1 0 0 0 1 0 0 0 1 -47.269 93.231 -10.5 1 0.5 1.5
9 0 1 0 0 0 1 0 0 0 1 -48.769 -95.769 0 0.5 0.5 3
9 0 1 0 0 0 1 0 0 0 1 -49.269 -83.769 2.5 1 0.5 1.5
9 0 1 0 0 0 1 0 0 0 1 -49.769 90.231 -13 1.5 0.5 1
9 0 1 0 0 0 1 0 0 0 1 -48.269 -91.769 10.5 3 0.5 0.5
9 0 1 0 0 0 1 0 0 0 1 -51.269 85.231 13.5 1 0.5 1.5
9 0 1 0 0 0 1 0 0 0 1 -51.269 83.231 -6.5 1 0.5 1.5
9 0 1 0 0 0 1 0 0 0 1 -51.269 -84.769 11.5 1 0.5 1.5
9 0 1 0 0 0 1 0 0 0 1 -51.269 -91.769 -8.5 1 0.5 1.5
9 0 1 0 0 0 1 0 0 0 1 -52.769 83.731 -10.5 0.5 1 1.5
9 0 1 0 0 0 1 0 0 0 1 -52.769 -88.269 12.5 0.5 1 1.5
9 0 1 0 0 0 1 0 0 0 1 -53.269 66.231 0.5 1 1.5 0.5
9 0 1 0 0 0 1 0 0 0 1 -53.269 46.231 0.5 1 1.5 0.5
9 0 1 0 0 0 1 0 0 0 1 -53.269 6.231003 0.5 1 1.5 0.5
9 0 1 0 0 0 1 0 0 0 1 -53.269 -53.769 0.5 1 1.5 0.5
9 0 1 0 0 0 1 0 0 0 1 -51.269 -86.769 15.5 3 0.5 0.5
9 0 1 0 0 0 1 0 0 0 1 -53.769 -90.769 6 0.5 0.5 3
9 0 1 0 0 0 1 0 0 0 1 -53.769 -92.769 0 0.5 0.5 3
9 0 1 0 0 0 1 0 0 0 1 -54.769 92.231 0 0.5 0.5 3
9 0 1 0 0 0 1 0 0 0 1 -53.769 87.231 -14 1.5 0.5 1
9 0 1 0 0 0 1 0 0 0 1 -53.769 -88.769 -12 1.5 0.5 1
9 0 1 0 0 0 1 0 0 0 1 -55.269 82.231 -10.5 1 0.5 1.5
9 0 1 0 0 0 1 0 0 0 1 -55.269 81.231 -8.5 1 0.5 1.5
9 0 1 0 0 0 1 0 0 0 1 -55.769 -81.269 -9.5 0.5 1 1.5
9 0 1 0 0 0 1 0 0 0 1 -55.269 -82.769 -12.5 1 0.5 1.5
9 0 1 0 0 0 1 0 0 0 1 -55.269 -82.769 12.5 1 0.5 1.5
9 0 1 0 0 0 1 0 0 0 1 -54.769 -86.769 -14 1.5 0.5 1
9 0 1 0 0 0 1 0 0 0 1 -56.269 67.231 5.5 1 0.5 1.5
9 0 1 0 0 0 1 0 0 0 1 -57.269 87.231 -10.5 1 0.5 1.5
9 0 1 0 0 0 1 0 0 0 1 -56.769 83.731 15.5 1.5 1 0.5
9 0 1 0 0 0 1 0 0 0 1 -57.269 -78.769 2.5 1 0.5 1.5
9 0 1 0 0 0 1 0 0 0 1 -58.769 -89.769 0 0.5 0.5 3
9 0 1 0 0 0 1 0 0 0 1 -60.269 78.231 10.5 1 0.5 1.5
9 0 1 0 0 0 1 0 0 0 1 -60.269 -80.769 -15.5 1 1.5 0.5
9 0 1 0 0 0 1 0 0 0 1 -61.269 77.231 -9.5 1 0.5 1.5
9 0 1 0 0 0 1 0 0 0 1 -61.769 83.231 -12 1.5 0.5 1
9 0 1 0 0 0 1 0 0 0 1 -62.269 79.231 15.5 1 1.5 0.5
9 0 1 0 0 0 1 0 0 0 1 -62.269 -80.769 -14.5 1 0.5 1.5
9 0 1 0 0 0 1 0 0 0 1 -63.769 86.231 0 0.5 0.5 3
9 0 1 0 0 0 1 0 0 0 1 -63.269 84.231 -7.5 1 0.5 1.5
9 0 1 0 0 0 1 0 0 0 1 -62.769 76.731 8.5 1.5 1 0.5
9 0 1 0 0 0 1 0 0 0 1 -63.269 -76.769 -13.5 1 0.5 1.5
9 0 1 0 0 0 1 0 0 0 1 -63.769 -78.269 15.5 1.5 1 0.5
9 0 1 0 0 0 1 0 0 0 1 -65.269 78.231 -14.5 1 0.5 1.5
9 0 1 0 0 0 1 0 0 0 1 -65.269 75.231 13.5 1 0.5 1.5
9 0 1 0 0 0 1 0 0 0 1 -65.269 -73.769 -8.5 1 0.5 1.5
9 0 1 0 0 0 1 0 0 0 1 -65.269 -74.769 11.5 1 0.5 1.5
9 0 1 0 0 0 1 0 0 0 1 -65.269 -81.769 -9.5 1 0.5 1.5
9 0 1 0 0 0 1 0 0 0 1 -66.269 73.231 -9.5 1 0.5 1.5
9 0 1 0 0 0 1 0 0 0 1 -66.269 73.231 9.5 1 0.5 1.5
9 0 1 0 0 0 1 0 0 0 1 -66.269 -82.769 5.5 1 0.5 1.5
9 0 1 0 0 0 1 0 0 0 1 -67.769 69.231 -1 0.5 0.5 3
9 0 1 0 0 0 1 0 0 0 1 -67.269 -73.769 -14.5 1 0.5 1.5
9 0 1 0 0 0 1 0 0 0 1 -67.269 -76.769 14.5 1 0.5 1.5
9 0 1 0 0 0 1 0 0 0 1 -67.269 -81.769 5.5 1 0.5 1.5
9 0 1 0 0 0 1 0 0 0 1 -68.269 79.231 9.5 1 0.5 1.5
9 0 1 0 0 0 1 0 0 0 1 -68.769 75.731 -13.5 0.5 1 1.5
9 0 1 0 0 0 1 0 0 0 1 -68.769 -70.269 8.5 0.5 1 1.5
9 0 1 0 0 0 1 0 0 0 1 -68.769 -75.269 -14.5 0.5 1 1.5
9 0 1 0 0 0 1 0 0 0 1 -69.269 73.231 -15.5 1 1.5 0.5
9 0 1 0 0 0 1 0 0 0 1 -70.769 68.731 9.5 0.5 1 1.5
9 0 1 0 0 0 1 0 0 0 1 -70.269 -78.769 -7.5 1 0.5 1.5
9 0 1 0 0 0 1 0 0 0 1 -70.769 -80.769 0 0.5 0.5 3
9 0 1 0 0 0 1 0 0 0 1 -71.769 -69.769 11 0.5 1.5 1
9 0 1 0 0 0 1 0 0 0 1 -71.769 -72.269 -14.5 0.5 1 1.5
9 0 1 0 0 0 1 0 0 0 1 -70.769 -75.769 -12 1.5 0.5 1
9 0 1 0 0 0 1 0 0 0 1 -72.769 64.231 0 0.5 0.5 3
9 0 1 0 0 0 1 0 0 0 1 -72.769 -67.769 -13 0.5 0.5 3
9 0 1 0 0 0 1 0 0 0 1 -73.269 6.231003 0.5 1 1.5 0.5
9 0 1 0 0 0 1 0 0 0 1 -73.769 -77.769 0 0.5 0.5 3
9 0 1 0 0 0 1 0 0 0 1 -74.769 62.231 -3 0.5 0.5 3
9 0 1 0 0 0 1 0 0 0 1 -74.769 -64.269 9.5 0.5 1 1.5
9 0 1 0 0 0 1 0 0 0 1 -74.769 -76.769 0 0.5 0.5 3
9 0 1 0 0 0 1 0 0 0 1 -75.769 73.731 6.5 0.5 1 1.5
9 0 1 0 0 0 1 0 0 0 1 -75.769 -75.769 0 0.5 0.5 3
9 0 1 0 0 0 1 0 0 0 1 -76.769 -59.769 -3 0.5 0.5 3
9 0 1 0 0 0 1 0 0 0 1 -76.769 -59.769 4 0.5 0.5 3
9 0 1 0 0 0 1 0 0 0 1 -76.769 -61.269 -8.5 0.5 1 1.5
9 0 1 0 0 0 1 0 0 0 1 -76.269 -62.769 10.5 1 0.5 1.5
9 0 1 0 0 0 1 0 0 0 1 -76.769 -72.269 6.5 0.5 1 1.5
9 0 1 0 0 0 1 0 0 0 1 -77.769 61.731 12.5 0.5 1 1.5
9 0 1 0 0 0 1 0 0 0 1 -77.769 -60.269 -8.5 0.5 1 1.5
9 0 1 0 0 0 1 0 0 0 1 -77.269 -70.769 -9.5 1 0.5 1.5
9 0 1 0 0 0 1 0 0 0 1 -77.769 -73.769 0 0.5 0.5 3
9 0 1 0 0 0 1 0 0 0 1 -78.769 70.731 6.5 0.5 1 1.5
9 0 1 0 0 0 1 0 0 0 1 -78.769 -59.269 9.5 0.5 1 1.5
9 0 1 0 0 0 1 0 0 0 1 -78.269 -67.769 11.5 1 1.5 0.5
9 0 1 0 0 0 1 0 0 0 1 -78.769 -72.769 0 0.5 0.5 3
9 0 1 0 0 0 1 0 0 0 1 -79.769 64.231 14 0.5 1.5 1
9 0 1 0 0 0 1 0 0 0 1 -79.269 60.231 -13.5 1 0.5 1.5
9 0 1 0 0 0 1 0 0 0 1 -79.769 58.731 -11.5 0.5 1 1.5
9 0 1 0 0 0 1 0 0 0 1 -79.269 -60.769 14.5 1 0.5 1.5
9 0 1 0 0 0 1 0 0 0 1 -80.769 55.731 -7.5 0.5 1 1.5
9 0 1 0 0 0 1 0 0 0 1 -80.769 -70.769 0 0.5 0.5 3
9 0 1 0 0 0 1 0 0 0 1 -81.769 -55.269 9.5 0.5 1 1.5
9 0 1 0 0 0 1 0 0 0 1 -80.769 -59.269 12.5 1.5 1 0.5
9 0 1 0 0 0 1 0 0 0 1 -82.269 56.231 12.5 1 0.5 1.5
9 0 1 0 0 0 1 0 0 0 1 -82.769 52.731 -8.5 0.5 1 1.5
9 0 1 0 0 0 1 0 0 0 1 -83.769 61.231 -12 0.5 1.5 1
9 0 1 0 0 0 1 0 0 0 1 -83.769 61.231 12 0.5 1.5 1
9 0 1 0 0 0 1 0 0 0 1 -83.769 -53.269 -12.5 0.5 1 1.5
9 0 1 0 0 0 1 0 0 0 1 -84.769 57.231 14 0.5 1.5 1
9 0 1 0 0 0 1 0 0 0 1 -84.269 56.231 15.5 1 1.5 0.5
9 0 1 0 0 0 1 0 0 0 1 -84.769 -47.769 4 0.5 0.5 3
9 0 1 0 0 0 1 0 0 0 1 -84.769 -61.269 9.5 0.5 1 1.5
9 0 1 0 0 0 1 0 0 0 1 -84.769 -65.769 0 0.5 0.5 3
9 0 1 0 0 0 1 0 0 0 1 -85.769 59.731 9.5 0.5 1 1.5
9 0 1 0 0 0 1 0 0 0 1 -85.769 49.731 -12.5 0.5 1 1.5
9 0 1 0 0 0 1 0 0 0 1 -85.769 45.231 0 0.5 0.5 3
9 0 1 0 0 0 1 0 0 0 1 -86.769 -51.269 15.5 0.5 3 0.5
9 0 1 0 0 0 1 0 0 0 1 -87.769 52.231 -14 0.5 1.5 1
9 0 1 0 0 0 1 0 0 0 1 -87.769 52.231 14 0.5 1.5 1
9 0 1 0 0 0 1 0 0 0 1 -86.769 -50.269 -7.5 1.5 1 0.5
9 0 1 0 0 0 1 0 0 0 1 -87.769 -52.769 14 0.5 1.5 1
9 0 1 0 0 0 1 0 0 0 1 -87.769 -61.769 0 0.5 0.5 3
9 0 1 0 0 0 1 0 0 0 1 -88.769 60.231 0 0.5 0.5 3
9 0 1 0 0 0 1 0 0 0 1 -88.769 56.731 -8.5 0.5 1 1.5
9 0 1 0 0 0 1 0 0 0 1 -88.769 56.731 8.5 0.5 1 1.5
9 0 1 0 0 0 1 0 0 0 1 -88.769 -39.269 2.5 0.5 1 1.5
9 0 1 0 0 0 1 0 0 0 1 -88.769 -43.769 -12 0.5 1.5 1
9 0 1 0 0 0 1 0 0 0 1 -88.769 -45.769 14 0.5 1.5 1
9 0 1 0 0 0 1 0 0 0 1 -88.769 -50.269 -14.5 0.5 1 1.5
9 0 1 0 0 0 1 0 0 0 1 -88.769 -56.269 -8.5 0.5 1 1.5
9 0 1 0 0 0 1 0 0 0 1 -88.769 -56.269 8.5 0.5 1 1.5
9 0 1 0 0 0 1 0 0 0 1 -89.769 46.731 -9.5 0.5 3 0.5
9 0 1 0 0 0 1 0 0 0 1 -89.769 46.731 9.5 0.5 3 0.5
9 0 1 0 0 0 1 0 0 0 1 -89.769 40.731 -10.5 0.5 1 1.5
9 0 1 0 0 0 1 0 0 0 1 -89.769 40.731 10.5 0.5 1 1.5
9 0 1 0 0 0 1 0 0 0 1 -89.769 -36.769 -3 0.5 0.5 3
9 0 1 0 0 0 1 0 0 0 1 -89.769 -40.269 -9.5 0.5 1 1.5
9 0 1 0 0 0 1 0 0 0 1 -90.769 57.231 0 0.5 0.5 3
9 0 1 0 0 0 1 0 0 0 1 -90.769 50.731 -11.5 0.5 1 1.5
9 0 1 0 0 0 1 0 0 0 1 -90.769 50.731 11.5 0.5 1 1.5
9 0 1 0 0 0 1 0 0 0 1 -90.769 47.231 -14 0.5 1.5 1
9 0 1 0 0 0 1 0 0 0 1 -90.769 47.231 14 0.5 1.5 1
9 0 1 0 0 0 1 0 0 0 1 -90.769 37.731 -9.5 0.5 1 1.5
9 0 1 0 0 0 1 0 0 0 1 -90.769 -34.269 -1.5 0.5 1 1.5
9 0 1 0 0 0 1 0 0 0 1 -91.769 50.731 -9.5 0.5 1 1.5
9 0 1 0 0 0 1 0 0 0 1 -91.769 50.731 9.5 0.5 1 1.5
9 0 1 0 0 0 1 0 0 0 1 -91.769 35.731 10.5 0.5 1 1.5
9 0 1 0 0 0 1 0 0 0 1 -91.769 31.731 2.5 0.5 1 1.5
9 0 1 0 0 0 1 0 0 0 1 -91.769 -45.769 14 0.5 1.5 1
9 0 1 0 0 0 1 0 0 0 1 -91.769 -49.269 10.5 0.5 1 1.5
9 0 1 0 0 0 1 0 0 0 1 -92.769 51.231 -6 0.5 1.5 1
9 0 1 0 0 0 1 0 0 0 1 -92.769 51.231 6 0.5 1.5 1
9 0 1 0 0 0 1 0 0 0 1 -92.769 -28.269 2.5 0.5 1 1.5
9 0 1 0 0 0 1 0 0 0 1 -92.769 -32.269 9.5 0.5 1 1.5
9 0 1 0 0 0 1 0 0 0 1 -92.769 -36.269 14.5 0.5 1 1.5
9 0 1 0 0 0 1 0 0 0 1 -93.769 46.231 -10 0.5 1.5 1
9 0 1 0 0 0 1 0 0 0 1 -93.769 46.231 10 0.5 1.5 1
9 0 1 0 0 0 1 0 0 0 1 -93.769 34.231 15 0.5 1.5 1
9 0 1 0 0 0 1 0 0 0 1 -93.769 26.731 6.5 0.5 1 1.5
9 0 1 0 0 0 1 0 0 0 1 -93.769 22.231 0 0.5 1.5 1
9 0 1 0 0 0 1 0 0 0 1 -93.769 -26.769 -7 0.5 1.5 1
9 0 1 0 0 0 1 0 0 0 1 -93.769 -41.769 -14 0.5 1.5 1
9 0 1 0 0 0 1 0 0 0 1 -93.769 -41.769 14 0.5 1.5 1
9 0 1 0 0 0 1 0 0 0 1 -93.769 -47.269 -9.5 0.5 1 1.5
9 0 1 0 0 0 1 0 0 0 1 -94.769 50.231 0 0.5 0.5 3
9 0 1 0 0 0 1 0 0 0 1 -94.769 -19.769 -1 0.5 1.5 1
9 0 1 0 0 0 1 0 0 0 1 -94.769 -37.769 -15 0.5 1.5 1
9 0 1 0 0 0 1 0 0 0 1 -94.769 -42.769 -12 0.5 1.5 1
9 0 1 0 0 0 1 0 0 0 1 -94.769 -45.269 -9.5 0.5 1 1.5
9 0 1 0 0 0 1 0 0 0 1 -94.769 -45.269 9.5 0.5 1 1.5
9 0 1 0 0 0 1 0 0 0 1 -95.269 38.231 13.5 1 1.5 0.5
9 0 1 0 0 0 1 0 0 0 1 -95.769 35.731 -14.5 0.5 1 1.5
9 0 1 0 0 0 1 0 0 0 1 -95.769 20.231 -9 0.5 1.5 1
9 0 1 0 0 0 1 0 0 0 1 -95.769 -18.769 8 0.5 1.5 1
9 0 1 0 0 0 1 0 0 0 1 -95.769 -24.769 12 0.5 1.5 1
9 0 1 0 0 0 1 0 0 0 1 -96.769 15.231 -10 0.5 1.5 1
9 0 1 0 0 0 1 0 0 0 1 -96.769 15.231 10 0.5 1.5 1
9 0 1 0 0 0 1 0 0 0 1 -96.769 -6.268997 2.5 0.5 1 1.5
9 0 1 0 0 0 1 0 0 0 1 -96.769 -9.268997 -4.5 0.5 1 1.5
9 0 1 0 0 0 1 0 0 0 1 -96.769 -9.268997 6.5 0.5 1 1.5
9 0 1 0 0 0 1 0 0 0 1 -96.769 -38.269 -11.5 0.5 1 1.5
9 0 1 0 0 0 1 0 0 0 1 -95.769 -39.769 10 1.5 0.5 1
9 0 1 0 0 0 1 0 0 0 1 -96.769 -46.769 0 0.5 0.5 3
9 0 1 0 0 0 1 0 0 0 1 -97.769 40.231 -7 0.5 1.5 1
9 0 1 0 0 0 1 0 0 0 1 -97.769 40.231 7 0.5 1.5 1
9 0 1 0 0 0 1 0 0 0 1 -97.769 33.231 -13 0.5 1.5 1
9 0 1 0 0 0 1 0 0 0 1 -97.769 33.231 13 0.5 1.5 1
9 0 1 0 0 0 1 0 0 0 1 -97.769 12.231 -12 0.5 1.5 1
9 0 1 0 0 0 1 0 0 0 1 -97.769 12.231 12 0.5 1.5 1
9 0 1 0 0 0 1 0 0 0 1 -97.769 -11.769 -12 0.5 1.5 1
9 0 1 0 0 0 1 0 0 0 1 -97.769 -11.769 12 0.5 1.5 1
9 0 1 0 0 0 1 0 0 0 1 -97.769 -29.769 -15 0.5 1.5 1
9 0 1 0 0 0 1 0 0 0 1 -97.769 -37.269 9.5 0.5 1 1.5
9 0 1 0 0 0 1 0 0 0 1 -98.769 35.231 -10 0.5 1.5 1
9 0 1 0 0 0 1 0 0 0 1 -98.769 35.231 10 0.5 1.5 1
9 0 1 0 0 0 1 0 0 0 1 -99.769 28.731 -12.5 0.5 3 0.5
9 0 1 0 0 0 1 0 0 0 1 -99.769 28.731 12.5 0.5 3 0.5
9 0 1 0 0 0 1 0 0 0 1 -100.769 29.231 -10 0.5 1.5 1
9 0 1 0 0 0 1 0 0 0 1 -100.769 29.231 10 0.5 1.5 1
9 0 1 0 0 0 1 0 0 0 1 -100.769 21.731 -13.5 0.5 3 0.5
9 0 1 0 0 0 1 0 0 0 1 -100.769 21.731 13.5 0.5 3 0.5
9 0 1 0 0 0 1 0 0 0 1 -100.269 -15.769 -15.5 1 1.5 0.5
9 0 1 0 0 0 1 0 0 0 1 -100.769 -25.769 -12 0.5 1.5 1
9 0 1 0 0 0 1 0 0 0 1 -100.769 -25.769 12 0.5 1.5 1
9 0 1 0 0 0 1 0 0 0 1 -100.769 -32.269 -7.5 0.5 1 1.5
9 0 1 0 0 0 1 0 0 0 1 -100.769 -32.269 7.5 0.5 1 1.5
9 0 1 0 0 0 1 0 0 0 1 -100.769 -36.769 0 0.5 0.5 3
9 0 1 0 0 0 1 0 0 0 1 -101.769 31.231 -6 0.5 1.5 1
9 0 1 0 0 0 1 0 0 0 1 -101.769 31.231 6 0.5 1.5 1
9 0 1 0 0 0 1 0 0 0 1 -101.769 22.731 -10.5 0.5 3 0.5
9 0 1 0 0 0 1 0 0 0 1 -101.769 -18.269 -12.5 0.5 1 1.5
9 0 1 0 0 0 1 0 0 0 1 -101.769 -18.269 12.5 0.5 1 1.5
9 0 1 0 0 0 1 0 0 0 1 -103.769 25.231 -5 0.5 1.5 1
9 0 1 0 0 0 1 0 0 0 1 -104.769 -18.769 -7 0.5 1.5 1
9 0 1 0 0 0 1 0 0 0 1 -104.769 -18.769 7 0.5 1.5 1
9 0 1 0 0 0 1 0 0 0 1 106.231 11.231 5.5 0.5 2.5 0.5
9 0 1 0 0 0 1 0 0 0 1 105.231 -10.769 -8.5 0.5 2.5 0.5
9 0 1 0 0 0 1 0 0 0 1 104.231 -15.769 9.5 0.5 2.5 0.5
9 0 1 0 0 0 1 0 0 0 1 103.231 9.231003 -13.5 0.5 2.5 0.5
9 0 1 0 0 0 1 0 0 0 1 103.231 9.231003 13.5 0.5 2.5 0.5
9 0 1 0 0 0 1 0 0 0 1 103.231 -8.768997 -13.5 0.5 2.5 0.5
9 0 1 0 0 0 1 0 0 0 1 103.231 -8.768997 13.5 0.5 2.5 0.5
9 0 1 0 0 0 1 0 0 0 1 102.231 -19.769 12.5 0.5 2.5 0.5
9 0 1 0 0 0 1 0 0 0 1 100.231 -23.769 13.5 0.5 2.5 0.5
9 0 1 0 0 0 1 0 0 0 1 99.231 23.231 15.5 0.5 2.5 0.5
9 0 1 0 0 0 1 0 0 0 1 94.231 -32.769 14.5 0.5 2.5 0.5
9 0 1 0 0 0 1 0 0 0 1 91.231 -41.769 -15.5 0.5 2.5 0.5
9 0 1 0 0 0 1 0 0 0 1 89.231 55.231 -3.5 0.5 2.5 0.5
9 0 1 0 0 0 1 0 0 0 1 89.231 37.231 0.5 0.5 0.5 2.5
9 0 1 0 0 0 1 0 0 0 1 88.231 -40.769 3.5 0.5 0.5 2.5
9 0 1 0 0 0 1 0 0 0 1 87.231 -4.768997 0.5 0.5 2.5 0.5
9 0 1 0 0 0 1 0 0 0 1 84.231 -6.768997 2.5 0.5 0.5 2.5
9 0 1 0 0 0 1 0 0 0 1 83.231 50.231 3.5 0.5 0.5 2.5
9 0 1 0 0 0 1 0 0 0 1 83.231 -49.769 -2.5 0.5 0.5 2.5
9 0 1 0 0 0 1 0 0 0 1 81.231 19.231 0.5 0.5 2.5 0.5
9 0 1 0 0 0 1 0 0 0 1 78.231 62.231 10.5 2.5 0.5 0.5
9 0 1 0 0 0 1 0 0 0 1 76.231 -59.769 0.5 0.5 0.5 2.5
9 0 1 0 0 0 1 0 0 0 1 74.231 66.231 -12.5 0.5 0.5 2.5
9 0 1 0 0 0 1 0 0 0 1 74.231 66.231 12.5 0.5 0.5 2.5
9 0 1 0 0 0 1 0 0 0 1 73.231 -66.769 11.5 0.5 0.5 2.5
9 0 1 0 0 0 1 0 0 0 1 72.231 66.231 -7.5 0.5 0.5 2.5
9 0 1 0 0 0 1 0 0 0 1 72.231 -64.769 0.5 0.5 0.5 2.5
9 0 1 0 0 0 1 0 0 0 1 71.231 -65.769 -0.5 0.5 0.5 2.5
9 0 1 0 0 0 1 0 0 0 1 71.231 -68.769 11.5 0.5 0.5 2.5
9 0 1 0 0 0 1 0 0 0 1 70.231 -66.769 -0.5 0.5 0.5 2.5
9 0 1 0 0 0 1 0 0 0 1 69.231 -70.769 12.5 0.5 0.5 2.5
9 0 1 0 0 0 1 0 0 0 1 67.231 71.231 -7.5 0.5 0.5 2.5
9 0 1 0 0 0 1 0 0 0 1 67.231 55.231 0.5 0.5 2.5 0.5
9 0 1 0 0 0 1 0 0 0 1 67.231 -4.768997 0.5 0.5 2.5 0.5
9 0 1 0 0 0 1 0 0 0 1 65.231 -71.769 0.5 0.5 0.5 2.5
9 0 1 0 0 0 1 0 0 0 1 64.231 83.231 -8.5 0.5 0.5 2.5
9 0 1 0 0 0 1 0 0 0 1 64.231 73.231 -2.5 0.5 0.5 2.5
9 0 1 0 0 0 1 0 0 0 1 64.231 -6.768997 2.5 0.5 0.5 2.5
9 0 1 0 0 0 1 0 0 0 1 65.231 47.231 0.5 2.5 0.5 0.5
9 0 1 0 0 0 1 0 0 0 1 62.231 74.231 0.5 0.5 0.5 2.5
9 0 1 0 0 0 1 0 0 0 1 61.231 -77.769 11.5 0.5 0.5 2.5
9 0 1 0 0 0 1 0 0 0 1 59.231 77.231 3.5 0.5 0.5 2.5
9 0 1 0 0 0 1 0 0 0 1 58.231 -77.769 -2.5 0.5 0.5 2.5
9 0 1 0 0 0 1 0 0 0 1 56.231 79.231 -2.5 0.5 0.5 2.5
9 0 1 0 0 0 1 0 0 0 1 54.231 -80.769 -2.5 0.5 0.5 2.5
9 0 1 0 0 0 1 0 0 0 1 54.231 -82.769 -11.5 0.5 0.5 2.5
9 0 1 0 0 0 1 0 0 0 1 55.231 67.231 0.5 2.5 0.5 0.5
9 0 1 0 0 0 1 0 0 0 1 55.231 -52.769 0.5 2.5 0.5 0.5
9 0 1 0 0 0 1 0 0 0 1 52.231 92.231 -5.5 0.5 0.5 2.5
9 0 1 0 0 0 1 0 0 0 1 52.231 -90.769 9.5 0.5 0.5 2.5
9 0 1 0 0 0 1 0 0 0 1 48.231 84.231 -2.5 0.5 0.5 2.5
9 0 1 0 0 0 1 0 0 0 1 47.231 65.231 0.5 0.5 2.5 0.5
9 0 1 0 0 0 1 0 0 0 1 47.231 55.231 0.5 0.5 2.5 0.5
9 0 1 0 0 0 1 0 0 0 1 47.231 -4.768997 0.5 0.5 2.5 0.5
9 0 1 0 0 0 1 0 0 0 1 47.231 -64.769 0.5 0.5 2.5 0.5
9 0 1 0 0 0 1 0 0 0 1 47.231 -84.769 -2.5 0.5 0.5 2.5
9 0 1 0 0 0 1 0 0 0 1 44.231 -6.768997 2.5 0.5 0.5 2.5
9 0 1 0 0 0 1 0 0 0 1 44.231 -86.769 3.5 0.5 0.5 2.5
9 0 1 0 0 0 1 0 0 0 1 39.231 -88.769 -2.5 0.5 0.5 2.5
9 0 1 0 0 0 1 0 0 0 1 37.231 89.231 0.5 0.5 0.5 2.5
9 0 1 0 0 0 1 0 0 0 1 37.231 -89.769 3.5 0.5 0.5 2.5
9 0 1 0 0 0 1 0 0 0 1 30.231 92.231 -2.5 0.5 0.5 2.5
9 0 1 0 0 0 1 0 0 0 1 32.231 -6.768997 0.5 2.5 0.5 0.5
9 0 1 0 0 0 1 0 0 0 1 28.231 99.231 -13.5 2.5 0.5 0.5
9 0 1 0 0 0 1 0 0 0 1 21.231 -98.769 10.5 0.5 0.5 2.5
9 0 1 0 0 0 1 0 0 0 1 19.231 81.231 0.5 2.5 0.5 0.5
9 0 1 0 0 0 1 0 0 0 1 11.231 105.231 -8.5 2.5 0.5 0.5
9 0 1 0 0 0 1 0 0 0 1 10.231 98.231 13.5 2.5 0.5 0.5
9 0 1 0 0 0 1 0 0 0 1 7.231003 32.231 0.5 0.5 2.5 0.5
9 0 1 0 0 0 1 0 0 0 1 6.231003 -98.769 -13.5 2.5 0.5 0.5
9 0 1 0 0 0 1 0 0 0 1 3.231003 -97.769 -10.5 0.5 0.5 2.5
9 0 1 0 0 0 1 0 0 0 1 3.231003 -97.769 10.5 0.5 0.5 2.5
9 0 1 0 0 0 1 0 0 0 1 3.231003 106.231 -8.5 2.5 0.5 0.5
9 0 1 0 0 0 1 0 0 0 1 3.231003 106.231 8.5 2.5 0.5 0.5
9 0 1 0 0 0 1 0 0 0 1 -4.768997 87.231 0.5 2.5 0.5 0.5
9 0 1 0 0 0 1 0 0 0 1 -6.768997 84.231 -1.5 0.5 0.5 2.5
9 0 1 0 0 0 1 0 0 0 1 -4.768997 67.231 0.5 2.5 0.5 0.5
9 0 1 0 0 0 1 0 0 0 1 -6.768997 64.231 -1.5 0.5 0.5 2.5
9 0 1 0 0 0 1 0 0 0 1 -4.768997 47.231 0.5 2.5 0.5 0.5
9 0 1 0 0 0 1 0 0 0 1 -6.768997 44.231 -1.5 0.5 0.5 2.5
9 0 1 0 0 0 1 0 0 0 1 -4.768997 -32.769 0.5 2.5 0.5 0.5
9 0 1 0 0 0 1 0 0 0 1 -6.768997 -35.769 -1.5 0.5 0.5 2.5
9 0 1 0 0 0 1 0 0 0 1 -4.768997 -52.769 0.5 2.5 0.5 0.5
9 0 1 0 0 0 1 0 0 0 1 -6.768997 -55.769 -1.5 0.5 0.5 2.5
9 0 1 0 0 0 1 0 0 0 1 -4.768997 -72.769 0.5 2.5 0.5 0.5
9 0 1 0 0 0 1 0 0 0 1 -6.768997 -75.769 -1.5 0.5 0.5 2.5
9 0 1 0 0 0 1 0 0 0 1 -5.768997 -98.769 -13.5 2.5 0.5 0.5
9 0 1 0 0 0 1 0 0 0 1 -20.769 101.231 13.5 2.5 0.5 0.5
9 0 1 0 0 0 1 0 0 0 1 -20.769 -80.769 0.5 2.5 0.5 0.5
9 0 1 0 0 0 1 0 0 0 1 -26.769 93.231 3.5 0.5 0.5 2.5
9 0 1 0 0 0 1 0 0 0 1 -27.769 -77.769 0.5 2.5 0.5 0.5
9 0 1 0 0 0 1 0 0 0 1 -30.769 -94.769 0.5 0.5 2.5 0.5
9 0 1 0 0 0 1 0 0 0 1 -32.769 -4.768997 0.5 0.5 2.5 0.5
9 0 1 0 0 0 1 0 0 0 1 -33.769 95.231 10.5 0.5 0.5 2.5
9 0 1 0 0 0 1 0 0 0 1 -34.769 -90.769 3.5 0.5 0.5 2.5
9 0 1 0 0 0 1 0 0 0 1 -35.769 90.231 -2.5 0.5 0.5 2.5
9 0 1 0 0 0 1 0 0 0 1 -35.769 -6.768997 2.5 0.5 0.5 2.5
9 0 1 0 0 0 1 0 0 0 1 -35.769 94.231 -7.5 2.5 0.5 0.5
9 0 1 0 0 0 1 0 0 0 1 -44.769 87.231 -7.5 0.5 0.5 2.5
9 0 1 0 0 0 1 0 0 0 1 -44.769 86.231 -2.5 0.5 0.5 2.5
9 0 1 0 0 0 1 0 0 0 1 -47.769 86.231 10.5 0.5 0.5 2.5
9 0 1 0 0 0 1 0 0 0 1 -49.769 83.231 -2.5 0.5 0.5 2.5
9 0 1 0 0 0 1 0 0 0 1 -49.769 89.231 -13.5 2.5 0.5 0.5
9 0 1 0 0 0 1 0 0 0 1 -52.769 55.231 0.5 0.5 2.5 0.5
9 0 1 0 0 0 1 0 0 0 1 -52.769 -4.768997 0.5 0.5 2.5 0.5
9 0 1 0 0 0 1 0 0 0 1 -52.769 -44.769 0.5 0.5 2.5 0.5
9 0 1 0 0 0 1 0 0 0 1 -52.769 -64.769 0.5 0.5 2.5 0.5
9 0 1 0 0 0 1 0 0 0 1 -52.769 -81.769 -2.5 0.5 0.5 2.5
9 0 1 0 0 0 1 0 0 0 1 -55.769 -6.768997 2.5 0.5 0.5 2.5
9 0 1 0 0 0 1 0 0 0 1 -55.769 -79.769 3.5 0.5 0.5 2.5
9 0 1 0 0 0 1 0 0 0 1 -57.769 80.231 -11.5 0.5 0.5 2.5
9 0 1 0 0 0 1 0 0 0 1 -57.769 80.231 11.5 0.5 0.5 2.5
9 0 1 0 0 0 1 0 0 0 1 -57.769 78.231 3.5 0.5 0.5 2.5
9 0 1 0 0 0 1 0 0 0 1 -59.769 78.231 -9.5 0.5 0.5 2.5
9 0 1 0 0 0 1 0 0 0 1 -61.769 -75.769 6.5 0.5 0.5 2.5
9 0 1 0 0 0 1 0 0 0 1 -61.769 -77.769 13.5 0.5 0.5 2.5
9 0 1 0 0 0 1 0 0 0 1 -64.769 72.231 -0.5 0.5 0.5 2.5
9 0 1 0 0 0 1 0 0 0 1 -64.769 -72.769 -2.5 0.5 0.5 2.5
9 0 1 0 0 0 1 0 0 0 1 -64.769 47.231 0.5 2.5 0.5 0.5
9 0 1 0 0 0 1 0 0 0 1 -64.769 -52.769 0.5 2.5 0.5 0.5
9 0 1 0 0 0 1 0 0 0 1 -70.769 69.231 -11.5 0.5 0.5 2.5
9 0 1 0 0 0 1 0 0 0 1 -71.769 65.231 -0.5 0.5 0.5 2.5
9 0 1 0 0 0 1 0 0 0 1 -72.769 -4.768997 0.5 0.5 2.5 0.5
9 0 1 0 0 0 1 0 0 0 1 -73.769 64.231 6.5 0.5 0.5 2.5
9 0 1 0 0 0 1 0 0 0 1 -75.769 -6.768997 2.5 0.5 0.5 2.5
9 0 1 0 0 0 1 0 0 0 1 -76.769 -60.769 7.5 0.5 0.5 2.5
9 0 1 0 0 0 1 0 0 0 1 -77.769 58.231 -2.5 0.5 0.5 2.5
9 0 1 0 0 0 1 0 0 0 1 -79.769 -57.769 -9.5 0.5 0.5 2.5
9 0 1 0 0 0 1 0 0 0 1 -81.769 -15.769 0.5 0.5 2.5 0.5
9 0 1 0 0 0 1 0 0 0 1 -82.769 -50.769 -2.5 0.5 0.5 2.5
9 0 1 0 0 0 1 0 0 0 1 -86.769 44.231 3.5 0.5 0.5 2.5
9 0 1 0 0 0 1 0 0 0 1 -87.769 49.231 -15.5 0.5 2.5 0.5
9 0 1 0 0 0 1 0 0 0 1 -87.769 49.231 15.5 0.5 2.5 0.5
9 0 1 0 0 0 1 0 0 0 1 -87.769 -43.769 -8.5 0.5 0.5 2.5
9 0 1 0 0 0 1 0 0 0 1 -90.769 -34.769 3.5 0.5 0.5 2.5
9 0 1 0 0 0 1 0 0 0 1 -92.769 28.231 3.5 0.5 0.5 2.5
9 0 1 0 0 0 1 0 0 0 1 -92.769 -27.769 -2.5 0.5 0.5 2.5
9 0 1 0 0 0 1 0 0 0 1 -92.769 -37.769 -9.5 0.5 2.5 0.5
9 0 1 0 0 0 1 0 0 0 1 -94.769 -39.769 -13.5 0.5 2.5 0.5
9 0 1 0 0 0 1 0 0 0 1 -100.769 -16.769 15.5 0.5 2.5 0.5
9 0 1 0 0 0 1 0 0 0 1 -100.769 -19.769 -14.5 0.5 2.5 0.5
9 0 1 0 0 0 1 0 0 0 1 -100.769 -19.769 14.5 0.5 2.5 0.5
9 0 1 0 0 0 1 0 0 0 1 -102.769 12.231 -13.5 0.5 2.5 0.5
9 0 1 0 0 0 1 0 0 0 1 -102.769 12.231 13.5 0.5 2.5 0.5
9 0 1 0 0 0 1 0 0 0 1 -104.769 -6.768997 11.5 0.5 2.5 0.5
9 0 1 0 0 0 1 0 0 0 1 -104.769 -11.769 -9.5 0.5 2.5 0.5
9 0 1 0 0 0 1 0 0 0 1 107.231 7.731003 -3 0.5 1 1
9 0 1 0 0 0 1 0 0 0 1 107.231 7.731003 3 0.5 1 1
9 0 1 0 0 0 1 0 0 0 1 107.231 -10.769 0 0.5 0.5 2
9 0 1 0 0 0 1 0 0 0 1 106.231 -3.268997 -8.5 0.5 2 0.5
9 0 1 0 0 0 1 0 0 0 1 106.231 -3.268997 8.5 0.5 2 0.5
9 0 1 0 0 0 1 0 0 0 1 105.231 22.731 0 0.5 1 1
9 0 1 0 0 0 1 0 0 0 1 105.231 8.731003 -9.5 0.5 2 0.5
9 0 1 0 0 0 1 0 0 0 1 105.231 -22.769 0 0.5 0.5 2
9 0 1 0 0 0 1 0 0 0 1 104.231 26.231 0 0.5 0.5 2
9 0 1 0 0 0 1 0 0 0 1 104.231 -11.269 -11.5 0.5 2 0.5
9 0 1 0 0 0 1 0 0 0 1 103.231 -29.769 0 0.5 0.5 2
9 0 1 0 0 0 1 0 0 0 1 102.231 31.731 -5 0.5 1 1
9 0 1 0 0 0 1 0 0 0 1 102.231 26.731 -8 0.5 1 1
9 0 1 0 0 0 1 0 0 0 1 102.231 16.731 -13.5 0.5 2 0.5
9 0 1 0 0 0 1 0 0 0 1 102.231 12.731 14.5 0.5 2 0.5
9 0 1 0 0 0 1 0 0 0 1 102.231 -17.269 13.5 0.5 2 0.5
9 0 1 0 0 0 1 0 0 0 1 102.231 -33.769 0 0.5 0.5 2
9 0 1 0 0 0 1 0 0 0 1 101.231 34.731 -3 0.5 1 1
9 0 1 0 0 0 1 0 0 0 1 101.231 34.731 3 0.5 1 1
9 0 1 0 0 0 1 0 0 0 1 101.231 26.731 -11 0.5 1 1
9 0 1 0 0 0 1 0 0 0 1 100.231 32.731 -9 0.5 1 1
9 0 1 0 0 0 1 0 0 0 1 100.231 30.731 -11 0.5 1 1
9 0 1 0 0 0 1 0 0 0 1 100.231 27.731 12.5 0.5 2 0.5
9 0 1 0 0 0 1 0 0 0 1 100.231 -23.269 -14 0.5 1 1
9 0 1 0 0 0 1 0 0 0 1 100.231 -32.269 -9 0.5 1 1
9 0 1 0 0 0 1 0 0 0 1 100.231 -32.269 9 0.5 1 1
9 0 1 0 0 0 1 0 0 0 1 100.231 -38.769 0 0.5 0.5 2
9 0 1 0 0 0 1 0 0 0 1 99.231 39.731 -3 0.5 1 1
9 0 1 0 0 0 1 0 0 0 1 99.231 39.731 3 0.5 1 1
9 0 1 0 0 0 1 0 0 0 1 99.231 38.731 5 0.5 1 1
9 0 1 0 0 0 1 0 0 0 1 99.731 35.731 6.5 1 1 0.5
9 0 1 0 0 0 1 0 0 0 1 99.231 23.731 -15.5 0.5 2 0.5
9 0 1 0 0 0 1 0 0 0 1 99.731 11.731 15.5 1 1 0.5
9 0 1 0 0 0 1 0 0 0 1 99.231 -27.269 14 0.5 1 1
9 0 1 0 0 0 1 0 0 0 1 99.231 -35.269 -9 0.5 1 1
9 0 1 0 0 0 1 0 0 0 1 98.231 41.731 -5 0.5 1 1
9 0 1 0 0 0 1 0 0 0 1 98.231 37.731 -9 0.5 1 1
9 0 1 0 0 0 1 0 0 0 1 98.231 35.731 11 0.5 1 1
9 0 1 0 0 0 1 0 0 0 1 98.231 31.731 13.5 0.5 2 0.5
9 0 1 0 0 0 1 0 0 0 1 98.231 11.731 -14 0.5 1 1
9 0 1 0 0 0 1 0 0 0 1 98.231 -11.269 -14 0.5 1 1
9 0 1 0 0 0 1 0 0 0 1 98.231 -11.269 14 0.5 1 1
9 0 1 0 0 0 1 0 0 0 1 97.231 46.231 0 0.5 0.5 2
9 0 1 0 0 0 1 0 0 0 1 97.231 40.731 8 0.5 1 1
9 0 1 0 0 0 1 0 0 0 1 97.231 38.731 -9.5 0.5 2 0.5
9 0 1 0 0 0 1 0 0 0 1 97.231 20.731 -15 0.5 1 1
9 0 1 0 0 0 1 0 0 0 1 97.231 -10.269 9.5 0.5 2 0.5
9 0 1 0 0 0 1 0 0 0 1 97.731 -22.269 13.5 1 1 0.5
9 0 1 0 0 0 1 0 0 0 1 97.231 -22.269 -15.5 0.5 2 0.5
9 0 1 0 0 0 1 0 0 0 1 97.231 -45.769 0 0.5 0.5 2
9 0 1 0 0 0 1 0 0 0 1 96.231 40.731 11 0.5 1 1
9 0 1 0 0 0 1 0 0 0 1 96.231 36.731 -13.5 0.5 2 0.5
9 0 1 0 0 0 1 0 0 0 1 96.231 14.731 8 0.5 1 1
9 0 1 0 0 0 1 0 0 0 1 96.231 -22.269 -12 0.5 1 1
9 0 1 0 0 0 1 0 0 0 1 96.731 -32.769 14 1 0.5 1
9 0 1 0 0 0 1 0 0 0 1 96.231 -34.269 15 0.5 1 1
9 0 1 0 0 0 1 0 0 0 1 96.731 -35.269 -13.5 1 1 0.5
9 0 1 0 0 0 1 0 0 0 1 96.231 -39.269 -12 0.5 1 1
9 0 1 0 0 0 1 0 0 0 1 96.731 -39.769 6 1 0.5 1
9 0 1 0 0 0 1 0 0 0 1 96.231 -41.269 -10 0.5 1 1
9 0 1 0 0 0 1 0 0 0 1 95.231 36.731 15 0.5 1 1
9 0 1 0 0 0 1 0 0 0 1 95.231 23.731 10 0.5 1 1
9 0 1 0 0 0 1 0 0 0 1 95.231 20.231 6 0.5 0.5 2
9 0 1 0 0 0 1 0 0 0 1 95.231 19.731 -5 0.5 1 1
9 0 1 0 0 0 1 0 0 0 1 95.231 12.731 0.5 0.5 2 0.5
9 0 1 0 0 0 1 0 0 0 1 95.231 -15.269 -1 0.5 1 1
9 0 1 0 0 0 1 0 0 0 1 95.231 -19.269 5 0.5 1 1
9 0 1 0 0 0 1 0 0 0 1 95.731 -37.269 13.5 1 1 0.5
9 0 1 0 0 0 1 0 0 0 1 95.231 -39.769 -12 0.5 0.5 2
9 0 1 0 0 0 1 0 0 0 1 95.231 -43.269 11 0.5 1 1
9 0 1 0 0 0 1 0 0 0 1 95.231 -47.269 -6 0.5 1 1
9 0 1 0 0 0 1 0 0 0 1 95.231 -47.269 6 0.5 1 1
9 0 1 0 0 0 1 0 0 0 1 95.231 -49.769 0 0.5 0.5 2
9 0 1 0 0 0 1 0 0 0 1 94.231 47.231 -8 0.5 0.5 2
9 0 1 0 0 0 1 0 0 0 1 94.231 47.731 7 0.5 1 1
9 0 1 0 0 0 1 0 0 0 1 94.231 42.731 13 0.5 1 1
9 0 1 0 0 0 1 0 0 0 1 94.231 37.731 -15.5 0.5 2 0.5
9 0 1 0 0 0 1 0 0 0 1 94.231 37.731 15.5 0.5 2 0.5
9 0 1 0 0 0 1 0 0 0 1 95.731 35.231 12.5 2 0.5 0.5
9 0 1 0 0 0 1 0 0 0 1 94.231 28.231 -2 0.5 0.5 2
9 0 1 0 0 0 1 0 0 0 1 94.231 26.731 -9 0.5 1 1
9 0 1 0 0 0 1 0 0 0 1 94.231 26.731 9 0.5 1 1
9 0 1 0 0 0 1 0 0 0 1 94.231 -22.769 3 0.5 0.5 2
9 0 1 0 0 0 1 0 0 0 1 94.231 -25.269 8 0.5 1 1
9 0 1 0 0 0 1 0 0 0 1 94.231 -27.269 -10 0.5 1 1
9 0 1 0 0 0 1 0 0 0 1 94.731 -32.269 -14.5 1 1 0.5
9 0 1 0 0 0 1 0 0 0 1 94.231 -31.269 -13.5 0.5 2 0.5
9 0 1 0 0 0 1 0 0 0 1 94.231 -45.269 -11 0.5 1 1
9 0 1 0 0 0 1 0 0 0 1 94.231 -51.769 0 0.5 0.5 2
9 0 1 0 0 0 1 0 0 0 1 93.231 53.231 0 0.5 0.5 2
9 0 1 0 0 0 1 0 0 0 1 93.231 50.731 6 0.5 1 1
9 0 1 0 0 0 1 0 0 0 1 94.731 41.231 -11.5 2 0.5 0.5
9 0 1 0 0 0 1 0 0 0 1 93.231 34.731 -14 0.5 1 1
9 0 1 0 0 0 1 0 0 0 1 93.231 -30.269 9 0.5 1 1
9 0 1 0 0 0 1 0 0 0 1 93.231 -43.269 14 0.5 1 1
9 0 1 0 0 0 1 0 0 0 1 93.731 -45.769 11 1 0.5 1
9 0 1 0 0 0 1 0 0 0 1 93.731 -46.769 -9 1 0.5 1
9 0 1 0 0 0 1 0 0 0 1 92.231 48.731 -11 0.5 1 1
9 0 1 0 0 0 1 0 0 0 1 92.231 -28.269 -0.5 0.5 2 0.5
9 0 1 0 0 0 1 0 0 0 1 92.231 -34.269 10 0.5 1 1
9 0 1 0 0 0 1 0 0 0 1 92.231 -45.269 -14 0.5 1 1
9 0 1 0 0 0 1 0 0 0 1 92.231 -44.269 14.5 0.5 2 0.5
9 0 1 0 0 0 1 0 0 0 1 92.231 -50.269 9 0.5 1 1
9 0 1 0 0 0 1 0 0 0 1 92.231 -54.769 0 0.5 0.5 2
9 0 1 0 0 0 1 0 0 0 1 91.231 45.731 -15 0.5 1 1
9 0 1 0 0 0 1 0 0 0 1 91.731 43.731 -15.5 1 1 0.5
9 0 1 0 0 0 1 0 0 0 1 91.231 38.231 -12 0.5 0.5 2
9 0 1 0 0 0 1 0 0 0 1 91.231 34.231 -6 0.5 0.5 2
9 0 1 0 0 0 1 0 0 0 1 91.231 33.231 3 0.5 0.5 2
9 0 1 0 0 0 1 0 0 0 1 91.231 -50.269 -11 0.5 1 1
9 0 1 0 0 0 1 0 0 0 1 91.231 -56.769 0 0.5 0.5 2
9 0 1 0 0 0 1 0 0 0 1 90.731 50.731 -11.5 1 1 0.5
9 0 1 0 0 0 1 0 0 0 1 90.231 35.231 -2 0.5 0.5 2
9 0 1 0 0 0 1 0 0 0 1 90.231 -38.269 -9 0.5 1 1
9 0 1 0 0 0 1 0 0 0 1 90.731 -47.769 -14 1 0.5 1
9 0 1 0 0 0 1 0 0 0 1 90.731 -51.769 -9 1 0.5 1
9 0 1 0 0 0 1 0 0 0 1 89.231 56.731 7 0.5 1 1
9 0 1 0 0 0 1 0 0 0 1 89.731 51.731 11.5 1 1 0.5
9 0 1 0 0 0 1 0 0 0 1 89.231 -40.269 8 0.5 1 1
9 0 1 0 0 0 1 0 0 0 1 89.231 -41.269 10 0.5 1 1
9 0 1 0 0 0 1 0 0 0 1 89.231 -53.269 12 0.5 1 1
9 0 1 0 0 0 1 0 0 0 1 89.231 -57.269 -7 0.5 1 1
9 0 1 0 0 0 1 0 0 0 1 89.231 -57.269 7 0.5 1 1
9 0 1 0 0 0 1 0 0 0 1 88.231 59.731 -5 0.5 1 1
9 0 1 0 0 0 1 0 0 0 1 88.231 51.731 -14 0.5 1 1
9 0 1 0 0 0 1 0 0 0 1 88.231 47.731 -15.5 0.5 2 0.5
9 0 1 0 0 0 1 0 0 0 1 88.231 46.731 15 0.5 1 1
9 0 1 0 0 0 1 0 0 0 1 88.231 43.731 -10 0.5 1 1
9 0 1 0 0 0 1 0 0 0 1 88.231 43.731 10 0.5 1 1
9 0 1 0 0 0 1 0 0 0 1 88.231 42.731 -8 0.5 1 1
9 0 1 0 0 0 1 0 0 0 1 88.231 37.731 0.5 0.5 2 0.5
9 0 1 0 0 0 1 0 0 0 1 87.231 58.731 9 0.5 1 1
9 0 1 0 0 0 1 0 0 0 1 87.731 49.731 8.5 1 1 0.5
9 0 1 0 0 0 1 0 0 0 1 87.231 46.231 -11 0.5 0.5 2
9 0 1 0 0 0 1 0 0 0 1 87.231 -57.269 -11 0.5 1 1
9 0 1 0 0 0 1 0 0 0 1 87.731 -59.769 -6 1 0.5 1
9 0 1 0 0 0 1 0 0 0 1 87.731 -59.769 6 1 0.5 1
9 0 1 0 0 0 1 0 0 0 1 86.231 44.231 0 0.5 0.5 2
9 0 1 0 0 0 1 0 0 0 1 86.231 -45.769 -7 0.5 0.5 2
9 0 1 0 0 0 1 0 0 0 1 86.231 -47.769 -10 0.5 0.5 2
9 0 1 0 0 0 1 0 0 0 1 86.231 -47.269 9 0.5 1 1
9 0 1 0 0 0 1 0 0 0 1 86.731 -54.769 -14 1 0.5 1
9 0 1 0 0 0 1 0 0 0 1 86.731 -54.769 14 1 0.5 1
9 0 1 0 0 0 1 0 0 0 1 85.731 56.731 13.5 1 1 0.5
9 0 1 0 0 0 1 0 0 0 1 85.231 -46.769 3 0.5 0.5 2
9 0 1 0 0 0 1 0 0 0 1 85.231 -50.269 -12 0.5 1 1
9 0 1 0 0 0 1 0 0 0 1 85.731 -59.769 11 1 0.5 1
9 0 1 0 0 0 1 0 0 0 1 85.731 -61.769 7 1 0.5 1
9 0 1 0 0 0 1 0 0 0 1 85.231 -61.269 -6.5 0.5 2 0.5
9 0 1 0 0 0 1 0 0 0 1 84.231 49.231 -6 0.5 0.5 2
9 0 1 0 0 0 1 0 0 0 1 84.731 44.731 0.5 1 1 0.5
9 0 1 0 0 0 1 0 0 0 1 84.231 7.231003 -4 0.5 0.5 2
9 0 1 0 0 0 1 0 0 0 1 84.231 -51.769 12 0.5 0.5 2
9 0 1 0 0 0 1 0 0 0 1 84.731 -57.769 -14 1 0.5 1
9 0 1 0 0 0 1 0 0 0 1 84.731 -57.769 14 1 0.5 1
9 0 1 0 0 0 1 0 0 0 1 84.231 -63.269 -8 0.5 1 1
9 0 1 0 0 0 1 0 0 0 1 84.231 -63.269 8 0.5 1 1
9 0 1 0 0 0 1 0 0 0 1 83.231 -49.769 3 0.5 0.5 2
9 0 1 0 0 0 1 0 0 0 1 83.231 -53.269 11 0.5 1 1
9 0 1 0 0 0 1 0 0 0 1 83.231 -54.269 -13 0.5 1 1
9 0 1 0 0 0 1 0 0 0 1 83.231 -55.269 -15 0.5 1 1
9 0 1 0 0 0 1 0 0 0 1 83.731 -59.769 13 1 0.5 1
9 0 1 0 0 0 1 0 0 0 1 82.231 68.231 -4 0.5 0.5 2
9 0 1 0 0 0 1 0 0 0 1 82.731 63.731 -10.5 1 1 0.5
9 0 1 0 0 0 1 0 0 0 1 82.731 61.731 -12.5 1 1 0.5
9 0 1 0 0 0 1 0 0 0 1 82.731 60.731 -13.5 1 1 0.5
9 0 1 0 0 0 1 0 0 0 1 82.231 55.231 12 0.5 0.5 2
9 0 1 0 0 0 1 0 0 0 1 83.731 -35.769 0.5 2 0.5 0.5
9 0 1 0 0 0 1 0 0 0 1 82.231 -51.769 -2 0.5 0.5 2
9 0 1 0 0 0 1 0 0 0 1 82.231 -51.769 3 0.5 0.5 2
9 0 1 0 0 0 1 0 0 0 1 82.731 -60.269 -7.5 1 1 0.5
9 0 1 0 0 0 1 0 0 0 1 82.231 -61.769 -13 0.5 0.5 2
9 0 1 0 0 0 1 0 0 0 1 82.731 -65.269 -7.5 1 1 0.5
9 0 1 0 0 0 1 0 0 0 1 82.731 -65.769 7 1 0.5 1
9 0 1 0 0 0 1 0 0 0 1 81.231 53.231 -2 0.5 0.5 2
9 0 1 0 0 0 1 0 0 0 1 81.231 53.231 3 0.5 0.5 2
9 0 1 0 0 0 1 0 0 0 1 81.231 -52.769 0 0.5 0.5 2
9 0 1 0 0 0 1 0 0 0 1 81.231 -54.769 8 0.5 0.5 2
9 0 1 0 0 0 1 0 0 0 1 81.731 59.231 -15.5 2 0.5 0.5
9 0 1 0 0 0 1 0 0 0 1 80.231 55.231 3 0.5 0.5 2
9 0 1 0 0 0 1 0 0 0 1 80.231 -58.769 -14 0.5 0.5 2
9 0 1 0 0 0 1 0 0 0 1 80.731 -63.769 -13 1 0.5 1
9 0 1 0 0 0 1 0 0 0 1 80.231 -67.269 -10 0.5 1 1
9 0 1 0 0 0 1 0 0 0 1 80.231 -67.269 10 0.5 1 1
9 0 1 0 0 0 1 0 0 0 1 80.731 -68.769 -6 1 0.5 1
9 0 1 0 0 0 1 0 0 0 1 80.731 -68.769 6 1 0.5 1
9 0 1 0 0 0 1 0 0 0 1 79.731 64.731 -13.5 1 1 0.5
9 0 1 0 0 0 1 0 0 0 1 78.731 70.231 -8 1 0.5 1
9 0 1 0 0 0 1 0 0 0 1 78.731 70.231 8 1 0.5 1
9 0 1 0 0 0 1 0 0 0 1 78.731 68.731 -10.5 1 1 0.5
9 0 1 0 0 0 1 0 0 0 1 78.731 66.731 -12.5 1 1 0.5
9 0 1 0 0 0 1 0 0 0 1 78.231 61.731 -14 0.5 1 1
9 0 1 0 0 0 1 0 0 0 1 78.231 -58.769 7 0.5 0.5 2
9 0 1 0 0 0 1 0 0 0 1 78.231 -61.269 13 0.5 1 1
9 0 1 0 0 0 1 0 0 0 1 78.731 -65.769 -14 1 0.5 1
9 0 1 0 0 0 1 0 0 0 1 78.731 -67.269 12.5 1 1 0.5
9 0 1 0 0 0 1 0 0 0 1 77.231 73.231 -5 0.5 0.5 2
9 0 1 0 0 0 1 0 0 0 1 77.231 73.231 5 0.5 0.5 2
9 0 1 0 0 0 1 0 0 0 1 77.231 -29.269 0.5 0.5 2 0.5
9 0 1 0 0 0 1 0 0 0 1 77.231 -58.769 -2 0.5 0.5 2
9 0 1 0 0 0 1 0 0 0 1 77.231 -61.769 12 0.5 0.5 2
9 0 1 0 0 0 1 0 0 0 1 77.731 -70.769 -9 1 0.5 1
9 0 1 0 0 0 1 0 0 0 1 77.731 -70.769 9 1 0.5 1
9 0 1 0 0 0 1 0 0 0 1 77.731 -71.769 6 1 0.5 1
9 0 1 0 0 0 1 0 0 0 1 76.231 68.731 -14 0.5 1 1
9 0 1 0 0 0 1 0 0 0 1 76.731 67.731 14.5 1 1 0.5
9 0 1 0 0 0 1 0 0 0 1 76.231 -73.269 -7 0.5 1 1
9 0 1 0 0 0 1 0 0 0 1 75.731 73.231 -8 1 0.5 1
9 0 1 0 0 0 1 0 0 0 1 75.731 72.231 -10 1 0.5 1
9 0 1 0 0 0 1 0 0 0 1 75.731 72.231 10 1 0.5 1
9 0 1 0 0 0 1 0 0 0 1 75.231 65.731 -14 0.5 1 1
9 0 1 0 0 0 1 0 0 0 1 75.231 65.231 13 0.5 0.5 2
9 0 1 0 0 0 1 0 0 0 1 75.231 61.231 -2 0.5 0.5 2
9 0 1 0 0 0 1 0 0 0 1 75.231 -72.769 10 0.5 0.5 2
9 0 1 0 0 0 1 0 0 0 1 75.231 -73.769 -8 0.5 0.5 2
9 0 1 0 0 0 1 0 0 0 1 74.731 74.231 -8 1 0.5 1
9 0 1 0 0 0 1 0 0 0 1 74.231 74.731 7 0.5 1 1
9 0 1 0 0 0 1 0 0 0 1 74.731 73.231 -10 1 0.5 1
9 0 1 0 0 0 1 0 0 0 1 74.231 64.231 8 0.5 0.5 2
9 0 1 0 0 0 1 0 0 0 1 74.731 -60.269 0.5 1 1 0.5
9 0 1 0 0 0 1 0 0 0 1 74.231 -63.769 -7 0.5 0.5 2
9 0 1 0 0 0 1 0 0 0 1 74.231 -63.769 7 0.5 0.5 2
9 0 1 0 0 0 1 0 0 0 1 74.731 -69.769 -14 1 0.5 1
9 0 1 0 0 0 1 0 0 0 1 74.731 -69.769 14 1 0.5 1
9 0 1 0 0 0 1 0 0 0 1 73.231 77.231 -5 0.5 0.5 2
9 0 1 0 0 0 1 0 0 0 1 73.731 73.231 -12 1 0.5 1
9 0 1 0 0 0 1 0 0 0 1 73.231 71.731 -14 0.5 1 1
9 0 1 0 0 0 1 0 0 0 1 73.731 6.731003 0.5 1 1 0.5
9 0 1 0 0 0 1 0 0 0 1 73.731 -6.268997 0.5 1 1 0.5
9 0 1 0 0 0 1 0 0 0 1 73.231 -75.769 -8 0.5 0.5 2
9 0 1 0 0 0 1 0 0 0 1 72.231 66.231 8 0.5 0.5 2
9 0 1 0 0 0 1 0 0 0 1 71.231 79.231 5 0.5 0.5 2
9 0 1 0 0 0 1 0 0 0 1 71.731 76.231 -10 1 0.5 1
9 0 1 0 0 0 1 0 0 0 1 71.731 74.731 -11.5 1 1 0.5
9 0 1 0 0 0 1 0 0 0 1 71.731 74.731 11.5 1 1 0.5
9 0 1 0 0 0 1 0 0 0 1 71.731 63.731 0.5 1 1 0.5
9 0 1 0 0 0 1 0 0 0 1 71.731 -73.769 13 1 0.5 1
9 0 1 0 0 0 1 0 0 0 1 71.731 -75.769 -11 1 0.5 1
9 0 1 0 0 0 1 0 0 0 1 71.731 -75.769 11 1 0.5 1
9 0 1 0 0 0 1 0 0 0 1 70.231 80.231 -5 0.5 0.5 2
9 0 1 0 0 0 1 0 0 0 1 70.231 69.731 11 0.5 1 1
9 0 1 0 0 0 1 0 0 0 1 70.231 68.231 -7 0.5 0.5 2
9 0 1 0 0 0 1 0 0 0 1 70.231 68.231 7 0.5 0.5 2
9 0 1 0 0 0 1 0 0 0 1 70.731 -77.769 9 1 0.5 1
9 0 1 0 0 0 1 0 0 0 1 70.731 -78.769 -7 1 0.5 1
9 0 1 0 0 0 1 0 0 0 1 69.731 78.231 10 1 0.5 1
9 0 1 0 0 0 1 0 0 0 1 69.231 71.231 -14 0.5 0.5 2
9 0 1 0 0 0 1 0 0 0 1 69.731 -77.769 -11 1 0.5 1
9 0 1 0 0 0 1 0 0 0 1 68.231 82.231 -4 0.5 0.5 2
9 0 1 0 0 0 1 0 0 0 1 68.231 -68.269 0 0.5 1 1
9 0 1 0 0 0 1 0 0 0 1 68.731 -77.269 12.5 1 1 0.5
9 0 1 0 0 0 1 0 0 0 1 67.731 81.231 -7 1 0.5 1
9 0 1 0 0 0 1 0 0 0 1 67.231 81.731 6 0.5 1 1
9 0 1 0 0 0 1 0 0 0 1 67.731 75.731 15.5 1 1 0.5
9 0 1 0 0 0 1 0 0 0 1 67.231 71.231 8 0.5 0.5 2
9 0 1 0 0 0 1 0 0 0 1 67.231 -69.269 0 0.5 1 1
9 0 1 0 0 0 1 0 0 0 1 67.231 -72.769 12 0.5 0.5 2
9 0 1 0 0 0 1 0 0 0 1 67.731 -80.769 8 1 0.5 1
9 0 1 0 0 0 1 0 0 0 1 67.231 -83.769 0 0.5 0.5 2
9 0 1 0 0 0 1 0 0 0 1 66.731 80.231 11 1 0.5 1
9 0 1 0 0 0 1 0 0 0 1 66.231 74.731 14 0.5 1 1
9 0 1 0 0 0 1 0 0 0 1 66.231 -72.769 -10 0.5 0.5 2
9 0 1 0 0 0 1 0 0 0 1 65.731 83.231 6 1 0.5 1
9 0 1 0 0 0 1 0 0 0 1 65.731 79.731 -12.5 1 1 0.5
9 0 1 0 0 0 1 0 0 0 1 65.231 77.731 9.5 0.5 2 0.5
9 0 1 0 0 0 1 0 0 0 1 65.731 -74.769 -13 1 0.5 1
9 0 1 0 0 0 1 0 0 0 1 64.231 85.231 -4 0.5 0.5 2
9 0 1 0 0 0 1 0 0 0 1 64.231 73.231 3 0.5 0.5 2
9 0 1 0 0 0 1 0 0 0 1 64.231 7.231003 -4 0.5 0.5 2
9 0 1 0 0 0 1 0 0 0 1 65.731 -46.769 0.5 2 0.5 0.5
9 0 1 0 0 0 1 0 0 0 1 64.231 -74.769 -10 0.5 0.5 2
9 0 1 0 0 0 1 0 0 0 1 64.731 -80.769 -12 1 0.5 1
9 0 1 0 0 0 1 0 0 0 1 64.731 -80.769 12 1 0.5 1
9 0 1 0 0 0 1 0 0 0 1 64.731 -83.769 6 1 0.5 1
9 0 1 0 0 0 1 0 0 0 1 63.231 -74.769 7 0.5 0.5 2
9 0 1 0 0 0 1 0 0 0 1 62.731 -72.269 0.5 1 1 0.5
9 0 1 0 0 0 1 0 0 0 1 62.731 -84.769 -8 1 0.5 1
9 0 1 0 0 0 1 0 0 0 1 61.731 86.231 6 1 0.5 1
9 0 1 0 0 0 1 0 0 0 1 61.731 83.231 12 1 0.5 1
9 0 1 0 0 0 1 0 0 0 1 61.231 76.231 -7 0.5 0.5 2
9 0 1 0 0 0 1 0 0 0 1 61.231 76.231 7 0.5 0.5 2
9 0 1 0 0 0 1 0 0 0 1 61.231 -77.769 -12 0.5 0.5 2
9 0 1 0 0 0 1 0 0 0 1 61.731 -80.769 15 1 0.5 1
9 0 1 0 0 0 1 0 0 0 1 61.731 -85.769 7 1 0.5 1
9 0 1 0 0 0 1 0 0 0 1 60.231 89.231 0 0.5 0.5 2
9 0 1 0 0 0 1 0 0 0 1 60.231 88.231 -4 0.5 0.5 2
9 0 1 0 0 0 1 0 0 0 1 60.231 88.231 4 0.5 0.5 2
9 0 1 0 0 0 1 0 0 0 1 60.231 77.231 -8 0.5 0.5 2
9 0 1 0 0 0 1 0 0 0 1 60.731 -86.769 -7 1 0.5 1
9 0 1 0 0 0 1 0 0 0 1 59.731 81.731 -15.5 1 1 0.5
9 0 1 0 0 0 1 0 0 0 1 59.231 -76.769 -2 0.5 0.5 2
9 0 1 0 0 0 1 0 0 0 1 59.231 -89.769 0 0.5 0.5 2
9 0 1 0 0 0 1 0 0 0 1 58.731 87.231 9 1 0.5 1
9 0 1 0 0 0 1 0 0 0 1 58.231 -77.769 3 0.5 0.5 2
9 0 1 0 0 0 1 0 0 0 1 58.231 -78.769 -8 0.5 0.5 2
9 0 1 0 0 0 1 0 0 0 1 58.231 -79.269 8 0.5 1 1
9 0 1 0 0 0 1 0 0 0 1 58.731 -83.769 -14 1 0.5 1
9 0 1 0 0 0 1 0 0 0 1 57.731 89.231 -6 1 0.5 1
9 0 1 0 0 0 1 0 0 0 1 57.731 89.231 6 1 0.5 1
9 0 1 0 0 0 1 0 0 0 1 57.731 84.731 -13.5 1 1 0.5
9 0 1 0 0 0 1 0 0 0 1 57.231 78.231 -2 0.5 0.5 2
9 0 1 0 0 0 1 0 0 0 1 56.731 85.231 14 1 0.5 1
9 0 1 0 0 0 1 0 0 0 1 56.231 80.231 8 0.5 0.5 2
9 0 1 0 0 0 1 0 0 0 1 56.231 79.231 3 0.5 0.5 2
9 0 1 0 0 0 1 0 0 0 1 56.231 -85.269 14 0.5 1 1
9 0 1 0 0 0 1 0 0 0 1 55.231 92.231 0 0.5 0.5 2
9 0 1 0 0 0 1 0 0 0 1 55.731 82.231 -13 1 0.5 1
9 0 1 0 0 0 1 0 0 0 1 55.231 -79.769 -2 0.5 0.5 2
9 0 1 0 0 0 1 0 0 0 1 55.731 -90.769 -5 1 0.5 1
9 0 1 0 0 0 1 0 0 0 1 55.731 -90.769 5 1 0.5 1
9 0 1 0 0 0 1 0 0 0 1 55.731 87.231 -12.5 2 0.5 0.5
9 0 1 0 0 0 1 0 0 0 1 54.731 83.231 14 1 0.5 1
9 0 1 0 0 0 1 0 0 0 1 55.731 47.231 0.5 2 0.5 0.5
9 0 1 0 0 0 1 0 0 0 1 54.731 -83.769 15 1 0.5 1
9 0 1 0 0 0 1 0 0 0 1 54.231 -84.769 15.5 2.5 0.5 0.5
9 0 1 0 0 0 1 0 0 0 1 53.231 93.231 0 0.5 0.5 2
9 0 1 0 0 0 1 0 0 0 1 53.731 90.231 9 1 0.5 1
9 0 1 0 0 0 1 0 0 0 1 53.231 83.231 -11 0.5 0.5 2
9 0 1 0 0 0 1 0 0 0 1 53.231 82.231 -8 0.5 0.5 2
9 0 1 0 0 0 1 0 0 0 1 53.731 53.731 0.5 1 1 0.5
9 0 1 0 0 0 1 0 0 0 1 53.731 6.731003 0.5 1 1 0.5
9 0 1 0 0 0 1 0 0 0 1 53.731 -6.268997 0.5 1 1 0.5
9 0 1 0 0 0 1 0 0 0 1 53.731 -46.269 0.5 1 1 0.5
9 0 1 0 0 0 1 0 0 0 1 53.731 -66.269 0.5 1 1 0.5
9 0 1 0 0 0 1 0 0 0 1 53.731 -91.769 -5 1 0.5 1
9 0 1 0 0 0 1 0 0 0 1 53.731 -91.769 5 1 0.5 1
9 0 1 0 0 0 1 0 0 0 1 52.731 -87.769 -14 1 0.5 1
9 0 1 0 0 0 1 0 0 0 1 52.731 -91.769 -7 1 0.5 1
9 0 1 0 0 0 1 0 0 0 1 51.731 85.231 15 1 0.5 1
9 0 1 0 0 0 1 0 0 0 1 51.231 84.231 -10 0.5 0.5 2
9 0 1 0 0 0 1 0 0 0 1 51.731 -83.769 -10 1 0.5 1
9 0 1 0 0 0 1 0 0 0 1 52.731 -88.769 12.5 2 0.5 0.5
9 0 1 0 0 0 1 0 0 0 1 50.231 -84.769 -11 0.5 0.5 2
9 0 1 0 0 0 1 0 0 0 1 50.731 -90.769 -12 1 0.5 1
9 0 1 0 0 0 1 0 0 0 1 50.731 -90.769 12 1 0.5 1
9 0 1 0 0 0 1 0 0 0 1 50.731 -93.769 4 1 0.5 1
9 0 1 0 0 0 1 0 0 0 1 49.731 91.231 -12 1 0.5 1
9 0 1 0 0 0 1 0 0 0 1 49.731 91.231 12 1 0.5 1
9 0 1 0 0 0 1 0 0 0 1 49.731 88.231 -9 1 0.5 1
9 0 1 0 0 0 1 0 0 0 1 49.231 83.231 0 0.5 0.5 2
9 0 1 0 0 0 1 0 0 0 1 49.731 -84.769 10 1 0.5 1
9 0 1 0 0 0 1 0 0 0 1 49.731 -86.769 -15 1 0.5 1
9 0 1 0 0 0 1 0 0 0 1 48.231 96.231 0 0.5 0.5 2
9 0 1 0 0 0 1 0 0 0 1 48.231 95.231 5 0.5 0.5 2
9 0 1 0 0 0 1 0 0 0 1 48.731 90.231 -14 1 0.5 1
9 0 1 0 0 0 1 0 0 0 1 48.731 90.231 14 1 0.5 1
9 0 1 0 0 0 1 0 0 0 1 48.231 84.231 3 0.5 0.5 2
9 0 1 0 0 0 1 0 0 0 1 48.731 42.731 0.5 1 1 0.5
9 0 1 0 0 0 1 0 0 0 1 47.731 91.731 -8.5 1 1 0.5
9 0 1 0 0 0 1 0 0 0 1 47.231 -84.769 3 0.5 0.5 2
9 0 1 0 0 0 1 0 0 0 1 47.231 -86.769 11 0.5 0.5 2
9 0 1 0 0 0 1 0 0 0 1 48.731 -87.769 -15.5 2 0.5 0.5
9 0 1 0 0 0 1 0 0 0 1 47.731 -90.769 -14 1 0.5 1
9 0 1 0 0 0 1 0 0 0 1 47.731 -90.769 14 1 0.5 1
9 0 1 0 0 0 1 0 0 0 1 47.731 -92.769 -11 1 0.5 1
9 0 1 0 0 0 1 0 0 0 1 46.731 93.231 -11 1 0.5 1
9 0 1 0 0 0 1 0 0 0 1 46.231 85.231 -2 0.5 0.5 2
9 0 1 0 0 0 1 0 0 0 1 45.731 95.731 5.5 1 1 0.5
9 0 1 0 0 0 1 0 0 0 1 46.731 92.231 -12.5 2 0.5 0.5
9 0 1 0 0 0 1 0 0 0 1 45.231 -87.769 -11 0.5 0.5 2
9 0 1 0 0 0 1 0 0 0 1 45.231 -87.769 11 0.5 0.5 2
9 0 1 0 0 0 1 0 0 0 1 44.731 46.731 0.5 1 1 0.5
9 0 1 0 0 0 1 0 0 0 1 44.231 7.231003 -4 0.5 0.5 2
9 0 1 0 0 0 1 0 0 0 1 44.231 -87.769 -9 0.5 0.5 2
9 0 1 0 0 0 1 0 0 0 1 44.231 -87.769 9 0.5 0.5 2
9 0 1 0 0 0 1 0 0 0 1 44.731 -93.769 -12 1 0.5 1
9 0 1 0 0 0 1 0 0 0 1 44.731 -93.769 12 1 0.5 1
9 0 1 0 0 0 1 0 0 0 1 44.731 -96.269 -5.5 1 1 0.5
9 0 1 0 0 0 1 0 0 0 1 44.731 -96.769 5 1 0.5 1
9 0 1 0 0 0 1 0 0 0 1 43.231 87.231 3 0.5 0.5 2
9 0 1 0 0 0 1 0 0 0 1 43.731 -89.769 -15 1 0.5 1
9 0 1 0 0 0 1 0 0 0 1 43.731 -95.769 9 1 0.5 1
9 0 1 0 0 0 1 0 0 0 1 43.231 -96.269 7 0.5 1 1
9 0 1 0 0 0 1 0 0 0 1 42.731 -92.769 -15 1 0.5 1
9 0 1 0 0 0 1 0 0 0 1 42.731 -96.769 -7 1 0.5 1
9 0 1 0 0 0 1 0 0 0 1 42.231 -98.769 0 0.5 0.5 2
9 0 1 0 0 0 1 0 0 0 1 41.731 98.231 4 1 0.5 1
9 0 1 0 0 0 1 0 0 0 1 41.731 97.231 -7 1 0.5 1
9 0 1 0 0 0 1 0 0 0 1 42.731 92.231 -15.5 2 0.5 0.5
9 0 1 0 0 0 1 0 0 0 1 41.731 -93.769 -14 1 0.5 1
9 0 1 0 0 0 1 0 0 0 1 41.731 -93.769 14 1 0.5 1
9 0 1 0 0 0 1 0 0 0 1 40.731 98.231 6 1 0.5 1
9 0 1 0 0 0 1 0 0 0 1 40.731 96.231 11 1 0.5 1
9 0 1 0 0 0 1 0 0 0 1 40.731 89.231 -9 1 0.5 1
9 0 1 0 0 0 1 0 0 0 1 40.731 -51.269 0.5 1 1 0.5
9 0 1 0 0 0 1 0 0 0 1 40.731 93.231 15.5 2 0.5 0.5
9 0 1 0 0 0 1 0 0 0 1 39.731 72.731 0.5 1 1 0.5
9 0 1 0 0 0 1 0 0 0 1 39.731 -89.769 -10 1 0.5 1
9 0 1 0 0 0 1 0 0 0 1 37.731 90.231 -8 1 0.5 1
9 0 1 0 0 0 1 0 0 0 1 37.731 -97.769 10 1 0.5 1
9 0 1 0 0 0 1 0 0 0 1 37.731 -99.769 -5 1 0.5 1
9 0 1 0 0 0 1 0 0 0 1 37.731 -99.769 5 1 0.5 1
9 0 1 0 0 0 1 0 0 0 1 37.231 -100.769 0 0.5 0.5 2
9 0 1 0 0 0 1 0 0 0 1 36.231 101.231 0 0.5 0.5 2
9 0 1 0 0 0 1 0 0 0 1 36.731 -91.769 -12 1 0.5 1
9 0 1 0 0 0 1 0 0 0 1 37.731 -95.769 -13.5 2 0.5 0.5
9 0 1 0 0 0 1 0 0 0 1 37.731 -95.769 13.5 2 0.5 0.5
9 0 1 0 0 0 1 0 0 0 1 35.731 99.231 -8 1 0.5 1
9 0 1 0 0 0 1 0 0 0 1 36.731 96.231 -13.5 2 0.5 0.5
9 0 1 0 0 0 1 0 0 0 1 35.731 93.731 9.5 1 1 0.5
9 0 1 0 0 0 1 0 0 0 1 35.731 93.231 15 1 0.5 1
9 0 1 0 0 0 1 0 0 0 1 35.731 97.231 12.5 2 0.5 0.5
9 0 1 0 0 0 1 0 0 0 1 34.731 -100.769 6 1 0.5 1
9 0 1 0 0 0 1 0 0 0 1 33.731 97.231 14 1 0.5 1
9 0 1 0 0 0 1 0 0 0 1 33.231 91.231 3 0.5 0.5 2
9 0 1 0 0 0 1 0 0 0 1 33.731 -75.269 0.5 1 1 0.5
9 0 1 0 0 0 1 0 0 0 1 32.731 -90.769 0 1 0.5 1
9 0 1 0 0 0 1 0 0 0 1 32.731 -97.769 -14 1 0.5 1
9 0 1 0 0 0 1 0 0 0 1 31.731 100.231 -10 1 0.5 1
9 0 1 0 0 0 1 0 0 0 1 31.731 -102.769 0 1 0.5 1
9 0 1 0 0 0 1 0 0 0 1 30.231 103.231 0 0.5 0.5 2
9 0 1 0 0 0 1 0 0 0 1 31.731 98.231 -13.5 2 0.5 0.5
9 0 1 0 0 0 1 0 0 0 1 30.231 98.731 -11.5 0.5 2 0.5
9 0 1 0 0 0 1 0 0 0 1 30.231 -91.769 0 0.5 0.5 2
9 0 1 0 0 0 1 0 0 0 1 31.731 -98.769 12.5 2 0.5 0.5
9 0 1 0 0 0 1 0 0 0 1 30.731 -100.769 9 1 0.5 1
9 0 1 0 0 0 1 0 0 0 1 29.231 -92.769 -5 0.5 0.5 2
9 0 1 0 0 0 1 0 0 0 1 28.731 -93.769 -10 1 0.5 1
9 0 1 0 0 0 1 0 0 0 1 27.231 -4.268997 0.5 0.5 2 0.5
9 0 1 0 0 0 1 0 0 0 1 28.731 -99.769 12.5 2 0.5 0.5
9 0 1 0 0 0 1 0 0 0 1 26.731 103.231 -5 1 0.5 1
9 0 1 0 0 0 1 0 0 0 1 26.731 103.231 5 1 0.5 1
9 0 1 0 0 0 1 0 0 0 1 27.731 100.231 12.5 2 0.5 0.5
9 0 1 0 0 0 1 0 0 0 1 27.731 98.231 15.5 2 0.5 0.5
9 0 1 0 0 0 1 0 0 0 1 26.731 95.231 -13 1 0.5 1
9 0 1 0 0 0 1 0 0 0 1 26.231 93.231 -2 0.5 0.5 2
9 0 1 0 0 0 1 0 0 0 1 26.731 -94.769 -11 1 0.5 1
9 0 1 0 0 0 1 0 0 0 1 27.731 -101.769 -8.5 2 0.5 0.5
9 0 1 0 0 0 1 0 0 0 1 27.731 -101.769 8.5 2 0.5 0.5
9 0 1 0 0 0 1 0 0 0 1 27.731 -102.769 5.5 2 0.5 0.5
9 0 1 0 0 0 1 0 0 0 1 25.731 6.731003 0.5 1 1 0.5
9 0 1 0 0 0 1 0 0 0 1 25.731 -98.769 -15.5 2 0.5 0.5
9 0 1 0 0 0 1 0 0 0 1 24.231 -104.769 0 0.5 0.5 2
9 0 1 0 0 0 1 0 0 0 1 22.231 94.231 -2 0.5 0.5 2
9 0 1 0 0 0 1 0 0 0 1 22.731 -96.769 -9 1 0.5 1
9 0 1 0 0 0 1 0 0 0 1 22.731 104.231 5.5 2 0.5 0.5
9 0 1 0 0 0 1 0 0 0 1 21.731 103.231 9 1 0.5 1
9 0 1 0 0 0 1 0 0 0 1 21.731 -80.269 0.5 1 1 0.5
9 0 1 0 0 0 1 0 0 0 1 20.231 95.231 -6 0.5 0.5 2
9 0 1 0 0 0 1 0 0 0 1 20.231 95.231 6 0.5 0.5 2
9 0 1 0 0 0 1 0 0 0 1 20.731 -104.769 -6 1 0.5 1
9 0 1 0 0 0 1 0 0 0 1 20.731 -104.769 6 1 0.5 1
9 0 1 0 0 0 1 0 0 0 1 19.731 102.231 12.5 2 0.5 0.5
9 0 1 0 0 0 1 0 0 0 1 19.731 100.231 15.5 2 0.5 0.5
9 0 1 0 0 0 1 0 0 0 1 18.731 -94.769 -1 1 0.5 1
9 0 1 0 0 0 1 0 0 0 1 16.731 -20.269 0.5 1 1 0.5
9 0 1 0 0 0 1 0 0 0 1 16.731 -96.769 -11 1 0.5 1
9 0 1 0 0 0 1 0 0 0 1 16.731 -96.769 11 1 0.5 1
9 0 1 0 0 0 1 0 0 0 1 14.731 -99.269 15.5 1 1 0.5
9 0 1 0 0 0 1 0 0 0 1 13.731 6.731003 6.5 1 1 0.5
9 0 1 0 0 0 1 0 0 0 1 13.731 -6.268997 6.5 1 1 0.5
9 0 1 0 0 0 1 0 0 0 1 12.731 102.231 -14.5 2 0.5 0.5
9 0 1 0 0 0 1 0 0 0 1 12.731 102.231 14.5 2 0.5 0.5
9 0 1 0 0 0 1 0 0 0 1 11.731 99.731 -15.5 1 1 0.5
9 0 1 0 0 0 1 0 0 0 1 12.731 95.231 0.5 2 0.5 0.5
9 0 1 0 0 0 1 0 0 0 1 12.731 23.231 0.5 2 0.5 0.5
9 0 1 0 0 0 1 0 0 0 1 11.231 -95.769 0 0.5 0.5 2
9 0 1 0 0 0 1 0 0 0 1 12.731 -102.769 -13.5 2 0.5 0.5
9 0 1 0 0 0 1 0 0 0 1 12.731 -102.769 13.5 2 0.5 0.5
9 0 1 0 0 0 1 0 0 0 1 10.731 97.231 10 1 0.5 1
9 0 1 0 0 0 1 0 0 0 1 10.731 -106.769 -3 1 0.5 1
9 0 1 0 0 0 1 0 0 0 1 10.731 -106.769 3 1 0.5 1
9 0 1 0 0 0 1 0 0 0 1 8.731003 103.231 -13.5 2 0.5 0.5
9 0 1 0 0 0 1 0 0 0 1 8.731003 103.231 13.5 2 0.5 0.5
9 0 1 0 0 0 1 0 0 0 1 7.231003 84.231 5 0.5 0.5 2
9 0 1 0 0 0 1 0 0 0 1 7.231003 64.231 5 0.5 0.5 2
9 0 1 0 0 0 1 0 0 0 1 7.231003 44.231 5 0.5 0.5 2
9 0 1 0 0 0 1 0 0 0 1 7.231003 24.731 0.5 0.5 2 0.5
9 0 1 0 0 0 1 0 0 0 1 7.231003 -24.269 0.5 0.5 2 0.5
9 0 1 0 0 0 1 0 0 0 1 7.231003 -35.769 5 0.5 0.5 2
9 0 1 0 0 0 1 0 0 0 1 7.231003 -55.769 5 0.5 0.5 2
9 0 1 0 0 0 1 0 0 0 1 7.231003 -75.769 5 0.5 0.5 2
9 0 1 0 0 0 1 0 0 0 1 6.731003 73.731 0.5 1 1 0.5
9 0 1 0 0 0 1 0 0 0 1 6.731003 53.731 0.5 1 1 0.5
9 0 1 0 0 0 1 0 0 0 1 6.731003 13.731 6.5 1 1 0.5
9 0 1 0 0 0 1 0 0 0 1 6.731003 -46.269 0.5 1 1 0.5
9 0 1 0 0 0 1 0 0 0 1 6.731003 -66.269 0.5 1 1 0.5
9 0 1 0 0 0 1 0 0 0 1 6.731003 -86.269 0.5 1 1 0.5
9 0 1 0 0 0 1 0 0 0 1 5.731003 26.731 0.5 1 1 0.5
9 0 1 0 0 0 1 0 0 0 1 4.731003 4.231003 8 1 0.5 1
9 0 1 0 0 0 1 0 0 0 1 5.731003 -96.769 -0.5 2 0.5 0.5
9 0 1 0 0 0 1 0 0 0 1 -3.768997 -5.268997 8 0.5 1 1
9 0 1 0 0 0 1 0 0 0 1 -4.268997 27.231 0.5 2 0.5 0.5
9 0 1 0 0 0 1 0 0 0 1 -6.268997 73.731 0.5 1 1 0.5
9 0 1 0 0 0 1 0 0 0 1 -6.268997 53.731 0.5 1 1 0.5
9 0 1 0 0 0 1 0 0 0 1 -6.268997 33.731 0.5 1 1 0.5
9 0 1 0 0 0 1 0 0 0 1 -6.268997 13.731 6.5 1 1 0.5
9 0 1 0 0 0 1 0 0 0 1 -5.268997 -12.769 6.5 2 0.5 0.5
9 0 1 0 0 0 1 0 0 0 1 -6.268997 -26.269 0.5 1 1 0.5
9 0 1 0 0 0 1 0 0 0 1 -6.268997 -46.269 0.5 1 1 0.5
9 0 1 0 0 0 1 0 0 0 1 -6.268997 -66.269 0.5 1 1 0.5
9 0 1 0 0 0 1 0 0 0 1 -6.268997 -86.269 0.5 1 1 0.5
9 0 1 0 0 0 1 0 0 0 1 -9.768997 107.231 0 0.5 0.5 2
9 0 1 0 0 0 1 0 0 0 1 -9.268997 103.231 -13.5 2 0.5 0.5
9 0 1 0 0 0 1 0 0 0 1 -10.769 103.731 -11 0.5 1 1
9 0 1 0 0 0 1 0 0 0 1 -9.268997 103.231 13.5 2 0.5 0.5
9 0 1 0 0 0 1 0 0 0 1 -10.269 98.231 -13.5 2 0.5 0.5
9 0 1 0 0 0 1 0 0 0 1 -10.269 98.231 13.5 2 0.5 0.5
9 0 1 0 0 0 1 0 0 0 1 -10.269 97.231 9.5 2 0.5 0.5
9 0 1 0 0 0 1 0 0 0 1 -12.269 105.231 -8 1 0.5 1
9 0 1 0 0 0 1 0 0 0 1 -12.769 -5.268997 6.5 0.5 2 0.5
9 0 1 0 0 0 1 0 0 0 1 -12.269 102.231 -14.5 2 0.5 0.5
9 0 1 0 0 0 1 0 0 0 1 -12.269 -102.769 -13.5 2 0.5 0.5
9 0 1 0 0 0 1 0 0 0 1 -12.269 -102.769 13.5 2 0.5 0.5
9 0 1 0 0 0 1 0 0 0 1 -17.769 106.231 0 0.5 0.5 2
9 0 1 0 0 0 1 0 0 0 1 -16.269 102.231 13.5 2 0.5 0.5
9 0 1 0 0 0 1 0 0 0 1 -16.269 97.231 12.5 2 0.5 0.5
9 0 1 0 0 0 1 0 0 0 1 -19.269 104.231 8 1 0.5 1
9 0 1 0 0 0 1 0 0 0 1 -19.269 95.231 -5 1 0.5 1
9 0 1 0 0 0 1 0 0 0 1 -19.269 95.231 4 1 0.5 1
9 0 1 0 0 0 1 0 0 0 1 -19.269 -94.769 -1 1 0.5 1
9 0 1 0 0 0 1 0 0 0 1 -20.269 16.731 0.5 1 1 0.5
9 0 1 0 0 0 1 0 0 0 1 -20.269 -94.769 2 1 0.5 1
9 0 1 0 0 0 1 0 0 0 1 -20.769 -105.769 0 0.5 0.5 2
9 0 1 0 0 0 1 0 0 0 1 -21.269 103.231 -10 1 0.5 1
9 0 1 0 0 0 1 0 0 0 1 -20.269 102.231 -12.5 2 0.5 0.5
9 0 1 0 0 0 1 0 0 0 1 -21.269 -100.769 -14 1 0.5 1
9 0 1 0 0 0 1 0 0 0 1 -21.269 -100.769 14 1 0.5 1
9 0 1 0 0 0 1 0 0 0 1 -21.269 -104.769 -5 1 0.5 1
9 0 1 0 0 0 1 0 0 0 1 -21.269 -104.769 5 1 0.5 1
9 0 1 0 0 0 1 0 0 0 1 -22.769 105.231 0 0.5 0.5 2
9 0 1 0 0 0 1 0 0 0 1 -22.269 97.231 -15.5 2 0.5 0.5
9 0 1 0 0 0 1 0 0 0 1 -23.269 95.231 -10 1 0.5 1
9 0 1 0 0 0 1 0 0 0 1 -23.269 95.231 10 1 0.5 1
9 0 1 0 0 0 1 0 0 0 1 -23.769 -12.269 0.5 0.5 2 0.5
9 0 1 0 0 0 1 0 0 0 1 -23.269 -95.769 -12 1 0.5 1
9 0 1 0 0 0 1 0 0 0 1 -25.269 101.231 -12 1 0.5 1
9 0 1 0 0 0 1 0 0 0 1 -24.269 101.231 12.5 2 0.5 0.5
9 0 1 0 0 0 1 0 0 0 1 -24.269 7.231003 0.5 2 0.5 0.5
9 0 1 0 0 0 1 0 0 0 1 -25.269 -99.769 -14 1 0.5 1
9 0 1 0 0 0 1 0 0 0 1 -25.269 -99.769 14 1 0.5 1
9 0 1 0 0 0 1 0 0 0 1 -26.269 95.231 -13 1 0.5 1
9 0 1 0 0 0 1 0 0 0 1 -26.269 -6.268997 0.5 1 1 0.5
9 0 1 0 0 0 1 0 0 0 1 -27.769 -92.769 -2 0.5 0.5 2
9 0 1 0 0 0 1 0 0 0 1 -27.769 -103.769 0 0.5 0.5 2
9 0 1 0 0 0 1 0 0 0 1 -28.269 -94.769 -12.5 2 0.5 0.5
9 0 1 0 0 0 1 0 0 0 1 -30.269 94.231 -13 1 0.5 1
9 0 1 0 0 0 1 0 0 0 1 -29.269 77.231 0.5 2 0.5 0.5
9 0 1 0 0 0 1 0 0 0 1 -30.269 -92.769 -7 1 0.5 1
9 0 1 0 0 0 1 0 0 0 1 -31.269 -91.769 -1 1 0.5 1
9 0 1 0 0 0 1 0 0 0 1 -31.269 -91.769 2 1 0.5 1
9 0 1 0 0 0 1 0 0 0 1 -31.769 -102.769 0 0.5 0.5 2
9 0 1 0 0 0 1 0 0 0 1 -32.269 94.731 -12.5 1 1 0.5
9 0 1 0 0 0 1 0 0 0 1 -32.769 91.231 -2 0.5 0.5 2
9 0 1 0 0 0 1 0 0 0 1 -33.269 97.231 -14 1 0.5 1
9 0 1 0 0 0 1 0 0 0 1 -33.269 97.231 14 1 0.5 1
9 0 1 0 0 0 1 0 0 0 1 -33.269 93.231 12 1 0.5 1
9 0 1 0 0 0 1 0 0 0 1 -33.269 92.231 -9 1 0.5 1
9 0 1 0 0 0 1 0 0 0 1 -33.269 92.231 9 1 0.5 1
9 0 1 0 0 0 1 0 0 0 1 -33.269 -100.769 -7 1 0.5 1
9 0 1 0 0 0 1 0 0 0 1 -33.269 -100.769 7 1 0.5 1
9 0 1 0 0 0 1 0 0 0 1 -34.269 98.231 -12 1 0.5 1
9 0 1 0 0 0 1 0 0 0 1 -34.269 98.231 12 1 0.5 1
9 0 1 0 0 0 1 0 0 0 1 -33.269 96.231 15.5 2 0.5 0.5
9 0 1 0 0 0 1 0 0 0 1 -34.269 -91.769 -8 1 0.5 1
9 0 1 0 0 0 1 0 0 0 1 -34.269 -98.769 -11 1 0.5 1
9 0 1 0 0 0 1 0 0 0 1 -34.269 -98.769 11 1 0.5 1
9 0 1 0 0 0 1 0 0 0 1 -35.269 91.231 -8 1 0.5 1
9 0 1 0 0 0 1 0 0 0 1 -35.769 90.231 3 0.5 0.5 2
9 0 1 0 0 0 1 0 0 0 1 -35.769 7.231003 -4 0.5 0.5 2
9 0 1 0 0 0 1 0 0 0 1 -36.769 91.231 -10 0.5 0.5 2
9 0 1 0 0 0 1 0 0 0 1 -35.269 -74.769 0.5 2 0.5 0.5
9 0 1 0 0 0 1 0 0 0 1 -36.269 -90.769 -8 1 0.5 1
9 0 1 0 0 0 1 0 0 0 1 -36.269 -99.769 6 1 0.5 1
9 0 1 0 0 0 1 0 0 0 1 -38.769 100.231 0 0.5 0.5 2
9 0 1 0 0 0 1 0 0 0 1 -38.769 89.231 -6 0.5 0.5 2
9 0 1 0 0 0 1 0 0 0 1 -38.769 -88.769 -2 0.5 0.5 2
9 0 1 0 0 0 1 0 0 0 1 -39.269 97.231 10 1 0.5 1
9 0 1 0 0 0 1 0 0 0 1 -39.269 90.231 10 1 0.5 1
9 0 1 0 0 0 1 0 0 0 1 -39.769 88.231 1 0.5 0.5 2
9 0 1 0 0 0 1 0 0 0 1 -39.269 -90.769 -13 1 0.5 1
9 0 1 0 0 0 1 0 0 0 1 -39.269 -98.769 6 1 0.5 1
9 0 1 0 0 0 1 0 0 0 1 -40.269 -93.269 -15.5 1 1 0.5
9 0 1 0 0 0 1 0 0 0 1 -40.269 -93.269 15.5 1 1 0.5
9 0 1 0 0 0 1 0 0 0 1 -41.269 89.231 10 1 0.5 1
9 0 1 0 0 0 1 0 0 0 1 -41.269 -88.769 -8 1 0.5 1
9 0 1 0 0 0 1 0 0 0 1 -41.269 -88.769 8 1 0.5 1
9 0 1 0 0 0 1 0 0 0 1 -42.269 97.231 6 1 0.5 1
9 0 1 0 0 0 1 0 0 0 1 -42.769 95.731 8 0.5 1 1
9 0 1 0 0 0 1 0 0 0 1 -43.769 98.231 0 0.5 0.5 2
9 0 1 0 0 0 1 0 0 0 1 -43.269 93.231 -14 1 0.5 1
9 0 1 0 0 0 1 0 0 0 1 -43.269 93.231 14 1 0.5 1
9 0 1 0 0 0 1 0 0 0 1 -43.269 -96.769 7 1 0.5 1
9 0 1 0 0 0 1 0 0 0 1 -44.269 93.731 -12.5 1 1 0.5
9 0 1 0 0 0 1 0 0 0 1 -44.769 86.231 3 0.5 0.5 2
9 0 1 0 0 0 1 0 0 0 1 -44.269 -87.769 9 1 0.5 1
9 0 1 0 0 0 1 0 0 0 1 -44.269 -88.769 -13 1 0.5 1
9 0 1 0 0 0 1 0 0 0 1 -44.269 -92.769 -14 1 0.5 1
9 0 1 0 0 0 1 0 0 0 1 -44.269 -92.769 14 1 0.5 1
9 0 1 0 0 0 1 0 0 0 1 -44.269 -95.769 -8 1 0.5 1
9 0 1 0 0 0 1 0 0 0 1 -44.769 -97.769 0 0.5 0.5 2
9 0 1 0 0 0 1 0 0 0 1 -45.269 88.231 13 1 0.5 1
9 0 1 0 0 0 1 0 0 0 1 -45.269 -93.769 -12 1 0.5 1
9 0 1 0 0 0 1 0 0 0 1 -46.269 88.231 -15 1 0.5 1
9 0 1 0 0 0 1 0 0 0 1 -46.769 65.731 0.5 0.5 2 0.5
9 0 1 0 0 0 1 0 0 0 1 -46.269 53.731 0.5 1 1 0.5
9 0 1 0 0 0 1 0 0 0 1 -46.269 6.731003 0.5 1 1 0.5
9 0 1 0 0 0 1 0 0 0 1 -46.269 -6.268997 0.5 1 1 0.5
9 0 1 0 0 0 1 0 0 0 1 -46.769 -85.769 7 0.5 0.5 2
9 0 1 0 0 0 1 0 0 0 1 -46.769 -91.269 -14 0.5 1 1
9 0 1 0 0 0 1 0 0 0 1 -46.269 -95.769 6 1 0.5 1
9 0 1 0 0 0 1 0 0 0 1 -46.769 -96.769 0 0.5 0.5 2
9 0 1 0 0 0 1 0 0 0 1 -47.269 95.231 6 1 0.5 1
9 0 1 0 0 0 1 0 0 0 1 -47.269 89.231 10 1 0.5 1
9 0 1 0 0 0 1 0 0 0 1 -47.769 85.231 7 0.5 0.5 2
9 0 1 0 0 0 1 0 0 0 1 -47.269 -44.269 0.5 1 1 0.5
9 0 1 0 0 0 1 0 0 0 1 -47.269 -92.769 12 1 0.5 1
9 0 1 0 0 0 1 0 0 0 1 -48.769 -92.769 -9 0.5 0.5 2
9 0 1 0 0 0 1 0 0 0 1 -48.769 -92.769 9 0.5 0.5 2
9 0 1 0 0 0 1 0 0 0 1 -49.769 95.231 0 0.5 0.5 2
9 0 1 0 0 0 1 0 0 0 1 -49.269 91.231 12 1 0.5 1
9 0 1 0 0 0 1 0 0 0 1 -49.269 -84.769 8 1 0.5 1
9 0 1 0 0 0 1 0 0 0 1 -49.269 -85.769 -12 1 0.5 1
9 0 1 0 0 0 1 0 0 0 1 -50.769 92.231 -8 0.5 0.5 2
9 0 1 0 0 0 1 0 0 0 1 -50.769 92.231 8 0.5 0.5 2
9 0 1 0 0 0 1 0 0 0 1 -50.769 -82.769 -2 0.5 0.5 2
9 0 1 0 0 0 1 0 0 0 1 -50.769 -82.769 3 0.5 0.5 2
9 0 1 0 0 0 1 0 0 0 1 -50.269 -85.769 -14 1 0.5 1
9 0 1 0 0 0 1 0 0 0 1 -51.269 91.231 -10 1 0.5 1
9 0 1 0 0 0 1 0 0 0 1 -51.269 88.231 15 1 0.5 1
9 0 1 0 0 0 1 0 0 0 1 -51.269 85.231 -8 1 0.5 1
9 0 1 0 0 0 1 0 0 0 1 -51.269 40.731 0.5 1 1 0.5
9 0 1 0 0 0 1 0 0 0 1 -51.269 -40.269 0.5 1 1 0.5
9 0 1 0 0 0 1 0 0 0 1 -50.269 -86.769 -15.5 2 0.5 0.5
9 0 1 0 0 0 1 0 0 0 1 -52.769 91.231 -8 0.5 0.5 2
9 0 1 0 0 0 1 0 0 0 1 -52.769 91.231 8 0.5 0.5 2
9 0 1 0 0 0 1 0 0 0 1 -51.269 86.231 -15.5 2 0.5 0.5
9 0 1 0 0 0 1 0 0 0 1 -52.269 84.231 -13 1 0.5 1
9 0 1 0 0 0 1 0 0 0 1 -52.769 -81.769 3 0.5 0.5 2
9 0 1 0 0 0 1 0 0 0 1 -52.269 -89.769 -12 1 0.5 1
9 0 1 0 0 0 1 0 0 0 1 -53.269 -87.269 14.5 1 1 0.5
9 0 1 0 0 0 1 0 0 0 1 -53.769 -89.269 -7.5 0.5 2 0.5
9 0 1 0 0 0 1 0 0 0 1 -54.269 83.231 13 1 0.5 1
9 0 1 0 0 0 1 0 0 0 1 -54.769 81.231 8 0.5 0.5 2
9 0 1 0 0 0 1 0 0 0 1 -54.269 -87.769 13 1 0.5 1
9 0 1 0 0 0 1 0 0 0 1 -55.269 90.231 7 1 0.5 1
9 0 1 0 0 0 1 0 0 0 1 -55.769 88.231 11 0.5 0.5 2
9 0 1 0 0 0 1 0 0 0 1 -55.269 87.231 13 1 0.5 1
9 0 1 0 0 0 1 0 0 0 1 -55.269 86.231 -14 1 0.5 1
9 0 1 0 0 0 1 0 0 0 1 -55.769 80.231 -6 0.5 0.5 2
9 0 1 0 0 0 1 0 0 0 1 -55.769 7.231003 -4 0.5 0.5 2
9 0 1 0 0 0 1 0 0 0 1 -56.769 91.231 0 0.5 0.5 2
9 0 1 0 0 0 1 0 0 0 1 -56.269 86.231 13 1 0.5 1
9 0 1 0 0 0 1 0 0 0 1 -56.769 -78.769 -2 0.5 0.5 2
9 0 1 0 0 0 1 0 0 0 1 -56.769 -85.269 -14 0.5 1 1
9 0 1 0 0 0 1 0 0 0 1 -56.769 -87.769 -10 0.5 0.5 2
9 0 1 0 0 0 1 0 0 0 1 -56.769 -87.769 10 0.5 0.5 2
9 0 1 0 0 0 1 0 0 0 1 -56.269 -88.769 -9 1 0.5 1
9 0 1 0 0 0 1 0 0 0 1 -57.769 88.731 -7 0.5 1 1
9 0 1 0 0 0 1 0 0 0 1 -57.769 88.731 7 0.5 1 1
9 0 1 0 0 0 1 0 0 0 1 -57.269 82.231 -15 1 0.5 1
9 0 1 0 0 0 1 0 0 0 1 -57.269 81.231 13 1 0.5 1
9 0 1 0 0 0 1 0 0 0 1 -57.269 -80.769 12 1 0.5 1
9 0 1 0 0 0 1 0 0 0 1 -57.269 -83.269 -7.5 1 1 0.5
9 0 1 0 0 0 1 0 0 0 1 -57.769 -88.769 -7 0.5 0.5 2
9 0 1 0 0 0 1 0 0 0 1 -57.769 -88.769 7 0.5 0.5 2
9 0 1 0 0 0 1 0 0 0 1 -58.769 90.231 0 0.5 0.5 2
9 0 1 0 0 0 1 0 0 0 1 -58.769 86.731 10 0.5 1 1
9 0 1 0 0 0 1 0 0 0 1 -58.769 84.731 13 0.5 1 1
9 0 1 0 0 0 1 0 0 0 1 -58.769 83.731 -14 0.5 1 1
9 0 1 0 0 0 1 0 0 0 1 -58.769 77.231 -2 0.5 0.5 2
9 0 1 0 0 0 1 0 0 0 1 -58.269 -80.769 -14 1 0.5 1
9 0 1 0 0 0 1 0 0 0 1 -58.769 -86.769 -10 0.5 0.5 2
9 0 1 0 0 0 1 0 0 0 1 -58.769 -86.769 10 0.5 0.5 2
9 0 1 0 0 0 1 0 0 0 1 -59.269 83.231 14 1 0.5 1
9 0 1 0 0 0 1 0 0 0 1 -59.269 -82.269 15.5 1 1 0.5
9 0 1 0 0 0 1 0 0 0 1 -60.769 86.231 -8 0.5 0.5 2
9 0 1 0 0 0 1 0 0 0 1 -60.769 84.731 -11 0.5 1 1
9 0 1 0 0 0 1 0 0 0 1 -60.269 79.231 14 1 0.5 1
9 0 1 0 0 0 1 0 0 0 1 -60.769 -76.769 -8 0.5 0.5 2
9 0 1 0 0 0 1 0 0 0 1 -60.269 -77.769 -7 1 0.5 1
9 0 1 0 0 0 1 0 0 0 1 -60.769 -84.769 -10 0.5 0.5 2
9 0 1 0 0 0 1 0 0 0 1 -60.769 -84.769 10 0.5 0.5 2
9 0 1 0 0 0 1 0 0 0 1 -61.769 -76.769 -10 0.5 0.5 2
9 0 1 0 0 0 1 0 0 0 1 -61.769 -85.769 -7 0.5 0.5 2
9 0 1 0 0 0 1 0 0 0 1 -61.769 -85.769 7 0.5 0.5 2
9 0 1 0 0 0 1 0 0 0 1 -62.769 87.231 0 0.5 0.5 2
9 0 1 0 0 0 1 0 0 0 1 -62.769 80.731 -14 0.5 1 1
9 0 1 0 0 0 1 0 0 0 1 -62.769 76.231 11 0.5 0.5 2
9 0 1 0 0 0 1 0 0 0 1 -62.769 -81.269 13 0.5 1 1
9 0 1 0 0 0 1 0 0 0 1 -62.769 -83.769 -10 0.5 0.5 2
9 0 1 0 0 0 1 0 0 0 1 -63.769 82.731 10 0.5 1 1
9 0 1 0 0 0 1 0 0 0 1 -63.769 79.731 14 0.5 1 1
9 0 1 0 0 0 1 0 0 0 1 -63.769 74.231 -7 0.5 0.5 2
9 0 1 0 0 0 1 0 0 0 1 -63.769 74.231 7 0.5 0.5 2
9 0 1 0 0 0 1 0 0 0 1 -63.769 -74.769 9 0.5 0.5 2
9 0 1 0 0 0 1 0 0 0 1 -63.269 -81.269 -12.5 1 1 0.5
9 0 1 0 0 0 1 0 0 0 1 -63.769 -82.769 10 0.5 0.5 2
9 0 1 0 0 0 1 0 0 0 1 -64.269 -75.769 -13 1 0.5 1
9 0 1 0 0 0 1 0 0 0 1 -64.269 -75.769 13 1 0.5 1
9 0 1 0 0 0 1 0 0 0 1 -65.269 75.231 -14 1 0.5 1
9 0 1 0 0 0 1 0 0 0 1 -65.769 -71.769 3 0.5 0.5 2
9 0 1 0 0 0 1 0 0 0 1 -65.769 -72.769 -8 0.5 0.5 2
9 0 1 0 0 0 1 0 0 0 1 -65.769 -72.769 8 0.5 0.5 2
9 0 1 0 0 0 1 0 0 0 1 -65.269 -74.769 -12 1 0.5 1
9 0 1 0 0 0 1 0 0 0 1 -65.769 -78.269 -14 0.5 1 1
9 0 1 0 0 0 1 0 0 0 1 -65.769 -79.269 13 0.5 1 1
9 0 1 0 0 0 1 0 0 0 1 -65.769 -83.269 -5 0.5 1 1
9 0 1 0 0 0 1 0 0 0 1 -66.769 81.731 -7 0.5 1 1
9 0 1 0 0 0 1 0 0 0 1 -66.769 81.731 7 0.5 1 1
9 0 1 0 0 0 1 0 0 0 1 -65.269 70.231 0.5 2 0.5 0.5
9 0 1 0 0 0 1 0 0 0 1 -66.269 53.731 0.5 1 1 0.5
9 0 1 0 0 0 1 0 0 0 1 -66.269 6.731003 0.5 1 1 0.5
9 0 1 0 0 0 1 0 0 0 1 -66.269 -6.268997 0.5 1 1 0.5
9 0 1 0 0 0 1 0 0 0 1 -66.769 -80.269 -7.5 0.5 2 0.5
9 0 1 0 0 0 1 0 0 0 1 -67.769 83.231 0 0.5 0.5 2
9 0 1 0 0 0 1 0 0 0 1 -67.269 78.231 13 1 0.5 1
9 0 1 0 0 0 1 0 0 0 1 -67.769 76.731 -14 0.5 1 1
9 0 1 0 0 0 1 0 0 0 1 -67.269 73.731 -12.5 1 1 0.5
9 0 1 0 0 0 1 0 0 0 1 -67.269 -78.769 3 1 0.5 1
9 0 1 0 0 0 1 0 0 0 1 -67.769 -79.269 -11 0.5 1 1
9 0 1 0 0 0 1 0 0 0 1 -68.269 81.231 6 1 0.5 1
9 0 1 0 0 0 1 0 0 0 1 -68.269 72.231 13 1 0.5 1
9 0 1 0 0 0 1 0 0 0 1 -68.269 68.231 0 1 0.5 1
9 0 1 0 0 0 1 0 0 0 1 -69.269 78.231 -11 1 0.5 1
9 0 1 0 0 0 1 0 0 0 1 -69.769 75.731 -13 0.5 1 1
9 0 1 0 0 0 1 0 0 0 1 -69.269 67.231 0 1 0.5 1
9 0 1 0 0 0 1 0 0 0 1 -69.769 -68.769 -8 0.5 0.5 2
9 0 1 0 0 0 1 0 0 0 1 -69.269 -78.769 10 1 0.5 1
9 0 1 0 0 0 1 0 0 0 1 -70.769 77.731 9 0.5 1 1
9 0 1 0 0 0 1 0 0 0 1 -70.269 -70.769 -14 1 0.5 1
9 0 1 0 0 0 1 0 0 0 1 -70.269 -70.769 14 1 0.5 1
9 0 1 0 0 0 1 0 0 0 1 -70.269 -74.769 -14 1 0.5 1
9 0 1 0 0 0 1 0 0 0 1 -71.769 75.731 -11 0.5 1 1
9 0 1 0 0 0 1 0 0 0 1 -71.769 70.731 15.5 0.5 2 0.5
9 0 1 0 0 0 1 0 0 0 1 -71.769 -66.769 8 0.5 0.5 2
9 0 1 0 0 0 1 0 0 0 1 -71.769 -76.269 -10 0.5 1 1
9 0 1 0 0 0 1 0 0 0 1 -71.769 -78.769 4 0.5 0.5 2
9 0 1 0 0 0 1 0 0 0 1 -72.769 67.231 -12 0.5 0.5 2
9 0 1 0 0 0 1 0 0 0 1 -72.769 67.231 12 0.5 0.5 2
9 0 1 0 0 0 1 0 0 0 1 -72.769 -65.769 -8 0.5 0.5 2
9 0 1 0 0 0 1 0 0 0 1 -72.769 -67.769 14 0.5 0.5 2
9 0 1 0 0 0 1 0 0 0 1 -73.769 74.731 9 0.5 1 1
9 0 1 0 0 0 1 0 0 0 1 -73.769 71.731 -13 0.5 1 1
9 0 1 0 0 0 1 0 0 0 1 -73.769 70.731 14 0.5 1 1
9 0 1 0 0 0 1 0 0 0 1 -73.269 66.231 -9 1 0.5 1
9 0 1 0 0 0 1 0 0 0 1 -73.269 66.231 9 1 0.5 1
9 0 1 0 0 0 1 0 0 0 1 -73.769 -72.269 12 0.5 1 1
9 0 1 0 0 0 1 0 0 0 1 -73.269 -73.769 10 1 0.5 1
9 0 1 0 0 0 1 0 0 0 1 -73.769 -74.769 -8 0.5 0.5 2
9 0 1 0 0 0 1 0 0 0 1 -74.769 70.731 13 0.5 1 1
9 0 1 0 0 0 1 0 0 0 1 -74.769 65.231 -12 0.5 0.5 2
9 0 1 0 0 0 1 0 0 0 1 -74.769 65.231 12 0.5 0.5 2
9 0 1 0 0 0 1 0 0 0 1 -74.769 62.231 3 0.5 0.5 2
9 0 1 0 0 0 1 0 0 0 1 -74.269 -74.769 8 1 0.5 1
9 0 1 0 0 0 1 0 0 0 1 -75.269 66.231 -15 1 0.5 1
9 0 1 0 0 0 1 0 0 0 1 -75.769 64.731 14 0.5 1 1
9 0 1 0 0 0 1 0 0 0 1 -75.769 60.231 0 0.5 0.5 2
9 0 1 0 0 0 1 0 0 0 1 -75.269 33.731 0.5 1 1 0.5
9 0 1 0 0 0 1 0 0 0 1 -75.769 7.231003 -4 0.5 0.5 2
9 0 1 0 0 0 1 0 0 0 1 -76.769 72.731 -7 0.5 1 1
9 0 1 0 0 0 1 0 0 0 1 -76.769 71.731 -9 0.5 1 1
9 0 1 0 0 0 1 0 0 0 1 -76.769 68.731 -13 0.5 1 1
9 0 1 0 0 0 1 0 0 0 1 -76.269 -63.769 -13 1 0.5 1
9 0 1 0 0 0 1 0 0 0 1 -76.769 -67.269 -14 0.5 1 1
9 0 1 0 0 0 1 0 0 0 1 -76.769 -74.769 0 0.5 0.5 2
9 0 1 0 0 0 1 0 0 0 1 -77.769 70.731 9 0.5 1 1
9 0 1 0 0 0 1 0 0 0 1 -77.769 66.731 14 0.5 1 1
9 0 1 0 0 0 1 0 0 0 1 -77.269 63.231 -13 1 0.5 1
9 0 1 0 0 0 1 0 0 0 1 -77.769 62.231 -14 0.5 0.5 2
9 0 1 0 0 0 1 0 0 0 1 -77.769 60.231 10 0.5 0.5 2
9 0 1 0 0 0 1 0 0 0 1 -77.769 58.231 3 0.5 0.5 2
9 0 1 0 0 0 1 0 0 0 1 -76.269 -64.769 -12.5 2 0.5 0.5
9 0 1 0 0 0 1 0 0 0 1 -77.269 -69.269 12.5 1 1 0.5
9 0 1 0 0 0 1 0 0 0 1 -77.769 -70.769 9 0.5 0.5 2
9 0 1 0 0 0 1 0 0 0 1 -78.769 68.731 -11 0.5 1 1
9 0 1 0 0 0 1 0 0 0 1 -78.769 64.731 -15 0.5 1 1
9 0 1 0 0 0 1 0 0 0 1 -78.769 59.231 10 0.5 0.5 2
9 0 1 0 0 0 1 0 0 0 1 -78.769 58.231 8 0.5 0.5 2
9 0 1 0 0 0 1 0 0 0 1 -78.769 -56.769 -2 0.5 0.5 2
9 0 1 0 0 0 1 0 0 0 1 -79.769 64.731 -14 0.5 1 1
9 0 1 0 0 0 1 0 0 0 1 -79.269 61.731 15.5 1 1 0.5
9 0 1 0 0 0 1 0 0 0 1 -79.769 57.231 -8 0.5 0.5 2
9 0 1 0 0 0 1 0 0 0 1 -79.769 55.231 -2 0.5 0.5 2
9 0 1 0 0 0 1 0 0 0 1 -79.269 -24.269 0.5 1 1 0.5
9 0 1 0 0 0 1 0 0 0 1 -79.769 -56.769 -7 0.5 0.5 2
9 0 1 0 0 0 1 0 0 0 1 -79.269 -65.269 13.5 1 1 0.5
9 0 1 0 0 0 1 0 0 0 1 -80.769 71.231 0 0.5 0.5 2
9 0 1 0 0 0 1 0 0 0 1 -80.769 68.731 6 0.5 1 1
9 0 1 0 0 0 1 0 0 0 1 -80.769 64.731 -12.5 0.5 2 0.5
9 0 1 0 0 0 1 0 0 0 1 -80.769 64.731 12.5 0.5 2 0.5
9 0 1 0 0 0 1 0 0 0 1 -80.769 54.231 3 0.5 0.5 2
9 0 1 0 0 0 1 0 0 0 1 -80.269 21.731 0.5 1 1 0.5
9 0 1 0 0 0 1 0 0 0 1 -80.769 -58.269 -14 0.5 1 1
9 0 1 0 0 0 1 0 0 0 1 -80.769 -66.769 9 0.5 0.5 2
9 0 1 0 0 0 1 0 0 0 1 -81.769 68.231 -5 0.5 0.5 2
9 0 1 0 0 0 1 0 0 0 1 -81.769 68.231 5 0.5 0.5 2
9 0 1 0 0 0 1 0 0 0 1 -81.769 66.731 -7 0.5 1 1
9 0 1 0 0 0 1 0 0 0 1 -81.769 66.731 7 0.5 1 1
9 0 1 0 0 0 1 0 0 0 1 -81.769 -52.269 2 0.5 1 1
9 0 1 0 0 0 1 0 0 0 1 -81.769 -53.769 -8 0.5 0.5 2
9 0 1 0 0 0 1 0 0 0 1 -81.769 -55.269 -10 0.5 1 1
9 0 1 0 0 0 1 0 0 0 1 -81.269 -64.269 -12.5 1 1 0.5
9 0 1 0 0 0 1 0 0 0 1 -81.769 -65.769 -9 0.5 0.5 2
9 0 1 0 0 0 1 0 0 0 1 -81.769 -65.769 9 0.5 0.5 2
9 0 1 0 0 0 1 0 0 0 1 -81.769 -69.769 0 0.5 0.5 2
9 0 1 0 0 0 1 0 0 0 1 -82.769 68.231 0 0.5 0.5 2
9 0 1 0 0 0 1 0 0 0 1 -82.769 65.731 -7 0.5 1 1
9 0 1 0 0 0 1 0 0 0 1 -82.769 65.731 7 0.5 1 1
9 0 1 0 0 0 1 0 0 0 1 -82.769 63.731 -10 0.5 1 1
9 0 1 0 0 0 1 0 0 0 1 -82.769 63.731 10 0.5 1 1
9 0 1 0 0 0 1 0 0 0 1 -82.769 54.731 12 0.5 1 1
9 0 1 0 0 0 1 0 0 0 1 -82.769 52.731 9 0.5 1 1
9 0 1 0 0 0 1 0 0 0 1 -82.769 -50.769 3 0.5 0.5 2
9 0 1 0 0 0 1 0 0 0 1 -82.769 -60.269 -14 0.5 1 1
9 0 1 0 0 0 1 0 0 0 1 -82.769 -64.769 -8 0.5 0.5 2
9 0 1 0 0 0 1 0 0 0 1 -82.769 -64.769 8 0.5 0.5 2
9 0 1 0 0 0 1 0 0 0 1 -83.769 66.231 -4 0.5 0.5 2
9 0 1 0 0 0 1 0 0 0 1 -83.769 53.731 -14 0.5 1 1
9 0 1 0 0 0 1 0 0 0 1 -83.769 52.731 -12 0.5 1 1
9 0 1 0 0 0 1 0 0 0 1 -83.769 50.231 -7 0.5 0.5 2
9 0 1 0 0 0 1 0 0 0 1 -83.769 46.731 0.5 0.5 2 0.5
9 0 1 0 0 0 1 0 0 0 1 -83.769 -51.269 -9 0.5 1 1
9 0 1 0 0 0 1 0 0 0 1 -83.769 -63.269 -9 0.5 1 1
9 0 1 0 0 0 1 0 0 0 1 -83.769 -63.269 9 0.5 1 1
9 0 1 0 0 0 1 0 0 0 1 -84.269 63.731 5.5 1 1 0.5
9 0 1 0 0 0 1 0 0 0 1 -84.769 56.731 -15 0.5 1 1
9 0 1 0 0 0 1 0 0 0 1 -84.769 49.731 10 0.5 1 1
9 0 1 0 0 0 1 0 0 0 1 -84.769 -57.269 -14 0.5 1 1
9 0 1 0 0 0 1 0 0 0 1 -85.769 61.731 -7 0.5 1 1
9 0 1 0 0 0 1 0 0 0 1 -85.769 59.731 -10 0.5 1 1
9 0 1 0 0 0 1 0 0 0 1 -85.769 47.731 -9 0.5 1 1
9 0 1 0 0 0 1 0 0 0 1 -85.769 -50.269 14 0.5 1 1
9 0 1 0 0 0 1 0 0 0 1 -85.769 -57.269 -13 0.5 1 1
9 0 1 0 0 0 1 0 0 0 1 -85.769 -59.769 -10 0.5 0.5 2
9 0 1 0 0 0 1 0 0 0 1 -86.769 62.231 -4 0.5 0.5 2
9 0 1 0 0 0 1 0 0 0 1 -86.769 62.231 4 0.5 0.5 2
9 0 1 0 0 0 1 0 0 0 1 -86.769 56.731 -12 0.5 1 1
9 0 1 0 0 0 1 0 0 0 1 -86.769 56.731 12 0.5 1 1
9 0 1 0 0 0 1 0 0 0 1 -86.269 6.731003 0.5 1 1 0.5
9 0 1 0 0 0 1 0 0 0 1 -86.269 -6.268997 0.5 1 1 0.5
9 0 1 0 0 0 1 0 0 0 1 -86.769 -43.269 -1 0.5 1 1
9 0 1 0 0 0 1 0 0 0 1 -86.769 -43.769 3 0.5 0.5 2
9 0 1 0 0 0 1 0 0 0 1 -86.769 -46.269 10 0.5 1 1
9 0 1 0 0 0 1 0 0 0 1 -86.769 -59.769 8 0.5 0.5 2
9 0 1 0 0 0 1 0 0 0 1 -87.769 59.731 6 0.5 1 1
9 0 1 0 0 0 1 0 0 0 1 -87.769 -40.769 0 0.5 0.5 2
9 0 1 0 0 0 1 0 0 0 1 -87.769 -44.269 10 0.5 1 1
9 0 1 0 0 0 1 0 0 0 1 -87.769 -58.269 -9 0.5 1 1
9 0 1 0 0 0 1 0 0 0 1 -88.769 54.731 -11 0.5 1 1
9 0 1 0 0 0 1 0 0 0 1 -88.769 54.731 11 0.5 1 1
9 0 1 0 0 0 1 0 0 0 1 -88.769 -49.269 8.5 0.5 2 0.5
9 0 1 0 0 0 1 0 0 0 1 -88.769 -54.269 -12 0.5 1 1
9 0 1 0 0 0 1 0 0 0 1 -88.769 -60.769 0 0.5 0.5 2
9 0 1 0 0 0 1 0 0 0 1 -89.769 -36.269 2 0.5 1 1
9 0 1 0 0 0 1 0 0 0 1 -89.769 -48.269 -15 0.5 1 1
9 0 1 0 0 0 1 0 0 0 1 -89.769 -48.269 15 0.5 1 1
9 0 1 0 0 0 1 0 0 0 1 -90.769 34.231 -2 0.5 0.5 2
9 0 1 0 0 0 1 0 0 0 1 -90.769 34.231 3 0.5 0.5 2
9 0 1 0 0 0 1 0 0 0 1 -90.269 -39.269 8.5 1 1 0.5
9 0 1 0 0 0 1 0 0 0 1 -90.769 -40.269 -14 0.5 1 1
9 0 1 0 0 0 1 0 0 0 1 -90.269 -41.769 14 1 0.5 1
9 0 1 0 0 0 1 0 0 0 1 -90.769 -50.269 -12 0.5 1 1
9 0 1 0 0 0 1 0 0 0 1 -90.769 -53.769 -8 0.5 0.5 2
9 0 1 0 0 0 1 0 0 0 1 -90.769 -53.269 9 0.5 1 1
9 0 1 0 0 0 1 0 0 0 1 -91.769 35.731 -11 0.5 1 1
9 0 1 0 0 0 1 0 0 0 1 -91.769 31.231 -2 0.5 0.5 2
9 0 1 0 0 0 1 0 0 0 1 -91.769 -46.269 -14 0.5 1 1
9 0 1 0 0 0 1 0 0 0 1 -91.769 -49.769 -10 0.5 0.5 2
9 0 1 0 0 0 1 0 0 0 1 -91.769 -51.769 8 0.5 0.5 2
9 0 1 0 0 0 1 0 0 0 1 -91.769 -55.769 0 0.5 0.5 2
9 0 1 0 0 0 1 0 0 0 1 -92.769 32.731 -10 0.5 1 1
9 0 1 0 0 0 1 0 0 0 1 -92.769 32.731 10 0.5 1 1
9 0 1 0 0 0 1 0 0 0 1 -92.769 -34.269 -12 0.5 1 1
9 0 1 0 0 0 1 0 0 0 1 -92.269 -47.269 -12.5 1 1 0.5
9 0 1 0 0 0 1 0 0 0 1 -92.269 -47.769 7 1 0.5 1
9 0 1 0 0 0 1 0 0 0 1 -93.769 -29.269 10 0.5 1 1
9 0 1 0 0 0 1 0 0 0 1 -93.769 -30.269 -11 0.5 1 1
9 0 1 0 0 0 1 0 0 0 1 -93.769 -34.269 -15 0.5 1 1
9 0 1 0 0 0 1 0 0 0 1 -93.769 -47.269 10 0.5 1 1
9 0 1 0 0 0 1 0 0 0 1 -94.769 44.731 -10 0.5 1 1
9 0 1 0 0 0 1 0 0 0 1 -94.769 42.731 -12 0.5 1 1
9 0 1 0 0 0 1 0 0 0 1 -94.769 42.731 12 0.5 1 1
9 0 1 0 0 0 1 0 0 0 1 -94.769 39.731 -14 0.5 1 1
9 0 1 0 0 0 1 0 0 0 1 -94.769 25.731 10 0.5 1 1
9 0 1 0 0 0 1 0 0 0 1 -94.769 22.731 -7 0.5 1 1
9 0 1 0 0 0 1 0 0 0 1 -94.769 20.231 -2 0.5 0.5 2
9 0 1 0 0 0 1 0 0 0 1 -94.769 19.731 2 0.5 1 1
9 0 1 0 0 0 1 0 0 0 1 -94.769 -20.269 2 0.5 1 1
9 0 1 0 0 0 1 0 0 0 1 -94.769 -25.269 10 0.5 1 1
9 0 1 0 0 0 1 0 0 0 1 -94.769 -48.269 6 0.5 1 1
9 0 1 0 0 0 1 0 0 0 1 -95.769 44.731 -8 0.5 1 1
9 0 1 0 0 0 1 0 0 0 1 -95.769 44.731 8 0.5 1 1
9 0 1 0 0 0 1 0 0 0 1 -95.769 35.731 15 0.5 1 1
9 0 1 0 0 0 1 0 0 0 1 -95.769 24.731 -13 0.5 1 1
9 0 1 0 0 0 1 0 0 0 1 -95.769 14.731 -5 0.5 1 1
9 0 1 0 0 0 1 0 0 0 1 -95.769 11.731 -1 0.5 1 1
9 0 1 0 0 0 1 0 0 0 1 -95.769 -14.769 -4 0.5 0.5 2
9 0 1 0 0 0 1 0 0 0 1 -95.769 -14.269 4 0.5 1 1
9 0 1 0 0 0 1 0 0 0 1 -95.769 -27.269 -15.5 0.5 2 0.5
9 0 1 0 0 0 1 0 0 0 1 -95.269 -40.769 -9 1 0.5 1
9 0 1 0 0 0 1 0 0 0 1 -95.769 -40.269 12 0.5 1 1
9 0 1 0 0 0 1 0 0 0 1 -96.769 44.731 -5 0.5 1 1
9 0 1 0 0 0 1 0 0 0 1 -96.769 44.731 5 0.5 1 1
9 0 1 0 0 0 1 0 0 0 1 -96.769 -19.269 -12.5 0.5 2 0.5
9 0 1 0 0 0 1 0 0 0 1 -96.769 -19.269 12.5 0.5 2 0.5
9 0 1 0 0 0 1 0 0 0 1 -96.769 -34.269 14 0.5 1 1
9 0 1 0 0 0 1 0 0 0 1 -96.769 -44.269 6 0.5 1 1
9 0 1 0 0 0 1 0 0 0 1 -97.769 44.731 0 0.5 1 1
9 0 1 0 0 0 1 0 0 0 1 -97.769 -41.269 -6 0.5 1 1
9 0 1 0 0 0 1 0 0 0 1 -97.769 -41.269 6 0.5 1 1
9 0 1 0 0 0 1 0 0 0 1 -97.769 -44.769 0 0.5 0.5 2
9 0 1 0 0 0 1 0 0 0 1 -98.769 42.231 0 0.5 0.5 2
9 0 1 0 0 0 1 0 0 0 1 -98.769 -33.269 12 0.5 1 1
9 0 1 0 0 0 1 0 0 0 1 -98.769 -36.269 -9 0.5 1 1
9 0 1 0 0 0 1 0 0 0 1 -99.769 34.731 -8 0.5 1 1
9 0 1 0 0 0 1 0 0 0 1 -99.769 34.731 8 0.5 1 1
9 0 1 0 0 0 1 0 0 0 1 -99.769 -25.269 -14 0.5 1 1
9 0 1 0 0 0 1 0 0 0 1 -99.769 -32.269 -11 0.5 1 1
9 0 1 0 0 0 1 0 0 0 1 -99.769 -32.269 11 0.5 1 1
9 0 1 0 0 0 1 0 0 0 1 -99.769 -39.769 0 0.5 0.5 2
9 0 1 0 0 0 1 0 0 0 1 -100.769 25.731 -12.5 0.5 2 0.5
9 0 1 0 0 0 1 0 0 0 1 -100.769 25.731 12.5 0.5 2 0.5
9 0 1 0 0 0 1 0 0 0 1 -101.769 35.231 0 0.5 0.5 2
9 0 1 0 0 0 1 0 0 0 1 -101.269 24.731 -11.5 1 1 0.5
9 0 1 0 0 0 1 0 0 0 1 -101.269 24.731 11.5 1 1 0.5
9 0 1 0 0 0 1 0 0 0 1 -102.769 26.731 -6.5 0.5 2 0.5
9 0 1 0 0 0 1 0 0 0 1 -102.769 26.731 6.5 0.5 2 0.5
9 0 1 0 0 0 1 0 0 0 1 -102.769 20.731 -11 0.5 1 1
9 0 1 0 0 0 1 0 0 0 1 -102.769 20.731 11 0.5 1 1
9 0 1 0 0 0 1 0 0 0 1 -102.769 -12.269 -13.5 0.5 2 0.5
9 0 1 0 0 0 1 0 0 0 1 -102.769 -12.269 13.5 0.5 2 0.5
9 0 1 0 0 0 1 0 0 0 1 -102.769 -31.769 0 0.5 0.5 2
9 0 1 0 0 0 1 0 0 0 1 -103.769 24.731 5 0.5 1 1
9 0 1 0 0 0 1 0 0 0 1 -103.769 -15.269 -11.5 0.5 2 0.5
9 0 1 0 0 0 1 0 0 0 1 -103.769 -15.269 11.5 0.5 2 0.5
9 0 1 0 0 0 1 0 0 0 1 -104.769 24.731 0 0.5 1 1
9 0 1 0 0 0 1 0 0 0 1 -104.769 11.731 -9.5 0.5 2 0.5
9 0 1 0 0 0 1 0 0 0 1 -104.769 7.731003 11.5 0.5 2 0.5
9 0 1 0 0 0 1 0 0 0 1 -105.769 20.731 0 0.5 1 1
9 0 1 0 0 0 1 0 0 0 1 -105.269 17.731 -4.5 1 1 0.5
9 0 1 0 0 0 1 0 0 0 1 -105.269 17.731 4.5 1 1 0.5
9 0 1 0 0 0 1 0 0 0 1 -106.769 -13.769 0 0.5 0.5 2
9 0 1 0 0 0 1 0 0 0 1 106.231 -9.768997 -6.5 0.5 1.5 0.5
9 0 1 0 0 0 1 0 0 0 1 105.231 -14.769 7.5 0.5 1.5 0.5
9 0 1 0 0 0 1 0 0 0 1 104.231 14.231 10.5 0.5 1.5 0.5
9 0 1 0 0 0 1 0 0 0 1 104.231 11.231 -11.5 0.5 1.5 0.5
9 0 1 0 0 0 1 0 0 0 1 104.231 -16.769 -9.5 0.5 1.5 0.5
9 0 1 0 0 0 1 0 0 0 1 104.231 -21.769 -6.5 0.5 1.5 0.5
9 0 1 0 0 0 1 0 0 0 1 103.231 22.231 8.5 0.5 1.5 0.5
9 0 1 0 0 0 1 0 0 0 1 103.231 -21.769 9.5 0.5 1.5 0.5
9 0 1 0 0 0 1 0 0 0 1 102.231 29.231 6.5 0.5 1.5 0.5
9 0 1 0 0 0 1 0 0 0 1 102.231 -20.769 -12.5 0.5 1.5 0.5
9 0 1 0 0 0 1 0 0 0 1 102.231 -28.769 -6.5 0.5 1.5 0.5
9 0 1 0 0 0 1 0 0 0 1 102.231 -28.769 6.5 0.5 1.5 0.5
9 0 1 0 0 0 1 0 0 0 1 101.231 -18.769 14.5 0.5 1.5 0.5
9 0 1 0 0 0 1 0 0 0 1 100.231 -27.769 -12.5 0.5 1.5 0.5
9 0 1 0 0 0 1 0 0 0 1 100.231 -27.769 12.5 0.5 1.5 0.5
9 0 1 0 0 0 1 0 0 0 1 99.231 -31.769 -12.5 0.5 1.5 0.5
9 0 1 0 0 0 1 0 0 0 1 98.231 -34.769 12.5 0.5 1.5 0.5
9 0 1 0 0 0 1 0 0 0 1 97.231 36.231 -12.5 0.5 1.5 0.5
9 0 1 0 0 0 1 0 0 0 1 97.231 31.231 -15.5 0.5 1.5 0.5
9 0 1 0 0 0 1 0 0 0 1 97.231 31.231 15.5 0.5 1.5 0.5
9 0 1 0 0 0 1 0 0 0 1 97.231 12.231 -10.5 0.5 1.5 0.5
9 0 1 0 0 0 1 0 0 0 1 97.231 -15.769 12.5 0.5 1.5 0.5
9 0 1 0 0 0 1 0 0 0 1 96.231 42.231 -5.5 0.5 0.5 1.5
9 0 1 0 0 0 1 0 0 0 1 96.231 19.231 -10.5 0.5 1.5 0.5
9 0 1 0 0 0 1 0 0 0 1 96.231 19.231 10.5 0.5 1.5 0.5
9 0 1 0 0 0 1 0 0 0 1 96.231 14.231 -7.5 0.5 1.5 0.5
9 0 1 0 0 0 1 0 0 0 1 97.231 -39.769 -6.5 1.5 0.5 0.5
9 0 1 0 0 0 1 0 0 0 1 95.231 39.231 -13.5 0.5 1.5 0.5
9 0 1 0 0 0 1 0 0 0 1 94.231 22.231 -1.5 0.5 0.5 1.5
9 0 1 0 0 0 1 0 0 0 1 94.231 -21.769 -1.5 0.5 0.5 1.5
9 0 1 0 0 0 1 0 0 0 1 94.231 -43.769 -12.5 0.5 1.5 0.5
9 0 1 0 0 0 1 0 0 0 1 94.231 -46.769 9.5 0.5 0.5 1.5
9 0 1 0 0 0 1 0 0 0 1 93.231 25.231 -1.5 0.5 0.5 1.5
9 0 1 0 0 0 1 0 0 0 1 93.231 -25.769 -1.5 0.5 0.5 1.5
9 0 1 0 0 0 1 0 0 0 1 93.231 -35.769 -15.5 0.5 1.5 0.5
9 0 1 0 0 0 1 0 0 0 1 93.231 -51.769 -4.5 0.5 0.5 1.5
9 0 1 0 0 0 1 0 0 0 1 93.231 -51.769 4.5 0.5 0.5 1.5
9 0 1 0 0 0 1 0 0 0 1 92.231 50.231 -9.5 0.5 0.5 1.5
9 0 1 0 0 0 1 0 0 0 1 92.231 50.231 9.5 0.5 0.5 1.5
9 0 1 0 0 0 1 0 0 0 1 92.231 -29.769 -2.5 0.5 0.5 1.5
9 0 1 0 0 0 1 0 0 0 1 92.231 -34.769 -11.5 0.5 0.5 1.5
9 0 1 0 0 0 1 0 0 0 1 92.231 -37.769 -14.5 0.5 1.5 0.5
9 0 1 0 0 0 1 0 0 0 1 91.231 53.231 -7.5 0.5 0.5 1.5
9 0 1 0 0 0 1 0 0 0 1 91.231 53.231 7.5 0.5 0.5 1.5
9 0 1 0 0 0 1 0 0 0 1 91.231 46.231 14.5 0.5 1.5 0.5
9 0 1 0 0 0 1 0 0 0 1 91.231 -32.769 -1.5 0.5 0.5 1.5
9 0 1 0 0 0 1 0 0 0 1 90.231 53.231 -10.5 0.5 0.5 1.5
9 0 1 0 0 0 1 0 0 0 1 90.231 53.231 10.5 0.5 0.5 1.5
9 0 1 0 0 0 1 0 0 0 1 90.231 39.231 -10.5 0.5 0.5 1.5
9 0 1 0 0 0 1 0 0 0 1 90.231 36.231 -5.5 0.5 0.5 1.5
9 0 1 0 0 0 1 0 0 0 1 89.231 56.231 -8.5 0.5 0.5 1.5
9 0 1 0 0 0 1 0 0 0 1 89.231 50.231 14.5 0.5 1.5 0.5
9 0 1 0 0 0 1 0 0 0 1 89.231 45.231 15.5 0.5 1.5 0.5
9 0 1 0 0 0 1 0 0 0 1 89.231 42.231 11.5 0.5 0.5 1.5
9 0 1 0 0 0 1 0 0 0 1 89.231 -42.769 -12.5 0.5 0.5 1.5
9 0 1 0 0 0 1 0 0 0 1 89.231 -50.769 13.5 0.5 1.5 0.5
9 0 1 0 0 0 1 0 0 0 1 88.231 57.231 9.5 0.5 0.5 1.5
9 0 1 0 0 0 1 0 0 0 1 88.231 54.231 12.5 0.5 1.5 0.5
9 0 1 0 0 0 1 0 0 0 1 88.231 -40.769 -4.5 0.5 0.5 1.5
9 0 1 0 0 0 1 0 0 0 1 88.231 55.231 -10.5 1.5 0.5 0.5
9 0 1 0 0 0 1 0 0 0 1 87.231 -41.769 -0.5 0.5 0.5 1.5
9 0 1 0 0 0 1 0 0 0 1 87.231 -46.769 -12.5 0.5 0.5 1.5
9 0 1 0 0 0 1 0 0 0 1 86.231 48.231 -11.5 0.5 0.5 1.5
9 0 1 0 0 0 1 0 0 0 1 86.231 48.231 11.5 0.5 0.5 1.5
9 0 1 0 0 0 1 0 0 0 1 86.231 -42.769 0.5 0.5 1.5 0.5
9 0 1 0 0 0 1 0 0 0 1 86.231 -45.769 6.5 0.5 0.5 1.5
9 0 1 0 0 0 1 0 0 0 1 86.231 -50.769 15.5 0.5 1.5 0.5
9 0 1 0 0 0 1 0 0 0 1 85.231 61.231 -9.5 0.5 0.5 1.5
9 0 1 0 0 0 1 0 0 0 1 85.231 61.231 9.5 0.5 0.5 1.5
9 0 1 0 0 0 1 0 0 0 1 85.231 49.231 -10.5 0.5 0.5 1.5
9 0 1 0 0 0 1 0 0 0 1 85.231 48.231 8.5 0.5 0.5 1.5
9 0 1 0 0 0 1 0 0 0 1 85.231 -45.769 -1.5 0.5 0.5 1.5
9 0 1 0 0 0 1 0 0 0 1 85.231 -47.769 -7.5 0.5 0.5 1.5
9 0 1 0 0 0 1 0 0 0 1 85.231 -49.769 11.5 0.5 0.5 1.5
9 0 1 0 0 0 1 0 0 0 1 84.231 51.231 -11.5 0.5 0.5 1.5
9 0 1 0 0 0 1 0 0 0 1 83.231 53.231 11.5 0.5 0.5 1.5
9 0 1 0 0 0 1 0 0 0 1 82.231 68.231 3.5 0.5 0.5 1.5
9 0 1 0 0 0 1 0 0 0 1 82.231 67.231 -5.5 0.5 0.5 1.5
9 0 1 0 0 0 1 0 0 0 1 82.231 67.231 5.5 0.5 0.5 1.5
9 0 1 0 0 0 1 0 0 0 1 82.231 51.231 -1.5 0.5 0.5 1.5
9 0 1 0 0 0 1 0 0 0 1 82.231 -56.769 14.5 0.5 0.5 1.5
9 0 1 0 0 0 1 0 0 0 1 81.231 67.231 8.5 0.5 0.5 1.5
9 0 1 0 0 0 1 0 0 0 1 81.231 56.231 -11.5 0.5 0.5 1.5
9 0 1 0 0 0 1 0 0 0 1 81.231 -55.769 -10.5 0.5 0.5 1.5
9 0 1 0 0 0 1 0 0 0 1 80.231 70.231 -4.5 0.5 0.5 1.5
9 0 1 0 0 0 1 0 0 0 1 80.231 70.231 4.5 0.5 0.5 1.5
9 0 1 0 0 0 1 0 0 0 1 80.231 67.231 10.5 0.5 0.5 1.5
9 0 1 0 0 0 1 0 0 0 1 80.231 57.231 -10.5 0.5 0.5 1.5
9 0 1 0 0 0 1 0 0 0 1 80.231 -58.769 14.5 0.5 0.5 1.5
9 0 1 0 0 0 1 0 0 0 1 79.231 -66.769 -12.5 0.5 1.5 0.5
9 0 1 0 0 0 1 0 0 0 1 78.231 59.231 -9.5 0.5 0.5 1.5
9 0 1 0 0 0 1 0 0 0 1 78.231 59.231 9.5 0.5 0.5 1.5
9 0 1 0 0 0 1 0 0 0 1 78.231 -60.769 -12.5 0.5 0.5 1.5
9 0 1 0 0 0 1 0 0 0 1 77.231 61.231 11.5 0.5 0.5 1.5
9 0 1 0 0 0 1 0 0 0 1 78.231 60.231 -8.5 1.5 0.5 0.5
9 0 1 0 0 0 1 0 0 0 1 77.231 -58.769 2.5 0.5 0.5 1.5
9 0 1 0 0 0 1 0 0 0 1 77.231 -60.769 -10.5 0.5 0.5 1.5
9 0 1 0 0 0 1 0 0 0 1 76.231 63.231 -12.5 0.5 0.5 1.5
9 0 1 0 0 0 1 0 0 0 1 76.231 -71.769 -10.5 0.5 0.5 1.5
9 0 1 0 0 0 1 0 0 0 1 75.231 61.231 2.5 0.5 0.5 1.5
9 0 1 0 0 0 1 0 0 0 1 74.231 74.231 9.5 0.5 0.5 1.5
9 0 1 0 0 0 1 0 0 0 1 74.231 35.231 0.5 0.5 1.5 0.5
9 0 1 0 0 0 1 0 0 0 1 74.231 -66.769 -14.5 0.5 0.5 1.5
9 0 1 0 0 0 1 0 0 0 1 73.231 69.231 -15.5 0.5 1.5 0.5
9 0 1 0 0 0 1 0 0 0 1 73.231 -63.769 -1.5 0.5 0.5 1.5
9 0 1 0 0 0 1 0 0 0 1 73.231 -66.769 -12.5 0.5 0.5 1.5
9 0 1 0 0 0 1 0 0 0 1 72.231 -66.769 -9.5 0.5 0.5 1.5
9 0 1 0 0 0 1 0 0 0 1 72.231 -77.769 6.5 0.5 0.5 1.5
9 0 1 0 0 0 1 0 0 0 1 71.231 77.231 -8.5 0.5 0.5 1.5
9 0 1 0 0 0 1 0 0 0 1 71.231 77.231 8.5 0.5 0.5 1.5
9 0 1 0 0 0 1 0 0 0 1 71.231 -67.769 -9.5 0.5 0.5 1.5
9 0 1 0 0 0 1 0 0 0 1 70.231 71.231 -12.5 0.5 1.5 0.5
9 0 1 0 0 0 1 0 0 0 1 70.231 -70.769 -14.5 0.5 0.5 1.5
9 0 1 0 0 0 1 0 0 0 1 68.231 82.231 3.5 0.5 0.5 1.5
9 0 1 0 0 0 1 0 0 0 1 68.231 -70.769 9.5 0.5 0.5 1.5
9 0 1 0 0 0 1 0 0 0 1 68.231 -78.769 -11.5 0.5 0.5 1.5
9 0 1 0 0 0 1 0 0 0 1 68.231 -78.769 11.5 0.5 0.5 1.5
9 0 1 0 0 0 1 0 0 0 1 68.231 -81.769 -5.5 0.5 0.5 1.5
9 0 1 0 0 0 1 0 0 0 1 68.231 -81.769 5.5 0.5 0.5 1.5
9 0 1 0 0 0 1 0 0 0 1 67.231 81.231 8.5 0.5 0.5 1.5
9 0 1 0 0 0 1 0 0 0 1 67.231 44.231 5.5 0.5 0.5 1.5
9 0 1 0 0 0 1 0 0 0 1 67.231 -55.769 5.5 0.5 0.5 1.5
9 0 1 0 0 0 1 0 0 0 1 67.231 -81.769 7.5 0.5 0.5 1.5
9 0 1 0 0 0 1 0 0 0 1 66.231 74.231 -13.5 0.5 0.5 1.5
9 0 1 0 0 0 1 0 0 0 1 66.231 -73.769 9.5 0.5 1.5 0.5
9 0 1 0 0 0 1 0 0 0 1 65.231 81.231 -11.5 0.5 0.5 1.5
9 0 1 0 0 0 1 0 0 0 1 65.231 81.231 11.5 0.5 0.5 1.5
9 0 1 0 0 0 1 0 0 0 1 66.231 78.231 14.5 1.5 0.5 0.5
9 0 1 0 0 0 1 0 0 0 1 65.231 74.231 10.5 0.5 0.5 1.5
9 0 1 0 0 0 1 0 0 0 1 65.231 73.231 -8.5 0.5 0.5 1.5
9 0 1 0 0 0 1 0 0 0 1 64.231 85.231 3.5 0.5 0.5 1.5
9 0 1 0 0 0 1 0 0 0 1 64.231 74.231 -8.5 0.5 0.5 1.5
9 0 1 0 0 0 1 0 0 0 1 65.231 70.231 0.5 1.5 0.5 0.5
9 0 1 0 0 0 1 0 0 0 1 65.231 53.231 0.5 1.5 0.5 0.5
9 0 1 0 0 0 1 0 0 0 1 64.231 -83.769 -7.5 0.5 0.5 1.5
9 0 1 0 0 0 1 0 0 0 1 63.231 75.231 9.5 0.5 0.5 1.5
9 0 1 0 0 0 1 0 0 0 1 64.231 -52.769 0.5 1.5 0.5 0.5
9 0 1 0 0 0 1 0 0 0 1 63.231 -74.769 -7.5 0.5 0.5 1.5
9 0 1 0 0 0 1 0 0 0 1 63.231 -85.769 -4.5 0.5 0.5 1.5
9 0 1 0 0 0 1 0 0 0 1 63.231 -85.769 4.5 0.5 0.5 1.5
9 0 1 0 0 0 1 0 0 0 1 62.231 76.231 -9.5 0.5 0.5 1.5
9 0 1 0 0 0 1 0 0 0 1 61.231 85.231 -9.5 0.5 0.5 1.5
9 0 1 0 0 0 1 0 0 0 1 61.231 85.231 9.5 0.5 0.5 1.5
9 0 1 0 0 0 1 0 0 0 1 61.231 84.231 -11.5 0.5 0.5 1.5
9 0 1 0 0 0 1 0 0 0 1 61.231 84.231 11.5 0.5 0.5 1.5
9 0 1 0 0 0 1 0 0 0 1 61.231 79.231 -12.5 0.5 1.5 0.5
9 0 1 0 0 0 1 0 0 0 1 61.231 -76.769 -9.5 0.5 0.5 1.5
9 0 1 0 0 0 1 0 0 0 1 60.231 -75.769 -1.5 0.5 0.5 1.5
9 0 1 0 0 0 1 0 0 0 1 61.231 -84.769 -10.5 1.5 0.5 0.5
9 0 1 0 0 0 1 0 0 0 1 59.231 78.231 -9.5 0.5 0.5 1.5
9 0 1 0 0 0 1 0 0 0 1 59.231 78.231 9.5 0.5 0.5 1.5
9 0 1 0 0 0 1 0 0 0 1 59.231 -78.769 10.5 0.5 0.5 1.5
9 0 1 0 0 0 1 0 0 0 1 59.231 -79.769 -13.5 0.5 0.5 1.5
9 0 1 0 0 0 1 0 0 0 1 59.231 -86.769 9.5 0.5 0.5 1.5
9 0 1 0 0 0 1 0 0 0 1 57.231 88.231 -9.5 0.5 0.5 1.5
9 0 1 0 0 0 1 0 0 0 1 57.231 78.231 2.5 0.5 0.5 1.5
9 0 1 0 0 0 1 0 0 0 1 57.231 -79.769 8.5 0.5 0.5 1.5
9 0 1 0 0 0 1 0 0 0 1 57.231 -88.769 -8.5 0.5 0.5 1.5
9 0 1 0 0 0 1 0 0 0 1 57.231 -88.769 8.5 0.5 0.5 1.5
9 0 1 0 0 0 1 0 0 0 1 56.231 81.231 -11.5 0.5 0.5 1.5
9 0 1 0 0 0 1 0 0 0 1 56.231 80.231 -8.5 0.5 0.5 1.5
9 0 1 0 0 0 1 0 0 0 1 56.231 -81.769 -12.5 0.5 0.5 1.5
9 0 1 0 0 0 1 0 0 0 1 56.231 -81.769 12.5 0.5 0.5 1.5
9 0 1 0 0 0 1 0 0 0 1 55.231 90.231 -7.5 0.5 0.5 1.5
9 0 1 0 0 0 1 0 0 0 1 55.231 90.231 7.5 0.5 0.5 1.5
9 0 1 0 0 0 1 0 0 0 1 55.231 82.231 12.5 0.5 0.5 1.5
9 0 1 0 0 0 1 0 0 0 1 55.231 -66.769 -4.5 0.5 0.5 1.5
9 0 1 0 0 0 1 0 0 0 1 55.231 -66.769 5.5 0.5 0.5 1.5
9 0 1 0 0 0 1 0 0 0 1 55.231 -84.769 -15.5 0.5 1.5 0.5
9 0 1 0 0 0 1 0 0 0 1 54.231 81.231 -6.5 0.5 0.5 1.5
9 0 1 0 0 0 1 0 0 0 1 54.231 -80.769 2.5 0.5 0.5 1.5
9 0 1 0 0 0 1 0 0 0 1 54.231 87.231 13.5 1.5 0.5 0.5
9 0 1 0 0 0 1 0 0 0 1 53.231 82.231 8.5 0.5 0.5 1.5
9 0 1 0 0 0 1 0 0 0 1 53.231 65.231 0.5 0.5 1.5 0.5
9 0 1 0 0 0 1 0 0 0 1 53.231 -54.769 0.5 0.5 1.5 0.5
9 0 1 0 0 0 1 0 0 0 1 52.231 92.231 6.5 0.5 0.5 1.5
9 0 1 0 0 0 1 0 0 0 1 52.231 88.231 14.5 1.5 0.5 0.5
9 0 1 0 0 0 1 0 0 0 1 51.231 82.231 -1.5 0.5 0.5 1.5
9 0 1 0 0 0 1 0 0 0 1 50.231 -82.769 -1.5 0.5 0.5 1.5
9 0 1 0 0 0 1 0 0 0 1 49.231 93.231 8.5 0.5 0.5 1.5
9 0 1 0 0 0 1 0 0 0 1 49.231 85.231 10.5 0.5 0.5 1.5
9 0 1 0 0 0 1 0 0 0 1 49.231 -92.769 -9.5 0.5 0.5 1.5
9 0 1 0 0 0 1 0 0 0 1 48.231 85.231 8.5 0.5 0.5 1.5
9 0 1 0 0 0 1 0 0 0 1 48.231 -83.769 -0.5 0.5 0.5 1.5
9 0 1 0 0 0 1 0 0 0 1 48.231 -85.769 -10.5 0.5 0.5 1.5
9 0 1 0 0 0 1 0 0 0 1 48.231 -85.769 10.5 0.5 0.5 1.5
9 0 1 0 0 0 1 0 0 0 1 47.231 86.231 -9.5 0.5 0.5 1.5
9 0 1 0 0 0 1 0 0 0 1 47.231 -85.769 -8.5 0.5 0.5 1.5
9 0 1 0 0 0 1 0 0 0 1 47.231 -94.769 -7.5 0.5 0.5 1.5
9 0 1 0 0 0 1 0 0 0 1 47.231 -94.769 7.5 0.5 0.5 1.5
9 0 1 0 0 0 1 0 0 0 1 46.231 87.231 -11.5 0.5 0.5 1.5
9 0 1 0 0 0 1 0 0 0 1 46.231 85.231 2.5 0.5 0.5 1.5
9 0 1 0 0 0 1 0 0 0 1 46.231 -95.769 -6.5 0.5 0.5 1.5
9 0 1 0 0 0 1 0 0 0 1 45.231 -85.769 -1.5 0.5 0.5 1.5
9 0 1 0 0 0 1 0 0 0 1 44.231 67.231 -4.5 0.5 0.5 1.5
9 0 1 0 0 0 1 0 0 0 1 45.231 53.231 0.5 1.5 0.5 0.5
9 0 1 0 0 0 1 0 0 0 1 44.231 -52.769 0.5 1.5 0.5 0.5
9 0 1 0 0 0 1 0 0 0 1 43.231 -86.769 -1.5 0.5 0.5 1.5
9 0 1 0 0 0 1 0 0 0 1 41.231 -87.769 -1.5 0.5 0.5 1.5
9 0 1 0 0 0 1 0 0 0 1 41.231 -87.769 2.5 0.5 0.5 1.5
9 0 1 0 0 0 1 0 0 0 1 40.231 98.231 -5.5 0.5 0.5 1.5
9 0 1 0 0 0 1 0 0 0 1 40.231 88.231 2.5 0.5 0.5 1.5
9 0 1 0 0 0 1 0 0 0 1 39.231 -88.769 2.5 0.5 0.5 1.5
9 0 1 0 0 0 1 0 0 0 1 36.231 92.231 13.5 0.5 0.5 1.5
9 0 1 0 0 0 1 0 0 0 1 36.231 91.231 -9.5 0.5 0.5 1.5
9 0 1 0 0 0 1 0 0 0 1 36.231 -89.769 -1.5 0.5 0.5 1.5
9 0 1 0 0 0 1 0 0 0 1 34.231 99.231 10.5 0.5 0.5 1.5
9 0 1 0 0 0 1 0 0 0 1 34.231 91.231 -6.5 0.5 0.5 1.5
9 0 1 0 0 0 1 0 0 0 1 35.231 -97.769 12.5 1.5 0.5 0.5
9 0 1 0 0 0 1 0 0 0 1 34.231 -93.769 15.5 1.5 0.5 0.5
9 0 1 0 0 0 1 0 0 0 1 34.231 -100.769 -6.5 1.5 0.5 0.5
9 0 1 0 0 0 1 0 0 0 1 32.231 102.231 -3.5 0.5 0.5 1.5
9 0 1 0 0 0 1 0 0 0 1 32.231 102.231 3.5 0.5 0.5 1.5
9 0 1 0 0 0 1 0 0 0 1 33.231 94.231 -15.5 1.5 0.5 0.5
9 0 1 0 0 0 1 0 0 0 1 32.231 93.231 11.5 0.5 0.5 1.5
9 0 1 0 0 0 1 0 0 0 1 32.231 -93.769 12.5 0.5 0.5 1.5
9 0 1 0 0 0 1 0 0 0 1 31.231 97.231 -15.5 1.5 0.5 0.5
9 0 1 0 0 0 1 0 0 0 1 31.231 -99.769 -11.5 1.5 0.5 0.5
9 0 1 0 0 0 1 0 0 0 1 31.231 -99.769 11.5 1.5 0.5 0.5
9 0 1 0 0 0 1 0 0 0 1 29.231 94.231 11.5 0.5 0.5 1.5
9 0 1 0 0 0 1 0 0 0 1 29.231 102.231 6.5 1.5 0.5 0.5
9 0 1 0 0 0 1 0 0 0 1 29.231 101.231 -9.5 1.5 0.5 0.5
9 0 1 0 0 0 1 0 0 0 1 29.231 99.231 13.5 1.5 0.5 0.5
9 0 1 0 0 0 1 0 0 0 1 29.231 -99.769 -12.5 1.5 0.5 0.5
9 0 1 0 0 0 1 0 0 0 1 27.231 4.231003 0.5 0.5 1.5 0.5
9 0 1 0 0 0 1 0 0 0 1 28.231 -93.769 9.5 1.5 0.5 0.5
9 0 1 0 0 0 1 0 0 0 1 27.231 -94.769 12.5 0.5 0.5 1.5
9 0 1 0 0 0 1 0 0 0 1 28.231 -102.769 -5.5 1.5 0.5 0.5
9 0 1 0 0 0 1 0 0 0 1 27.231 102.231 -7.5 1.5 0.5 0.5
9 0 1 0 0 0 1 0 0 0 1 26.231 93.231 2.5 0.5 0.5 1.5
9 0 1 0 0 0 1 0 0 0 1 26.231 -98.769 15.5 1.5 0.5 0.5
9 0 1 0 0 0 1 0 0 0 1 25.231 102.231 9.5 1.5 0.5 0.5
9 0 1 0 0 0 1 0 0 0 1 25.231 100.231 13.5 1.5 0.5 0.5
9 0 1 0 0 0 1 0 0 0 1 25.231 -6.768997 0.5 1.5 0.5 0.5
9 0 1 0 0 0 1 0 0 0 1 23.231 -100.769 13.5 1.5 0.5 0.5
9 0 1 0 0 0 1 0 0 0 1 22.231 100.231 -14.5 1.5 0.5 0.5
9 0 1 0 0 0 1 0 0 0 1 22.231 -93.769 -0.5 1.5 0.5 0.5
9 0 1 0 0 0 1 0 0 0 1 22.231 -101.769 -12.5 1.5 0.5 0.5
9 0 1 0 0 0 1 0 0 0 1 22.231 -101.769 12.5 1.5 0.5 0.5
9 0 1 0 0 0 1 0 0 0 1 19.231 103.231 -11.5 1.5 0.5 0.5
9 0 1 0 0 0 1 0 0 0 1 19.231 96.231 -10.5 1.5 0.5 0.5
9 0 1 0 0 0 1 0 0 0 1 19.231 96.231 10.5 1.5 0.5 0.5
9 0 1 0 0 0 1 0 0 0 1 19.231 -101.769 -13.5 1.5 0.5 0.5
9 0 1 0 0 0 1 0 0 0 1 19.231 -101.769 13.5 1.5 0.5 0.5
9 0 1 0 0 0 1 0 0 0 1 16.231 97.231 12.5 1.5 0.5 0.5
9 0 1 0 0 0 1 0 0 0 1 16.231 7.231003 0.5 1.5 0.5 0.5
9 0 1 0 0 0 1 0 0 0 1 15.231 -6.768997 -4.5 0.5 0.5 1.5
9 0 1 0 0 0 1 0 0 0 1 15.231 -6.768997 5.5 0.5 0.5 1.5
9 0 1 0 0 0 1 0 0 0 1 16.231 -105.769 -5.5 1.5 0.5 0.5
9 0 1 0 0 0 1 0 0 0 1 15.231 105.231 7.5 1.5 0.5 0.5
9 0 1 0 0 0 1 0 0 0 1 13.231 97.231 -11.5 1.5 0.5 0.5
9 0 1 0 0 0 1 0 0 0 1 12.231 -23.769 0.5 1.5 0.5 0.5
9 0 1 0 0 0 1 0 0 0 1 11.231 -96.769 -7.5 0.5 0.5 1.5
9 0 1 0 0 0 1 0 0 0 1 10.231 -104.769 -10.5 1.5 0.5 0.5
9 0 1 0 0 0 1 0 0 0 1 10.231 -104.769 10.5 1.5 0.5 0.5
9 0 1 0 0 0 1 0 0 0 1 9.231003 98.231 -13.5 1.5 0.5 0.5
9 0 1 0 0 0 1 0 0 0 1 7.231003 16.231 0.5 0.5 1.5 0.5
9 0 1 0 0 0 1 0 0 0 1 7.231003 -15.769 5.5 0.5 0.5 1.5
9 0 1 0 0 0 1 0 0 0 1 7.231003 -97.769 -9.5 0.5 0.5 1.5
9 0 1 0 0 0 1 0 0 0 1 5.231003 33.231 0.5 1.5 0.5 0.5
9 0 1 0 0 0 1 0 0 0 1 5.231003 -26.769 0.5 1.5 0.5 0.5
9 0 1 0 0 0 1 0 0 0 1 4.231003 87.231 0.5 1.5 0.5 0.5
9 0 1 0 0 0 1 0 0 0 1 4.231003 67.231 0.5 1.5 0.5 0.5
9 0 1 0 0 0 1 0 0 0 1 4.231003 47.231 0.5 1.5 0.5 0.5
9 0 1 0 0 0 1 0 0 0 1 4.231003 -12.769 6.5 1.5 0.5 0.5
9 0 1 0 0 0 1 0 0 0 1 4.231003 -32.769 0.5 1.5 0.5 0.5
9 0 1 0 0 0 1 0 0 0 1 4.231003 -52.769 0.5 1.5 0.5 0.5
9 0 1 0 0 0 1 0 0 0 1 4.231003 -72.769 0.5 1.5 0.5 0.5
9 0 1 0 0 0 1 0 0 0 1 -3.768997 -97.769 -9.5 0.5 0.5 1.5
9 0 1 0 0 0 1 0 0 0 1 -3.768997 -97.769 9.5 0.5 0.5 1.5
9 0 1 0 0 0 1 0 0 0 1 -6.768997 25.231 0.5 0.5 1.5 0.5
9 0 1 0 0 0 1 0 0 0 1 -6.768997 15.231 -4.5 0.5 0.5 1.5
9 0 1 0 0 0 1 0 0 0 1 -6.768997 15.231 5.5 0.5 0.5 1.5
9 0 1 0 0 0 1 0 0 0 1 -6.768997 -14.769 6.5 0.5 1.5 0.5
9 0 1 0 0 0 1 0 0 0 1 -5.768997 -96.769 -0.5 1.5 0.5 0.5
9 0 1 0 0 0 1 0 0 0 1 -7.768997 -105.769 -8.5 1.5 0.5 0.5
9 0 1 0 0 0 1 0 0 0 1 -9.768997 106.231 6.5 1.5 0.5 0.5
9 0 1 0 0 0 1 0 0 0 1 -9.768997 105.231 9.5 1.5 0.5 0.5
9 0 1 0 0 0 1 0 0 0 1 -9.768997 -97.769 -11.5 1.5 0.5 0.5
9 0 1 0 0 0 1 0 0 0 1 -9.768997 -97.769 11.5 1.5 0.5 0.5
9 0 1 0 0 0 1 0 0 0 1 -10.769 -105.769 7.5 1.5 0.5 0.5
9 0 1 0 0 0 1 0 0 0 1 -11.769 104.231 11.5 1.5 0.5 0.5
9 0 1 0 0 0 1 0 0 0 1 -12.769 106.231 -5.5 1.5 0.5 0.5
9 0 1 0 0 0 1 0 0 0 1 -14.769 95.231 -0.5 1.5 0.5 0.5
9 0 1 0 0 0 1 0 0 0 1 -15.769 7.231003 -4.5 0.5 0.5 1.5
9 0 1 0 0 0 1 0 0 0 1 -15.769 -104.769 -8.5 1.5 0.5 0.5
9 0 1 0 0 0 1 0 0 0 1 -15.769 -104.769 8.5 1.5 0.5 0.5
9 0 1 0 0 0 1 0 0 0 1 -15.769 -105.769 5.5 1.5 0.5 0.5
9 0 1 0 0 0 1 0 0 0 1 -16.769 104.231 -9.5 1.5 0.5 0.5
9 0 1 0 0 0 1 0 0 0 1 -18.769 103.231 11.5 1.5 0.5 0.5
9 0 1 0 0 0 1 0 0 0 1 -18.769 -95.769 -8.5 1.5 0.5 0.5
9 0 1 0 0 0 1 0 0 0 1 -19.769 96.231 -10.5 1.5 0.5 0.5
9 0 1 0 0 0 1 0 0 0 1 -21.769 94.231 -1.5 0.5 0.5 1.5
9 0 1 0 0 0 1 0 0 0 1 -21.769 104.231 -2.5 1.5 0.5 0.5
9 0 1 0 0 0 1 0 0 0 1 -23.769 94.231 6.5 0.5 0.5 1.5
9 0 1 0 0 0 1 0 0 0 1 -23.769 12.231 0.5 0.5 1.5 0.5
9 0 1 0 0 0 1 0 0 0 1 -24.769 -93.769 -4.5 0.5 0.5 1.5
9 0 1 0 0 0 1 0 0 0 1 -25.769 101.231 11.5 1.5 0.5 0.5
9 0 1 0 0 0 1 0 0 0 1 -25.769 100.231 -13.5 1.5 0.5 0.5
9 0 1 0 0 0 1 0 0 0 1 -25.769 100.231 13.5 1.5 0.5 0.5
9 0 1 0 0 0 1 0 0 0 1 -25.769 96.231 15.5 1.5 0.5 0.5
9 0 1 0 0 0 1 0 0 0 1 -26.769 93.231 -3.5 0.5 0.5 1.5
9 0 1 0 0 0 1 0 0 0 1 -26.769 5.231003 0.5 0.5 1.5 0.5
9 0 1 0 0 0 1 0 0 0 1 -25.769 -98.769 -15.5 1.5 0.5 0.5
9 0 1 0 0 0 1 0 0 0 1 -25.769 -98.769 15.5 1.5 0.5 0.5
9 0 1 0 0 0 1 0 0 0 1 -27.769 -92.769 2.5 0.5 0.5 1.5
9 0 1 0 0 0 1 0 0 0 1 -27.769 98.231 -15.5 1.5 0.5 0.5
9 0 1 0 0 0 1 0 0 0 1 -27.769 98.231 15.5 1.5 0.5 0.5
9 0 1 0 0 0 1 0 0 0 1 -27.769 92.231 -0.5 1.5 0.5 0.5
9 0 1 0 0 0 1 0 0 0 1 -32.769 -92.769 10.5 0.5 0.5 1.5
9 0 1 0 0 0 1 0 0 0 1 -31.769 -97.769 -14.5 1.5 0.5 0.5
9 0 1 0 0 0 1 0 0 0 1 -31.769 -97.769 14.5 1.5 0.5 0.5
9 0 1 0 0 0 1 0 0 0 1 -33.769 91.231 5.5 0.5 0.5 1.5
9 0 1 0 0 0 1 0 0 0 1 -32.769 -98.769 -12.5 1.5 0.5 0.5
9 0 1 0 0 0 1 0 0 0 1 -32.769 -98.769 12.5 1.5 0.5 0.5
9 0 1 0 0 0 1 0 0 0 1 -33.769 96.231 -15.5 1.5 0.5 0.5
9 0 1 0 0 0 1 0 0 0 1 -34.769 -90.769 -4.5 0.5 0.5 1.5
9 0 1 0 0 0 1 0 0 0 1 -34.769 -91.769 9.5 0.5 0.5 1.5
9 0 1 0 0 0 1 0 0 0 1 -34.769 -92.769 -13.5 0.5 0.5 1.5
9 0 1 0 0 0 1 0 0 0 1 -34.769 -93.769 -7.5 0.5 1.5 0.5
9 0 1 0 0 0 1 0 0 0 1 -34.769 -94.769 -15.5 0.5 1.5 0.5
9 0 1 0 0 0 1 0 0 0 1 -36.769 91.231 10.5 0.5 0.5 1.5
9 0 1 0 0 0 1 0 0 0 1 -36.769 -89.769 -3.5 0.5 0.5 1.5
9 0 1 0 0 0 1 0 0 0 1 -36.769 -89.769 3.5 0.5 0.5 1.5
9 0 1 0 0 0 1 0 0 0 1 -35.769 -96.769 -13.5 1.5 0.5 0.5
9 0 1 0 0 0 1 0 0 0 1 -35.769 -96.769 13.5 1.5 0.5 0.5
9 0 1 0 0 0 1 0 0 0 1 -38.769 -88.769 2.5 0.5 0.5 1.5
9 0 1 0 0 0 1 0 0 0 1 -38.769 -90.769 12.5 0.5 0.5 1.5
9 0 1 0 0 0 1 0 0 0 1 -38.769 -97.769 -9.5 0.5 0.5 1.5
9 0 1 0 0 0 1 0 0 0 1 -38.769 -97.769 9.5 0.5 0.5 1.5
9 0 1 0 0 0 1 0 0 0 1 -39.769 90.231 -11.5 0.5 0.5 1.5
9 0 1 0 0 0 1 0 0 0 1 -40.769 -71.769 0.5 1.5 0.5 0.5
9 0 1 0 0 0 1 0 0 0 1 -41.769 -87.769 -3.5 0.5 0.5 1.5
9 0 1 0 0 0 1 0 0 0 1 -40.769 -94.769 -13.5 1.5 0.5 0.5
9 0 1 0 0 0 1 0 0 0 1 -40.769 -95.769 -12.5 1.5 0.5 0.5
9 0 1 0 0 0 1 0 0 0 1 -40.769 -95.769 12.5 1.5 0.5 0.5
9 0 1 0 0 0 1 0 0 0 1 -41.769 94.231 -13.5 1.5 0.5 0.5
9 0 1 0 0 0 1 0 0 0 1 -41.769 94.231 13.5 1.5 0.5 0.5
9 0 1 0 0 0 1 0 0 0 1 -42.769 87.231 2.5 0.5 0.5 1.5
9 0 1 0 0 0 1 0 0 0 1 -43.769 88.231 -10.5 0.5 0.5 1.5
9 0 1 0 0 0 1 0 0 0 1 -44.769 -66.769 -4.5 0.5 0.5 1.5
9 0 1 0 0 0 1 0 0 0 1 -44.769 -66.769 5.5 0.5 0.5 1.5
9 0 1 0 0 0 1 0 0 0 1 -43.769 -88.769 10.5 1.5 0.5 0.5
9 0 1 0 0 0 1 0 0 0 1 -45.769 85.231 0.5 0.5 0.5 1.5
9 0 1 0 0 0 1 0 0 0 1 -46.769 -54.769 0.5 0.5 1.5 0.5
9 0 1 0 0 0 1 0 0 0 1 -46.769 -85.769 -7.5 0.5 0.5 1.5
9 0 1 0 0 0 1 0 0 0 1 -45.769 -88.769 -14.5 1.5 0.5 0.5
9 0 1 0 0 0 1 0 0 0 1 -45.769 -88.769 14.5 1.5 0.5 0.5
9 0 1 0 0 0 1 0 0 0 1 -45.769 -95.769 -6.5 1.5 0.5 0.5
9 0 1 0 0 0 1 0 0 0 1 -47.769 93.231 10.5 0.5 0.5 1.5
9 0 1 0 0 0 1 0 0 0 1 -47.769 85.231 -7.5 0.5 0.5 1.5
9 0 1 0 0 0 1 0 0 0 1 -46.769 84.231 0.5 1.5 0.5 0.5
9 0 1 0 0 0 1 0 0 0 1 -48.769 86.231 12.5 0.5 0.5 1.5
9 0 1 0 0 0 1 0 0 0 1 -48.769 -83.769 -1.5 0.5 0.5 1.5
9 0 1 0 0 0 1 0 0 0 1 -49.769 84.231 -8.5 0.5 0.5 1.5
9 0 1 0 0 0 1 0 0 0 1 -49.769 84.231 8.5 0.5 0.5 1.5
9 0 1 0 0 0 1 0 0 0 1 -49.769 -83.769 5.5 0.5 0.5 1.5
9 0 1 0 0 0 1 0 0 0 1 -49.769 -93.769 -6.5 0.5 0.5 1.5
9 0 1 0 0 0 1 0 0 0 1 -49.769 -93.769 6.5 0.5 0.5 1.5
9 0 1 0 0 0 1 0 0 0 1 -51.769 -85.769 10.5 1.5 0.5 0.5
9 0 1 0 0 0 1 0 0 0 1 -53.769 -80.769 -1.5 0.5 0.5 1.5
9 0 1 0 0 0 1 0 0 0 1 -54.769 89.231 -10.5 0.5 0.5 1.5
9 0 1 0 0 0 1 0 0 0 1 -54.769 82.231 10.5 0.5 0.5 1.5
9 0 1 0 0 0 1 0 0 0 1 -54.769 80.231 2.5 0.5 0.5 1.5
9 0 1 0 0 0 1 0 0 0 1 -54.769 -89.769 9.5 0.5 0.5 1.5
9 0 1 0 0 0 1 0 0 0 1 -54.769 -90.769 -6.5 0.5 0.5 1.5
9 0 1 0 0 0 1 0 0 0 1 -54.769 -90.769 6.5 0.5 0.5 1.5
9 0 1 0 0 0 1 0 0 0 1 -55.769 82.231 -13.5 0.5 0.5 1.5
9 0 1 0 0 0 1 0 0 0 1 -55.769 67.231 -4.5 0.5 0.5 1.5
9 0 1 0 0 0 1 0 0 0 1 -54.769 53.231 0.5 1.5 0.5 0.5
9 0 1 0 0 0 1 0 0 0 1 -54.769 -46.769 0.5 1.5 0.5 0.5
9 0 1 0 0 0 1 0 0 0 1 -54.769 -66.769 0.5 1.5 0.5 0.5
9 0 1 0 0 0 1 0 0 0 1 -55.769 -81.769 -12.5 0.5 0.5 1.5
9 0 1 0 0 0 1 0 0 0 1 -55.769 -81.769 12.5 0.5 0.5 1.5
9 0 1 0 0 0 1 0 0 0 1 -56.769 80.231 -9.5 0.5 0.5 1.5
9 0 1 0 0 0 1 0 0 0 1 -55.769 67.231 0.5 1.5 0.5 0.5
9 0 1 0 0 0 1 0 0 0 1 -55.769 47.231 0.5 1.5 0.5 0.5
9 0 1 0 0 0 1 0 0 0 1 -55.769 -52.769 0.5 1.5 0.5 0.5
9 0 1 0 0 0 1 0 0 0 1 -57.769 79.231 8.5 0.5 0.5 1.5
9 0 1 0 0 0 1 0 0 0 1 -57.769 -77.769 -1.5 0.5 0.5 1.5
9 0 1 0 0 0 1 0 0 0 1 -58.769 77.231 2.5 0.5 0.5 1.5
9 0 1 0 0 0 1 0 0 0 1 -58.769 -78.769 -9.5 0.5 0.5 1.5
9 0 1 0 0 0 1 0 0 0 1 -59.769 -76.769 5.5 0.5 0.5 1.5
9 0 1 0 0 0 1 0 0 0 1 -59.769 -78.769 12.5 0.5 0.5 1.5
9 0 1 0 0 0 1 0 0 0 1 -59.769 -87.769 -6.5 0.5 0.5 1.5
9 0 1 0 0 0 1 0 0 0 1 -59.769 -87.769 6.5 0.5 0.5 1.5
9 0 1 0 0 0 1 0 0 0 1 -60.769 78.231 -12.5 0.5 0.5 1.5
9 0 1 0 0 0 1 0 0 0 1 -60.769 77.231 9.5 0.5 0.5 1.5
9 0 1 0 0 0 1 0 0 0 1 -60.769 -78.769 -14.5 0.5 0.5 1.5
9 0 1 0 0 0 1 0 0 0 1 -59.769 -82.769 14.5 1.5 0.5 0.5
9 0 1 0 0 0 1 0 0 0 1 -61.769 84.231 10.5 0.5 0.5 1.5
9 0 1 0 0 0 1 0 0 0 1 -61.769 77.231 -12.5 0.5 0.5 1.5
9 0 1 0 0 0 1 0 0 0 1 -61.769 -74.769 -1.5 0.5 0.5 1.5
9 0 1 0 0 0 1 0 0 0 1 -61.769 -78.769 -11.5 0.5 1.5 0.5
9 0 1 0 0 0 1 0 0 0 1 -62.769 77.231 -14.5 0.5 0.5 1.5
9 0 1 0 0 0 1 0 0 0 1 -63.769 73.231 -1.5 0.5 0.5 1.5
9 0 1 0 0 0 1 0 0 0 1 -63.769 -84.769 -6.5 0.5 0.5 1.5
9 0 1 0 0 0 1 0 0 0 1 -63.769 -84.769 6.5 0.5 0.5 1.5
9 0 1 0 0 0 1 0 0 0 1 -64.769 83.231 -7.5 0.5 0.5 1.5
9 0 1 0 0 0 1 0 0 0 1 -64.769 83.231 7.5 0.5 0.5 1.5
9 0 1 0 0 0 1 0 0 0 1 -64.769 -79.769 -13.5 0.5 0.5 1.5
9 0 1 0 0 0 1 0 0 0 1 -63.769 -81.769 11.5 1.5 0.5 0.5
9 0 1 0 0 0 1 0 0 0 1 -65.769 71.231 -1.5 0.5 0.5 1.5
9 0 1 0 0 0 1 0 0 0 1 -65.769 -74.769 14.5 0.5 0.5 1.5
9 0 1 0 0 0 1 0 0 0 1 -64.769 -80.769 12.5 1.5 0.5 0.5
9 0 1 0 0 0 1 0 0 0 1 -65.769 80.231 -12.5 1.5 0.5 0.5
9 0 1 0 0 0 1 0 0 0 1 -65.769 79.231 8.5 1.5 0.5 0.5
9 0 1 0 0 0 1 0 0 0 1 -66.769 72.231 9.5 0.5 0.5 1.5
9 0 1 0 0 0 1 0 0 0 1 -66.769 70.231 -1.5 0.5 0.5 1.5
9 0 1 0 0 0 1 0 0 0 1 -66.769 55.231 -4.5 0.5 0.5 1.5
9 0 1 0 0 0 1 0 0 0 1 -66.769 55.231 5.5 0.5 0.5 1.5
9 0 1 0 0 0 1 0 0 0 1 -66.769 -44.769 -4.5 0.5 0.5 1.5
9 0 1 0 0 0 1 0 0 0 1 -66.769 -44.769 5.5 0.5 0.5 1.5
9 0 1 0 0 0 1 0 0 0 1 -65.769 -46.769 0.5 1.5 0.5 0.5
9 0 1 0 0 0 1 0 0 0 1 -66.769 -54.769 0.5 0.5 1.5 0.5
9 0 1 0 0 0 1 0 0 0 1 -66.769 -71.769 -8.5 0.5 0.5 1.5
9 0 1 0 0 0 1 0 0 0 1 -66.769 -82.769 -5.5 0.5 0.5 1.5
9 0 1 0 0 0 1 0 0 0 1 -67.769 73.231 -14.5 0.5 0.5 1.5
9 0 1 0 0 0 1 0 0 0 1 -67.769 -70.769 -7.5 0.5 0.5 1.5
9 0 1 0 0 0 1 0 0 0 1 -67.769 -70.769 7.5 0.5 0.5 1.5
9 0 1 0 0 0 1 0 0 0 1 -67.769 -72.769 -14.5 0.5 0.5 1.5
9 0 1 0 0 0 1 0 0 0 1 -67.769 -72.769 14.5 0.5 0.5 1.5
9 0 1 0 0 0 1 0 0 0 1 -67.769 -80.769 -8.5 0.5 0.5 1.5
9 0 1 0 0 0 1 0 0 0 1 -68.769 80.231 -7.5 0.5 0.5 1.5
9 0 1 0 0 0 1 0 0 0 1 -68.769 70.231 -9.5 0.5 0.5 1.5
9 0 1 0 0 0 1 0 0 0 1 -68.769 70.231 9.5 0.5 0.5 1.5
9 0 1 0 0 0 1 0 0 0 1 -68.769 -70.769 -11.5 0.5 0.5 1.5
9 0 1 0 0 0 1 0 0 0 1 -68.769 -70.769 11.5 0.5 0.5 1.5
9 0 1 0 0 0 1 0 0 0 1 -68.769 80.231 5.5 1.5 0.5 0.5
9 0 1 0 0 0 1 0 0 0 1 -69.769 69.231 -9.5 0.5 0.5 1.5
9 0 1 0 0 0 1 0 0 0 1 -70.769 70.231 14.5 0.5 0.5 1.5
9 0 1 0 0 0 1 0 0 0 1 -70.769 69.231 12.5 0.5 0.5 1.5
9 0 1 0 0 0 1 0 0 0 1 -70.769 -68.769 11.5 0.5 0.5 1.5
9 0 1 0 0 0 1 0 0 0 1 -71.769 77.231 8.5 0.5 0.5 1.5
9 0 1 0 0 0 1 0 0 0 1 -71.769 -77.769 -7.5 0.5 0.5 1.5
9 0 1 0 0 0 1 0 0 0 1 -72.769 76.231 -7.5 0.5 0.5 1.5
9 0 1 0 0 0 1 0 0 0 1 -72.769 -65.769 8.5 0.5 0.5 1.5
9 0 1 0 0 0 1 0 0 0 1 -72.769 -71.769 -14.5 0.5 0.5 1.5
9 0 1 0 0 0 1 0 0 0 1 -72.769 -71.769 14.5 0.5 0.5 1.5
9 0 1 0 0 0 1 0 0 0 1 -73.769 67.231 14.5 0.5 0.5 1.5
9 0 1 0 0 0 1 0 0 0 1 -73.769 65.231 -9.5 0.5 0.5 1.5
9 0 1 0 0 0 1 0 0 0 1 -73.769 65.231 9.5 0.5 0.5 1.5
9 0 1 0 0 0 1 0 0 0 1 -73.769 64.231 -6.5 0.5 0.5 1.5
9 0 1 0 0 0 1 0 0 0 1 -73.769 -64.769 -8.5 0.5 0.5 1.5
9 0 1 0 0 0 1 0 0 0 1 -73.769 -73.769 -10.5 0.5 0.5 1.5
9 0 1 0 0 0 1 0 0 0 1 -74.769 73.231 -9.5 0.5 0.5 1.5
9 0 1 0 0 0 1 0 0 0 1 -74.769 73.231 9.5 0.5 0.5 1.5
9 0 1 0 0 0 1 0 0 0 1 -74.769 -61.769 -1.5 0.5 0.5 1.5
9 0 1 0 0 0 1 0 0 0 1 -74.769 -65.769 -14.5 0.5 0.5 1.5
9 0 1 0 0 0 1 0 0 0 1 -74.769 -70.769 13.5 0.5 0.5 1.5
9 0 1 0 0 0 1 0 0 0 1 -75.769 62.231 -8.5 0.5 0.5 1.5
9 0 1 0 0 0 1 0 0 0 1 -76.769 73.231 6.5 0.5 0.5 1.5
9 0 1 0 0 0 1 0 0 0 1 -76.769 -61.769 10.5 0.5 0.5 1.5
9 0 1 0 0 0 1 0 0 0 1 -77.769 59.231 -7.5 0.5 0.5 1.5
9 0 1 0 0 0 1 0 0 0 1 -77.769 -57.769 -1.5 0.5 0.5 1.5
9 0 1 0 0 0 1 0 0 0 1 -77.769 -60.769 -11.5 0.5 0.5 1.5
9 0 1 0 0 0 1 0 0 0 1 -78.769 -56.769 2.5 0.5 0.5 1.5
9 0 1 0 0 0 1 0 0 0 1 -78.769 -59.769 12.5 0.5 0.5 1.5
9 0 1 0 0 0 1 0 0 0 1 -78.769 -60.769 -14.5 0.5 0.5 1.5
9 0 1 0 0 0 1 0 0 0 1 -79.769 -58.769 -12.5 0.5 0.5 1.5
9 0 1 0 0 0 1 0 0 0 1 -79.769 -59.769 14.5 0.5 0.5 1.5
9 0 1 0 0 0 1 0 0 0 1 -80.769 -60.269 15.5 0.5 2 0.5
9 0 1 0 0 0 1 0 0 0 1 -78.769 -61.769 -7.5 1.5 0.5 0.5
9 0 1 0 0 0 1 0 0 0 1 -79.769 -68.769 -8.5 0.5 0.5 1.5
9 0 1 0 0 0 1 0 0 0 1 -79.769 -68.769 8.5 0.5 0.5 1.5
9 0 1 0 0 0 1 0 0 0 1 -80.769 68.231 -7.5 0.5 0.5 1.5
9 0 1 0 0 0 1 0 0 0 1 -80.769 56.231 9.5 0.5 0.5 1.5
9 0 1 0 0 0 1 0 0 0 1 -80.769 -53.769 -1.5 0.5 0.5 1.5
9 0 1 0 0 0 1 0 0 0 1 -81.769 53.231 -5.5 0.5 0.5 1.5
9 0 1 0 0 0 1 0 0 0 1 -81.769 52.231 2.5 0.5 0.5 1.5
9 0 1 0 0 0 1 0 0 0 1 -82.769 50.231 -1.5 0.5 0.5 1.5
9 0 1 0 0 0 1 0 0 0 1 -82.769 -51.769 7.5 0.5 0.5 1.5
9 0 1 0 0 0 1 0 0 0 1 -83.769 66.231 3.5 0.5 0.5 1.5
9 0 1 0 0 0 1 0 0 0 1 -83.769 50.231 7.5 0.5 0.5 1.5
9 0 1 0 0 0 1 0 0 0 1 -83.769 -48.769 -1.5 0.5 0.5 1.5
9 0 1 0 0 0 1 0 0 0 1 -83.769 -50.769 8.5 0.5 0.5 1.5
9 0 1 0 0 0 1 0 0 0 1 -83.769 -59.769 13.5 0.5 0.5 1.5
9 0 1 0 0 0 1 0 0 0 1 -84.769 63.231 -7.5 0.5 0.5 1.5
9 0 1 0 0 0 1 0 0 0 1 -84.769 63.231 7.5 0.5 0.5 1.5
9 0 1 0 0 0 1 0 0 0 1 -84.769 -50.769 -11.5 0.5 0.5 1.5
9 0 1 0 0 0 1 0 0 0 1 -84.769 -50.769 11.5 0.5 0.5 1.5
9 0 1 0 0 0 1 0 0 0 1 -84.769 -59.769 12.5 0.5 1.5 0.5
9 0 1 0 0 0 1 0 0 0 1 -84.769 -61.769 -9.5 0.5 0.5 1.5
9 0 1 0 0 0 1 0 0 0 1 -85.769 63.231 -4.5 0.5 0.5 1.5
9 0 1 0 0 0 1 0 0 0 1 -85.769 63.231 4.5 0.5 0.5 1.5
9 0 1 0 0 0 1 0 0 0 1 -85.769 -44.769 0.5 0.5 0.5 1.5
9 0 1 0 0 0 1 0 0 0 1 -86.769 47.231 -11.5 0.5 0.5 1.5
9 0 1 0 0 0 1 0 0 0 1 -86.769 47.231 11.5 0.5 0.5 1.5
9 0 1 0 0 0 1 0 0 0 1 -86.769 43.231 -1.5 0.5 0.5 1.5
9 0 1 0 0 0 1 0 0 0 1 -86.769 -60.769 -6.5 0.5 0.5 1.5
9 0 1 0 0 0 1 0 0 0 1 -86.769 -60.769 6.5 0.5 0.5 1.5
9 0 1 0 0 0 1 0 0 0 1 -87.769 59.231 -7.5 0.5 0.5 1.5
9 0 1 0 0 0 1 0 0 0 1 -87.769 44.231 9.5 0.5 0.5 1.5
9 0 1 0 0 0 1 0 0 0 1 -87.769 43.231 -7.5 0.5 0.5 1.5
9 0 1 0 0 0 1 0 0 0 1 -87.769 -50.769 -15.5 0.5 1.5 0.5
9 0 1 0 0 0 1 0 0 0 1 -88.769 52.231 -13.5 0.5 1.5 0.5
9 0 1 0 0 0 1 0 0 0 1 -88.769 52.231 13.5 0.5 1.5 0.5
9 0 1 0 0 0 1 0 0 0 1 -88.769 43.231 11.5 0.5 0.5 1.5
9 0 1 0 0 0 1 0 0 0 1 -88.769 -38.769 -1.5 0.5 0.5 1.5
9 0 1 0 0 0 1 0 0 0 1 -88.769 -39.769 5.5 0.5 0.5 1.5
9 0 1 0 0 0 1 0 0 0 1 -88.769 -41.769 9.5 0.5 0.5 1.5
9 0 1 0 0 0 1 0 0 0 1 -89.769 38.231 -7.5 0.5 0.5 1.5
9 0 1 0 0 0 1 0 0 0 1 -89.769 36.231 -1.5 0.5 0.5 1.5
9 0 1 0 0 0 1 0 0 0 1 -89.769 -51.769 12.5 0.5 1.5 0.5
9 0 1 0 0 0 1 0 0 0 1 -90.769 52.231 -9.5 0.5 1.5 0.5
9 0 1 0 0 0 1 0 0 0 1 -90.769 52.231 9.5 0.5 1.5 0.5
9 0 1 0 0 0 1 0 0 0 1 -90.769 -34.769 -4.5 0.5 0.5 1.5
9 0 1 0 0 0 1 0 0 0 1 -91.769 46.231 -13.5 0.5 1.5 0.5
9 0 1 0 0 0 1 0 0 0 1 -91.769 46.231 13.5 0.5 1.5 0.5
9 0 1 0 0 0 1 0 0 0 1 -91.769 -30.769 -1.5 0.5 0.5 1.5
9 0 1 0 0 0 1 0 0 0 1 -91.769 -32.769 6.5 0.5 0.5 1.5
9 0 1 0 0 0 1 0 0 0 1 -90.769 -47.769 13.5 1.5 0.5 0.5
9 0 1 0 0 0 1 0 0 0 1 -92.769 46.231 -12.5 0.5 1.5 0.5
9 0 1 0 0 0 1 0 0 0 1 -92.769 46.231 12.5 0.5 1.5 0.5
9 0 1 0 0 0 1 0 0 0 1 -92.769 43.231 -14.5 0.5 1.5 0.5
9 0 1 0 0 0 1 0 0 0 1 -92.769 43.231 14.5 0.5 1.5 0.5
9 0 1 0 0 0 1 0 0 0 1 -92.769 37.231 -15.5 0.5 1.5 0.5
9 0 1 0 0 0 1 0 0 0 1 -92.769 31.231 8.5 0.5 1.5 0.5
9 0 1 0 0 0 1 0 0 0 1 -92.769 27.231 -1.5 0.5 0.5 1.5
9 0 1 0 0 0 1 0 0 0 1 -92.769 -48.769 10.5 0.5 0.5 1.5
9 0 1 0 0 0 1 0 0 0 1 -92.769 -50.769 -7.5 0.5 0.5 1.5
9 0 1 0 0 0 1 0 0 0 1 -93.769 32.231 13.5 0.5 1.5 0.5
9 0 1 0 0 0 1 0 0 0 1 -93.769 29.231 -10.5 0.5 0.5 1.5
9 0 1 0 0 0 1 0 0 0 1 -93.769 29.231 10.5 0.5 0.5 1.5
9 0 1 0 0 0 1 0 0 0 1 -93.769 26.231 -6.5 0.5 0.5 1.5
9 0 1 0 0 0 1 0 0 0 1 -94.769 28.231 -13.5 0.5 1.5 0.5
9 0 1 0 0 0 1 0 0 0 1 -94.769 22.231 6.5 0.5 0.5 1.5
9 0 1 0 0 0 1 0 0 0 1 -94.769 -22.769 -7.5 0.5 0.5 1.5
9 0 1 0 0 0 1 0 0 0 1 -95.769 38.231 -13.5 0.5 1.5 0.5
9 0 1 0 0 0 1 0 0 0 1 -95.769 25.231 13.5 0.5 1.5 0.5
9 0 1 0 0 0 1 0 0 0 1 -95.769 15.231 5.5 0.5 0.5 1.5
9 0 1 0 0 0 1 0 0 0 1 -95.769 -10.769 0.5 0.5 0.5 1.5
9 0 1 0 0 0 1 0 0 0 1 -95.769 -34.769 15.5 0.5 1.5 0.5
9 0 1 0 0 0 1 0 0 0 1 -96.769 43.231 -7.5 0.5 0.5 1.5
9 0 1 0 0 0 1 0 0 0 1 -96.769 43.231 7.5 0.5 0.5 1.5
9 0 1 0 0 0 1 0 0 0 1 -96.769 -13.769 -9.5 0.5 1.5 0.5
9 0 1 0 0 0 1 0 0 0 1 -96.769 -13.769 9.5 0.5 1.5 0.5
9 0 1 0 0 0 1 0 0 0 1 -97.769 31.231 -14.5 0.5 1.5 0.5
9 0 1 0 0 0 1 0 0 0 1 -97.769 31.231 14.5 0.5 1.5 0.5
9 0 1 0 0 0 1 0 0 0 1 -97.769 29.231 -15.5 0.5 1.5 0.5
9 0 1 0 0 0 1 0 0 0 1 -97.769 29.231 15.5 0.5 1.5 0.5
9 0 1 0 0 0 1 0 0 0 1 -97.769 -29.769 15.5 0.5 1.5 0.5
9 0 1 0 0 0 1 0 0 0 1 -97.769 -33.769 13.5 0.5 1.5 0.5
9 0 1 0 0 0 1 0 0 0 1 -98.769 -27.769 14.5 0.5 1.5 0.5
9 0 1 0 0 0 1 0 0 0 1 -98.769 -32.769 -12.5 0.5 1.5 0.5
9 0 1 0 0 0 1 0 0 0 1 -98.769 -40.769 -4.5 0.5 0.5 1.5
9 0 1 0 0 0 1 0 0 0 1 -99.769 22.231 -15.5 0.5 1.5 0.5
9 0 1 0 0 0 1 0 0 0 1 -99.769 22.231 15.5 0.5 1.5 0.5
9 0 1 0 0 0 1 0 0 0 1 -100.769 20.231 -14.5 0.5 1.5 0.5
9 0 1 0 0 0 1 0 0 0 1 -100.769 20.231 14.5 0.5 1.5 0.5
9 0 1 0 0 0 1 0 0 0 1 -101.769 26.231 -9.5 0.5 1.5 0.5
9 0 1 0 0 0 1 0 0 0 1 -101.769 26.231 9.5 0.5 1.5 0.5
9 0 1 0 0 0 1 0 0 0 1 -102.769 -24.769 -8.5 0.5 1.5 0.5
9 0 1 0 0 0 1 0 0 0 1 -102.769 -24.769 8.5 0.5 1.5 0.5
9 0 1 0 0 0 1 0 0 0 1 -103.769 15.231 -11.5 0.5 1.5 0.5
9 0 1 0 0 0 1 0 0 0 1 -103.769 15.231 11.5 0.5 1.5 0.5
9 0 1 0 0 0 1 0 0 0 1 -104.769 -12.769 9.5 0.5 1.5 0.5
