9 0 1 0 0 0 1 0 0 0 1 0.2432156 -7.384214 -6.967346 7.5 0.5 2.5
9 0 1 0 0 0 1 0 0 0 1 0.2432156 -8.884214 -5.467346 5.5 1 1
9 0 1 0 0 0 1 0 0 0 1 1.243216 -7.384214 17.03265 1.5 0.5 5.5
9 0 1 0 0 0 1 0 0 0 1 -8.756784 -7.384214 14.03265 1.5 0.5 4.5
9 0 1 0 0 0 1 0 0 0 1 -18.25678 -7.384214 5.532654 3 0.5 2
9 0 1 0 0 0 1 0 0 0 1 18.24322 -7.384214 6.532654 2.5 0.5 2
9 0 1 0 0 0 1 0 0 0 1 13.24322 -7.384214 17.53265 2.5 0.5 2
9 0 1 0 0 0 1 0 0 0 1 10.24322 -7.384214 0.5326538 2.5 0.5 2
9 0 1 0 0 0 1 0 0 0 1 -9.756784 -7.384214 -0.4673462 2.5 0.5 2
9 0 1 0 0 0 1 0 0 0 1 13.74322 -7.384214 -10.46735 4 0.5 1
9 0 1 0 0 0 1 0 0 0 1 2.743216 -7.384214 -17.46735 1 0.5 4
9 0 1 0 0 0 1 0 0 0 1 -2.256784 -8.884214 -6.967346 4 1 0.5
9 0 1 0 0 0 1 0 0 0 1 -11.25678 -7.384214 -16.46735 2 0.5 2
9 0 1 0 0 0 1 0 0 0 1 0.2432156 -19.38421 6.032654 2.5 0.5 1.5
9 0 1 0 0 0 1 0 0 0 1 0.2432156 -10.88421 -4.967346 3.5 1 0.5
9 0 1 0 0 0 1 0 0 0 1 4.243216 -8.884214 -3.967346 1.5 2 0.5
9 0 1 0 0 0 1 0 0 0 1 -11.75678 -7.384214 18.53265 1.5 0.5 2
9 0 1 0 0 0 1 0 0 0 1 0.2432156 -17.38421 2.532654 2.5 0.5 1
9 0 1 0 0 0 1 0 0 0 1 -3.256784 -9.384214 -3.967346 1 2.5 0.5
9 0 1 0 0 0 1 0 0 0 1 1.243216 -7.384214 -10.96735 1.5 0.5 1.5
9 0 1 0 0 0 1 0 0 0 1 0.2432156 -18.38421 4.032654 1.5 0.5 1.5
9 0 1 0 0 0 1 0 0 0 1 17.74322 -7.384214 -8.467346 2 0.5 1
9 0 1 0 0 0 1 0 0 0 1 0.7432156 -8.384214 -9.467346 1 0.5 2
9 0 1 0 0 0 1 0 0 0 1 -5.256784 -7.884214 -3.467346 1 1 1
9 0 1 0 0 0 1 0 0 0 1 -7.756784 -7.384214 -12.46735 0.5 0.5 4
9 0 1 0 0 0 1 0 0 0 1 -8.256784 -8.384214 -1.467346 2 0.5 1
9 0 1 0 0 0 1 0 0 0 1 10.24322 -7.384214 14.03265 0.5 0.5 3.5
9 0 1 0 0 0 1 0 0 0 1 16.74322 -7.384214 4.032654 3 0.5 0.5
9 0 1 0 0 0 1 0 0 0 1 8.743216 -7.384214 10.03265 1 0.5 1.5
9 0 1 0 0 0 1 0 0 0 1 9.243216 -8.384214 -0.4673462 1.5 0.5 1
9 0 1 0 0 0 1 0 0 0 1 8.243216 -7.384214 -2.467346 1.5 0.5 1
9 0 1 0 0 0 1 0 0 0 1 4.743216 -7.384214 -19.96735 1 0.5 1.5
9 0 1 0 0 0 1 0 0 0 1 3.743216 -7.384214 21.03265 1 0.5 1.5
9 0 1 0 0 0 1 0 0 0 1 0.2432156 -16.38421 0.5326538 1.5 0.5 1
9 0 1 0 0 0 1 0 0 0 1 -1.256784 -10.38421 -5.967346 3 0.5 0.5
9 0 1 0 0 0 1 0 0 0 1 -13.25678 -7.384214 1.032654 1 0.5 1.5
9 0 1 0 0 0 1 0 0 0 1 15.24322 -7.384214 -11.96735 2.5 0.5 0.5
9 0 1 0 0 0 1 0 0 0 1 4.243216 -8.384214 -6.967346 2.5 0.5 0.5
9 0 1 0 0 0 1 0 0 0 1 -8.756784 -7.384214 -14.96735 0.5 0.5 2.5
9 0 1 0 0 0 1 0 0 0 1 8.743216 -7.384214 -9.467346 1 0.5 1
9 0 1 0 0 0 1 0 0 0 1 7.243216 -7.884214 9.532654 0.5 1 1
9 0 1 0 0 0 1 0 0 0 1 3.743216 -11.88421 -3.967346 1 1 0.5
9 0 1 0 0 0 1 0 0 0 1 2.743216 -7.384214 -22.46735 1 0.5 1
9 0 1 0 0 0 1 0 0 0 1 -0.7567844 -7.384214 19.53265 0.5 0.5 2
9 0 1 0 0 0 1 0 0 0 1 -5.756784 -8.884214 -1.967346 0.5 2 0.5
9 0 1 0 0 0 1 0 0 0 1 -6.756784 -7.384214 -2.467346 0.5 0.5 2
9 0 1 0 0 0 1 0 0 0 1 -7.756784 -7.384214 7.532654 0.5 0.5 2
9 0 1 0 0 0 1 0 0 0 1 21.24322 -7.384214 6.032654 0.5 0.5 1.5
9 0 1 0 0 0 1 0 0 0 1 13.24322 -7.384214 1.032654 0.5 0.5 1.5
9 0 1 0 0 0 1 0 0 0 1 12.24322 -7.384214 15.03265 1.5 0.5 0.5
9 0 1 0 0 0 1 0 0 0 1 7.243216 -8.384214 -0.9673462 0.5 1.5 0.5
9 0 1 0 0 0 1 0 0 0 1 1.243216 -7.384214 -20.96735 0.5 0.5 1.5
9 0 1 0 0 0 1 0 0 0 1 0.2432156 -15.38421 -0.9673462 1.5 0.5 0.5
9 0 1 0 0 0 1 0 0 0 1 -3.756784 -8.384214 11.03265 0.5 1.5 0.5
9 0 1 0 0 0 1 0 0 0 1 -6.756784 -7.384214 -10.96735 0.5 0.5 1.5
9 0 1 0 0 0 1 0 0 0 1 -8.756784 -7.384214 -2.967346 1.5 0.5 0.5
9 0 1 0 0 0 1 0 0 0 1 -13.75678 -7.384214 -15.96735 0.5 0.5 1.5
9 0 1 0 0 0 1 0 0 0 1 -14.75678 -7.384214 4.032654 0.5 0.5 1.5
9 0 1 0 0 0 1 0 0 0 1 -18.75678 -7.384214 8.032654 1.5 0.5 0.5
