9 0 -1.192093E-07 0 -1 0 1 0 1 0 -1.192093E-07 10 14 70 3.35 0.5 3.35
9 0 -1.192093E-07 0 -1 0 1 0 1 0 -1.192093E-07 -10 14 70 3.35 0.5 3.35
9 0 -1.192093E-07 0 -1 0 1 0 1 0 -1.192093E-07 10 14 -70 3.35 0.5 3.35
9 0 -1.192093E-07 0 -1 0 1 0 1 0 -1.192093E-07 -10 14 -70 3.35 0.5 3.35
9 0 1 0 0 0 1 0 0 0 1 -1.144409E-05 18 70.00001 33.5 0.5 8.5
9 0 1 0 0 0 1 0 0 0 1 -1.000011 18 -69.99999 42.5 0.5 6.5
9 0 1 0 0 0 1 0 0 0 1 -26.00001 14.5 -69.99999 4.5 3 8.5
9 0 1 0 0 0 1 0 0 0 1 -26.00001 14.5 70.00001 4.5 3 8.5
9 0 1 0 0 0 1 0 0 0 1 26.99999 14.5 -69.99999 5.5 3 6.5
9 0 1 0 0 0 1 0 0 0 1 26.99999 14.5 70.00001 5.5 3 6.5
9 0 1 0 0 0 1 0 0 0 1 -1.144409E-05 20 -77.99999 33.5 2.5 0.5
9 0 1 0 0 0 1 0 0 0 1 -1.144409E-05 20 -61.99999 33.5 2.5 0.5
9 0 1 0 0 0 1 0 0 0 1 -1.144409E-05 20.5 62.00001 35.5 2 0.5
9 0 1 0 0 0 1 0 0 0 1 -1.144409E-05 20.5 78.00001 35.5 2 0.5
9 0 1 0 0 0 1 0 0 0 1 42.49999 18 7.629395E-06 1 0.5 58.5
9 0 1 0 0 0 1 0 0 0 1 -42.00001 18.5 -3.999992 0.5 1 54.5
9 0 1 0 0 0 1 0 0 0 1 -31.50001 14.5 -69.99999 1 3 6.5
9 0 1 0 0 0 1 0 0 0 1 -31.50001 14.5 70.00001 1 3 6.5
9 0 1 0 0 0 1 0 0 0 1 41.99999 19 7.629395E-06 0.5 0.5 58.5
9 0 1 0 0 0 1 0 0 0 1 39.99999 19 70.00001 1.5 1.5 6.5
9 0 1 0 0 0 1 0 0 0 1 -40.00001 19 70.00001 1.5 1.5 6.5
9 0 1 0 0 0 1 0 0 0 1 25.99999 14.5 -77.49999 4.5 3 1
9 0 1 0 0 0 1 0 0 0 1 25.99999 14.5 -62.49999 4.5 3 1
9 0 1 0 0 0 1 0 0 0 1 25.99999 14.5 62.50001 4.5 3 1
9 0 1 0 0 0 1 0 0 0 1 25.99999 14.5 77.50001 4.5 3 1
9 0 1 0 0 0 1 0 0 0 1 -43.00001 18 -7.999992 0.5 0.5 50.5
9 0 1 0 0 0 1 0 0 0 1 39.99999 19.5 -69.99999 1.5 1 6.5
9 0 1 0 0 0 1 0 0 0 1 34.99999 17.5 70.00001 1.5 1 6.5
9 0 1 0 0 0 1 0 0 0 1 -35.00001 17.5 70.00001 1.5 1 6.5
9 0 1 0 0 0 1 0 0 0 1 -39.50001 20 -69.99999 1 1.5 6.5
9 0 1 0 0 0 1 0 0 0 1 -1.144409E-05 18 -76.99999 34.5 0.5 0.5
9 0 1 0 0 0 1 0 0 0 1 -1.144409E-05 18 -62.99999 34.5 0.5 0.5
9 0 1 0 0 0 1 0 0 0 1 34.49999 17 -69.99999 2 0.5 6.5
9 0 1 0 0 0 1 0 0 0 1 -33.00001 15.5 -69.99999 0.5 2 6.5
9 0 1 0 0 0 1 0 0 0 1 -33.00001 15.5 70.00001 0.5 2 6.5
9 0 1 0 0 0 1 0 0 0 1 32.99999 15 -69.99999 0.5 1.5 6.5
9 0 1 0 0 0 1 0 0 0 1 32.99999 15 70.00001 0.5 1.5 6.5
9 0 1 0 0 0 1 0 0 0 1 -35.00001 17 -69.99999 1.5 0.5 6.5
9 0 1 0 0 0 1 0 0 0 1 38.99999 21.5 -69.99999 0.5 1 8.5
9 0 1 0 0 0 1 0 0 0 1 39.49999 21 70.00001 1 0.5 8.5
9 0 1 0 0 0 1 0 0 0 1 42.49999 18 -69.99999 1 0.5 6.5
9 0 1 0 0 0 1 0 0 0 1 42.49999 18 70.00001 1 0.5 6.5
9 0 1 0 0 0 1 0 0 0 1 37.49999 18 70.00001 1 0.5 6.5
9 0 1 0 0 0 1 0 0 0 1 -37.50001 18 70.00001 1 0.5 6.5
9 0 1 0 0 0 1 0 0 0 1 -39.00001 21.5 68.00001 0.5 1 6.5
9 0 1 0 0 0 1 0 0 0 1 -41.00001 19.5 -69.99999 0.5 1 6.5
9 0 1 0 0 0 1 0 0 0 1 -42.00001 18.5 70.00001 0.5 1 6.5
9 0 1 0 0 0 1 0 0 0 1 -36.50001 21 -77.99999 3 1.5 0.5
9 0 1 0 0 0 1 0 0 0 1 -36.50001 21 -61.99999 3 1.5 0.5
9 0 1 0 0 0 1 0 0 0 1 38.99999 22 70.00001 0.5 0.5 8.5
9 0 1 0 0 0 1 0 0 0 1 -42.50001 18 54.50001 1 0.5 4
9 0 1 0 0 0 1 0 0 0 1 35.99999 21 -77.99999 2.5 1.5 0.5
9 0 1 0 0 0 1 0 0 0 1 35.99999 21 -61.99999 2.5 1.5 0.5
9 0 1 0 0 0 1 0 0 0 1 -39.00001 22 -69.99999 0.5 0.5 7.5
9 0 1 0 0 0 1 0 0 0 1 43.99999 17 -69.99999 0.5 0.5 6.5
9 0 1 0 0 0 1 0 0 0 1 43.99999 17 70.00001 0.5 0.5 6.5
9 0 1 0 0 0 1 0 0 0 1 41.99999 19 -69.99999 0.5 0.5 6.5
9 0 1 0 0 0 1 0 0 0 1 41.99999 19 70.00001 0.5 0.5 6.5
9 0 1 0 0 0 1 0 0 0 1 33.99999 16 -69.99999 0.5 0.5 6.5
9 0 1 0 0 0 1 0 0 0 1 33.99999 16 70.00001 0.5 0.5 6.5
9 0 1 0 0 0 1 0 0 0 1 32.99999 17 70.00001 0.5 0.5 6.5
9 0 1 0 0 0 1 0 0 0 1 -34.00001 16 -69.99999 0.5 0.5 6.5
9 0 1 0 0 0 1 0 0 0 1 -34.00001 16 70.00001 0.5 0.5 6.5
9 0 1 0 0 0 1 0 0 0 1 -42.00001 19 -69.99999 0.5 0.5 6.5
9 0 1 0 0 0 1 0 0 0 1 -43.00001 18 70.00001 0.5 0.5 6.5
9 0 1 0 0 0 1 0 0 0 1 -44.00001 17 -69.99999 0.5 0.5 6.5
9 0 1 0 0 0 1 0 0 0 1 -44.00001 17 70.00001 0.5 0.5 6.5
9 0 1 0 0 0 1 0 0 0 1 -37.50001 21 78.00001 2 1.5 0.5
9 0 1 0 0 0 1 0 0 0 1 39.99999 21 -73.99999 0.5 0.5 4.5
9 0 1 0 0 0 1 0 0 0 1 36.99999 21 62.00001 1.5 1.5 0.5
9 0 1 0 0 0 1 0 0 0 1 36.99999 21 78.00001 1.5 1.5 0.5
9 0 1 0 0 0 1 0 0 0 1 19.99999 22 -69.99999 1.5 0.5 1.5
9 0 1 0 0 0 1 0 0 0 1 19.99999 22 70.00001 1.5 0.5 1.5
9 0 1 0 0 0 1 0 0 0 1 -1.144409E-05 22 -69.99999 1.5 0.5 1.5
9 0 1 0 0 0 1 0 0 0 1 -1.144409E-05 22 70.00001 1.5 0.5 1.5
9 0 1 0 0 0 1 0 0 0 1 -20.00001 22 -69.99999 1.5 0.5 1.5
9 0 1 0 0 0 1 0 0 0 1 -20.00001 22 70.00001 1.5 0.5 1.5
9 0 1 0 0 0 1 0 0 0 1 -37.00001 21 62.00001 1.5 1.5 0.5
9 0 1 0 0 0 1 0 0 0 1 -40.00001 21 74.00001 0.5 0.5 4.5
9 0 1 0 0 0 1 0 0 0 1 39.99999 20 -77.49999 1.5 0.5 1
9 0 1 0 0 0 1 0 0 0 1 39.99999 20 -62.49999 1.5 0.5 1
9 0 1 0 0 0 1 0 0 0 1 39.99999 20 62.50001 1.5 0.5 1
9 0 1 0 0 0 1 0 0 0 1 39.99999 20 77.50001 1.5 0.5 1
9 0 1 0 0 0 1 0 0 0 1 30.99999 16 -77.49999 0.5 1.5 1
9 0 1 0 0 0 1 0 0 0 1 30.99999 16 -62.49999 0.5 1.5 1
9 0 1 0 0 0 1 0 0 0 1 30.99999 16 62.50001 0.5 1.5 1
9 0 1 0 0 0 1 0 0 0 1 30.99999 16 77.50001 0.5 1.5 1
9 0 1 0 0 0 1 0 0 0 1 -31.00001 16 -77.49999 0.5 1.5 1
9 0 1 0 0 0 1 0 0 0 1 -31.00001 16 -62.49999 0.5 1.5 1
9 0 1 0 0 0 1 0 0 0 1 -31.00001 16 62.50001 0.5 1.5 1
9 0 1 0 0 0 1 0 0 0 1 -31.00001 16 77.50001 0.5 1.5 1
9 0 1 0 0 0 1 0 0 0 1 -40.00001 20 62.50001 1.5 0.5 1
9 0 1 0 0 0 1 0 0 0 1 49.99999 11 -60.99999 0.5 0.5 2.5
9 0 1 0 0 0 1 0 0 0 1 46.99999 14 -73.99999 0.5 0.5 2.5
9 0 1 0 0 0 1 0 0 0 1 46.99999 14 -65.99999 0.5 0.5 2.5
9 0 1 0 0 0 1 0 0 0 1 46.99999 14 66.00001 0.5 0.5 2.5
9 0 1 0 0 0 1 0 0 0 1 46.99999 14 74.00001 0.5 0.5 2.5
9 0 1 0 0 0 1 0 0 0 1 39.99999 21 -63.99999 0.5 0.5 2.5
9 0 1 0 0 0 1 0 0 0 1 -40.00001 21 64.00001 0.5 0.5 2.5
9 0 1 0 0 0 1 0 0 0 1 -42.00001 19 56.00001 0.5 0.5 2.5
9 0 1 0 0 0 1 0 0 0 1 -43.00001 18 48.00001 0.5 0.5 2.5
9 0 1 0 0 0 1 0 0 0 1 -47.00001 14 -73.99999 0.5 0.5 2.5
9 0 1 0 0 0 1 0 0 0 1 -47.00001 14 -65.99999 0.5 0.5 2.5
9 0 1 0 0 0 1 0 0 0 1 -47.00001 14 66.00001 0.5 0.5 2.5
9 0 1 0 0 0 1 0 0 0 1 -47.00001 14 74.00001 0.5 0.5 2.5
9 0 1 0 0 0 1 0 0 0 1 -50.00001 11 -60.99999 0.5 0.5 2.5
9 0 1 0 0 0 1 0 0 0 1 49.99999 11 60.50001 0.5 0.5 2
9 0 1 0 0 0 1 0 0 0 1 48.49999 12 -64.49999 1 0.5 1
9 0 1 0 0 0 1 0 0 0 1 48.49999 12 64.50001 1 0.5 1
9 0 1 0 0 0 1 0 0 0 1 -39.50001 20.5 -76.99999 1 1 0.5
9 0 1 0 0 0 1 0 0 0 1 -39.50001 20.5 -62.99999 1 1 0.5
9 0 1 0 0 0 1 0 0 0 1 -40.50001 20 77.50001 1 0.5 1
9 0 1 0 0 0 1 0 0 0 1 -48.00001 12.5 -64.49999 0.5 1 1
9 0 1 0 0 0 1 0 0 0 1 -48.00001 12.5 64.50001 0.5 1 1
9 0 1 0 0 0 1 0 0 0 1 -50.00001 11 60.50001 0.5 0.5 2
9 0 1 0 0 0 1 0 0 0 1 47.99999 13 -74.99999 0.5 0.5 1.5
9 0 1 0 0 0 1 0 0 0 1 47.99999 13 -64.99999 0.5 0.5 1.5
9 0 1 0 0 0 1 0 0 0 1 47.99999 13 65.00001 0.5 0.5 1.5
9 0 1 0 0 0 1 0 0 0 1 47.99999 13 75.00001 0.5 0.5 1.5
9 0 1 0 0 0 1 0 0 0 1 -39.00001 21 76.00001 0.5 0.5 1.5
9 0 1 0 0 0 1 0 0 0 1 -48.00001 13 -74.99999 0.5 0.5 1.5
9 0 1 0 0 0 1 0 0 0 1 -48.00001 13 75.00001 0.5 0.5 1.5
