9 0 1 0 0 0 1 0 0 0 1 -46.72678 -3.273609 -67.31934 15.97679 2.523609 0.3193387
9 0 1 0 0 0 1 0 0 0 1 -46.72678 -3.273609 7.319339 15.97679 2.523609 0.3193387
9 0 1 0 0 0 1 0 0 0 1 -129.9655 -15.76745 -20.00044 4.109918 7.482555 0.4998052
9 0 1 0 0 0 1 0 0 0 1 -129.9997 -15.76744 -39.99955 3.329944 7.48255 0.4998043
9 0 1 0 0 0 1 0 0 0 1 -149.9655 -17.31787 -20.00044 4.109918 5.93213 0.499806
9 0 1 0 0 0 1 0 0 0 1 -149.9655 -17.31787 -39.99955 4.109918 5.932132 0.4998027
9 0 1 0 0 0 1 0 0 0 1 -6.745323 -18.64288 -60.55926 0.3794763 4.407875 0.2267979
9 0 1 0 0 0 1 0 0 0 1 -6.750006 -23.07248 9.999996 0.5000078 0.177522 9.667535
9 0 1 0 0 0 1 0 0 0 1 -6.752679 -23.07248 -70 0.5026778 0.1775202 9.667533
9 0 1 0 0 0 1 0 0 0 1 -6.745322 -18.98403 0.8309719 0.3794782 4.265969 0.5015041
9 0 1 0 0 0 1 0 0 0 1 -28.75001 -22.0591 -78.75251 0.5000018 1.190902 7.997489
9 0 1 0 0 0 1 0 0 0 1 -20.00001 -15.90181 -71.25 9.250004 7.3482 0.4999973
8192 0 -1.192093E-07 0.6953293 -0.7186913 1 0 -2.980232E-08 2.980232E-08 -0.7186913 -0.6953294 -9.999998 -10.88983 -79.2747 0.156373 19.25 13.64217
8192 0 1 0 0 0 0.7232525 -0.6905836 0 0.6905836 0.7232525 -28.75 -15.84318 -77.89371 0.4999987 1.3459 7.771867
9 0 1 0 0 0 1 0 0 0 1 -8.750004 -15.90181 -56.04123 0.4999989 7.348195 5.291234
9 0 1 0 0 0 1 0 0 0 1 -7.464945E-07 -15.90181 -51.24977 9.250004 7.348194 0.5002313
9 0 1 0 0 0 1 0 0 0 1 8.75 -15.0925 -57.38152 0.5000019 8.157503 4.167326
9 0 1 0 0 0 1 0 0 0 1 8.751655 -23.0466 -76.09014 0.5016528 0.2034035 13.09369
8192 0 -1 -6.342487E-08 -6.208268E-08 8.074343E-08 -0.359754 -0.9330471 3.68439E-08 -0.9330471 0.359754 8.770982 -18.44631 -80.34404 0.4823301 1.692046 3.684687
9 0 1 0 0 0 1 0 0 0 1 -9.070954 -17.38549 -79.17542 2.679046 5.86451 0.5078905
9 0 1 0 0 0 1 0 0 0 1 -11.25 -17.38549 -77.6269 0.4999989 5.864513 2.040623
9 0 1 0 0 0 1 0 0 0 1 -11.25 -15.90181 -72.41814 0.4999989 7.348192 1.66814
9 0 1 0 0 0 1 0 0 0 1 -10.39329 -22.26787 -88.75252 19.6466 0.9821336 0.5025201
8192 0 -1 -8.063087E-08 -3.700793E-08 6.353743E-08 -0.359754 -0.9330471 6.191866E-08 -0.9330471 0.359754 8.770982 -20.76675 -85.02948 0.4823301 2.066758 1.449909
8192 0 -1 -5.552394E-08 -7.193051E-08 9.516098E-09 0.7232533 -0.6905828 9.036786E-08 -0.6905828 -0.7232533 -28.75001 -18.76757 -74.86813 0.5000018 1.345898 3.873994
9 0 1 0 0 0 1 0 0 0 1 -10.39495 -22.3475 28.75 19.64495 0.9024984 0.4999974
8192 0 0 -0.359754 0.9330472 -5.960464E-08 -0.9330472 -0.359754 1 -5.960464E-08 0 8.769326 -20.76675 25.02947 2.066758 1.449907 0.4806752
8192 0 0 -0.359754 0.9330472 -5.960464E-08 -0.9330472 -0.359754 1 -5.960464E-08 0 8.769326 -18.44631 20.34404 1.692044 3.68469 0.4806752
9 0 1 0 0 0 1 0 0 0 1 8.750001 -23.0466 16.12322 0.500006 0.2034029 13.12677
9 0 1 0 0 0 1 0 0 0 1 8.750001 -15.09249 -2.618484 0.5000028 8.1575 4.167326
9 0 1 0 0 0 1 0 0 0 1 2.822081E-06 -15.90181 -8.750005 9.250005 7.348194 0.5000006
9 0 1 0 0 0 1 0 0 0 1 -8.750004 -15.90181 -3.958768 0.4999994 7.348196 5.291234
9 0 1 0 0 0 1 0 0 0 1 -9.070954 -17.38549 19.16892 2.679046 5.864511 0.4986067
9 0 1 0 0 0 1 0 0 0 1 -11.25 -17.38549 17.6269 0.4999986 5.864513 2.040622
9 0 1 0 0 0 1 0 0 0 1 -11.25 -15.90181 12.41814 0.4999986 7.348196 1.668139
9 0 1 0 0 0 1 0 0 0 1 -28.75001 -22.0591 18.75 0.5000028 1.190901 8.000001
8192 0 -1.192093E-07 0.7232528 0.6905835 8.940697E-08 -0.6905836 0.7232528 1 8.940697E-08 -1.192093E-07 -28.75001 -15.84318 17.89371 1.345896 7.771868 0.5000035
8192 0 0.2843081 -0.933889 -0.2168418 0.6064442 4.172325E-07 0.7951261 -0.7425594 -0.3575632 0.5663516 -138.8618 -7.304317 -17.55339 0.2842001 6.521236 2.224045
8192 0 0.2843078 -0.9338891 0.2168418 0.7425609 0.357563 0.5663497 -0.6064425 5.066395E-07 0.7951274 -138.8618 -7.304316 -42.44661 0.2842001 2.224056 6.521232
8192 0 -2.384186E-07 1 5.960464E-08 0.3567158 0 -0.934213 -0.934213 0 -0.3567159 -115.2655 -6.526803 -9.347679 0.526803 4.316749 13.15107
8192 0 5.960464E-08 0.9999999 -1.490116E-07 0.9342127 5.960464E-08 -0.3567163 -0.3567163 -1.490116E-07 -0.9342126 -115.2655 -6.526803 -50.65232 0.526803 13.15107 4.316743
8192 0 -1.192093E-07 1 5.960464E-08 -0.7951261 -1.192093E-07 0.6064441 0.6064441 0 0.7951261 -131.1745 -6.526805 -22.31441 0.526803 4.786057 12.2532
8192 0 0 0.9999999 5.960464E-08 0.7951251 0 0.6064454 0.6064454 5.960464E-08 -0.795125 -131.1745 -6.526806 -37.68559 0.526803 4.786077 12.25321
9 0 1 0 0 0 1 0 0 0 1 -122.9461 -6.526803 -29.99497 5.215883 0.5268085 19.24999
8192 0 0.3014716 -0.933217 0.1955015 0.9518445 0.3065485 -0.004489928 -0.05574062 0.1874406 0.9806931 -154.3971 -12.22837 -39.76822 0.1832781 12.24917 9.252514
8192 0 0.3010186 -0.9372506 -0.1759235 0.9518445 0.3065485 -0.004489951 0.05813729 -0.1661003 0.9843936 -154.3661 -12.03604 -20.07476 0.1832781 12.24917 9.252513
9 0 1 0 0 0 1 0 0 0 1 -153.3781 -20.52064 -48.75 15.87188 2.729361 0.5000045
9 0 1 0 0 0 1 0 0 0 1 -168.75 -20.52064 -30 0.4999987 2.72936 19.25
9 0 1 0 0 0 1 0 0 0 1 -9.999995 -3.273609 -68.125 19.25 2.523609 1.125002
9 0 1 0 0 0 1 0 0 0 1 -9.999995 -3.273609 8.125001 19.25 2.523609 1.125001
8192 0 0.9513128 0.308227 -1.364008E-08 0.308227 -0.9513133 8.635214E-08 1.364008E-08 -8.635214E-08 -1 -164.4668 -14.07879 -30 23.15569 0.4566305 4.378042
8192 0 5.960464E-08 0.6953292 0.7186913 0 0.7186913 -0.6953292 -0.9999999 0 5.960464E-08 -9.999996 -10.8954 19.26894 0.148365 13.64217 19.25
9 0 1 0 0 0 1 0 0 0 1 -113.3781 -15.9018 -11.25 22.62812 7.348188 0.4999993
9 0 1 0 0 0 1 0 0 0 1 -113.3781 -15.90181 -48.75001 22.62812 7.348194 0.4999933
9 0 1 0 0 0 1 0 0 0 1 -153.3781 -20.52063 -11.25 15.87188 2.72936 0.5000013
9 0 1 0 0 0 1 0 0 0 1 8.125002 -3.092497 -29.97711 1.125002 2.342498 39.2729
9 0 1 0 0 0 1 0 0 0 1 -91.25539 -15.02547 -30 0.5053837 8.224525 19.25
8192 0 0.9949816 0.0647849 0.07625288 0.09814706 -0.7801471 -0.6178492 0.01946116 0.6222327 -0.7825905 -84.47714 -13.21726 14.99757 14.03826 0.3001627 11.11492
8192 0 0.9880713 6.751596E-09 0.1539972 -6.751596E-09 -1 8.716168E-08 0.1539972 -8.716168E-08 -0.9880714 -89.44668 -22.18533 22.96508 18.81989 1.06467 0.784892
8192 0 0.9980605 2.722414E-09 0.06225137 -2.722414E-09 -1 8.738038E-08 0.06225137 -8.738038E-08 -0.9980605 -50.44886 -22.14077 27.00248 19.64569 1.109235 0.784892
8192 0 0.9985865 0.02662491 0.04600176 0.05094426 -0.7262571 -0.6855329 0.01515686 0.6869074 -0.7265869 -49.78677 -12.00507 16.74224 19.19335 0.1 11.56343
8192 0 0.9566303 1.287369E-08 0.2913049 -1.287369E-08 -1 8.646972E-08 0.2913049 -8.646972E-08 -0.9566307 -127.2935 -22.18533 14.29883 18.81989 1.064669 0.784892
8192 0 0.8877343 2.071253E-08 0.4603563 -2.071253E-08 -1 8.49337E-08 0.4603563 -8.49337E-08 -0.8877347 -157.9488 -22.18533 2.66363 12.85526 1.06467 0.5335548
8192 0 -0.2636843 0.9147795 -0.3060214 0.8784949 0.09671181 -0.4678604 -0.3983933 -0.3922057 -0.8291305 -159.8542 -18.03976 -53.99889 0.1 8.371845 7.464158
8192 0 -0.2636844 0.9147795 0.3060215 0.3983945 0.3922058 -0.8291299 -0.8784945 -0.09671137 -0.4678617 -159.8542 -18.03976 -6.001117 0.1 7.464163 8.371845
8192 0 0.712456 3.314834E-08 0.7017168 -3.314834E-08 -1 8.089456E-08 0.7017168 -8.089456E-08 -0.712456 -176.2622 -22.18533 -9.821347 8.437028 1.06467 0.5335548
8192 0 0.5977694 0.03986353 0.8006765 0.3384545 -0.9179366 -0.206982 0.7267189 0.3947201 -0.5622064 -173.9045 -19.21834 -19.58464 13.79806 0.1 7.464152
8192 0 0.4634163 4.528228E-08 0.8861408 -4.528228E-08 -1 7.47814E-08 0.8861408 -7.47814E-08 -0.4634168 -184.6958 -22.3625 -20.59029 8.437028 0.8875009 0.3213745
8192 0 0.5977694 0.03986353 -0.8006765 0.3384545 -0.9179366 0.206982 -0.7267189 -0.3947201 -0.5622064 -173.9045 -19.21834 -40.60627 13.79806 0.1 7.464152
8192 0 0.4634163 -4.528228E-08 -0.8861408 4.528228E-08 -1 7.47814E-08 -0.8861408 -7.47814E-08 -0.4634168 -184.6958 -22.3625 -39.60063 8.437028 0.8874981 0.3213745
8192 0 0.712456 -3.314834E-08 -0.7017168 3.314834E-08 -1 8.089456E-08 -0.7017168 -8.089456E-08 -0.712456 -176.2622 -22.18533 -50.36957 8.437028 1.06467 0.5335548
8192 0 0.8877343 -2.071253E-08 -0.4603563 2.071253E-08 -1 8.49337E-08 -0.4603563 -8.49337E-08 -0.8877347 -157.9488 -22.18533 -62.85455 12.85526 1.064669 0.5335548
8192 0 0.9566303 -1.287369E-08 -0.2913049 1.287369E-08 -1 8.646972E-08 -0.2913049 -8.646972E-08 -0.9566307 -127.2935 -22.18533 -74.48975 18.81989 1.064669 0.784892
8192 0 -0.2296271 0.8592628 -0.457098 0.914694 0.03004301 -0.403029 -0.3325752 -0.5106512 -0.7928612 -139.3425 -15.05316 -58.04372 0.1 16.41613 13.08459
8192 0 -0.2296274 0.8592631 0.4570978 0.3325752 0.510651 -0.7928615 -0.9146941 -0.0300433 -0.4030291 -139.3425 -15.05316 -1.956277 0.1 13.08459 16.41613
8192 0 0.9985865 0.02662491 -0.04600176 0.05094426 -0.7262571 0.6855329 -0.01515686 -0.6869074 -0.7265869 -49.89799 -12.033 -76.90443 19.08022 0.1 11.56343
8192 0 0.9980605 -2.722414E-09 -0.06225137 2.722414E-09 -1 8.738038E-08 -0.06225137 -8.738038E-08 -0.9980605 -50.44886 -22.26787 -87.1934 19.64569 0.9821305 0.784892
8192 0 0.9880713 -6.751596E-09 -0.1539972 6.751596E-09 -1 8.716168E-08 -0.1539972 -8.716168E-08 -0.9880714 -89.44668 -22.18533 -83.156 18.81989 1.064672 0.784892
9 0 1 0 0 0 1 0 0 0 1 -109.2271 -6.526803 -43.06501 18.37727 0.5268085 5.511381
9 0 1 0 0 0 1 0 0 0 1 -109.3257 -6.526803 -16.93499 18.47583 0.5268085 5.511381
9 0 1 0 0 0 1 0 0 0 1 -50 -6.527112 -30.00001 12.72774 0.527115 5.374999
8192 0 -0.1601954 0.8162493 -0.5550447 0.9580419 -0.006827116 -0.2865471 -0.2376832 -0.5776596 -0.7809073 -115.2697 -14.86797 -68.78135 0.1 16.41613 12.20185
8192 0 -0.1601956 0.8162493 0.5550445 0.2376829 0.5776595 -0.7809074 -0.9580419 0.006826729 -0.2865471 -115.2697 -14.86797 8.781343 0.1 12.20185 16.41613
8192 0 0.9949816 0.0647849 -0.07625288 0.09814706 -0.7801471 0.6178492 -0.01946116 -0.6222327 -0.7825905 -84.47732 -13.22292 -75.1956 14.03826 0.3001627 11.10584
9 0 1 0 0 0 1 0 0 0 1 -84.43166 -6.527112 -29.94057 6.949692 0.527115 35.44046
9 0 1 0 0 0 1 0 0 0 1 -41.45651 -6.310408 -51.42672 34.6815 0.3104085 14.34694
9 0 1 0 0 0 1 0 0 0 1 -41.45651 -6.310408 -8.573291 34.68151 0.3104125 14.34694
8192 0 0.96144 0.2750149 -1.213887E-08 0.2750149 -0.9614403 8.657593E-08 1.213887E-08 -8.657593E-08 -1 -176.9866 -19.41328 -29.82684 5.868669 0.1 15.03568
9 0 1 0 0 0 1 0 0 0 1 -96.93025 -6.526803 -29.99497 5.749586 0.5268085 33.52016
9 0 1 0 0 0 1 0 0 0 1 -20 -15.55361 11.25 9.250002 7.696386 0.4999984
8192 0 -0.7071071 -8.076812E-08 -0.7071069 8.076812E-08 -1 3.345525E-08 -0.7071069 -3.345525E-08 0.7071067 -154.8898 -17.67252 -34.88979 0.540188 5.577482 0.4999994
8192 0 -0.7071071 -8.076812E-08 0.7071069 8.076812E-08 -1 -3.345525E-08 0.7071069 3.345525E-08 0.7071067 -154.8559 -17.67252 -25.14643 0.4906114 5.577482 0.4999994
8192 0 -0.7071071 -8.076812E-08 0.7071069 8.076812E-08 -1 -3.345525E-08 0.7071069 3.345525E-08 0.7071067 -145.1503 -16.85316 -25.15029 0.4999986 6.396842 0.4835139
8192 0 -0.7071071 -8.076812E-08 0.7071069 8.076812E-08 -1 -3.345525E-08 0.7071069 3.345525E-08 0.7071067 -145.1498 -16.85316 -34.8502 0.4842154 6.396842 0.5018244
8192 0 -0.7071071 -8.076812E-08 0.7071069 8.076812E-08 -1 -3.345525E-08 0.7071069 3.345525E-08 0.7071067 -134.8538 -16.00001 -34.85466 0.4994223 7.249994 0.4917627
8192 0 0.7071067 3.345525E-08 0.7071069 -3.345525E-08 -1 8.076812E-08 0.7071069 -8.076812E-08 -0.7071071 -134.8548 -16.00001 -25.1483 0.4994223 7.249994 0.4917627
8192 0 0.7071067 -3.345525E-08 -0.7071069 3.345525E-08 -1 8.076812E-08 -0.7071069 -8.076812E-08 -0.7071071 -125.1484 -16.00001 -25.14732 0.4994223 7.249994 0.4917627
8192 0 -0.7071071 -8.076812E-08 -0.7071069 8.076812E-08 -1 3.345525E-08 -0.7071069 -3.345525E-08 0.7071067 -125.1475 -16.00001 -34.85368 0.4994223 7.249994 0.4917627
9 0 1 0 0 0 1 0 0 0 1 -6.587525 -6.680604 -30.00001 15.83753 0.5693944 23.00001
9 0 1 0 0 0 1 0 0 0 1 0.1124933 -11.985 -57.89544 5.387499 0.75 3.395416
9 0 1 0 0 0 1 0 0 0 1 0.1124993 -11.985 -2.104571 5.387501 0.7499995 3.395418
9 0 1 0 0 0 1 0 0 0 1 -20 -10 -60 3.5 0.5 2.5
9 0 1 0 0 0 1 0 0 0 1 -20 -10 -63 2.5 0.5 0.5
9 0 1 0 0 0 1 0 0 0 1 -20 -10 -57 2.5 0.5 0.5
9 0 1 0 0 0 1 0 0 0 1 -40 -10 -60 3.5 0.5 2.5
9 0 1 0 0 0 1 0 0 0 1 -40 -10 -63 2.5 0.5 0.5
9 0 1 0 0 0 1 0 0 0 1 -40 -10 -57 2.5 0.5 0.5
9 0 1 0 0 0 1 0 0 0 1 -60 -10 -60.00001 3.5 0.5 2.5
9 0 1 0 0 0 1 0 0 0 1 -60 -10 -63.00001 2.5 0.5 0.5
9 0 1 0 0 0 1 0 0 0 1 -60 -10 -57.00001 2.5 0.5 0.5
9 0 1 0 0 0 1 0 0 0 1 -2.622683E-06 -10 -40 3.5 0.5 2.5
9 0 1 0 0 0 1 0 0 0 1 -2.360415E-06 -10 -43 2.5 0.5 0.5
9 0 1 0 0 0 1 0 0 0 1 -2.884952E-06 -10 -37 2.5 0.5 0.5
9 0 1 0 0 0 1 0 0 0 1 -20 -10 -40 3.5 0.5 2.5
9 0 1 0 0 0 1 0 0 0 1 -20 -10 -43 2.5 0.5 0.5
9 0 1 0 0 0 1 0 0 0 1 -20 -10 -37 2.5 0.5 0.5
9 0 1 0 0 0 1 0 0 0 1 -40 -10 -40 3.5 0.5 2.5
9 0 1 0 0 0 1 0 0 0 1 -40 -10 -43 2.5 0.5 0.5
9 0 1 0 0 0 1 0 0 0 1 -40 -10 -37 2.5 0.5 0.5
9 0 1 0 0 0 1 0 0 0 1 -60 -10 -40.00001 3.5 0.5 2.5
9 0 1 0 0 0 1 0 0 0 1 -60 -10 -43.00001 2.5 0.5 0.5
9 0 1 0 0 0 1 0 0 0 1 -60 -10 -37.00001 2.5 0.5 0.5
9 0 1 0 0 0 1 0 0 0 1 -80 -10 -40.00001 3.5 0.5 2.5
9 0 1 0 0 0 1 0 0 0 1 -80 -10 -43.00001 2.5 0.5 0.5
9 0 1 0 0 0 1 0 0 0 1 -80 -10 -37.00001 2.5 0.5 0.5
9 0 1 0 0 0 1 0 0 0 1 -4.371139E-06 -10 -20 3.5 0.5 2.5
9 0 1 0 0 0 1 0 0 0 1 -4.108871E-06 -10 -23 2.5 0.5 0.5
9 0 1 0 0 0 1 0 0 0 1 -4.633407E-06 -10 -17 2.5 0.5 0.5
9 0 1 0 0 0 1 0 0 0 1 -20 -10 -20 3.5 0.5 2.5
9 0 1 0 0 0 1 0 0 0 1 -20 -10 -23 2.5 0.5 0.5
9 0 1 0 0 0 1 0 0 0 1 -20 -10 -17 2.5 0.5 0.5
9 0 1 0 0 0 1 0 0 0 1 -40 -10 -20 3.5 0.5 2.5
9 0 1 0 0 0 1 0 0 0 1 -40 -10 -23 2.5 0.5 0.5
9 0 1 0 0 0 1 0 0 0 1 -40 -10 -17 2.5 0.5 0.5
9 0 1 0 0 0 1 0 0 0 1 -60 -10 -20.00001 3.5 0.5 2.5
9 0 1 0 0 0 1 0 0 0 1 -60 -10 -23.00001 2.5 0.5 0.5
9 0 1 0 0 0 1 0 0 0 1 -60 -10 -17.00001 2.5 0.5 0.5
9 0 1 0 0 0 1 0 0 0 1 -80.00001 -10 -20.00001 3.5 0.5 2.5
9 0 1 0 0 0 1 0 0 0 1 -80.00001 -10 -23.00001 2.5 0.5 0.5
9 0 1 0 0 0 1 0 0 0 1 -80.00001 -10 -17.00001 2.5 0.5 0.5
9 0 1 0 0 0 1 0 0 0 1 -20.00001 -10 -2.622683E-06 3.5 0.5 2.5
9 0 1 0 0 0 1 0 0 0 1 -20.00001 -10 -3.000003 2.5 0.5 0.5
9 0 1 0 0 0 1 0 0 0 1 -20.00001 -10 2.999997 2.5 0.5 0.5
9 0 1 0 0 0 1 0 0 0 1 -40.00001 -10 -4.371139E-06 3.5 0.5 2.5
9 0 1 0 0 0 1 0 0 0 1 -40.00001 -10 -3.000004 2.5 0.5 0.5
9 0 1 0 0 0 1 0 0 0 1 -40.00001 -10 2.999996 2.5 0.5 0.5
9 0 1 0 0 0 1 0 0 0 1 -60.00001 -10 -6.119594E-06 3.5 0.5 2.5
9 0 1 0 0 0 1 0 0 0 1 -60.00001 -10 -3.000006 2.5 0.5 0.5
9 0 1 0 0 0 1 0 0 0 1 -60.00001 -10 2.999994 2.5 0.5 0.5
