9 0 1 0 0 0 1 0 0 0 1 14.15764 15 0.3423615 1 5.5 5.5
9 0 1 0 0 0 1 0 0 0 1 -0.3423615 15 -14.15764 5.5 5.5 1
9 0 1 0 0 0 1 0 0 0 1 -14.84236 15 -0.1576385 1 3.5 6
9 0 1 0 0 0 1 0 0 0 1 -0.3423615 15 14.84236 5.5 3.5 1
9 0 1 0 0 0 1 0 0 0 1 15.65764 15 -0.1576385 0.5 2.5 6
9 0 1 0 0 0 1 0 0 0 1 0.1576385 15 -15.65764 6 2.5 0.5
9 0 1 0 0 0 1 0 0 0 1 -13.34236 14.5 4.842361 0.5 7 2
9 0 1 0 0 0 1 0 0 0 1 -5.342361 15 13.34236 2.5 5.5 0.5
9 0 1 0 0 0 1 0 0 0 1 -13.34236 15 -5.657639 0.5 5.5 2.5
9 0 1 0 0 0 1 0 0 0 1 5.157639 15 13.34236 2 6.5 0.5
9 0 1 0 0 0 1 0 0 0 1 13.15764 15 7.342361 1 3.5 1.5
9 0 1 0 0 0 1 0 0 0 1 13.15764 14.5 -7.657639 1 3 1.5
9 0 1 0 0 0 1 0 0 0 1 7.657639 14.5 -13.15764 1.5 3 1
9 0 1 0 0 0 1 0 0 0 1 -6.842361 15.5 -13.65764 1 3 1.5
9 0 1 0 0 0 1 0 0 0 1 -14.34236 10 -0.1576385 0.5 1.5 6
9 0 1 0 0 0 1 0 0 0 1 -0.3423615 10 14.34236 5.5 1.5 0.5
9 0 1 0 0 0 1 0 0 0 1 -12.84236 14.5 7.842361 1 4 1
9 0 1 0 0 0 1 0 0 0 1 8.157639 15 12.84236 1 3.5 1
9 0 1 0 0 0 1 0 0 0 1 -12.34236 15 -7.657639 0.5 4.5 1.5
9 0 1 0 0 0 1 0 0 0 1 13.65764 8.5 -0.1576385 0.5 1 6
9 0 1 0 0 0 1 0 0 0 1 0.1576385 19.5 14.34236 6 1 0.5
9 0 1 0 0 0 1 0 0 0 1 0.1576385 8.5 -13.65764 6 1 0.5
9 0 1 0 0 0 1 0 0 0 1 -8.842361 14.5 11.84236 1 3 1
9 0 1 0 0 0 1 0 0 0 1 -14.34236 19.5 0.3423615 0.5 1 5.5
9 0 1 0 0 0 1 0 0 0 1 13.65764 21.5 -0.1576385 0.5 1 5
9 0 1 0 0 0 1 0 0 0 1 0.1576385 21.5 -13.65764 5 1 0.5
9 0 1 0 0 0 1 0 0 0 1 6.657639 14.5 14.34236 1.5 3 0.5
9 0 1 0 0 0 1 0 0 0 1 5.657639 14 -14.15764 0.5 4.5 1
9 0 1 0 0 0 1 0 0 0 1 -8.342361 14.5 -12.65764 0.5 3 1.5
9 0 1 0 0 0 1 0 0 0 1 -11.34236 15 8.842361 0.5 4.5 1
9 0 1 0 0 0 1 0 0 0 1 14.15764 13.5 -5.657639 1 4 0.5
9 0 1 0 0 0 1 0 0 0 1 11.65764 14.5 8.842361 0.5 4 1
9 0 1 0 0 0 1 0 0 0 1 9.657639 14.5 10.84236 0.5 4 1
9 0 1 0 0 0 1 0 0 0 1 10.65764 15 9.842361 0.5 3.5 1
9 0 1 0 0 0 1 0 0 0 1 6.657639 14.5 12.34236 0.5 7 0.5
9 0 1 0 0 0 1 0 0 0 1 -6.842361 15 14.34236 1 3.5 0.5
9 0 1 0 0 0 1 0 0 0 1 -7.342361 14.5 12.34236 0.5 7 0.5
9 0 1 0 0 0 1 0 0 0 1 -9.342361 14 -11.15764 0.5 3.5 1
9 0 1 0 0 0 1 0 0 0 1 -10.34236 15 -10.15764 0.5 3.5 1
9 0 1 0 0 0 1 0 0 0 1 -11.34236 15 -9.157639 0.5 3.5 1
9 0 1 0 0 0 1 0 0 0 1 -14.34236 15 6.842361 0.5 3.5 1
9 0 1 0 0 0 1 0 0 0 1 9.657639 14.5 -11.15764 0.5 3 1
9 0 1 0 0 0 1 0 0 0 1 -6.842361 11 -13.15764 1 1.5 1
9 0 1 0 0 0 1 0 0 0 1 8.657639 15 11.34236 0.5 5.5 0.5
9 0 1 0 0 0 1 0 0 0 1 14.65764 15 6.842361 0.5 2.5 1
9 0 1 0 0 0 1 0 0 0 1 11.65764 15 -9.157639 0.5 2.5 1
9 0 1 0 0 0 1 0 0 0 1 10.65764 15 -10.15764 0.5 2.5 1
9 0 1 0 0 0 1 0 0 0 1 8.657639 14.5 -11.65764 0.5 5 0.5
9 0 1 0 0 0 1 0 0 0 1 -14.34236 15 -7.157639 0.5 2.5 1
9 0 1 0 0 0 1 0 0 0 1 14.65764 15.5 -7.157639 0.5 2 1
9 0 1 0 0 0 1 0 0 0 1 13.15764 18.5 -7.157639 1 1 1
9 0 1 0 0 0 1 0 0 0 1 13.15764 10.5 6.842361 1 1 1
9 0 1 0 0 0 1 0 0 0 1 7.157639 19.5 -12.65764 1 2 0.5
9 0 1 0 0 0 1 0 0 0 1 6.157639 15.5 15.34236 1 2 0.5
9 0 1 0 0 0 1 0 0 0 1 -8.342361 14.5 13.34236 0.5 4 0.5
9 0 1 0 0 0 1 0 0 0 1 -10.34236 14.5 10.34236 0.5 4 0.5
9 0 1 0 0 0 1 0 0 0 1 -13.34236 14.5 -8.657639 0.5 4 0.5
9 0 1 0 0 0 1 0 0 0 1 6.657639 14 -14.65764 0.5 3.5 0.5
9 0 1 0 0 0 1 0 0 0 1 12.65764 20 6.842361 0.5 1.5 1
9 0 1 0 0 0 1 0 0 0 1 13.15764 10 -6.657639 1 1.5 0.5
9 0 1 0 0 0 1 0 0 0 1 7.157639 10 -12.65764 1 1.5 0.5
9 0 1 0 0 0 1 0 0 0 1 -3.842361 8 13.34236 1 1.5 0.5
9 0 1 0 0 0 1 0 0 0 1 -4.342361 21.5 13.34236 1.5 1 0.5
9 0 1 0 0 0 1 0 0 0 1 -6.342361 14.5 15.34236 0.5 3 0.5
9 0 1 0 0 0 1 0 0 0 1 -6.842361 20 -12.65764 1 1.5 0.5
9 0 1 0 0 0 1 0 0 0 1 -8.342361 19 11.84236 0.5 1.5 1
9 0 1 0 0 0 1 0 0 0 1 -12.34236 14.5 9.342361 0.5 3 0.5
9 0 1 0 0 0 1 0 0 0 1 -12.34236 9 -7.157639 0.5 1.5 1
9 0 1 0 0 0 1 0 0 0 1 -13.34236 8.5 -4.657639 0.5 1 1.5
9 0 1 0 0 0 1 0 0 0 1 12.65764 15 9.342361 0.5 2.5 0.5
9 0 1 0 0 0 1 0 0 0 1 -0.3423615 2 -5.657639 2.5 0.5 0.5
9 0 1 0 0 0 1 0 0 0 1 -9.342361 9 -3.657639 0.5 2.5 0.5
9 0 1 0 0 0 1 0 0 0 1 -15.34236 15 6.342361 0.5 2.5 0.5
9 0 1 0 0 0 1 0 0 0 1 15.65764 12 -4.157639 0.5 0.5 2
9 0 1 0 0 0 1 0 0 0 1 14.15764 18.5 -5.657639 1 1 0.5
9 0 1 0 0 0 1 0 0 0 1 12.65764 8.5 6.842361 0.5 1 1
9 0 1 0 0 0 1 0 0 0 1 12.15764 19.5 8.342361 1 1 0.5
9 0 1 0 0 0 1 0 0 0 1 12.15764 18.5 -8.657639 1 1 0.5
9 0 1 0 0 0 1 0 0 0 1 12.15764 11 -8.157639 1 0.5 1
9 0 1 0 0 0 1 0 0 0 1 9.657639 15.5 12.34236 0.5 2 0.5
9 0 1 0 0 0 1 0 0 0 1 7.657639 19.5 12.84236 0.5 1 1
9 0 1 0 0 0 1 0 0 0 1 7.657639 10.5 12.84236 0.5 1 1
9 0 1 0 0 0 1 0 0 0 1 7.157639 18.5 -13.65764 1 1 0.5
9 0 1 0 0 0 1 0 0 0 1 5.657639 2 -0.1576385 0.5 0.5 2
9 0 1 0 0 0 1 0 0 0 1 3.657639 14.5 9.342361 0.5 2 0.5
9 0 1 0 0 0 1 0 0 0 1 4.157639 7.5 13.34236 1 1 0.5
9 0 1 0 0 0 1 0 0 0 1 3.657639 7.5 9.342361 0.5 2 0.5
9 0 1 0 0 0 1 0 0 0 1 4.157639 11 15.34236 2 0.5 0.5
9 0 1 0 0 0 1 0 0 0 1 -3.842361 11 15.34236 2 0.5 0.5
9 0 1 0 0 0 1 0 0 0 1 -8.342361 19.5 -11.65764 0.5 2 0.5
9 0 1 0 0 0 1 0 0 0 1 -8.342361 10.5 11.84236 0.5 1 1
9 0 1 0 0 0 1 0 0 0 1 -9.342361 15.5 -12.65764 0.5 2 0.5
9 0 1 0 0 0 1 0 0 0 1 -12.34236 20.5 -7.157639 0.5 1 1
9 0 1 0 0 0 1 0 0 0 1 -12.34236 19.5 7.842361 0.5 1 1
9 0 1 0 0 0 1 0 0 0 1 -12.34236 15.5 -9.657639 0.5 2 0.5
9 0 1 0 0 0 1 0 0 0 1 -13.34236 22.5 3.842361 0.5 1 1
9 0 1 0 0 0 1 0 0 0 1 -13.34236 21 -5.157639 0.5 0.5 2
9 0 1 0 0 0 1 0 0 0 1 -15.34236 15.5 -6.657639 0.5 2 0.5
9 0 1 0 0 0 1 0 0 0 1 15.65764 18 4.342361 0.5 0.5 1.5
9 0 1 0 0 0 1 0 0 0 1 15.65764 15 6.342361 0.5 1.5 0.5
9 0 1 0 0 0 1 0 0 0 1 15.65764 12 4.342361 0.5 0.5 1.5
9 0 1 0 0 0 1 0 0 0 1 14.65764 9 -3.657639 0.5 0.5 1.5
9 0 1 0 0 0 1 0 0 0 1 12.65764 21 -6.657639 0.5 1.5 0.5
9 0 1 0 0 0 1 0 0 0 1 7.657639 16 -14.65764 0.5 1.5 0.5
9 0 1 0 0 0 1 0 0 0 1 3.657639 22 9.342361 0.5 1.5 0.5
9 0 1 0 0 0 1 0 0 0 1 4.657639 18 -15.65764 1.5 0.5 0.5
9 0 1 0 0 0 1 0 0 0 1 4.657639 12 -15.65764 1.5 0.5 0.5
9 0 1 0 0 0 1 0 0 0 1 -4.342361 12 -15.65764 1.5 0.5 0.5
9 0 1 0 0 0 1 0 0 0 1 -8.342361 12 5.342361 0.5 1.5 0.5
9 0 1 0 0 0 1 0 0 0 1 -8.342361 10 -11.65764 0.5 1.5 0.5
9 0 1 0 0 0 1 0 0 0 1 -9.342361 24 -3.657639 0.5 1.5 0.5
9 0 1 0 0 0 1 0 0 0 1 -9.342361 19 -10.65764 0.5 1.5 0.5
9 0 1 0 0 0 1 0 0 0 1 -9.342361 16 -3.657639 0.5 1.5 0.5
9 0 1 0 0 0 1 0 0 0 1 -12.34236 10 7.342361 0.5 0.5 1.5
9 0 1 0 0 0 1 0 0 0 1 -14.34236 15 8.342361 0.5 1.5 0.5
9 0 1 0 0 0 1 0 0 0 1 -15.34236 11 -3.657639 0.5 0.5 1.5
9 0 1 0 0 0 1 0 0 0 1 -15.34236 11 4.342361 0.5 0.5 1.5
