9 0 1 0 0 0 1 0 0 0 1 39.75 -19.72701 0 32 1.5 1.5
9 0 1 0 0 0 1 0 0 0 1 -23.25 -19.72701 0 15 1.5 1.5
9 0 1 0 0 0 1 0 0 0 1 97.75 -19.72701 0 10 1.5 1.5
9 0 1 0 0 0 1 0 0 0 1 -0.25 -19.72701 -2.5 5 4.5 1
9 0 1 0 0 0 1 0 0 0 1 80.25 -6.727005 0 1.5 5.5 1.5
9 0 1 0 0 0 1 0 0 0 1 0.25 -6.727005 0 1.5 5.5 1.5
9 0 1 0 0 0 1 0 0 0 1 79.75 -19.72701 -2 5 4.5 0.5
9 0 1 0 0 0 1 0 0 0 1 39.75 -17.72701 0 32 0.5 0.5
9 0 1 0 0 0 1 0 0 0 1 39.75 -19.72701 -2 32 0.5 0.5
9 0 1 0 0 0 1 0 0 0 1 39.75 -19.72701 2 32 0.5 0.5
9 0 1 0 0 0 1 0 0 0 1 39.75 -21.72701 0 32 0.5 0.5
9 0 1 0 0 0 1 0 0 0 1 -26.25 -23.72701 0 1 2.5 2.5
9 0 1 0 0 0 1 0 0 0 1 75.25 -19.72701 1 0.5 4.5 2.5
9 0 1 0 0 0 1 0 0 0 1 -4.75 -19.72701 1 0.5 4.5 2.5
9 0 1 0 0 0 1 0 0 0 1 -29.75 -20.22701 -2 8.5 1 0.5
9 0 1 0 0 0 1 0 0 0 1 -29.75 -20.22701 2 8.5 1 0.5
9 0 1 0 0 0 1 0 0 0 1 131.25 -16.22701 0 0.5 3 2.5
9 0 1 0 0 0 1 0 0 0 1 -23.25 -17.72701 0 15 0.5 0.5
9 0 1 0 0 0 1 0 0 0 1 -23.25 -22.22701 0 2 1 1.5
9 0 1 0 0 0 1 0 0 0 1 98.25 -17.72701 0 10.5 0.5 0.5
9 0 1 0 0 0 1 0 0 0 1 97.75 -19.72701 -2 10 0.5 0.5
9 0 1 0 0 0 1 0 0 0 1 97.75 -19.72701 2 10 0.5 0.5
9 0 1 0 0 0 1 0 0 0 1 97.75 -21.72701 0 10 0.5 0.5
9 0 1 0 0 0 1 0 0 0 1 130.25 -27.72701 0 0.5 1.5 2.5
9 0 1 0 0 0 1 0 0 0 1 -26.75 -27.72701 0 0.5 1.5 2.5
9 0 1 0 0 0 1 0 0 0 1 -14.75 -19.72701 -2 6.5 0.5 0.5
9 0 1 0 0 0 1 0 0 0 1 -14.75 -19.72701 2 6.5 0.5 0.5
9 0 1 0 0 0 1 0 0 0 1 -14.75 -21.72701 0 6.5 0.5 0.5
9 0 1 0 0 0 1 0 0 0 1 80.25 -6.727005 -2 0.5 5.5 0.5
9 0 1 0 0 0 1 0 0 0 1 80.25 -6.727005 2 0.5 5.5 0.5
9 0 1 0 0 0 1 0 0 0 1 78.25 -6.727005 0 0.5 5.5 0.5
9 0 1 0 0 0 1 0 0 0 1 0.25 -6.727005 -2 0.5 5.5 0.5
9 0 1 0 0 0 1 0 0 0 1 0.25 -6.727005 2 0.5 5.5 0.5
9 0 1 0 0 0 1 0 0 0 1 -1.75 -6.727005 0 0.5 5.5 0.5
9 0 1 0 0 0 1 0 0 0 1 84.25 -16.22701 1 0.5 1 2.5
9 0 1 0 0 0 1 0 0 0 1 84.25 -23.22701 1 0.5 1 2.5
9 0 1 0 0 0 1 0 0 0 1 4.25 -16.22701 1 0.5 1 2.5
9 0 1 0 0 0 1 0 0 0 1 4.25 -23.22701 1 0.5 1 2.5
9 0 1 0 0 0 1 0 0 0 1 110.25 -50.72701 0 3.5 0.5 0.5
9 0 1 0 0 0 1 0 0 0 1 -24.25 -23.72701 0 1 0.5 1.5
9 0 1 0 0 0 1 0 0 0 1 115.25 -13.72701 0 0.5 0.5 2.5
9 0 1 0 0 0 1 0 0 0 1 117.25 -49.72701 0 2.5 0.5 0.5
9 0 1 0 0 0 1 0 0 0 1 83.25 -15.72701 1 0.5 0.5 2.5
9 0 1 0 0 0 1 0 0 0 1 83.25 -23.72701 1 0.5 0.5 2.5
9 0 1 0 0 0 1 0 0 0 1 76.25 -15.72701 1 0.5 0.5 2.5
9 0 1 0 0 0 1 0 0 0 1 76.25 -23.72701 1 0.5 0.5 2.5
9 0 1 0 0 0 1 0 0 0 1 3.25 -15.72701 1 0.5 0.5 2.5
9 0 1 0 0 0 1 0 0 0 1 3.25 -23.72701 1 0.5 0.5 2.5
9 0 1 0 0 0 1 0 0 0 1 -3.75 -15.72701 1 0.5 0.5 2.5
9 0 1 0 0 0 1 0 0 0 1 -3.75 -23.72701 1 0.5 0.5 2.5
9 0 1 0 0 0 1 0 0 0 1 119.75 -48.72701 0 2 0.5 0.5
9 0 1 0 0 0 1 0 0 0 1 -24.25 -22.22701 -2 1 1 0.5
9 0 1 0 0 0 1 0 0 0 1 -24.25 -22.22701 2 1 1 0.5
9 0 1 0 0 0 1 0 0 0 1 130.25 -5.727005 0 0.5 0.5 1.5
9 0 1 0 0 0 1 0 0 0 1 123.25 -47.72701 0 1.5 0.5 0.5
9 0 1 0 0 0 1 0 0 0 1 108.25 -18.72701 0 0.5 0.5 1.5
