9 0 1 0 0 0 1 0 0 0 1 6.499599 11 -2 2 3.5 7
9 0 1 0 0 0 1 0 0 0 1 -6.500401 11 -2 2 3.5 7
9 0 1 0 0 0 1 0 0 0 1 -0.0004005432 -1.000001 31 4.5 0.5 12
9 0 1 0 0 0 1 0 0 0 1 -0.0004005432 -2.500001 8.5 8.5 6 0.5
9 0 1 0 0 0 1 0 0 0 1 -0.0004005432 2.999999 58 7.5 0.5 4
9 0 1 0 0 0 1 0 0 0 1 -4.000401 11 32 0.5 3.5 8
9 0 1 0 0 0 1 0 0 0 1 0.4995995 -1.000001 13.5 2 4.5 1.5
9 0 1 0 0 0 1 0 0 0 1 7.499599 9.499999 -11.5 1 5 2.5
9 0 1 0 0 0 1 0 0 0 1 -7.500401 9.499999 -11.5 1 5 2.5
9 0 1 0 0 0 1 0 0 0 1 -5.000401 -2.500001 13 0.5 6 4
9 0 1 0 0 0 1 0 0 0 1 -0.0004005432 -4.500001 18.5 5.5 4 0.5
9 0 1 0 0 0 1 0 0 0 1 3.499599 11 2 1 3.5 3
9 0 1 0 0 0 1 0 0 0 1 -3.500401 11 2 1 3.5 3
9 0 1 0 0 0 1 0 0 0 1 6.499599 5.499999 -6.5 2 2 2.5
9 0 1 0 0 0 1 0 0 0 1 -6.500401 5.499999 -6.5 2 2 2.5
9 0 1 0 0 0 1 0 0 0 1 -0.0004005432 5.499999 4.5 8.5 2 0.5
9 0 1 0 0 0 1 0 0 0 1 10.9996 13 -13 2.5 1.5 2
9 0 1 0 0 0 1 0 0 0 1 3.999599 2.999999 44 1.5 0.5 10
9 0 1 0 0 0 1 0 0 0 1 -4.000401 2.999999 44 1.5 0.5 10
9 0 1 0 0 0 1 0 0 0 1 -11.0004 13 -13 2.5 1.5 2
9 0 1 0 0 0 1 0 0 0 1 -0.0004005432 3.999999 6.5 8.5 0.5 1.5
9 0 1 0 0 0 1 0 0 0 1 4.999599 11 26.5 0.5 3.5 2.5
9 0 1 0 0 0 1 0 0 0 1 -0.0004005432 9.999999 -17.5 3.5 2.5 0.5
9 0 1 0 0 0 1 0 0 0 1 -5.000401 11 26.5 0.5 3.5 2.5
9 0 1 0 0 0 1 0 0 0 1 -0.0004005432 2.499999 7.5 8.5 1 0.5
9 0 1 0 0 0 1 0 0 0 1 8.999599 2.999999 53.5 1.5 0.5 5.5
9 0 1 0 0 0 1 0 0 0 1 -0.0004005432 7.999999 -16.5 5.5 1.5 0.5
9 0 1 0 0 0 1 0 0 0 1 -9.000401 2.999999 53.5 1.5 0.5 5.5
9 0 1 0 0 0 1 0 0 0 1 6.499599 -1.000001 23 2 0.5 4
9 0 1 0 0 0 1 0 0 0 1 -6.500401 -1.000001 23 2 0.5 4
9 0 1 0 0 0 1 0 0 0 1 5.999599 6.999999 -10 0.5 7.5 1
9 0 1 0 0 0 1 0 0 0 1 -6.000401 6.999999 -10 0.5 7.5 1
9 0 1 0 0 0 1 0 0 0 1 3.999599 11 -3 0.5 3.5 2
9 0 1 0 0 0 1 0 0 0 1 -4.000401 11 -3 0.5 3.5 2
9 0 1 0 0 0 1 0 0 0 1 6.499599 0.499999 -8.5 2 3 0.5
9 0 1 0 0 0 1 0 0 0 1 -6.500401 0.499999 -8.5 2 3 0.5
9 0 1 0 0 0 1 0 0 0 1 -0.0004005432 2.999999 63 5.5 0.5 1
9 0 1 0 0 0 1 0 0 0 1 3.999599 3.999999 37.5 1.5 0.5 3.5
9 0 1 0 0 0 1 0 0 0 1 -4.000401 3.999999 37.5 1.5 0.5 3.5
9 0 1 0 0 0 1 0 0 0 1 7.999599 13 -16 1.5 1.5 1
9 0 1 0 0 0 1 0 0 0 1 -0.0004005432 8.499999 12.5 1.5 1 1.5
9 0 1 0 0 0 1 0 0 0 1 -0.0004005432 6.499999 -15.5 4.5 1 0.5
9 0 1 0 0 0 1 0 0 0 1 -6.500401 2.999999 49.5 1 0.5 4.5
9 0 1 0 0 0 1 0 0 0 1 -7.500401 13 -15.5 1 1.5 1.5
9 0 1 0 0 0 1 0 0 0 1 -0.0004005432 4.999999 5.5 8.5 0.5 0.5
9 0 1 0 0 0 1 0 0 0 1 -0.0004005432 3.999999 -3.5 8.5 0.5 0.5
9 0 1 0 0 0 1 0 0 0 1 6.499599 2.999999 50 1 0.5 4
9 0 1 0 0 0 1 0 0 0 1 10.9996 11 -12.5 2.5 0.5 1.5
9 0 1 0 0 0 1 0 0 0 1 -0.0004005432 8.999999 4.5 2.5 1.5 0.5
9 0 1 0 0 0 1 0 0 0 1 -11.0004 11 -12.5 2.5 0.5 1.5
9 0 1 0 0 0 1 0 0 0 1 4.999599 13.5 11.5 0.5 1 3.5
9 0 1 0 0 0 1 0 0 0 1 4.999599 11 39 0.5 3.5 1
9 0 1 0 0 0 1 0 0 0 1 3.499599 11 24.5 1 3.5 0.5
9 0 1 0 0 0 1 0 0 0 1 -5.000401 13.5 11.5 0.5 1 3.5
9 0 1 0 0 0 1 0 0 0 1 -5.000401 11 39 0.5 3.5 1
9 0 1 0 0 0 1 0 0 0 1 6.999599 1.999999 -10 0.5 2.5 1
9 0 1 0 0 0 1 0 0 0 1 -3.000401 9.499999 24.5 0.5 5 0.5
9 0 1 0 0 0 1 0 0 0 1 -7.000401 1.999999 -10 0.5 2.5 1
9 0 1 0 0 0 1 0 0 0 1 6.999599 9.999999 -14.5 0.5 4.5 0.5
9 0 1 0 0 0 1 0 0 0 1 -0.0004005432 -2.000001 -8.5 4.5 0.5 0.5
9 0 1 0 0 0 1 0 0 0 1 -10.0004 13 -15.5 1.5 1.5 0.5
9 0 1 0 0 0 1 0 0 0 1 6.499599 2.499999 -7.5 2 1 0.5
9 0 1 0 0 0 1 0 0 0 1 -5.000401 -4.500001 17.5 0.5 4 0.5
9 0 1 0 0 0 1 0 0 0 1 -6.500401 2.499999 -7.5 2 1 0.5
9 0 1 0 0 0 1 0 0 0 1 -0.0004005432 2.999999 64.5 3.5 0.5 0.5
9 0 1 0 0 0 1 0 0 0 1 10.4996 13 -15.5 1 1.5 0.5
9 0 1 0 0 0 1 0 0 0 1 3.499599 3.999999 29.5 1 0.5 1.5
9 0 1 0 0 0 1 0 0 0 1 -3.500401 3.999999 29.5 1 0.5 1.5
9 0 1 0 0 0 1 0 0 0 1 -6.500401 6.999999 -14.5 1 1.5 0.5
9 0 1 0 0 0 1 0 0 0 1 5.999599 7.499999 -15 0.5 1 1
9 0 1 0 0 0 1 0 0 0 1 3.999599 12.5 25.5 0.5 2 0.5
9 0 1 0 0 0 1 0 0 0 1 3.999599 5.499999 -4.5 0.5 2 0.5
9 0 1 0 0 0 1 0 0 0 1 1.999599 12.5 4.5 0.5 2 0.5
9 0 1 0 0 0 1 0 0 0 1 -2.000401 12.5 4.5 0.5 2 0.5
9 0 1 0 0 0 1 0 0 0 1 -4.000401 5.499999 -4.5 0.5 2 0.5
9 0 1 0 0 0 1 0 0 0 1 7.999599 13 -14.5 0.5 1.5 0.5
9 0 1 0 0 0 1 0 0 0 1 7.999599 3.999999 -10.5 0.5 0.5 1.5
9 0 1 0 0 0 1 0 0 0 1 5.999599 1.999999 -11.5 0.5 1.5 0.5
9 0 1 0 0 0 1 0 0 0 1 5.999599 -1.000001 -9.5 1.5 0.5 0.5
9 0 1 0 0 0 1 0 0 0 1 2.999599 5.999999 24.5 0.5 1.5 0.5
9 0 1 0 0 0 1 0 0 0 1 -0.0004005432 9.999999 12.5 0.5 0.5 1.5
9 0 1 0 0 0 1 0 0 0 1 -0.0004005432 6.999999 12.5 0.5 0.5 1.5
9 0 1 0 0 0 1 0 0 0 1 -0.0004005432 1.999999 64.5 1.5 0.5 0.5
9 0 1 0 0 0 1 0 0 0 1 -6.000401 1.999999 -11.5 0.5 1.5 0.5
9 0 1 0 0 0 1 0 0 0 1 -7.000401 9.999999 -14.5 0.5 1.5 0.5
9 0 1 0 0 0 1 0 0 0 1 -6.000401 -1.000001 -9.5 1.5 0.5 0.5
9 0 1 0 0 0 1 0 0 0 1 -8.000401 3.999999 -10.5 0.5 0.5 1.5
9 0 1 0 0 0 1 0 0 0 1 -9.000401 13 -16.5 0.5 1.5 0.5
