9 0 1 0 0 0 1 0 0 0 1 -0.75 -0.7000008 0.25 3.5 6 7
9 0 1 0 0 0 1 0 0 0 1 200.25 0.2999992 2.75 6.5 4 4.5
9 0 1 0 0 0 1 0 0 0 1 77.75 -8.700001 -0.25 1 14 7.5
9 0 1 0 0 0 1 0 0 0 1 77.75 12.3 -13.75 1 11 6
9 0 1 0 0 0 1 0 0 0 1 198.75 0.2999992 -4.75 4 5 3
9 0 1 0 0 0 1 0 0 0 1 122.25 -8.700001 -0.25 0.5 14 7.5
9 0 1 0 0 0 1 0 0 0 1 -6.25 -0.2000008 0.25 2 4.5 5
9 0 1 0 0 0 1 0 0 0 1 4.75 0.2999992 1.25 2 7 3
9 0 1 0 0 0 1 0 0 0 1 199.75 -6.700001 0.25 5 2 4
9 0 1 0 0 0 1 0 0 0 1 199.75 6.299999 1.75 5 2 3.5
9 0 1 0 0 0 1 0 0 0 1 122.25 12.3 -13.75 0.5 11 6
9 0 1 0 0 0 1 0 0 0 1 -0.75 7.299999 -0.25 3.5 2 3.5
9 0 1 0 0 0 1 0 0 0 1 192.25 0.2999992 0.25 1.5 4 4
9 0 1 0 0 0 1 0 0 0 1 77.75 21.3 -22.75 1 8 3
9 0 1 0 0 0 1 0 0 0 1 0.25 -7.700001 -0.25 4.5 1 4.5
9 0 1 0 0 0 1 0 0 0 1 77.75 -4.700001 -10.75 1 6 3
9 0 1 0 0 0 1 0 0 0 1 116.25 12.8 -18.25 5.5 0.5 6.5
9 0 1 0 0 0 1 0 0 0 1 204.75 -1.200001 -4.25 2 3.5 2.5
9 0 1 0 0 0 1 0 0 0 1 77.75 10.3 -4.25 1 5 3.5
9 0 1 0 0 0 1 0 0 0 1 83.75 12.8 -18.25 5 0.5 6.5
9 0 1 0 0 0 1 0 0 0 1 207.75 0.2999992 1.25 1 4 4
9 0 1 0 0 0 1 0 0 0 1 199.75 0.2999992 8.25 4 4 1
9 0 1 0 0 0 1 0 0 0 1 -0.25 0.2999992 8.25 4 4 1
9 0 1 0 0 0 1 0 0 0 1 -1.25 0.2999992 -7.75 4 4 1
9 0 1 0 0 0 1 0 0 0 1 4.25 -0.2000008 -3.25 1.5 6.5 1.5
9 0 1 0 0 0 1 0 0 0 1 199.75 -4.200001 2.25 7 0.5 4
9 0 1 0 0 0 1 0 0 0 1 8.25 -0.7000008 0.25 1.5 3 3
9 0 1 0 0 0 1 0 0 0 1 122.25 21.3 -22.75 0.5 8 3
9 0 1 0 0 0 1 0 0 0 1 199.75 -0.2000008 -8.75 3 3.5 1
9 0 1 0 0 0 1 0 0 0 1 77.75 26.3 -16.25 1 3 3.5
9 0 1 0 0 0 1 0 0 0 1 4.75 -0.2000008 5.75 2 3.5 1.5
9 0 1 0 0 0 1 0 0 0 1 200.25 6.799999 -4.25 2.5 1.5 2.5
9 0 1 0 0 0 1 0 0 0 1 122.25 -4.700001 -10.75 0.5 6 3
9 0 1 0 0 0 1 0 0 0 1 122.25 10.3 -4.25 0.5 5 3.5
9 0 1 0 0 0 1 0 0 0 1 77.75 -24.7 0.25 1 2 4
9 0 1 0 0 0 1 0 0 0 1 -8.75 0.2999992 0.25 0.5 4 4
9 0 1 0 0 0 1 0 0 0 1 200.25 -6.200001 -5.25 3.5 1.5 1.5
9 0 1 0 0 0 1 0 0 0 1 4.25 -1.200001 -6.25 1.5 3.5 1.5
9 0 1 0 0 0 1 0 0 0 1 -5.75 5.799999 -0.25 1.5 1.5 3.5
9 0 1 0 0 0 1 0 0 0 1 200.25 9.299999 0.25 2.5 1 3
9 0 1 0 0 0 1 0 0 0 1 116.75 24.8 -27.25 6 2.5 0.5
9 0 1 0 0 0 1 0 0 0 1 82.75 24.8 -27.25 6 2.5 0.5
9 0 1 0 0 0 1 0 0 0 1 174.25 0.2999992 -5.25 3.5 4 0.5
9 0 1 0 0 0 1 0 0 0 1 -0.25 6.799999 4.75 3 1.5 1.5
9 0 1 0 0 0 1 0 0 0 1 -5.75 -5.700001 -0.25 1.5 1 4.5
9 0 1 0 0 0 1 0 0 0 1 25.25 -0.2000008 -5.25 3.5 3.5 0.5
9 0 1 0 0 0 1 0 0 0 1 204.75 4.299999 -3.25 2 2 1.5
9 0 1 0 0 0 1 0 0 0 1 199.75 5.799999 6.25 4 1.5 1
9 0 1 0 0 0 1 0 0 0 1 199.75 -5.700001 5.75 4 1 1.5
9 0 1 0 0 0 1 0 0 0 1 194.25 0.2999992 -4.75 0.5 4 3
9 0 1 0 0 0 1 0 0 0 1 77.75 -8.700001 7.75 1 12 0.5
9 0 1 0 0 0 1 0 0 0 1 209.25 0.2999992 -0.25 0.5 3 3.5
9 0 1 0 0 0 1 0 0 0 1 206.25 -5.700001 -0.25 1.5 1 3.5
9 0 1 0 0 0 1 0 0 0 1 200.25 -9.200001 0.25 3.5 0.5 3
9 0 1 0 0 0 1 0 0 0 1 193.75 5.799999 -0.25 1 1.5 3.5
9 0 1 0 0 0 1 0 0 0 1 122.25 26.3 -16.25 0.5 3 3.5
9 0 1 0 0 0 1 0 0 0 1 -0.25 -0.2000008 -9.25 3 3.5 0.5
9 0 1 0 0 0 1 0 0 0 1 0.25 -9.200001 0.25 3.5 0.5 3
9 0 1 0 0 0 1 0 0 0 1 -5.75 -0.2000008 -5.75 1.5 3.5 1
9 0 1 0 0 0 1 0 0 0 1 205.75 6.299999 0.75 1 2 2.5
9 0 1 0 0 0 1 0 0 0 1 172.25 25.3 0.25 2.5 2 1
9 0 1 0 0 0 1 0 0 0 1 77.75 10.8 -21.75 1 2.5 2
9 0 1 0 0 0 1 0 0 0 1 77.75 7.799999 1.25 1 2.5 2
9 0 1 0 0 0 1 0 0 0 1 27.25 25.3 0.25 2.5 2 1
9 0 1 0 0 0 1 0 0 0 1 6.75 -1.200001 -4.75 1 2.5 2
9 0 1 0 0 0 1 0 0 0 1 204.25 0.2999992 -7.75 1.5 3 1
9 0 1 0 0 0 1 0 0 0 1 77.75 -1.700001 -15.25 1 3 1.5
9 0 1 0 0 0 1 0 0 0 1 77.75 -13.7 -9.25 1 3 1.5
9 0 1 0 0 0 1 0 0 0 1 -1.25 6.799999 -4.75 3 1.5 1
9 0 1 0 0 0 1 0 0 0 1 -5.25 -0.2000008 6.25 1 4.5 1
9 0 1 0 0 0 1 0 0 0 1 193.75 -5.700001 0.25 1 1 4
9 0 1 0 0 0 1 0 0 0 1 192.75 0.2999992 -4.75 1 4 1
9 0 1 0 0 0 1 0 0 0 1 207.75 -0.2000008 -4.25 1 2.5 1.5
9 0 1 0 0 0 1 0 0 0 1 139.75 -20.2 -0.25 1 1.5 2.5
9 0 1 0 0 0 1 0 0 0 1 60.25 -19.7 -0.25 1.5 1 2.5
9 0 1 0 0 0 1 0 0 0 1 7.75 3.799999 0.75 1 1.5 2.5
9 0 1 0 0 0 1 0 0 0 1 0.25 9.799999 0.25 2.5 0.5 3
9 0 1 0 0 0 1 0 0 0 1 122.25 -24.7 -0.25 0.5 2 3.5
9 0 1 0 0 0 1 0 0 0 1 7.75 -0.2000008 4.25 1 3.5 1
9 0 1 0 0 0 1 0 0 0 1 196.25 6.799999 -3.25 1.5 1.5 1.5
9 0 1 0 0 0 1 0 0 0 1 15.25 -0.2000008 -0.25 1.5 0.5 4.5
9 0 1 0 0 0 1 0 0 0 1 178.25 9.299999 0.25 1.5 2 1
9 0 1 0 0 0 1 0 0 0 1 174.75 -9.200001 0.25 2 1.5 1
9 0 1 0 0 0 1 0 0 0 1 148.75 -17.7 0.25 3 1 1
9 0 1 0 0 0 1 0 0 0 1 122.25 -8.700001 7.75 0.5 12 0.5
9 0 1 0 0 0 1 0 0 0 1 77.75 23.3 -26.25 1 6 0.5
9 0 1 0 0 0 1 0 0 0 1 77.75 17.3 -6.25 1 2 1.5
9 0 1 0 0 0 1 0 0 0 1 24.75 -9.200001 0.25 2 1.5 1
9 0 1 0 0 0 1 0 0 0 1 22.25 9.299999 0.25 1.5 2 1
9 0 1 0 0 0 1 0 0 0 1 7.25 -5.200001 0.25 0.5 1.5 4
9 0 1 0 0 0 1 0 0 0 1 3.75 8.299999 0.25 1 1 3
9 0 1 0 0 0 1 0 0 0 1 170.75 -4.200001 -0.25 1 0.5 5.5
9 0 1 0 0 0 1 0 0 0 1 29.25 -3.700001 -0.25 0.5 1 5.5
9 0 1 0 0 0 1 0 0 0 1 203.75 4.799999 -5.75 1 2.5 1
9 0 1 0 0 0 1 0 0 0 1 200.25 0.2999992 9.75 2.5 2 0.5
9 0 1 0 0 0 1 0 0 0 1 200.25 -7.700001 5.25 2.5 1 1
9 0 1 0 0 0 1 0 0 0 1 200.25 -10.2 0.25 2.5 0.5 2
9 0 1 0 0 0 1 0 0 0 1 199.75 -4.200001 7.25 5 0.5 1
9 0 1 0 0 0 1 0 0 0 1 192.75 -0.2000008 5.25 1 2.5 1
9 0 1 0 0 0 1 0 0 0 1 122.25 10.8 -21.75 0.5 2.5 2
9 0 1 0 0 0 1 0 0 0 1 122.25 7.799999 1.25 0.5 2.5 2
9 0 1 0 0 0 1 0 0 0 1 51.25 -17.7 0.25 2.5 1 1
9 0 1 0 0 0 1 0 0 0 1 -0.25 -0.2000008 9.75 2 2.5 0.5
9 0 1 0 0 0 1 0 0 0 1 0.25 -4.700001 -7.75 2.5 1 1
9 0 1 0 0 0 1 0 0 0 1 0.25 -7.700001 5.25 2.5 1 1
9 0 1 0 0 0 1 0 0 0 1 0.25 -10.2 0.25 2.5 0.5 2
9 0 1 0 0 0 1 0 0 0 1 -5.25 -7.700001 -0.25 1 1 2.5
9 0 1 0 0 0 1 0 0 0 1 207.75 -4.200001 -0.25 1 0.5 4.5
9 0 1 0 0 0 1 0 0 0 1 190.25 0.2999992 -0.25 0.5 3 1.5
9 0 1 0 0 0 1 0 0 0 1 184.75 -0.2000008 -0.25 1 0.5 4.5
9 0 1 0 0 0 1 0 0 0 1 122.25 -1.700001 -15.25 0.5 3 1.5
9 0 1 0 0 0 1 0 0 0 1 122.25 -13.7 -9.25 0.5 3 1.5
9 0 1 0 0 0 1 0 0 0 1 7.25 3.299999 -3.25 1.5 1 1.5
9 0 1 0 0 0 1 0 0 0 1 4.25 4.799999 5.25 1.5 1.5 1
9 0 1 0 0 0 1 0 0 0 1 4.25 3.299999 -6.25 1.5 1 1.5
9 0 1 0 0 0 1 0 0 0 1 -9.75 0.2999992 -0.25 0.5 3 1.5
9 0 1 0 0 0 1 0 0 0 1 131.25 -16.2 -0.25 0.5 0.5 8.5
9 0 1 0 0 0 1 0 0 0 1 130.25 -14.2 -0.25 0.5 0.5 8.5
9 0 1 0 0 0 1 0 0 0 1 128.25 -11.2 -0.25 0.5 0.5 8.5
9 0 1 0 0 0 1 0 0 0 1 127.25 -9.200001 -0.25 0.5 0.5 8.5
9 0 1 0 0 0 1 0 0 0 1 72.25 -10.2 -0.25 0.5 0.5 8.5
9 0 1 0 0 0 1 0 0 0 1 69.25 -15.2 -0.25 0.5 0.5 8.5
9 0 1 0 0 0 1 0 0 0 1 68.25 -17.2 -0.25 0.5 0.5 8.5
9 0 1 0 0 0 1 0 0 0 1 192.25 -4.700001 0.25 0.5 1 4
9 0 1 0 0 0 1 0 0 0 1 126.75 -18.7 0.25 1 1 2
9 0 1 0 0 0 1 0 0 0 1 92.25 65.8 -19.75 0.5 0.5 8
9 0 1 0 0 0 1 0 0 0 1 92.25 25.8 -19.75 0.5 0.5 8
9 0 1 0 0 0 1 0 0 0 1 92.25 5.799999 -19.75 0.5 0.5 8
9 0 1 0 0 0 1 0 0 0 1 77.75 25.3 -11.75 1 2 1
9 0 1 0 0 0 1 0 0 0 1 32.25 5.799999 0.25 0.5 0.5 8
9 0 1 0 0 0 1 0 0 0 1 4.75 0.2999992 7.75 1 4 0.5
9 0 1 0 0 0 1 0 0 0 1 -0.25 6.299999 -6.75 2 1 1
9 0 1 0 0 0 1 0 0 0 1 -0.25 -4.700001 7.75 4 1 0.5
9 0 1 0 0 0 1 0 0 0 1 196.25 8.799999 -0.25 1.5 0.5 2.5
9 0 1 0 0 0 1 0 0 0 1 138.25 -18.2 -0.25 1.5 0.5 2.5
9 0 1 0 0 0 1 0 0 0 1 207.75 4.799999 -0.25 1 0.5 3.5
9 0 1 0 0 0 1 0 0 0 1 205.75 -7.200001 -0.25 1 0.5 3.5
9 0 1 0 0 0 1 0 0 0 1 204.75 -0.2000008 7.75 1 3.5 0.5
9 0 1 0 0 0 1 0 0 0 1 200.25 4.299999 -8.25 3.5 1 0.5
9 0 1 0 0 0 1 0 0 0 1 200.25 -5.700001 -7.25 3.5 1 0.5
9 0 1 0 0 0 1 0 0 0 1 195.75 -0.2000008 -8.25 1 3.5 0.5
9 0 1 0 0 0 1 0 0 0 1 5.75 -7.200001 -0.25 1 0.5 3.5
9 0 1 0 0 0 1 0 0 0 1 3.75 -1.200001 -8.25 1 3.5 0.5
9 0 1 0 0 0 1 0 0 0 1 0.25 6.299999 6.75 3.5 1 0.5
9 0 1 0 0 0 1 0 0 0 1 0.25 4.799999 -7.75 3.5 0.5 1
9 0 1 0 0 0 1 0 0 0 1 0.25 -7.200001 -5.75 3.5 0.5 1
9 0 1 0 0 0 1 0 0 0 1 -4.75 -0.2000008 8.25 0.5 3.5 1
9 0 1 0 0 0 1 0 0 0 1 203.75 8.799999 0.25 1 0.5 3
9 0 1 0 0 0 1 0 0 0 1 204.25 7.299999 -2.75 1.5 1 1
9 0 1 0 0 0 1 0 0 0 1 199.75 -8.200001 -4.75 3 0.5 1
9 0 1 0 0 0 1 0 0 0 1 195.75 -5.700001 -5.25 1 1 1.5
9 0 1 0 0 0 1 0 0 0 1 194.75 0.2999992 7.75 1 3 0.5
9 0 1 0 0 0 1 0 0 0 1 122.25 23.3 -26.25 0.5 6 0.5
9 0 1 0 0 0 1 0 0 0 1 122.25 17.3 -6.25 0.5 2 1.5
9 0 1 0 0 0 1 0 0 0 1 77.75 6.799999 -20.75 1 1.5 1
9 0 1 0 0 0 1 0 0 0 1 73.25 -18.2 0.25 0.5 1.5 2
9 0 1 0 0 0 1 0 0 0 1 65.25 -22.2 0.25 0.5 0.5 6
9 0 1 0 0 0 1 0 0 0 1 8.75 -0.2000008 -3.75 1 1.5 1
9 0 1 0 0 0 1 0 0 0 1 4.25 -4.700001 5.25 1.5 1 1
9 0 1 0 0 0 1 0 0 0 1 -0.25 5.299999 7.75 3 1 0.5
9 0 1 0 0 0 1 0 0 0 1 -5.25 7.799999 0.25 1 0.5 3
9 0 1 0 0 0 1 0 0 0 1 -6.75 0.2999992 6.25 0.5 3 1
9 0 1 0 0 0 1 0 0 0 1 116.25 17.8 -26.25 5.5 0.5 0.5
9 0 1 0 0 0 1 0 0 0 1 116.25 13.8 -25.25 5.5 0.5 0.5
9 0 1 0 0 0 1 0 0 0 1 28.25 -4.200001 -0.25 0.5 0.5 5.5
9 0 1 0 0 0 1 0 0 0 1 20.25 -0.2000008 -0.25 0.5 0.5 5.5
9 0 1 0 0 0 1 0 0 0 1 200.25 8.799999 -3.75 2.5 0.5 1
9 0 1 0 0 0 1 0 0 0 1 200.25 8.799999 4.25 2.5 0.5 1
9 0 1 0 0 0 1 0 0 0 1 200.25 5.299999 7.75 2.5 1 0.5
9 0 1 0 0 0 1 0 0 0 1 194.25 -7.700001 -0.25 0.5 1 2.5
9 0 1 0 0 0 1 0 0 0 1 192.25 5.299999 -0.25 0.5 1 2.5
9 0 1 0 0 0 1 0 0 0 1 171.25 3.799999 0.25 0.5 0.5 5
9 0 1 0 0 0 1 0 0 0 1 151.25 -16.2 0.25 2.5 0.5 1
9 0 1 0 0 0 1 0 0 0 1 135.25 -23.2 0.25 0.5 0.5 5
9 0 1 0 0 0 1 0 0 0 1 132.25 -18.2 3.25 0.5 0.5 5
9 0 1 0 0 0 1 0 0 0 1 126.25 -16.7 -0.25 0.5 1 2.5
9 0 1 0 0 0 1 0 0 0 1 83.75 17.8 -26.25 5 0.5 0.5
9 0 1 0 0 0 1 0 0 0 1 83.75 13.8 -25.25 5 0.5 0.5
9 0 1 0 0 0 1 0 0 0 1 61.75 -18.2 -0.25 1 0.5 2.5
9 0 1 0 0 0 1 0 0 0 1 60.25 -21.7 -0.25 0.5 1 2.5
9 0 1 0 0 0 1 0 0 0 1 48.25 -16.2 0.25 2.5 0.5 1
9 0 1 0 0 0 1 0 0 0 1 5.75 7.799999 -0.25 1 0.5 2.5
9 0 1 0 0 0 1 0 0 0 1 0.25 8.799999 4.25 2.5 0.5 1
9 0 1 0 0 0 1 0 0 0 1 -7.75 5.299999 -0.25 0.5 1 2.5
9 0 1 0 0 0 1 0 0 0 1 200.25 -4.200001 -8.25 4.5 0.5 0.5
9 0 1 0 0 0 1 0 0 0 1 104.25 69.8 -19.25 1.5 0.5 1.5
9 0 1 0 0 0 1 0 0 0 1 104.25 49.8 -19.25 1.5 0.5 1.5
9 0 1 0 0 0 1 0 0 0 1 104.25 9.799999 -19.25 1.5 0.5 1.5
9 0 1 0 0 0 1 0 0 0 1 71.25 -12.2 -4.25 0.5 0.5 4.5
9 0 1 0 0 0 1 0 0 0 1 7.25 1.799999 -4.25 1.5 0.5 1.5
9 0 1 0 0 0 1 0 0 0 1 6.25 -2.200001 -2.25 0.5 4.5 0.5
9 0 1 0 0 0 1 0 0 0 1 207.25 6.299999 0.25 0.5 1 2
9 0 1 0 0 0 1 0 0 0 1 207.75 3.299999 -3.75 1 1 1
9 0 1 0 0 0 1 0 0 0 1 205.75 5.299999 4.25 1 1 1
9 0 1 0 0 0 1 0 0 0 1 205.75 3.299999 -5.75 1 1 1
9 0 1 0 0 0 1 0 0 0 1 204.75 -5.700001 -4.75 1 1 1
9 0 1 0 0 0 1 0 0 0 1 199.75 -5.700001 7.75 2 1 0.5
9 0 1 0 0 0 1 0 0 0 1 199.75 -9.200001 -3.75 2 0.5 1
9 0 1 0 0 0 1 0 0 0 1 196.75 6.299999 -5.75 1 1 1
9 0 1 0 0 0 1 0 0 0 1 193.75 -4.200001 -3.75 1 0.5 2
9 0 1 0 0 0 1 0 0 0 1 178.75 0.2999992 -5.25 1 2 0.5
9 0 1 0 0 0 1 0 0 0 1 175.75 8.299999 0.25 1 1 1
9 0 1 0 0 0 1 0 0 0 1 122.25 25.3 -11.75 0.5 2 1
9 0 1 0 0 0 1 0 0 0 1 77.75 16.3 -3.75 1 1 1
9 0 1 0 0 0 1 0 0 0 1 77.75 11.3 0.25 1 1 1
9 0 1 0 0 0 1 0 0 0 1 77.75 7.299999 3.75 1 2 0.5
9 0 1 0 0 0 1 0 0 0 1 77.75 0.2999992 -17.75 1 1 1
9 0 1 0 0 0 1 0 0 0 1 77.75 -5.700001 -14.75 1 1 1
9 0 1 0 0 0 1 0 0 0 1 77.75 -11.7 -11.75 1 1 1
9 0 1 0 0 0 1 0 0 0 1 77.75 -17.7 -8.75 1 1 1
9 0 1 0 0 0 1 0 0 0 1 77.75 -23.7 -4.75 1 1 1
9 0 1 0 0 0 1 0 0 0 1 77.75 -23.7 5.25 1 1 1
9 0 1 0 0 0 1 0 0 0 1 9.25 3.299999 0.25 0.5 1 2
9 0 1 0 0 0 1 0 0 0 1 8.25 -4.700001 0.25 0.5 1 2
9 0 1 0 0 0 1 0 0 0 1 7.25 6.299999 0.25 0.5 1 2
9 0 1 0 0 0 1 0 0 0 1 6.75 5.299999 -2.75 1 1 1
9 0 1 0 0 0 1 0 0 0 1 3.75 7.299999 -3.75 1 1 1
9 0 1 0 0 0 1 0 0 0 1 4.75 5.299999 -5.25 2 1 0.5
9 0 1 0 0 0 1 0 0 0 1 3.75 -5.700001 -5.75 1 1 1
9 0 1 0 0 0 1 0 0 0 1 -0.25 -9.200001 -3.75 2 0.5 1
9 0 1 0 0 0 1 0 0 0 1 -4.25 6.299999 4.25 1 1 1
9 0 1 0 0 0 1 0 0 0 1 -5.25 5.299999 -4.75 1 1 1
9 0 1 0 0 0 1 0 0 0 1 -5.75 0.2999992 -7.25 0.5 4 0.5
9 0 1 0 0 0 1 0 0 0 1 -7.75 -5.200001 0.25 0.5 0.5 4
9 0 1 0 0 0 1 0 0 0 1 205.25 -8.200001 -0.25 0.5 0.5 3.5
9 0 1 0 0 0 1 0 0 0 1 200.25 7.799999 5.75 3.5 0.5 0.5
9 0 1 0 0 0 1 0 0 0 1 194.25 7.799999 -0.25 0.5 0.5 3.5
9 0 1 0 0 0 1 0 0 0 1 193.25 -0.2000008 -6.25 0.5 3.5 0.5
9 0 1 0 0 0 1 0 0 0 1 191.25 -0.2000008 -4.25 0.5 3.5 0.5
9 0 1 0 0 0 1 0 0 0 1 129.25 -13.2 -5.25 0.5 0.5 3.5
9 0 1 0 0 0 1 0 0 0 1 4.25 -0.2000008 8.75 0.5 3.5 0.5
9 0 1 0 0 0 1 0 0 0 1 0.25 -6.200001 -7.25 3.5 0.5 0.5
9 0 1 0 0 0 1 0 0 0 1 0.25 -8.200001 -5.25 3.5 0.5 0.5
9 0 1 0 0 0 1 0 0 0 1 -7.75 -0.2000008 -5.25 0.5 3.5 0.5
9 0 1 0 0 0 1 0 0 0 1 -8.75 -4.200001 -0.25 0.5 0.5 3.5
9 0 1 0 0 0 1 0 0 0 1 210.25 -0.2000008 0.25 0.5 1.5 1
9 0 1 0 0 0 1 0 0 0 1 209.25 -3.200001 0.25 0.5 0.5 3
9 0 1 0 0 0 1 0 0 0 1 207.75 -0.2000008 5.75 1 1.5 0.5
9 0 1 0 0 0 1 0 0 0 1 206.25 0.2999992 -7.25 0.5 3 0.5
9 0 1 0 0 0 1 0 0 0 1 204.75 -0.2000008 8.75 1 1.5 0.5
9 0 1 0 0 0 1 0 0 0 1 203.75 -0.2000008 -9.25 1 1.5 0.5
9 0 1 0 0 0 1 0 0 0 1 204.25 -3.700001 -7.25 1.5 1 0.5
9 0 1 0 0 0 1 0 0 0 1 200.25 6.299999 -7.25 1.5 1 0.5
9 0 1 0 0 0 1 0 0 0 1 194.25 5.799999 4.25 0.5 1.5 1
9 0 1 0 0 0 1 0 0 0 1 193.25 0.2999992 6.75 0.5 3 0.5
9 0 1 0 0 0 1 0 0 0 1 191.25 0.2999992 4.75 0.5 3 0.5
9 0 1 0 0 0 1 0 0 0 1 191.25 -4.200001 0.25 0.5 0.5 3
9 0 1 0 0 0 1 0 0 0 1 175.25 25.8 0.25 0.5 1.5 1
9 0 1 0 0 0 1 0 0 0 1 130.25 35.3 -19.25 0.5 1 1.5
9 0 1 0 0 0 1 0 0 0 1 122.25 6.799999 -20.75 0.5 1.5 1
9 0 1 0 0 0 1 0 0 0 1 122.25 -23.7 4.75 0.5 1 1.5
9 0 1 0 0 0 1 0 0 0 1 110.25 35.3 -19.25 0.5 1 1.5
9 0 1 0 0 0 1 0 0 0 1 104.75 29.8 -19.25 1 0.5 1.5
9 0 1 0 0 0 1 0 0 0 1 95.75 69.8 -19.25 1 0.5 1.5
9 0 1 0 0 0 1 0 0 0 1 95.75 49.8 -19.25 1 0.5 1.5
9 0 1 0 0 0 1 0 0 0 1 95.75 9.799999 -19.25 1 0.5 1.5
9 0 1 0 0 0 1 0 0 0 1 90.25 35.3 -19.25 0.5 1 1.5
9 0 1 0 0 0 1 0 0 0 1 77.75 20.8 -7.25 1 1.5 0.5
9 0 1 0 0 0 1 0 0 0 1 72.25 -18.7 -0.25 0.5 1 1.5
9 0 1 0 0 0 1 0 0 0 1 70.25 35.3 -19.25 0.5 1 1.5
9 0 1 0 0 0 1 0 0 0 1 54.25 -18.7 -0.25 0.5 1 1.5
9 0 1 0 0 0 1 0 0 0 1 25.75 3.799999 -5.25 3 0.5 0.5
9 0 1 0 0 0 1 0 0 0 1 20.25 8.799999 0.25 0.5 1.5 1
9 0 1 0 0 0 1 0 0 0 1 8.25 -3.200001 -3.75 0.5 1.5 1
9 0 1 0 0 0 1 0 0 0 1 6.25 -5.200001 -3.75 0.5 1.5 1
9 0 1 0 0 0 1 0 0 0 1 5.25 -8.200001 0.25 0.5 0.5 3
9 0 1 0 0 0 1 0 0 0 1 3.75 -0.2000008 -9.25 1 1.5 0.5
9 0 1 0 0 0 1 0 0 0 1 2.25 6.799999 -4.75 0.5 1.5 1
9 0 1 0 0 0 1 0 0 0 1 -0.25 -0.2000008 -10.25 1 1.5 0.5
9 0 1 0 0 0 1 0 0 0 1 -0.25 8.799999 -4.25 3 0.5 0.5
9 0 1 0 0 0 1 0 0 0 1 -0.25 -4.200001 8.75 3 0.5 0.5
9 0 1 0 0 0 1 0 0 0 1 -3.25 9.799999 -0.25 1 0.5 1.5
9 0 1 0 0 0 1 0 0 0 1 -5.25 4.799999 4.75 1 0.5 1.5
9 0 1 0 0 0 1 0 0 0 1 -5.25 -5.200001 -5.25 1 1.5 0.5
9 0 1 0 0 0 1 0 0 0 1 -8.75 -0.2000008 -4.75 0.5 1.5 1
9 0 1 0 0 0 1 0 0 0 1 -8.75 0.2999992 4.75 0.5 3 0.5
9 0 1 0 0 0 1 0 0 0 1 209.25 -0.2000008 3.75 0.5 2.5 0.5
9 0 1 0 0 0 1 0 0 0 1 208.25 -5.200001 -0.25 0.5 0.5 2.5
9 0 1 0 0 0 1 0 0 0 1 207.25 -0.2000008 -6.25 0.5 2.5 0.5
9 0 1 0 0 0 1 0 0 0 1 200.25 -4.200001 8.75 2.5 0.5 0.5
9 0 1 0 0 0 1 0 0 0 1 200.25 -7.200001 6.75 2.5 0.5 0.5
9 0 1 0 0 0 1 0 0 0 1 200.25 -9.200001 3.75 2.5 0.5 0.5
9 0 1 0 0 0 1 0 0 0 1 197.25 9.799999 -0.25 0.5 0.5 2.5
9 0 1 0 0 0 1 0 0 0 1 196.25 -9.200001 -0.25 0.5 0.5 2.5
9 0 1 0 0 0 1 0 0 0 1 195.25 -0.2000008 8.75 0.5 2.5 0.5
9 0 1 0 0 0 1 0 0 0 1 193.25 -7.200001 -0.25 0.5 0.5 2.5
9 0 1 0 0 0 1 0 0 0 1 141.25 -20.2 -0.25 0.5 0.5 2.5
9 0 1 0 0 0 1 0 0 0 1 138.25 -19.2 -0.25 0.5 0.5 2.5
9 0 1 0 0 0 1 0 0 0 1 134.25 -21.2 1.75 0.5 0.5 2.5
9 0 1 0 0 0 1 0 0 0 1 126.25 -7.200001 5.75 0.5 0.5 2.5
9 0 1 0 0 0 1 0 0 0 1 73.25 -8.200001 -6.25 0.5 0.5 2.5
9 0 1 0 0 0 1 0 0 0 1 59.25 -21.2 -0.25 0.5 0.5 2.5
9 0 1 0 0 0 1 0 0 0 1 58.25 -20.2 -0.25 0.5 0.5 2.5
9 0 1 0 0 0 1 0 0 0 1 21.25 -0.2000008 -5.25 0.5 2.5 0.5
9 0 1 0 0 0 1 0 0 0 1 7.25 -1.200001 5.75 0.5 2.5 0.5
9 0 1 0 0 0 1 0 0 0 1 6.25 -0.2000008 -7.25 0.5 2.5 0.5
9 0 1 0 0 0 1 0 0 0 1 0.25 -7.200001 6.75 2.5 0.5 0.5
9 0 1 0 0 0 1 0 0 0 1 0.25 -9.200001 3.75 2.5 0.5 0.5
9 0 1 0 0 0 1 0 0 0 1 -3.75 -9.200001 -0.25 0.5 0.5 2.5
9 0 1 0 0 0 1 0 0 0 1 -4.75 8.799999 -0.25 0.5 0.5 2.5
9 0 1 0 0 0 1 0 0 0 1 -5.75 -0.2000008 7.75 0.5 2.5 0.5
9 0 1 0 0 0 1 0 0 0 1 -6.75 -7.200001 -0.25 0.5 0.5 2.5
9 0 1 0 0 0 1 0 0 0 1 209.25 3.799999 0.25 0.5 0.5 2
9 0 1 0 0 0 1 0 0 0 1 207.75 -3.200001 -3.75 1 0.5 1
9 0 1 0 0 0 1 0 0 0 1 205.75 -5.200001 4.25 1 0.5 1
9 0 1 0 0 0 1 0 0 0 1 204.75 5.299999 5.75 1 1 0.5
9 0 1 0 0 0 1 0 0 0 1 204.25 -9.200001 0.25 0.5 0.5 2
9 0 1 0 0 0 1 0 0 0 1 203.75 7.299999 -4.25 1 1 0.5
9 0 1 0 0 0 1 0 0 0 1 203.75 4.299999 -7.25 1 1 0.5
9 0 1 0 0 0 1 0 0 0 1 200.75 3.799999 -9.25 2 0.5 0.5
9 0 1 0 0 0 1 0 0 0 1 199.75 0.2999992 -10.25 1 1 0.5
9 0 1 0 0 0 1 0 0 0 1 199.75 -2.700001 9.75 1 1 0.5
9 0 1 0 0 0 1 0 0 0 1 199.75 4.799999 8.75 2 0.5 0.5
9 0 1 0 0 0 1 0 0 0 1 199.75 -5.200001 -8.25 2 0.5 0.5
9 0 1 0 0 0 1 0 0 0 1 199.75 -10.2 -2.25 2 0.5 0.5
9 0 1 0 0 0 1 0 0 0 1 196.25 0.2999992 -9.25 0.5 2 0.5
9 0 1 0 0 0 1 0 0 0 1 196.75 -7.200001 5.25 1 0.5 1
9 0 1 0 0 0 1 0 0 0 1 195.25 5.299999 6.25 0.5 1 1
9 0 1 0 0 0 1 0 0 0 1 195.25 -5.700001 5.25 0.5 1 1
9 0 1 0 0 0 1 0 0 0 1 194.25 5.299999 -4.75 0.5 1 1
9 0 1 0 0 0 1 0 0 0 1 193.25 3.299999 5.25 0.5 1 1
9 0 1 0 0 0 1 0 0 0 1 190.25 0.2999992 2.25 0.5 1 1
9 0 1 0 0 0 1 0 0 0 1 180.25 7.299999 0.25 0.5 1 1
9 0 1 0 0 0 1 0 0 0 1 177.25 -8.700001 0.25 0.5 1 1
9 0 1 0 0 0 1 0 0 0 1 174.75 -11.2 0.25 1 0.5 1
9 0 1 0 0 0 1 0 0 0 1 173.75 -4.200001 -5.25 2 0.5 0.5
9 0 1 0 0 0 1 0 0 0 1 171.75 22.8 0.25 1 0.5 1
9 0 1 0 0 0 1 0 0 0 1 152.75 -17.2 0.25 1 0.5 1
9 0 1 0 0 0 1 0 0 0 1 151.75 -16.7 -1.25 1 1 0.5
9 0 1 0 0 0 1 0 0 0 1 146.75 -19.2 0.25 1 0.5 1
9 0 1 0 0 0 1 0 0 0 1 146.75 -18.2 -1.25 2 0.5 0.5
9 0 1 0 0 0 1 0 0 0 1 140.25 -22.2 0.25 0.5 0.5 2
9 0 1 0 0 0 1 0 0 0 1 133.25 -20.2 6.25 0.5 0.5 2
9 0 1 0 0 0 1 0 0 0 1 132.25 -18.2 -6.75 0.5 0.5 2
9 0 1 0 0 0 1 0 0 0 1 126.75 -20.2 0.25 1 0.5 1
9 0 1 0 0 0 1 0 0 0 1 122.25 16.3 -3.75 0.5 1 1
9 0 1 0 0 0 1 0 0 0 1 122.25 11.3 0.25 0.5 1 1
9 0 1 0 0 0 1 0 0 0 1 122.25 7.299999 3.75 0.5 2 0.5
9 0 1 0 0 0 1 0 0 0 1 122.25 0.2999992 -17.75 0.5 1 1
9 0 1 0 0 0 1 0 0 0 1 122.25 -5.700001 -14.75 0.5 1 1
9 0 1 0 0 0 1 0 0 0 1 122.25 -11.7 -11.75 0.5 1 1
9 0 1 0 0 0 1 0 0 0 1 122.25 -17.7 -8.75 0.5 1 1
9 0 1 0 0 0 1 0 0 0 1 122.25 -23.7 -4.75 0.5 1 1
9 0 1 0 0 0 1 0 0 0 1 77.75 28.3 -27.25 1 1 0.5
9 0 1 0 0 0 1 0 0 0 1 77.75 24.3 -10.25 1 1 0.5
9 0 1 0 0 0 1 0 0 0 1 77.75 12.3 -24.25 1 1 0.5
9 0 1 0 0 0 1 0 0 0 1 77.75 6.299999 4.75 1 1 0.5
9 0 1 0 0 0 1 0 0 0 1 77.75 4.299999 -20.25 1 1 0.5
9 0 1 0 0 0 1 0 0 0 1 77.75 -1.700001 -17.25 1 1 0.5
9 0 1 0 0 0 1 0 0 0 1 77.75 -7.700001 -14.25 1 1 0.5
9 0 1 0 0 0 1 0 0 0 1 77.75 -13.7 -11.25 1 1 0.5
9 0 1 0 0 0 1 0 0 0 1 77.75 -19.7 -8.25 1 1 0.5
9 0 1 0 0 0 1 0 0 0 1 72.75 -20.2 0.25 1 0.5 1
9 0 1 0 0 0 1 0 0 0 1 52.75 -19.2 0.25 1 0.5 1
9 0 1 0 0 0 1 0 0 0 1 49.75 -17.2 -1.25 2 0.5 0.5
9 0 1 0 0 0 1 0 0 0 1 47.75 -17.2 0.25 1 0.5 1
9 0 1 0 0 0 1 0 0 0 1 30.25 26.3 0.25 0.5 1 1
9 0 1 0 0 0 1 0 0 0 1 28.75 22.8 0.25 1 0.5 1
9 0 1 0 0 0 1 0 0 0 1 27.25 -8.700001 0.25 0.5 1 1
9 0 1 0 0 0 1 0 0 0 1 24.25 25.3 0.25 0.5 1 1
9 0 1 0 0 0 1 0 0 0 1 24.75 7.799999 0.25 1 0.5 1
9 0 1 0 0 0 1 0 0 0 1 25.75 -4.200001 -5.25 2 0.5 0.5
9 0 1 0 0 0 1 0 0 0 1 24.75 -11.2 0.25 1 0.5 1
9 0 1 0 0 0 1 0 0 0 1 9.25 0.2999992 3.75 0.5 2 0.5
9 0 1 0 0 0 1 0 0 0 1 8.25 -0.7000008 -5.25 0.5 2 0.5
9 0 1 0 0 0 1 0 0 0 1 6.75 3.299999 -5.25 1 1 0.5
9 0 1 0 0 0 1 0 0 0 1 6.75 2.299999 -6.25 1 1 0.5
9 0 1 0 0 0 1 0 0 0 1 5.75 6.799999 -2.75 1 0.5 1
9 0 1 0 0 0 1 0 0 0 1 5.25 0.2999992 -8.25 0.5 2 0.5
9 0 1 0 0 0 1 0 0 0 1 4.25 -9.200001 0.25 0.5 0.5 2
9 0 1 0 0 0 1 0 0 0 1 3.25 9.799999 0.25 0.5 0.5 2
9 0 1 0 0 0 1 0 0 0 1 3.75 7.799999 4.25 1 0.5 1
9 0 1 0 0 0 1 0 0 0 1 3.75 6.799999 5.25 1 0.5 1
9 0 1 0 0 0 1 0 0 0 1 3.75 5.299999 -6.25 1 1 0.5
9 0 1 0 0 0 1 0 0 0 1 3.75 4.799999 7.25 1 0.5 1
9 0 1 0 0 0 1 0 0 0 1 3.75 3.299999 -8.25 1 1 0.5
9 0 1 0 0 0 1 0 0 0 1 3.75 -4.700001 6.75 1 1 0.5
9 0 1 0 0 0 1 0 0 0 1 3.75 -6.200001 5.25 1 0.5 1
9 0 1 0 0 0 1 0 0 0 1 -0.25 9.799999 -3.25 2 0.5 0.5
9 0 1 0 0 0 1 0 0 0 1 -0.25 7.799999 -6.25 2 0.5 0.5
9 0 1 0 0 0 1 0 0 0 1 -0.25 -6.200001 7.75 2 0.5 0.5
9 0 1 0 0 0 1 0 0 0 1 -0.25 -10.2 -2.25 2 0.5 0.5
9 0 1 0 0 0 1 0 0 0 1 -3.25 6.299999 -6.25 1 1 0.5
9 0 1 0 0 0 1 0 0 0 1 -3.25 -4.200001 -7.75 1 0.5 1
9 0 1 0 0 0 1 0 0 0 1 -3.25 -7.200001 5.25 1 0.5 1
9 0 1 0 0 0 1 0 0 0 1 -4.25 0.2999992 -9.25 1 1 0.5
9 0 1 0 0 0 1 0 0 0 1 -4.75 -5.700001 5.25 0.5 1 1
9 0 1 0 0 0 1 0 0 0 1 -5.25 3.799999 -5.75 1 0.5 1
9 0 1 0 0 0 1 0 0 0 1 -5.25 -7.200001 3.25 1 0.5 1
9 0 1 0 0 0 1 0 0 0 1 -7.75 0.2999992 5.75 0.5 2 0.5
9 0 1 0 0 0 1 0 0 0 1 -7.75 -6.200001 0.25 0.5 0.5 2
9 0 1 0 0 0 1 0 0 0 1 -9.75 0.2999992 1.75 0.5 2 0.5
9 0 1 0 0 0 1 0 0 0 1 209.25 -0.2000008 -4.25 0.5 1.5 0.5
9 0 1 0 0 0 1 0 0 0 1 209.25 -4.200001 -0.25 0.5 0.5 1.5
9 0 1 0 0 0 1 0 0 0 1 203.25 9.799999 -0.25 0.5 0.5 1.5
9 0 1 0 0 0 1 0 0 0 1 200.25 9.799999 -3.25 1.5 0.5 0.5
9 0 1 0 0 0 1 0 0 0 1 200.25 -4.200001 -9.25 1.5 0.5 0.5
9 0 1 0 0 0 1 0 0 0 1 200.25 -10.2 2.75 1.5 0.5 0.5
9 0 1 0 0 0 1 0 0 0 1 197.25 -10.2 -0.25 0.5 0.5 1.5
9 0 1 0 0 0 1 0 0 0 1 197.25 5.799999 -7.25 1.5 0.5 0.5
9 0 1 0 0 0 1 0 0 0 1 195.25 -7.200001 -4.25 1.5 0.5 0.5
9 0 1 0 0 0 1 0 0 0 1 192.25 -6.200001 -0.25 0.5 0.5 1.5
9 0 1 0 0 0 1 0 0 0 1 191.25 4.799999 -0.25 0.5 0.5 1.5
9 0 1 0 0 0 1 0 0 0 1 190.25 -0.2000008 -2.25 0.5 1.5 0.5
9 0 1 0 0 0 1 0 0 0 1 130.25 44.8 -19.25 0.5 0.5 1.5
9 0 1 0 0 0 1 0 0 0 1 122.25 20.8 -7.25 0.5 1.5 0.5
9 0 1 0 0 0 1 0 0 0 1 120.25 18.8 -26.25 1.5 0.5 0.5
9 0 1 0 0 0 1 0 0 0 1 110.25 44.8 -19.25 0.5 0.5 1.5
9 0 1 0 0 0 1 0 0 0 1 95.25 29.8 -19.25 0.5 0.5 1.5
9 0 1 0 0 0 1 0 0 0 1 90.25 44.8 -19.25 0.5 0.5 1.5
9 0 1 0 0 0 1 0 0 0 1 70.25 44.8 -19.25 0.5 0.5 1.5
9 0 1 0 0 0 1 0 0 0 1 70.25 -13.2 6.75 0.5 0.5 1.5
9 0 1 0 0 0 1 0 0 0 1 52.25 -18.2 -1.25 1.5 0.5 0.5
9 0 1 0 0 0 1 0 0 0 1 10.25 -0.2000008 -0.25 0.5 0.5 1.5
9 0 1 0 0 0 1 0 0 0 1 9.25 -4.200001 -0.25 0.5 0.5 1.5
9 0 1 0 0 0 1 0 0 0 1 7.25 4.799999 3.75 0.5 1.5 0.5
9 0 1 0 0 0 1 0 0 0 1 6.25 4.799999 4.75 0.5 1.5 0.5
9 0 1 0 0 0 1 0 0 0 1 4.25 3.799999 6.75 1.5 0.5 0.5
9 0 1 0 0 0 1 0 0 0 1 0.25 9.799999 3.75 1.5 0.5 0.5
9 0 1 0 0 0 1 0 0 0 1 0.25 3.799999 -9.25 1.5 0.5 0.5
9 0 1 0 0 0 1 0 0 0 1 0.25 2.799999 9.75 1.5 0.5 0.5
9 0 1 0 0 0 1 0 0 0 1 0.25 -4.200001 -9.25 1.5 0.5 0.5
9 0 1 0 0 0 1 0 0 0 1 0.25 -10.2 2.75 1.5 0.5 0.5
9 0 1 0 0 0 1 0 0 0 1 -2.75 -10.2 -0.25 0.5 0.5 1.5
9 0 1 0 0 0 1 0 0 0 1 -4.75 -7.200001 -4.25 0.5 0.5 1.5
9 0 1 0 0 0 1 0 0 0 1 -5.75 -0.2000008 -8.25 0.5 1.5 0.5
9 0 1 0 0 0 1 0 0 0 1 -9.75 -0.2000008 -2.25 0.5 1.5 0.5
