9 0 -1.192093E-07 0 1 0 1 0 -1 0 -1.192093E-07 -10 -2 -10 3.35 0.5 3.35
9 0 -1.192093E-07 0 1 0 1 0 -1 0 -1.192093E-07 10 -2 -10 3.35 0.5 3.35
9 0 1 0 0 0 1 0 0 0 1 0 75.5 -186.5 2.5 18 1
9 0 1 0 0 0 1 0 0 0 1 58 45 -53.5 0.5 19.5 4
9 0 1 0 0 0 1 0 0 0 1 -58 45 -53.5 0.5 19.5 4
9 0 1 0 0 0 1 0 0 0 1 -8 79 -195 0.5 14.5 4.5
9 0 1 0 0 0 1 0 0 0 1 0 80 -203 3.5 13.5 0.5
9 0 1 0 0 0 1 0 0 0 1 8.5 78 -195 1 15.5 1.5
9 0 1 0 0 0 1 0 0 0 1 66 49 -45 3.5 10.5 0.5
9 0 1 0 0 0 1 0 0 0 1 -66 49 -45 3.5 10.5 0.5
9 0 1 0 0 0 1 0 0 0 1 66 55 -62 3.5 9.5 0.5
9 0 1 0 0 0 1 0 0 0 1 -66 55 -62 3.5 9.5 0.5
9 0 1 0 0 0 1 0 0 0 1 69.5 40.5 18 5 6 0.5
9 0 1 0 0 0 1 0 0 0 1 40 16.5 10 1.5 6 1.5
9 0 1 0 0 0 1 0 0 0 1 -40 16.5 10 1.5 6 1.5
9 0 1 0 0 0 1 0 0 0 1 -63 47.5 -46 1.5 17 0.5
9 0 1 0 0 0 1 0 0 0 1 8 77.5 -192 0.5 16 1.5
9 0 1 0 0 0 1 0 0 0 1 0 28 -139 9.5 0.5 2.5
9 0 1 0 0 0 1 0 0 0 1 0 6 -71 9.5 0.5 2.5
9 0 1 0 0 0 1 0 0 0 1 -9 78 -195 0.5 15.5 1.5
9 0 1 0 0 0 1 0 0 0 1 70 41.5 0 1.5 5 1.5
9 0 1 0 0 0 1 0 0 0 1 -70 41.5 0 1.5 5 1.5
9 0 1 0 0 0 1 0 0 0 1 63 45 -46 1.5 14.5 0.5
9 0 1 0 0 0 1 0 0 0 1 8 79 -198 0.5 14.5 1.5
9 0 1 0 0 0 1 0 0 0 1 0 5 -65.5 6.5 0.5 3
9 0 1 0 0 0 1 0 0 0 1 -3.5 75.5 -187 1 18 0.5
9 0 1 0 0 0 1 0 0 0 1 60 42.5 -47.5 0.5 17 1
9 0 1 0 0 0 1 0 0 0 1 -60 42.5 -47.5 0.5 17 1
9 0 1 0 0 0 1 0 0 0 1 3.5 73 -187 1 15.5 0.5
9 0 1 0 0 0 1 0 0 0 1 66 58.5 -60 4.5 1 1.5
9 0 1 0 0 0 1 0 0 0 1 -66 58.5 -60 4.5 1 1.5
9 0 1 0 0 0 1 0 0 0 1 61.5 43 -61 1 12.5 0.5
9 0 1 0 0 0 1 0 0 0 1 -61.5 43 -61 1 12.5 0.5
9 0 1 0 0 0 1 0 0 0 1 72 112.5 -129.5 0.5 6 2
9 0 1 0 0 0 1 0 0 0 1 66 55.5 -53.5 1.5 4 1
9 0 1 0 0 0 1 0 0 0 1 66.5 58.5 -47.5 6 1 1
9 0 1 0 0 0 1 0 0 0 1 -66.5 58.5 -47.5 6 1 1
9 0 1 0 0 0 1 0 0 0 1 0 27 -138.5 11.5 0.5 1
9 0 1 0 0 0 1 0 0 0 1 0 7 -77 7.5 0.5 1.5
9 0 1 0 0 0 1 0 0 0 1 59.5 58.5 -54 1 1 5.5
9 0 1 0 0 0 1 0 0 0 1 6.5 87.5 -195 1 1 5.5
9 0 1 0 0 0 1 0 0 0 1 0 87.5 -201.5 5.5 1 1
9 0 1 0 0 0 1 0 0 0 1 0 87.5 -188.5 5.5 1 1
9 0 1 0 0 0 1 0 0 0 1 -6.5 87.5 -195 1 1 5.5
9 0 1 0 0 0 1 0 0 0 1 -59.5 58.5 -54 1 1 5.5
9 0 1 0 0 0 1 0 0 0 1 67 30.5 18 2.5 4 0.5
9 0 1 0 0 0 1 0 0 0 1 -66.5 56.5 -53.5 1 5 1
9 0 1 0 0 0 1 0 0 0 1 59 33.5 -48.5 0.5 9 1
9 0 1 0 0 0 1 0 0 0 1 0 51.5 -181 4.5 2 0.5
9 0 1 0 0 0 1 0 0 0 1 -59 33.5 -48.5 0.5 9 1
9 0 1 0 0 0 1 0 0 0 1 66 62 -45 3.5 2.5 0.5
9 0 1 0 0 0 1 0 0 0 1 6 76 -189 0.5 17.5 0.5
9 0 1 0 0 0 1 0 0 0 1 -6 76 -189 0.5 17.5 0.5
9 0 1 0 0 0 1 0 0 0 1 -66 62 -45 3.5 2.5 0.5
9 0 1 0 0 0 1 0 0 0 1 -43.5 8 -21 1 0.5 8.5
9 0 1 0 0 0 1 0 0 0 1 71 113 -137 0.5 5.5 1.5
9 0 1 0 0 0 1 0 0 0 1 15 28 -137 5.5 0.5 1.5
9 0 1 0 0 0 1 0 0 0 1 -15 28 -137 5.5 0.5 1.5
9 0 1 0 0 0 1 0 0 0 1 -71 113 -137 0.5 5.5 1.5
9 0 1 0 0 0 1 0 0 0 1 78 45.5 10.5 0.5 1 8
9 0 1 0 0 0 1 0 0 0 1 64.5 41.5 -62 2 4 0.5
9 0 1 0 0 0 1 0 0 0 1 -64.5 41.5 -62 2 4 0.5
9 0 1 0 0 0 1 0 0 0 1 61 42 -47 0.5 15.5 0.5
9 0 1 0 0 0 1 0 0 0 1 -61 42 -47 0.5 15.5 0.5
9 0 1 0 0 0 1 0 0 0 1 72 97.5 -125 0.5 3 2.5
9 0 1 0 0 0 1 0 0 0 1 71 98.5 -132 0.5 3 2.5
9 0 1 0 0 0 1 0 0 0 1 60 28 -76.5 1.5 0.5 5
9 0 1 0 0 0 1 0 0 0 1 0 15 -109.5 7.5 0.5 1
9 0 1 0 0 0 1 0 0 0 1 -41 7 -17.5 1.5 0.5 5
9 0 1 0 0 0 1 0 0 0 1 -59 28 -79.5 1.5 0.5 5
9 0 1 0 0 0 1 0 0 0 1 -71 98.5 -132 0.5 3 2.5
9 0 1 0 0 0 1 0 0 0 1 69.5 61 -46 2 3.5 0.5
9 0 1 0 0 0 1 0 0 0 1 6 79.5 -201 0.5 14 0.5
9 0 1 0 0 0 1 0 0 0 1 5 72.5 -188 0.5 14 0.5
9 0 1 0 0 0 1 0 0 0 1 -5 72.5 -188 0.5 14 0.5
9 0 1 0 0 0 1 0 0 0 1 -6 79.5 -201 0.5 14 0.5
9 0 1 0 0 0 1 0 0 0 1 -41.5 8 -33.5 1 0.5 7
9 0 1 0 0 0 1 0 0 0 1 -69.5 61 -46 2 3.5 0.5
9 0 1 0 0 0 1 0 0 0 1 70 104 -140 0.5 4.5 1.5
9 0 1 0 0 0 1 0 0 0 1 60 51 -60 0.5 13.5 0.5
9 0 1 0 0 0 1 0 0 0 1 56 28 -89 1.5 0.5 4.5
9 0 1 0 0 0 1 0 0 0 1 53 28 -98 1.5 0.5 4.5
9 0 1 0 0 0 1 0 0 0 1 20 21 10 1.5 1.5 1.5
9 0 1 0 0 0 1 0 0 0 1 7 73 -190 0.5 13.5 0.5
9 0 1 0 0 0 1 0 0 0 1 0 21 10 1.5 1.5 1.5
9 0 1 0 0 0 1 0 0 0 1 -7 73 -190 0.5 13.5 0.5
9 0 1 0 0 0 1 0 0 0 1 -20 21 10 1.5 1.5 1.5
9 0 1 0 0 0 1 0 0 0 1 -52 28 -101 1.5 0.5 4.5
9 0 1 0 0 0 1 0 0 0 1 -55 28 -92 1.5 0.5 4.5
9 0 1 0 0 0 1 0 0 0 1 -60 51 -60 0.5 13.5 0.5
9 0 1 0 0 0 1 0 0 0 1 -70 104 -140 0.5 4.5 1.5
9 0 1 0 0 0 1 0 0 0 1 0 80.5 -204 0.5 13 0.5
9 0 1 0 0 0 1 0 0 0 1 0 68 -216.5 6.5 0.5 1
9 0 1 0 0 0 1 0 0 0 1 0 66 -212.5 6.5 0.5 1
9 0 1 0 0 0 1 0 0 0 1 0 64 -208.5 6.5 0.5 1
9 0 1 0 0 0 1 0 0 0 1 20 5 -57 2.5 0.5 2.5
9 0 1 0 0 0 1 0 0 0 1 0 69 -218 12.5 0.5 0.5
9 0 1 0 0 0 1 0 0 0 1 0 67 -214 12.5 0.5 0.5
9 0 1 0 0 0 1 0 0 0 1 -20 5 -57 2.5 0.5 2.5
9 0 1 0 0 0 1 0 0 0 1 71.5 39.5 -54 1 2 1.5
9 0 1 0 0 0 1 0 0 0 1 70 112.5 -143 0.5 4 1.5
9 0 1 0 0 0 1 0 0 0 1 69 102.5 -145 0.5 4 1.5
9 0 1 0 0 0 1 0 0 0 1 68 108.5 -153 0.5 4 1.5
9 0 1 0 0 0 1 0 0 0 1 9.5 5 -63.5 3 0.5 2
9 0 1 0 0 0 1 0 0 0 1 0 86.5 -195 1.5 4 0.5
9 0 1 0 0 0 1 0 0 0 1 -9.5 5 -63.5 3 0.5 2
9 0 1 0 0 0 1 0 0 0 1 -68 108.5 -153 0.5 4 1.5
9 0 1 0 0 0 1 0 0 0 1 -69 102.5 -145 0.5 4 1.5
9 0 1 0 0 0 1 0 0 0 1 -70 112.5 -143 0.5 4 1.5
9 0 1 0 0 0 1 0 0 0 1 0 75 -230 11.5 0.5 0.5
9 0 1 0 0 0 1 0 0 0 1 0 70 -220 11.5 0.5 0.5
9 0 1 0 0 0 1 0 0 0 1 0 58 -197 11.5 0.5 0.5
9 0 1 0 0 0 1 0 0 0 1 0 24 -133 11.5 0.5 0.5
9 0 1 0 0 0 1 0 0 0 1 59 52 -48.5 0.5 5.5 1
9 0 1 0 0 0 1 0 0 0 1 7 65 -209.5 5.5 0.5 1
9 0 1 0 0 0 1 0 0 0 1 -7 65 -209.5 5.5 0.5 1
9 0 1 0 0 0 1 0 0 0 1 -39.5 7 -28 1 0.5 5.5
9 0 1 0 0 0 1 0 0 0 1 -59 52 -48.5 0.5 5.5 1
9 0 1 0 0 0 1 0 0 0 1 70 98 -137 0.5 3.5 1.5
9 0 1 0 0 0 1 0 0 0 1 68 101 -150 0.5 3.5 1.5
9 0 1 0 0 0 1 0 0 0 1 7 76 -200 0.5 10.5 0.5
9 0 1 0 0 0 1 0 0 0 1 0 14 -107 3.5 0.5 1.5
9 0 1 0 0 0 1 0 0 0 1 -7 76 -200 0.5 10.5 0.5
9 0 1 0 0 0 1 0 0 0 1 0 77 -234 10.5 0.5 0.5
9 0 1 0 0 0 1 0 0 0 1 -68 101 -150 0.5 3.5 1.5
9 0 1 0 0 0 1 0 0 0 1 -70 98 -137 0.5 3.5 1.5
9 0 1 0 0 0 1 0 0 0 1 72 103 -127.5 0.5 2.5 2
9 0 1 0 0 0 1 0 0 0 1 72 90 -119.5 0.5 2.5 2
9 0 1 0 0 0 1 0 0 0 1 66 48.5 -63 0.5 10 0.5
9 0 1 0 0 0 1 0 0 0 1 64.5 36 -45 2 2.5 0.5
9 0 1 0 0 0 1 0 0 0 1 47.5 10 -28.5 1 0.5 5
9 0 1 0 0 0 1 0 0 0 1 9 71.5 -193 0.5 10 0.5
9 0 1 0 0 0 1 0 0 0 1 5 76.5 -202 0.5 10 0.5
9 0 1 0 0 0 1 0 0 0 1 -5 76.5 -202 0.5 10 0.5
9 0 1 0 0 0 1 0 0 0 1 -9 71.5 -193 0.5 10 0.5
9 0 1 0 0 0 1 0 0 0 1 -66 48.5 -63 0.5 10 0.5
9 0 1 0 0 0 1 0 0 0 1 -64.5 36 -45 2 2.5 0.5
9 0 1 0 0 0 1 0 0 0 1 0 79 -238 9.5 0.5 0.5
9 0 1 0 0 0 1 0 0 0 1 0 59 -199 9.5 0.5 0.5
9 0 1 0 0 0 1 0 0 0 1 0 57 -195 9.5 0.5 0.5
9 0 1 0 0 0 1 0 0 0 1 0 21 -126 9.5 0.5 0.5
9 0 1 0 0 0 1 0 0 0 1 76 43.5 18 1.5 3 0.5
9 0 1 0 0 0 1 0 0 0 1 71 106 -134.5 0.5 4.5 1
9 0 1 0 0 0 1 0 0 0 1 69 113.5 -149 0.5 3 1.5
9 0 1 0 0 0 1 0 0 0 1 67 101.5 -156 0.5 3 1.5
9 0 1 0 0 0 1 0 0 0 1 24.5 28 -133 3 0.5 1.5
9 0 1 0 0 0 1 0 0 0 1 9.5 68 -215 3 0.5 1.5
9 0 1 0 0 0 1 0 0 0 1 11 64 -206.5 4.5 0.5 1
9 0 1 0 0 0 1 0 0 0 1 10 67 -212.5 4.5 0.5 1
9 0 1 0 0 0 1 0 0 0 1 9.5 66 -211 3 0.5 1.5
9 0 1 0 0 0 1 0 0 0 1 0 94 -266.5 4.5 0.5 1
9 0 1 0 0 0 1 0 0 0 1 -10 67 -212.5 4.5 0.5 1
9 0 1 0 0 0 1 0 0 0 1 -9.5 66 -211 3 0.5 1.5
9 0 1 0 0 0 1 0 0 0 1 -11 64 -206.5 4.5 0.5 1
9 0 1 0 0 0 1 0 0 0 1 -21 28 -134.5 4.5 0.5 1
9 0 1 0 0 0 1 0 0 0 1 -36.5 6 -26 1 0.5 4.5
9 0 1 0 0 0 1 0 0 0 1 -67 101.5 -156 0.5 3 1.5
9 0 1 0 0 0 1 0 0 0 1 -69 113.5 -149 0.5 3 1.5
9 0 1 0 0 0 1 0 0 0 1 -71 106 -134.5 0.5 4.5 1
9 0 1 0 0 0 1 0 0 0 1 -71.5 39 -54 1 1.5 1.5
9 0 1 0 0 0 1 0 0 0 1 0 81 -242 8.5 0.5 0.5
9 0 1 0 0 0 1 0 0 0 1 0 80 -240 8.5 0.5 0.5
9 0 1 0 0 0 1 0 0 0 1 0 78 -236 8.5 0.5 0.5
9 0 1 0 0 0 1 0 0 0 1 0 61 -203 8.5 0.5 0.5
9 0 1 0 0 0 1 0 0 0 1 0 53 -188 8.5 0.5 0.5
9 0 1 0 0 0 1 0 0 0 1 0 23 -131 8.5 0.5 0.5
9 0 1 0 0 0 1 0 0 0 1 -44 9 -34 0.5 0.5 8.5
9 0 1 0 0 0 1 0 0 0 1 71 93.5 -129.5 0.5 2 2
9 0 1 0 0 0 1 0 0 0 1 69 98.5 -142.5 0.5 4 1
9 0 1 0 0 0 1 0 0 0 1 49 10 -16.5 0.5 0.5 8
9 0 1 0 0 0 1 0 0 0 1 46.5 10 -37.5 1 0.5 4
9 0 1 0 0 0 1 0 0 0 1 36.5 28 -124.5 2 0.5 2
9 0 1 0 0 0 1 0 0 0 1 21.5 7 -70.5 2 0.5 2
9 0 1 0 0 0 1 0 0 0 1 20.5 6 -64.5 2 0.5 2
9 0 1 0 0 0 1 0 0 0 1 12.5 51.5 -180 2 2 0.5
9 0 1 0 0 0 1 0 0 0 1 8.5 71 -221.5 4 0.5 1
9 0 1 0 0 0 1 0 0 0 1 -8.5 71 -221.5 4 0.5 1
9 0 1 0 0 0 1 0 0 0 1 -10.5 68 -214.5 4 0.5 1
9 0 1 0 0 0 1 0 0 0 1 -12.5 51.5 -180 2 2 0.5
9 0 1 0 0 0 1 0 0 0 1 -17.5 6 -67.5 2 0.5 2
9 0 1 0 0 0 1 0 0 0 1 -19.5 7 -72.5 2 0.5 2
9 0 1 0 0 0 1 0 0 0 1 -36.5 28 -124.5 2 0.5 2
9 0 1 0 0 0 1 0 0 0 1 -38.5 6 -13.5 1 0.5 4
9 0 1 0 0 0 1 0 0 0 1 -69 98.5 -142.5 0.5 4 1
9 0 1 0 0 0 1 0 0 0 1 -71 93.5 -129.5 0.5 2 2
9 0 1 0 0 0 1 0 0 0 1 72 85 -116 0.5 2.5 1.5
9 0 1 0 0 0 1 0 0 0 1 70 62 -61 1.5 2.5 0.5
9 0 1 0 0 0 1 0 0 0 1 68 39 0 0.5 7.5 0.5
9 0 1 0 0 0 1 0 0 0 1 63 62 -61 1.5 2.5 0.5
9 0 1 0 0 0 1 0 0 0 1 63 62 -46 1.5 2.5 0.5
9 0 1 0 0 0 1 0 0 0 1 59 62 -49 0.5 2.5 1.5
9 0 1 0 0 0 1 0 0 0 1 17 6 -68 2.5 0.5 1.5
9 0 1 0 0 0 1 0 0 0 1 12 6 -71 2.5 0.5 1.5
9 0 1 0 0 0 1 0 0 0 1 4 91 -202 1.5 2.5 0.5
9 0 1 0 0 0 1 0 0 0 1 0 75 -195 0.5 7.5 0.5
9 0 1 0 0 0 1 0 0 0 1 0 56 -193 2.5 0.5 1.5
9 0 1 0 0 0 1 0 0 0 1 0 5 -70 2.5 0.5 1.5
9 0 1 0 0 0 1 0 0 0 1 -4 91 -202 1.5 2.5 0.5
9 0 1 0 0 0 1 0 0 0 1 0 83 -246 7.5 0.5 0.5
9 0 1 0 0 0 1 0 0 0 1 0 82 -244 7.5 0.5 0.5
9 0 1 0 0 0 1 0 0 0 1 0 46 -175 7.5 0.5 0.5
9 0 1 0 0 0 1 0 0 0 1 0 45 -173 7.5 0.5 0.5
9 0 1 0 0 0 1 0 0 0 1 0 32 -149 7.5 0.5 0.5
9 0 1 0 0 0 1 0 0 0 1 0 30 -145 7.5 0.5 0.5
9 0 1 0 0 0 1 0 0 0 1 0 22 -129 7.5 0.5 0.5
9 0 1 0 0 0 1 0 0 0 1 -12 6 -71 2.5 0.5 1.5
9 0 1 0 0 0 1 0 0 0 1 -59 62 -49 0.5 2.5 1.5
9 0 1 0 0 0 1 0 0 0 1 -57 28 -86 2.5 0.5 1.5
9 0 1 0 0 0 1 0 0 0 1 -63 62 -61 1.5 2.5 0.5
9 0 1 0 0 0 1 0 0 0 1 -68 39 0 0.5 7.5 0.5
9 0 1 0 0 0 1 0 0 0 1 -70 62 -61 1.5 2.5 0.5
9 0 1 0 0 0 1 0 0 0 1 59 54 -58.5 0.5 3.5 1
9 0 1 0 0 0 1 0 0 0 1 11 70 -218.5 3.5 0.5 1
9 0 1 0 0 0 1 0 0 0 1 11 69 -216.5 3.5 0.5 1
9 0 1 0 0 0 1 0 0 0 1 10 64.5 -208 3.5 1 0.5
9 0 1 0 0 0 1 0 0 0 1 0 95 -268.5 3.5 0.5 1
9 0 1 0 0 0 1 0 0 0 1 0 89 -257.5 3.5 0.5 1
9 0 1 0 0 0 1 0 0 0 1 0 58.5 -198 3.5 1 0.5
9 0 1 0 0 0 1 0 0 0 1 0 12 -99.5 3.5 0.5 1
9 0 1 0 0 0 1 0 0 0 1 0 6 -74.5 3.5 0.5 1
9 0 1 0 0 0 1 0 0 0 1 -10 64.5 -208 3.5 1 0.5
9 0 1 0 0 0 1 0 0 0 1 -11 70 -218.5 3.5 0.5 1
9 0 1 0 0 0 1 0 0 0 1 -11 69 -216.5 3.5 0.5 1
9 0 1 0 0 0 1 0 0 0 1 -25 28 -132.5 3.5 0.5 1
9 0 1 0 0 0 1 0 0 0 1 -59 54 -58.5 0.5 3.5 1
9 0 1 0 0 0 1 0 0 0 1 -61.5 28 -75 1 0.5 3.5
9 0 1 0 0 0 1 0 0 0 1 66 45 -54 0.5 6.5 0.5
9 0 1 0 0 0 1 0 0 0 1 58 28 -81 0.5 0.5 6.5
9 0 1 0 0 0 1 0 0 0 1 38 16 10 0.5 6.5 0.5
9 0 1 0 0 0 1 0 0 0 1 0 96 -270 6.5 0.5 0.5
9 0 1 0 0 0 1 0 0 0 1 0 84 -248 6.5 0.5 0.5
9 0 1 0 0 0 1 0 0 0 1 0 62 -205 6.5 0.5 0.5
9 0 1 0 0 0 1 0 0 0 1 0 60 -201 6.5 0.5 0.5
9 0 1 0 0 0 1 0 0 0 1 0 47 -177 6.5 0.5 0.5
9 0 1 0 0 0 1 0 0 0 1 0 40 -164 6.5 0.5 0.5
9 0 1 0 0 0 1 0 0 0 1 0 39 -162 6.5 0.5 0.5
9 0 1 0 0 0 1 0 0 0 1 0 19 -121 6.5 0.5 0.5
9 0 1 0 0 0 1 0 0 0 1 -38 16 10 0.5 6.5 0.5
9 0 1 0 0 0 1 0 0 0 1 -66 45 -54 0.5 6.5 0.5
9 0 1 0 0 0 1 0 0 0 1 72 71 -104.5 0.5 1.5 2
9 0 1 0 0 0 1 0 0 0 1 72 67.5 -102 0.5 2 1.5
9 0 1 0 0 0 1 0 0 0 1 72 64.5 -99 0.5 2 1.5
9 0 1 0 0 0 1 0 0 0 1 71.5 58.5 -50 1 1 1.5
9 0 1 0 0 0 1 0 0 0 1 70 93.5 -134.5 0.5 3 1
9 0 1 0 0 0 1 0 0 0 1 70 40.5 2 0.5 6 0.5
9 0 1 0 0 0 1 0 0 0 1 69 109 -147.5 0.5 1.5 2
9 0 1 0 0 0 1 0 0 0 1 68 96.5 -147.5 0.5 3 1
9 0 1 0 0 0 1 0 0 0 1 67 97.5 -153.5 0.5 3 1
9 0 1 0 0 0 1 0 0 0 1 63 51.5 -61 0.5 6 0.5
9 0 1 0 0 0 1 0 0 0 1 61 107.5 -183.5 0.5 3 1
9 0 1 0 0 0 1 0 0 0 1 59 112.5 -191.5 0.5 3 1
9 0 1 0 0 0 1 0 0 0 1 42 16.5 10 0.5 6 0.5
9 0 1 0 0 0 1 0 0 0 1 40 16.5 8 0.5 6 0.5
9 0 1 0 0 0 1 0 0 0 1 40 16.5 12 0.5 6 0.5
9 0 1 0 0 0 1 0 0 0 1 33 28 -127.5 1.5 0.5 2
9 0 1 0 0 0 1 0 0 0 1 30 28 -129.5 1.5 0.5 2
9 0 1 0 0 0 1 0 0 0 1 23 5 -52.5 1.5 0.5 2
9 0 1 0 0 0 1 0 0 0 1 16 5 -59.5 1.5 0.5 2
9 0 1 0 0 0 1 0 0 0 1 12.5 63 -204.5 3 0.5 1
9 0 1 0 0 0 1 0 0 0 1 8.5 73 -225.5 3 0.5 1
9 0 1 0 0 0 1 0 0 0 1 4 87.5 -203 0.5 6 0.5
9 0 1 0 0 0 1 0 0 0 1 -4 87.5 -203 0.5 6 0.5
9 0 1 0 0 0 1 0 0 0 1 -8 63.5 -193.5 0.5 1 3
9 0 1 0 0 0 1 0 0 0 1 -8.5 73 -225.5 3 0.5 1
9 0 1 0 0 0 1 0 0 0 1 -12.5 63 -204.5 3 0.5 1
9 0 1 0 0 0 1 0 0 0 1 -15 5 -60.5 1.5 0.5 2
9 0 1 0 0 0 1 0 0 0 1 -20.5 6 -64 2 0.5 1.5
9 0 1 0 0 0 1 0 0 0 1 -23 7 -68.5 1.5 0.5 2
9 0 1 0 0 0 1 0 0 0 1 -22.5 5 -53 2 0.5 1.5
9 0 1 0 0 0 1 0 0 0 1 -29.5 28 -130 2 0.5 1.5
9 0 1 0 0 0 1 0 0 0 1 -40 16.5 8 0.5 6 0.5
9 0 1 0 0 0 1 0 0 0 1 -40 16.5 12 0.5 6 0.5
9 0 1 0 0 0 1 0 0 0 1 -42 16.5 10 0.5 6 0.5
9 0 1 0 0 0 1 0 0 0 1 -59 112.5 -191.5 0.5 3 1
9 0 1 0 0 0 1 0 0 0 1 -61 107.5 -183.5 0.5 3 1
9 0 1 0 0 0 1 0 0 0 1 -63 51.5 -61 0.5 6 0.5
9 0 1 0 0 0 1 0 0 0 1 -67 97.5 -153.5 0.5 3 1
9 0 1 0 0 0 1 0 0 0 1 -68 96.5 -147.5 0.5 3 1
9 0 1 0 0 0 1 0 0 0 1 -69 109 -147.5 0.5 1.5 2
9 0 1 0 0 0 1 0 0 0 1 -70 93.5 -134.5 0.5 3 1
9 0 1 0 0 0 1 0 0 0 1 -70 40.5 2 0.5 6 0.5
9 0 1 0 0 0 1 0 0 0 1 -71.5 58.5 -50 1 1 1.5
9 0 1 0 0 0 1 0 0 0 1 70 41 -2 0.5 5.5 0.5
9 0 1 0 0 0 1 0 0 0 1 61 59 -60 0.5 5.5 0.5
9 0 1 0 0 0 1 0 0 0 1 19 28 -135 5.5 0.5 0.5
9 0 1 0 0 0 1 0 0 0 1 7 22 -128 5.5 0.5 0.5
9 0 1 0 0 0 1 0 0 0 1 0 92 -263 5.5 0.5 0.5
9 0 1 0 0 0 1 0 0 0 1 0 86 -252 5.5 0.5 0.5
9 0 1 0 0 0 1 0 0 0 1 0 85 -250 5.5 0.5 0.5
9 0 1 0 0 0 1 0 0 0 1 0 63 -207 5.5 0.5 0.5
9 0 1 0 0 0 1 0 0 0 1 0 54 -190 5.5 0.5 0.5
9 0 1 0 0 0 1 0 0 0 1 0 52 -186 5.5 0.5 0.5
9 0 1 0 0 0 1 0 0 0 1 0 42 -168 5.5 0.5 0.5
9 0 1 0 0 0 1 0 0 0 1 0 33 -151 5.5 0.5 0.5
9 0 1 0 0 0 1 0 0 0 1 0 16 -113 5.5 0.5 0.5
9 0 1 0 0 0 1 0 0 0 1 -7 22 -128 5.5 0.5 0.5
9 0 1 0 0 0 1 0 0 0 1 -38 7 -35 0.5 0.5 5.5
9 0 1 0 0 0 1 0 0 0 1 -61 59 -60 0.5 5.5 0.5
9 0 1 0 0 0 1 0 0 0 1 -65 56 -54 0.5 5.5 0.5
9 0 1 0 0 0 1 0 0 0 1 -70 41 -2 0.5 5.5 0.5
9 0 1 0 0 0 1 0 0 0 1 72 116 -132.5 0.5 2.5 1
9 0 1 0 0 0 1 0 0 0 1 72 95 -121.5 0.5 2.5 1
9 0 1 0 0 0 1 0 0 0 1 72 82 -113.5 0.5 2.5 1
9 0 1 0 0 0 1 0 0 0 1 72 79 -111.5 0.5 2.5 1
9 0 1 0 0 0 1 0 0 0 1 72 62 -47.5 0.5 2.5 1
9 0 1 0 0 0 1 0 0 0 1 71 116 -139.5 0.5 2.5 1
9 0 1 0 0 0 1 0 0 0 1 71 88 -125.5 0.5 2.5 1
9 0 1 0 0 0 1 0 0 0 1 71 36.5 -53 0.5 1 2.5
9 0 1 0 0 0 1 0 0 0 1 70 117.5 -145 0.5 1 2.5
9 0 1 0 0 0 1 0 0 0 1 70.5 32 18 1 2.5 0.5
9 0 1 0 0 0 1 0 0 0 1 69 94 -140.5 0.5 2.5 1
9 0 1 0 0 0 1 0 0 0 1 68 115 -154.5 0.5 2.5 1
9 0 1 0 0 0 1 0 0 0 1 67 110 -158.5 0.5 2.5 1
9 0 1 0 0 0 1 0 0 0 1 67 95 -151.5 0.5 2.5 1
9 0 1 0 0 0 1 0 0 0 1 66 103 -161.5 0.5 2.5 1
9 0 1 0 0 0 1 0 0 0 1 60.5 62 -47 1 2.5 0.5
9 0 1 0 0 0 1 0 0 0 1 59.5 62 -59 1 2.5 0.5
9 0 1 0 0 0 1 0 0 0 1 57 113 -198.5 0.5 2.5 1
9 0 1 0 0 0 1 0 0 0 1 19 7 -73.5 2.5 0.5 1
9 0 1 0 0 0 1 0 0 0 1 12.5 27 -137 5 0.5 0.5
9 0 1 0 0 0 1 0 0 0 1 7 91 -199.5 0.5 2.5 1
9 0 1 0 0 0 1 0 0 0 1 8 72 -223.5 2.5 0.5 1
9 0 1 0 0 0 1 0 0 0 1 7 76 -231.5 2.5 0.5 1
9 0 1 0 0 0 1 0 0 0 1 3.5 91 -187 1 2.5 0.5
9 0 1 0 0 0 1 0 0 0 1 7.5 48 -178 5 0.5 0.5
9 0 1 0 0 0 1 0 0 0 1 0 98 -273.5 2.5 0.5 1
9 0 1 0 0 0 1 0 0 0 1 0 91 -261.5 2.5 0.5 1
9 0 1 0 0 0 1 0 0 0 1 0 90 -259.5 2.5 0.5 1
9 0 1 0 0 0 1 0 0 0 1 0 13 -103.5 2.5 0.5 1
9 0 1 0 0 0 1 0 0 0 1 -7 91 -199.5 0.5 2.5 1
9 0 1 0 0 0 1 0 0 0 1 -7 76 -231.5 2.5 0.5 1
9 0 1 0 0 0 1 0 0 0 1 -8.5 7 -75 1 0.5 2.5
9 0 1 0 0 0 1 0 0 0 1 -8 72 -223.5 2.5 0.5 1
9 0 1 0 0 0 1 0 0 0 1 -7.5 48 -178 5 0.5 0.5
9 0 1 0 0 0 1 0 0 0 1 -12.5 27 -137 5 0.5 0.5
9 0 1 0 0 0 1 0 0 0 1 -33 28 -127.5 2.5 0.5 1
9 0 1 0 0 0 1 0 0 0 1 -41.5 7 -10 1 0.5 2.5
9 0 1 0 0 0 1 0 0 0 1 -57 113 -198.5 0.5 2.5 1
9 0 1 0 0 0 1 0 0 0 1 -59 62 -58.5 0.5 2.5 1
9 0 1 0 0 0 1 0 0 0 1 -60 62 -47.5 0.5 2.5 1
9 0 1 0 0 0 1 0 0 0 1 -66 103 -161.5 0.5 2.5 1
9 0 1 0 0 0 1 0 0 0 1 -67 110 -158.5 0.5 2.5 1
9 0 1 0 0 0 1 0 0 0 1 -67 95 -151.5 0.5 2.5 1
9 0 1 0 0 0 1 0 0 0 1 -68 115 -154.5 0.5 2.5 1
9 0 1 0 0 0 1 0 0 0 1 -69 94 -140.5 0.5 2.5 1
9 0 1 0 0 0 1 0 0 0 1 -70 117.5 -145 0.5 1 2.5
9 0 1 0 0 0 1 0 0 0 1 -71 116 -139.5 0.5 2.5 1
9 0 1 0 0 0 1 0 0 0 1 -71 88 -125.5 0.5 2.5 1
9 0 1 0 0 0 1 0 0 0 1 -71 36.5 -53 0.5 1 2.5
9 0 1 0 0 0 1 0 0 0 1 -71.5 62 -47 1 2.5 0.5
9 0 1 0 0 0 1 0 0 0 1 72 76 -109 0.5 1.5 1.5
9 0 1 0 0 0 1 0 0 0 1 72 60 -95 0.5 1.5 1.5
9 0 1 0 0 0 1 0 0 0 1 71 64 -106 0.5 1.5 1.5
9 0 1 0 0 0 1 0 0 0 1 71 60 -102 0.5 1.5 1.5
9 0 1 0 0 0 1 0 0 0 1 69 90 -138 0.5 1.5 1.5
9 0 1 0 0 0 1 0 0 0 1 69 35 0 0.5 1.5 1.5
9 0 1 0 0 0 1 0 0 0 1 68 91 -144 0.5 1.5 1.5
9 0 1 0 0 0 1 0 0 0 1 67 91 -149 0.5 1.5 1.5
9 0 1 0 0 0 1 0 0 0 1 66 99 -159 0.5 1.5 1.5
9 0 1 0 0 0 1 0 0 0 1 56 105 -199 0.5 1.5 1.5
9 0 1 0 0 0 1 0 0 0 1 52 28 -104 1.5 0.5 1.5
9 0 1 0 0 0 1 0 0 0 1 35 5 -16 0.5 0.5 4.5
9 0 1 0 0 0 1 0 0 0 1 31 71 -208 1.5 0.5 1.5
9 0 1 0 0 0 1 0 0 0 1 23 6 -61 1.5 0.5 1.5
9 0 1 0 0 0 1 0 0 0 1 13 62 -203 1.5 0.5 1.5
9 0 1 0 0 0 1 0 0 0 1 8 8 -80 1.5 0.5 1.5
9 0 1 0 0 0 1 0 0 0 1 3 61 -186 0.5 4.5 0.5
9 0 1 0 0 0 1 0 0 0 1 6 20 -123 4.5 0.5 0.5
9 0 1 0 0 0 1 0 0 0 1 -3 61 -186 0.5 4.5 0.5
9 0 1 0 0 0 1 0 0 0 1 0 99 -275 4.5 0.5 0.5
9 0 1 0 0 0 1 0 0 0 1 0 93 -265 4.5 0.5 0.5
9 0 1 0 0 0 1 0 0 0 1 0 87 -254 4.5 0.5 0.5
9 0 1 0 0 0 1 0 0 0 1 0 73 -227 4.5 0.5 0.5
9 0 1 0 0 0 1 0 0 0 1 0 71 -223 4.5 0.5 0.5
9 0 1 0 0 0 1 0 0 0 1 0 65 -211 4.5 0.5 0.5
9 0 1 0 0 0 1 0 0 0 1 0 55 -192 4.5 0.5 0.5
9 0 1 0 0 0 1 0 0 0 1 0 48 -179 4.5 0.5 0.5
9 0 1 0 0 0 1 0 0 0 1 0 41 -166 4.5 0.5 0.5
9 0 1 0 0 0 1 0 0 0 1 0 34 -153 4.5 0.5 0.5
9 0 1 0 0 0 1 0 0 0 1 0 17 -116 4.5 0.5 0.5
9 0 1 0 0 0 1 0 0 0 1 0 8 -83 4.5 0.5 0.5
9 0 1 0 0 0 1 0 0 0 1 0 7 -79 4.5 0.5 0.5
9 0 1 0 0 0 1 0 0 0 1 -8 8 -80 1.5 0.5 1.5
9 0 1 0 0 0 1 0 0 0 1 -6 20 -123 4.5 0.5 0.5
9 0 1 0 0 0 1 0 0 0 1 -13 62 -203 1.5 0.5 1.5
9 0 1 0 0 0 1 0 0 0 1 -23 6 -61 1.5 0.5 1.5
9 0 1 0 0 0 1 0 0 0 1 -31 71 -208 1.5 0.5 1.5
9 0 1 0 0 0 1 0 0 0 1 -35 5 -16 0.5 0.5 4.5
9 0 1 0 0 0 1 0 0 0 1 -40 8 -41 0.5 0.5 4.5
9 0 1 0 0 0 1 0 0 0 1 -56 105 -199 0.5 1.5 1.5
9 0 1 0 0 0 1 0 0 0 1 -66 99 -159 0.5 1.5 1.5
9 0 1 0 0 0 1 0 0 0 1 -67 91 -149 0.5 1.5 1.5
9 0 1 0 0 0 1 0 0 0 1 -68 91 -144 0.5 1.5 1.5
9 0 1 0 0 0 1 0 0 0 1 -69 90 -138 0.5 1.5 1.5
9 0 1 0 0 0 1 0 0 0 1 -69 35 0 0.5 1.5 1.5
9 0 1 0 0 0 1 0 0 0 1 -71 64 -106 0.5 1.5 1.5
9 0 1 0 0 0 1 0 0 0 1 -71 60 -102 0.5 1.5 1.5
9 0 1 0 0 0 1 0 0 0 1 -72 41 -54 1.5 0.5 1.5
9 0 1 0 0 0 1 0 0 0 1 78 46 -1.5 0.5 0.5 4
9 0 1 0 0 0 1 0 0 0 1 78 44 14.5 0.5 0.5 4
9 0 1 0 0 0 1 0 0 0 1 73 40.5 -54.5 0.5 1 2
9 0 1 0 0 0 1 0 0 0 1 72 39.5 -57.5 0.5 1 2
9 0 1 0 0 0 1 0 0 0 1 72 42.5 0 0.5 4 0.5
9 0 1 0 0 0 1 0 0 0 1 71 85.5 -123.5 0.5 2 1
9 0 1 0 0 0 1 0 0 0 1 71 58.5 -58.5 0.5 1 2
9 0 1 0 0 0 1 0 0 0 1 70 89.5 -132.5 0.5 2 1
9 0 1 0 0 0 1 0 0 0 1 69 117.5 -150.5 0.5 1 2
9 0 1 0 0 0 1 0 0 0 1 67 116.5 -160.5 0.5 2 1
9 0 1 0 0 0 1 0 0 0 1 66 93.5 -155.5 0.5 2 1
9 0 1 0 0 0 1 0 0 0 1 66.5 60.5 -53.5 1 1 1
9 0 1 0 0 0 1 0 0 0 1 63 103.5 -174.5 0.5 2 1
9 0 1 0 0 0 1 0 0 0 1 63.5 35.5 -62 1 2 0.5
9 0 1 0 0 0 1 0 0 0 1 63.5 25 -53.5 1 0.5 2
9 0 1 0 0 0 1 0 0 0 1 49.5 28 -107.5 1 0.5 2
9 0 1 0 0 0 1 0 0 0 1 48 10 -19.5 0.5 0.5 4
9 0 1 0 0 0 1 0 0 0 1 45.5 28 -113.5 1 0.5 2
9 0 1 0 0 0 1 0 0 0 1 43.5 28 -116.5 1 0.5 2
9 0 1 0 0 0 1 0 0 0 1 41.5 28 -119.5 1 0.5 2
9 0 1 0 0 0 1 0 0 0 1 39.5 28 -122.5 1 0.5 2
9 0 1 0 0 0 1 0 0 0 1 34 5 -22.5 0.5 0.5 4
9 0 1 0 0 0 1 0 0 0 1 30.5 72.5 -211.5 1 1 1
9 0 1 0 0 0 1 0 0 0 1 22.5 51.5 -177 1 2 0.5
9 0 1 0 0 0 1 0 0 0 1 19.5 8 -77.5 2 0.5 1
9 0 1 0 0 0 1 0 0 0 1 15.5 65 -207.5 2 0.5 1
9 0 1 0 0 0 1 0 0 0 1 14.5 68 -213.5 2 0.5 1
9 0 1 0 0 0 1 0 0 0 1 14.5 66 -209.5 2 0.5 1
9 0 1 0 0 0 1 0 0 0 1 13.5 71 -219.5 2 0.5 1
9 0 1 0 0 0 1 0 0 0 1 11.5 74 -226.5 2 0.5 1
9 0 1 0 0 0 1 0 0 0 1 11.5 28 -139.5 2 0.5 1
9 0 1 0 0 0 1 0 0 0 1 10.5 79 -236.5 2 0.5 1
9 0 1 0 0 0 1 0 0 0 1 10.5 77 -232.5 2 0.5 1
9 0 1 0 0 0 1 0 0 0 1 8.5 7 -74.5 1 0.5 2
9 0 1 0 0 0 1 0 0 0 1 7.5 74 -227.5 2 0.5 1
9 0 1 0 0 0 1 0 0 0 1 9.5 32 -148 4 0.5 0.5
9 0 1 0 0 0 1 0 0 0 1 9.5 31 -146 4 0.5 0.5
9 0 1 0 0 0 1 0 0 0 1 5 87.5 -198.5 0.5 1 2
9 0 1 0 0 0 1 0 0 0 1 8.5 78 -235 4 0.5 0.5
9 0 1 0 0 0 1 0 0 0 1 6.5 36 -156 4 0.5 0.5
9 0 1 0 0 0 1 0 0 0 1 5.5 29 -143 4 0.5 0.5
9 0 1 0 0 0 1 0 0 0 1 0.5 86.5 -194 1 2 0.5
9 0 1 0 0 0 1 0 0 0 1 0 86.5 -196 0.5 4 0.5
9 0 1 0 0 0 1 0 0 0 1 -3.5 87.5 -200 2 1 0.5
9 0 1 0 0 0 1 0 0 0 1 -5.5 74 -228 4 0.5 0.5
9 0 1 0 0 0 1 0 0 0 1 -5.5 29 -143 4 0.5 0.5
9 0 1 0 0 0 1 0 0 0 1 -6.5 36 -156 4 0.5 0.5
9 0 1 0 0 0 1 0 0 0 1 -8.5 79 -237 4 0.5 0.5
9 0 1 0 0 0 1 0 0 0 1 -8.5 78 -235 4 0.5 0.5
9 0 1 0 0 0 1 0 0 0 1 -10.5 77 -232.5 2 0.5 1
9 0 1 0 0 0 1 0 0 0 1 -9.5 74 -227 4 0.5 0.5
9 0 1 0 0 0 1 0 0 0 1 -9.5 32 -148 4 0.5 0.5
9 0 1 0 0 0 1 0 0 0 1 -9.5 31 -146 4 0.5 0.5
9 0 1 0 0 0 1 0 0 0 1 -11.5 28 -139.5 2 0.5 1
9 0 1 0 0 0 1 0 0 0 1 -13.5 71 -219.5 2 0.5 1
9 0 1 0 0 0 1 0 0 0 1 -14.5 66 -209.5 2 0.5 1
9 0 1 0 0 0 1 0 0 0 1 -15.5 65 -207.5 2 0.5 1
9 0 1 0 0 0 1 0 0 0 1 -19.5 8 -77.5 2 0.5 1
9 0 1 0 0 0 1 0 0 0 1 -22.5 51.5 -177 1 2 0.5
9 0 1 0 0 0 1 0 0 0 1 -29.5 72.5 -212.5 1 1 1
9 0 1 0 0 0 1 0 0 0 1 -34 5 -22.5 0.5 0.5 4
9 0 1 0 0 0 1 0 0 0 1 -37.5 6 -19.5 1 0.5 2
9 0 1 0 0 0 1 0 0 0 1 -39.5 28 -122.5 1 0.5 2
9 0 1 0 0 0 1 0 0 0 1 -41.5 28 -119.5 1 0.5 2
9 0 1 0 0 0 1 0 0 0 1 -43 9 -38.5 0.5 0.5 4
9 0 1 0 0 0 1 0 0 0 1 -43.5 28 -116.5 1 0.5 2
9 0 1 0 0 0 1 0 0 0 1 -44 8 -8.5 0.5 0.5 4
9 0 1 0 0 0 1 0 0 0 1 -45.5 28 -113.5 1 0.5 2
9 0 1 0 0 0 1 0 0 0 1 -49.5 28 -107.5 1 0.5 2
9 0 1 0 0 0 1 0 0 0 1 -61 58.5 -57.5 0.5 1 2
9 0 1 0 0 0 1 0 0 0 1 -63 103.5 -174.5 0.5 2 1
9 0 1 0 0 0 1 0 0 0 1 -63.5 35.5 -62 1 2 0.5
9 0 1 0 0 0 1 0 0 0 1 -63.5 25 -53.5 1 0.5 2
9 0 1 0 0 0 1 0 0 0 1 -66 93.5 -155.5 0.5 2 1
9 0 1 0 0 0 1 0 0 0 1 -67 116.5 -160.5 0.5 2 1
9 0 1 0 0 0 1 0 0 0 1 -69 117.5 -150.5 0.5 1 2
9 0 1 0 0 0 1 0 0 0 1 -70 89.5 -132.5 0.5 2 1
9 0 1 0 0 0 1 0 0 0 1 -71 85.5 -123.5 0.5 2 1
9 0 1 0 0 0 1 0 0 0 1 -71 58.5 -58.5 0.5 1 2
9 0 1 0 0 0 1 0 0 0 1 -72 39.5 -57.5 0.5 1 2
9 0 1 0 0 0 1 0 0 0 1 -72 42.5 0 0.5 4 0.5
9 0 1 0 0 0 1 0 0 0 1 74 39 -44 0.5 0.5 3.5
9 0 1 0 0 0 1 0 0 0 1 72 109 -127 0.5 3.5 0.5
9 0 1 0 0 0 1 0 0 0 1 66 107 -163 0.5 3.5 0.5
9 0 1 0 0 0 1 0 0 0 1 65 113 -169 0.5 3.5 0.5
9 0 1 0 0 0 1 0 0 0 1 62 28 -75 0.5 0.5 3.5
9 0 1 0 0 0 1 0 0 0 1 49 11 -34 0.5 0.5 3.5
9 0 1 0 0 0 1 0 0 0 1 15 69 -215 3.5 0.5 0.5
9 0 1 0 0 0 1 0 0 0 1 15 67 -211 3.5 0.5 0.5
9 0 1 0 0 0 1 0 0 0 1 15 64 -205 3.5 0.5 0.5
9 0 1 0 0 0 1 0 0 0 1 14 49 -179 3.5 0.5 0.5
9 0 1 0 0 0 1 0 0 0 1 13 52 -185 3.5 0.5 0.5
9 0 1 0 0 0 1 0 0 0 1 12 60 -200 3.5 0.5 0.5
9 0 1 0 0 0 1 0 0 0 1 11 23 -130 3.5 0.5 0.5
9 0 1 0 0 0 1 0 0 0 1 10 30 -144 3.5 0.5 0.5
9 0 1 0 0 0 1 0 0 0 1 10 29 -142 3.5 0.5 0.5
9 0 1 0 0 0 1 0 0 0 1 9 47 -176 3.5 0.5 0.5
9 0 1 0 0 0 1 0 0 0 1 9 33 -150 3.5 0.5 0.5
9 0 1 0 0 0 1 0 0 0 1 8 83 -245 3.5 0.5 0.5
9 0 1 0 0 0 1 0 0 0 1 8 82 -243 3.5 0.5 0.5
9 0 1 0 0 0 1 0 0 0 1 8 81 -241 3.5 0.5 0.5
9 0 1 0 0 0 1 0 0 0 1 8 80 -239 3.5 0.5 0.5
9 0 1 0 0 0 1 0 0 0 1 7 96 -269 3.5 0.5 0.5
9 0 1 0 0 0 1 0 0 0 1 7 91 -260 3.5 0.5 0.5
9 0 1 0 0 0 1 0 0 0 1 7 84 -247 3.5 0.5 0.5
9 0 1 0 0 0 1 0 0 0 1 7 35 -154 3.5 0.5 0.5
9 0 1 0 0 0 1 0 0 0 1 6 92 -262 3.5 0.5 0.5
9 0 1 0 0 0 1 0 0 0 1 6 28 -136 3.5 0.5 0.5
9 0 1 0 0 0 1 0 0 0 1 5 97 -271 3.5 0.5 0.5
9 0 1 0 0 0 1 0 0 0 1 0 102 -280 3.5 0.5 0.5
9 0 1 0 0 0 1 0 0 0 1 0 97 -272 3.5 0.5 0.5
9 0 1 0 0 0 1 0 0 0 1 0 88 -256 3.5 0.5 0.5
9 0 1 0 0 0 1 0 0 0 1 0 75 -231 3.5 0.5 0.5
9 0 1 0 0 0 1 0 0 0 1 0 70 -221 3.5 0.5 0.5
9 0 1 0 0 0 1 0 0 0 1 0 69 -219 3.5 0.5 0.5
9 0 1 0 0 0 1 0 0 0 1 0 67 -215 3.5 0.5 0.5
9 0 1 0 0 0 1 0 0 0 1 0 43 -170 3.5 0.5 0.5
9 0 1 0 0 0 1 0 0 0 1 0 20 -124 3.5 0.5 0.5
9 0 1 0 0 0 1 0 0 0 1 0 15 -111 3.5 0.5 0.5
9 0 1 0 0 0 1 0 0 0 1 -5 97 -271 3.5 0.5 0.5
9 0 1 0 0 0 1 0 0 0 1 -6 92 -262 3.5 0.5 0.5
9 0 1 0 0 0 1 0 0 0 1 -6 28 -136 3.5 0.5 0.5
9 0 1 0 0 0 1 0 0 0 1 -7 96 -269 3.5 0.5 0.5
9 0 1 0 0 0 1 0 0 0 1 -7 91 -260 3.5 0.5 0.5
9 0 1 0 0 0 1 0 0 0 1 -7 84 -247 3.5 0.5 0.5
9 0 1 0 0 0 1 0 0 0 1 -7 35 -154 3.5 0.5 0.5
9 0 1 0 0 0 1 0 0 0 1 -8 83 -245 3.5 0.5 0.5
9 0 1 0 0 0 1 0 0 0 1 -8 82 -243 3.5 0.5 0.5
9 0 1 0 0 0 1 0 0 0 1 -8 81 -241 3.5 0.5 0.5
9 0 1 0 0 0 1 0 0 0 1 -8 80 -239 3.5 0.5 0.5
9 0 1 0 0 0 1 0 0 0 1 -9 47 -176 3.5 0.5 0.5
9 0 1 0 0 0 1 0 0 0 1 -9 33 -150 3.5 0.5 0.5
9 0 1 0 0 0 1 0 0 0 1 -10 30 -144 3.5 0.5 0.5
9 0 1 0 0 0 1 0 0 0 1 -10 29 -142 3.5 0.5 0.5
9 0 1 0 0 0 1 0 0 0 1 -11 23 -130 3.5 0.5 0.5
9 0 1 0 0 0 1 0 0 0 1 -12 60 -200 3.5 0.5 0.5
9 0 1 0 0 0 1 0 0 0 1 -13 52 -185 3.5 0.5 0.5
9 0 1 0 0 0 1 0 0 0 1 -14 49 -179 3.5 0.5 0.5
9 0 1 0 0 0 1 0 0 0 1 -15 69 -215 3.5 0.5 0.5
9 0 1 0 0 0 1 0 0 0 1 -15 67 -211 3.5 0.5 0.5
9 0 1 0 0 0 1 0 0 0 1 -15 64 -205 3.5 0.5 0.5
9 0 1 0 0 0 1 0 0 0 1 -35 6 -34 0.5 0.5 3.5
9 0 1 0 0 0 1 0 0 0 1 -42 8 -23 0.5 0.5 3.5
9 0 1 0 0 0 1 0 0 0 1 -49 11 -34 0.5 0.5 3.5
9 0 1 0 0 0 1 0 0 0 1 -65 113 -169 0.5 3.5 0.5
9 0 1 0 0 0 1 0 0 0 1 -66 107 -163 0.5 3.5 0.5
9 0 1 0 0 0 1 0 0 0 1 -74 39 -44 0.5 0.5 3.5
9 0 1 0 0 0 1 0 0 0 1 72 93.5 -124 0.5 1 1.5
9 0 1 0 0 0 1 0 0 0 1 72 91 -122.5 0.5 1.5 1
9 0 1 0 0 0 1 0 0 0 1 72 73.5 -107 0.5 3 0.5
9 0 1 0 0 0 1 0 0 0 1 72 58 -92.5 0.5 1.5 1
9 0 1 0 0 0 1 0 0 0 1 72 56 -90.5 0.5 1.5 1
9 0 1 0 0 0 1 0 0 0 1 72 53.5 -87 0.5 1 1.5
9 0 1 0 0 0 1 0 0 0 1 72 52 -84.5 0.5 1.5 1
9 0 1 0 0 0 1 0 0 0 1 72 49.5 -81 0.5 1 1.5
9 0 1 0 0 0 1 0 0 0 1 71 106 -136.5 0.5 1.5 1
9 0 1 0 0 0 1 0 0 0 1 71 104.5 -133 0.5 3 0.5
9 0 1 0 0 0 1 0 0 0 1 71 90.5 -128 0.5 1 1.5
9 0 1 0 0 0 1 0 0 0 1 71 82 -121.5 0.5 1.5 1
9 0 1 0 0 0 1 0 0 0 1 71 79.5 -119 0.5 1 1.5
9 0 1 0 0 0 1 0 0 0 1 71 75 -115.5 0.5 1.5 1
9 0 1 0 0 0 1 0 0 0 1 71 71 -112.5 0.5 1.5 1
9 0 1 0 0 0 1 0 0 0 1 71 68 -109.5 0.5 1.5 1
9 0 1 0 0 0 1 0 0 0 1 71 57.5 -99 0.5 1 1.5
9 0 1 0 0 0 1 0 0 0 1 71 41.5 -70 0.5 1 1.5
9 0 1 0 0 0 1 0 0 0 1 71 37.5 -57 0.5 1 1.5
9 0 1 0 0 0 1 0 0 0 1 70 115 -145.5 0.5 1.5 1
9 0 1 0 0 0 1 0 0 0 1 70 105.5 -142 0.5 3 0.5
9 0 1 0 0 0 1 0 0 0 1 70 87 -130.5 0.5 1.5 1
9 0 1 0 0 0 1 0 0 0 1 70 62 -110.5 0.5 1.5 1
9 0 1 0 0 0 1 0 0 0 1 70 34 -52.5 0.5 0.5 3
9 0 1 0 0 0 1 0 0 0 1 69 106 -147.5 0.5 1.5 1
9 0 1 0 0 0 1 0 0 0 1 69 86 -135.5 0.5 1.5 1
9 0 1 0 0 0 1 0 0 0 1 69 66 -119.5 0.5 1.5 1
9 0 1 0 0 0 1 0 0 0 1 69 63.5 -117 0.5 1 1.5
9 0 1 0 0 0 1 0 0 0 1 68 94 -145.5 0.5 1.5 1
9 0 1 0 0 0 1 0 0 0 1 68 86 -140.5 0.5 1.5 1
9 0 1 0 0 0 1 0 0 0 1 68.5 34 -58 1 1.5 0.5
9 0 1 0 0 0 1 0 0 0 1 67 106 -157.5 0.5 1.5 1
9 0 1 0 0 0 1 0 0 0 1 67.5 44 -62 1 1.5 0.5
9 0 1 0 0 0 1 0 0 0 1 66 115.5 -165 0.5 3 0.5
9 0 1 0 0 0 1 0 0 0 1 66 111.5 -164 0.5 3 0.5
9 0 1 0 0 0 1 0 0 0 1 66 96 -157.5 0.5 1.5 1
9 0 1 0 0 0 1 0 0 0 1 65 102.5 -166 0.5 3 0.5
9 0 1 0 0 0 1 0 0 0 1 65 100 -164.5 0.5 1.5 1
9 0 1 0 0 0 1 0 0 0 1 66 58.5 -46 1.5 1 0.5
9 0 1 0 0 0 1 0 0 0 1 66 25.5 18 1.5 1 0.5
9 0 1 0 0 0 1 0 0 0 1 64 103 -170.5 0.5 1.5 1
9 0 1 0 0 0 1 0 0 0 1 63 117 -179.5 0.5 1.5 1
9 0 1 0 0 0 1 0 0 0 1 63 112.5 -178 0.5 3 0.5
9 0 1 0 0 0 1 0 0 0 1 63 100 -172.5 0.5 1.5 1
9 0 1 0 0 0 1 0 0 0 1 63.5 32 -45 1 1.5 0.5
9 0 1 0 0 0 1 0 0 0 1 62 117 -183.5 0.5 1.5 1
9 0 1 0 0 0 1 0 0 0 1 62 105 -179.5 0.5 1.5 1
9 0 1 0 0 0 1 0 0 0 1 61 58.5 -57 0.5 1 1.5
9 0 1 0 0 0 1 0 0 0 1 61 58.5 -50 0.5 1 1.5
9 0 1 0 0 0 1 0 0 0 1 59.5 28 -83 1 0.5 1.5
9 0 1 0 0 0 1 0 0 0 1 58 25 -52.5 0.5 0.5 3
9 0 1 0 0 0 1 0 0 0 1 57 108 -197.5 0.5 1.5 1
9 0 1 0 0 0 1 0 0 0 1 57 28 -81.5 0.5 0.5 3
9 0 1 0 0 0 1 0 0 0 1 55.5 28 -95 1 0.5 1.5
9 0 1 0 0 0 1 0 0 0 1 54 28 -90.5 0.5 0.5 3
9 0 1 0 0 0 1 0 0 0 1 51 28 -99.5 0.5 0.5 3
9 0 1 0 0 0 1 0 0 0 1 33 73.5 -210 0.5 1 1.5
9 0 1 0 0 0 1 0 0 0 1 34 73 -207.5 1.5 0.5 1
9 0 1 0 0 0 1 0 0 0 1 32.5 75 -213 1 0.5 1.5
9 0 1 0 0 0 1 0 0 0 1 32.5 72 -208 1 0.5 1.5
9 0 1 0 0 0 1 0 0 0 1 33 70 -204.5 1.5 0.5 1
9 0 1 0 0 0 1 0 0 0 1 30.5 74 -214 1 0.5 1.5
9 0 1 0 0 0 1 0 0 0 1 31 70 -206.5 1.5 0.5 1
9 0 1 0 0 0 1 0 0 0 1 28.5 73 -214 1 0.5 1.5
9 0 1 0 0 0 1 0 0 0 1 29 71 -210.5 1.5 0.5 1
9 0 1 0 0 0 1 0 0 0 1 29 70 -208.5 1.5 0.5 1
9 0 1 0 0 0 1 0 0 0 1 28.5 5 -43 1 0.5 1.5
9 0 1 0 0 0 1 0 0 0 1 27.5 75 -219 1 0.5 1.5
9 0 1 0 0 0 1 0 0 0 1 27.5 74 -217 1 0.5 1.5
9 0 1 0 0 0 1 0 0 0 1 27.5 53 -175 1 1.5 0.5
9 0 1 0 0 0 1 0 0 0 1 26.5 79 -227 1 0.5 1.5
9 0 1 0 0 0 1 0 0 0 1 26.5 78 -225 1 0.5 1.5
9 0 1 0 0 0 1 0 0 0 1 26.5 8 -71 1 0.5 1.5
9 0 1 0 0 0 1 0 0 0 1 26.5 5 -47 1 0.5 1.5
9 0 1 0 0 0 1 0 0 0 1 25.5 7 -65 1 0.5 1.5
9 0 1 0 0 0 1 0 0 0 1 24 7 -67.5 0.5 0.5 3
9 0 1 0 0 0 1 0 0 0 1 25 6 -57.5 1.5 0.5 1
9 0 1 0 0 0 1 0 0 0 1 25 5 -49.5 1.5 0.5 1
9 0 1 0 0 0 1 0 0 0 1 22 8 -75.5 1.5 0.5 1
9 0 1 0 0 0 1 0 0 0 1 19 27 -135.5 1.5 0.5 1
9 0 1 0 0 0 1 0 0 0 1 16.5 7 -75 3 0.5 0.5
9 0 1 0 0 0 1 0 0 0 1 14 72 -221.5 1.5 0.5 1
9 0 1 0 0 0 1 0 0 0 1 14 5 -62.5 1.5 0.5 1
9 0 1 0 0 0 1 0 0 0 1 14.5 70 -217 3 0.5 0.5
9 0 1 0 0 0 1 0 0 0 1 11 97 -269.5 1.5 0.5 1
9 0 1 0 0 0 1 0 0 0 1 11 76 -230.5 1.5 0.5 1
9 0 1 0 0 0 1 0 0 0 1 11 75 -228.5 1.5 0.5 1
9 0 1 0 0 0 1 0 0 0 1 12.5 59 -198 3 0.5 0.5
9 0 1 0 0 0 1 0 0 0 1 12.5 44 -170 3 0.5 0.5
9 0 1 0 0 0 1 0 0 0 1 12.5 34 -151 3 0.5 0.5
9 0 1 0 0 0 1 0 0 0 1 11.5 61 -202 3 0.5 0.5
9 0 1 0 0 0 1 0 0 0 1 11.5 37 -157 3 0.5 0.5
9 0 1 0 0 0 1 0 0 0 1 10.5 55 -191 3 0.5 0.5
9 0 1 0 0 0 1 0 0 0 1 9.5 94 -265 3 0.5 0.5
9 0 1 0 0 0 1 0 0 0 1 9.5 93 -263 3 0.5 0.5
9 0 1 0 0 0 1 0 0 0 1 9.5 63 -206 3 0.5 0.5
9 0 1 0 0 0 1 0 0 0 1 8.5 95 -267 3 0.5 0.5
9 0 1 0 0 0 1 0 0 0 1 8.5 16 -112 3 0.5 0.5
9 0 1 0 0 0 1 0 0 0 1 7.5 90 -258 3 0.5 0.5
9 0 1 0 0 0 1 0 0 0 1 5 87.5 -191 0.5 1 1.5
9 0 1 0 0 0 1 0 0 0 1 7.5 34 -152 3 0.5 0.5
9 0 1 0 0 0 1 0 0 0 1 6.5 86 -251 3 0.5 0.5
9 0 1 0 0 0 1 0 0 0 1 6.5 14 -106 3 0.5 0.5
9 0 1 0 0 0 1 0 0 0 1 5 8 -81.5 1.5 0.5 1
9 0 1 0 0 0 1 0 0 0 1 5.5 93 -264 3 0.5 0.5
9 0 1 0 0 0 1 0 0 0 1 5.5 44 -171 3 0.5 0.5
9 0 1 0 0 0 1 0 0 0 1 5.5 38 -160 3 0.5 0.5
9 0 1 0 0 0 1 0 0 0 1 3 87.5 -200 1.5 1 0.5
9 0 1 0 0 0 1 0 0 0 1 4.5 31 -147 3 0.5 0.5
9 0 1 0 0 0 1 0 0 0 1 0 55.5 -191 1.5 1 0.5
9 0 1 0 0 0 1 0 0 0 1 -5 87.5 -198 0.5 1 1.5
9 0 1 0 0 0 1 0 0 0 1 -4 87.5 -190 1.5 1 0.5
9 0 1 0 0 0 1 0 0 0 1 -5 14 -106.5 1.5 0.5 1
9 0 1 0 0 0 1 0 0 0 1 -5 8 -81.5 1.5 0.5 1
9 0 1 0 0 0 1 0 0 0 1 -4.5 31 -147 3 0.5 0.5
9 0 1 0 0 0 1 0 0 0 1 -5.5 93 -264 3 0.5 0.5
9 0 1 0 0 0 1 0 0 0 1 -5.5 44 -171 3 0.5 0.5
9 0 1 0 0 0 1 0 0 0 1 -5.5 38 -160 3 0.5 0.5
9 0 1 0 0 0 1 0 0 0 1 -6.5 86 -251 3 0.5 0.5
9 0 1 0 0 0 1 0 0 0 1 -7.5 90 -258 3 0.5 0.5
9 0 1 0 0 0 1 0 0 0 1 -7.5 34 -152 3 0.5 0.5
9 0 1 0 0 0 1 0 0 0 1 -8.5 95 -267 3 0.5 0.5
9 0 1 0 0 0 1 0 0 0 1 -8.5 16 -112 3 0.5 0.5
9 0 1 0 0 0 1 0 0 0 1 -11 97 -269.5 1.5 0.5 1
9 0 1 0 0 0 1 0 0 0 1 -9.5 94 -265 3 0.5 0.5
9 0 1 0 0 0 1 0 0 0 1 -9.5 93 -263 3 0.5 0.5
9 0 1 0 0 0 1 0 0 0 1 -11 76 -230.5 1.5 0.5 1
9 0 1 0 0 0 1 0 0 0 1 -9.5 75 -229 3 0.5 0.5
9 0 1 0 0 0 1 0 0 0 1 -9.5 68 -216 3 0.5 0.5
9 0 1 0 0 0 1 0 0 0 1 -9.5 63 -206 3 0.5 0.5
9 0 1 0 0 0 1 0 0 0 1 -12 72 -222.5 1.5 0.5 1
9 0 1 0 0 0 1 0 0 0 1 -10.5 55 -191 3 0.5 0.5
9 0 1 0 0 0 1 0 0 0 1 -11.5 61 -202 3 0.5 0.5
9 0 1 0 0 0 1 0 0 0 1 -11.5 37 -157 3 0.5 0.5
9 0 1 0 0 0 1 0 0 0 1 -12.5 59 -198 3 0.5 0.5
9 0 1 0 0 0 1 0 0 0 1 -12.5 44 -170 3 0.5 0.5
9 0 1 0 0 0 1 0 0 0 1 -12.5 34 -151 3 0.5 0.5
9 0 1 0 0 0 1 0 0 0 1 -14.5 70 -217 3 0.5 0.5
9 0 1 0 0 0 1 0 0 0 1 -14.5 68 -213 3 0.5 0.5
9 0 1 0 0 0 1 0 0 0 1 -17 5 -58.5 0.5 0.5 3
9 0 1 0 0 0 1 0 0 0 1 -16.5 7 -75 3 0.5 0.5
9 0 1 0 0 0 1 0 0 0 1 -17.5 27 -136 3 0.5 0.5
9 0 1 0 0 0 1 0 0 0 1 -22 8 -75.5 1.5 0.5 1
9 0 1 0 0 0 1 0 0 0 1 -24.5 6 -58 1 0.5 1.5
9 0 1 0 0 0 1 0 0 0 1 -24 5 -50.5 1.5 0.5 1
9 0 1 0 0 0 1 0 0 0 1 -25 7 -65.5 1.5 0.5 1
9 0 1 0 0 0 1 0 0 0 1 -26 79 -227.5 1.5 0.5 1
9 0 1 0 0 0 1 0 0 0 1 -26.5 78 -225 1 0.5 1.5
9 0 1 0 0 0 1 0 0 0 1 -26.5 8 -71 1 0.5 1.5
9 0 1 0 0 0 1 0 0 0 1 -26.5 5 -47 1 0.5 1.5
9 0 1 0 0 0 1 0 0 0 1 -27 75 -219.5 1.5 0.5 1
9 0 1 0 0 0 1 0 0 0 1 -27.5 74 -217 1 0.5 1.5
9 0 1 0 0 0 1 0 0 0 1 -27 73 -215.5 1.5 0.5 1
9 0 1 0 0 0 1 0 0 0 1 -27.5 53 -175 1 1.5 0.5
9 0 1 0 0 0 1 0 0 0 1 -28.5 5 -43 1 0.5 1.5
9 0 1 0 0 0 1 0 0 0 1 -29.5 74 -215 1 0.5 1.5
9 0 1 0 0 0 1 0 0 0 1 -29 71 -210.5 1.5 0.5 1
9 0 1 0 0 0 1 0 0 0 1 -29 70 -208.5 1.5 0.5 1
9 0 1 0 0 0 1 0 0 0 1 -31 72.5 -211 0.5 1 1.5
9 0 1 0 0 0 1 0 0 0 1 -31 70 -206.5 1.5 0.5 1
9 0 1 0 0 0 1 0 0 0 1 -32.5 75 -213 1 0.5 1.5
9 0 1 0 0 0 1 0 0 0 1 -32.5 73 -210 1 0.5 1.5
9 0 1 0 0 0 1 0 0 0 1 -32 72 -208.5 1.5 0.5 1
9 0 1 0 0 0 1 0 0 0 1 -33 70 -204.5 1.5 0.5 1
9 0 1 0 0 0 1 0 0 0 1 -34 73 -207.5 1.5 0.5 1
9 0 1 0 0 0 1 0 0 0 1 -43 8 -32.5 0.5 0.5 3
9 0 1 0 0 0 1 0 0 0 1 -47.5 28 -110 1 0.5 1.5
9 0 1 0 0 0 1 0 0 0 1 -52.5 28 -95 1 0.5 1.5
9 0 1 0 0 0 1 0 0 0 1 -54 28 -99.5 0.5 0.5 3
9 0 1 0 0 0 1 0 0 0 1 -57 108 -197.5 0.5 1.5 1
9 0 1 0 0 0 1 0 0 0 1 -57 28 -90.5 0.5 0.5 3
9 0 1 0 0 0 1 0 0 0 1 -56.5 28 -83 1 0.5 1.5
9 0 1 0 0 0 1 0 0 0 1 -58 25 -52.5 0.5 0.5 3
9 0 1 0 0 0 1 0 0 0 1 -59.5 28 -73 1 0.5 1.5
9 0 1 0 0 0 1 0 0 0 1 -61 58.5 -50 0.5 1 1.5
9 0 1 0 0 0 1 0 0 0 1 -62 117 -183.5 0.5 1.5 1
9 0 1 0 0 0 1 0 0 0 1 -62 105 -179.5 0.5 1.5 1
9 0 1 0 0 0 1 0 0 0 1 -63 117 -179.5 0.5 1.5 1
9 0 1 0 0 0 1 0 0 0 1 -63 112.5 -178 0.5 3 0.5
9 0 1 0 0 0 1 0 0 0 1 -63 100 -172.5 0.5 1.5 1
9 0 1 0 0 0 1 0 0 0 1 -64 103 -170.5 0.5 1.5 1
9 0 1 0 0 0 1 0 0 0 1 -63.5 32 -45 1 1.5 0.5
9 0 1 0 0 0 1 0 0 0 1 -65 102.5 -166 0.5 3 0.5
9 0 1 0 0 0 1 0 0 0 1 -65 100 -164.5 0.5 1.5 1
9 0 1 0 0 0 1 0 0 0 1 -66 115.5 -165 0.5 3 0.5
9 0 1 0 0 0 1 0 0 0 1 -66 111.5 -164 0.5 3 0.5
9 0 1 0 0 0 1 0 0 0 1 -66 96 -157.5 0.5 1.5 1
9 0 1 0 0 0 1 0 0 0 1 -67 106 -157.5 0.5 1.5 1
9 0 1 0 0 0 1 0 0 0 1 -66 58.5 -46 1.5 1 0.5
9 0 1 0 0 0 1 0 0 0 1 -68 94 -145.5 0.5 1.5 1
9 0 1 0 0 0 1 0 0 0 1 -68 86 -140.5 0.5 1.5 1
9 0 1 0 0 0 1 0 0 0 1 -67.5 44 -62 1 1.5 0.5
9 0 1 0 0 0 1 0 0 0 1 -69 106 -147.5 0.5 1.5 1
9 0 1 0 0 0 1 0 0 0 1 -69 86 -135.5 0.5 1.5 1
9 0 1 0 0 0 1 0 0 0 1 -69 66 -119.5 0.5 1.5 1
9 0 1 0 0 0 1 0 0 0 1 -69 63.5 -117 0.5 1 1.5
9 0 1 0 0 0 1 0 0 0 1 -68.5 34 -58 1 1.5 0.5
9 0 1 0 0 0 1 0 0 0 1 -70 115 -145.5 0.5 1.5 1
9 0 1 0 0 0 1 0 0 0 1 -70 105.5 -142 0.5 3 0.5
9 0 1 0 0 0 1 0 0 0 1 -70 87 -130.5 0.5 1.5 1
9 0 1 0 0 0 1 0 0 0 1 -70 62 -110.5 0.5 1.5 1
9 0 1 0 0 0 1 0 0 0 1 -70 34 -52.5 0.5 0.5 3
9 0 1 0 0 0 1 0 0 0 1 -71 106 -136.5 0.5 1.5 1
9 0 1 0 0 0 1 0 0 0 1 -71 104.5 -133 0.5 3 0.5
9 0 1 0 0 0 1 0 0 0 1 -71 90.5 -128 0.5 1 1.5
9 0 1 0 0 0 1 0 0 0 1 -71 82 -121.5 0.5 1.5 1
9 0 1 0 0 0 1 0 0 0 1 -71 79.5 -119 0.5 1 1.5
9 0 1 0 0 0 1 0 0 0 1 -71 75 -115.5 0.5 1.5 1
9 0 1 0 0 0 1 0 0 0 1 -71 71 -112.5 0.5 1.5 1
9 0 1 0 0 0 1 0 0 0 1 -71 68 -109.5 0.5 1.5 1
9 0 1 0 0 0 1 0 0 0 1 -71 57.5 -99 0.5 1 1.5
9 0 1 0 0 0 1 0 0 0 1 -71 41.5 -70 0.5 1 1.5
9 0 1 0 0 0 1 0 0 0 1 -71 37.5 -57 0.5 1 1.5
9 0 1 0 0 0 1 0 0 0 1 72 62 -97 0.5 2.5 0.5
9 0 1 0 0 0 1 0 0 0 1 72 47 -76 0.5 0.5 2.5
9 0 1 0 0 0 1 0 0 0 1 71 62 -60 0.5 2.5 0.5
9 0 1 0 0 0 1 0 0 0 1 71 62 -47 0.5 2.5 0.5
9 0 1 0 0 0 1 0 0 0 1 70 111 -141 0.5 2.5 0.5
9 0 1 0 0 0 1 0 0 0 1 68 107 -151 0.5 2.5 0.5
9 0 1 0 0 0 1 0 0 0 1 68 102 -152 0.5 2.5 0.5
9 0 1 0 0 0 1 0 0 0 1 65 116 -170 0.5 2.5 0.5
9 0 1 0 0 0 1 0 0 0 1 65 108 -168 0.5 2.5 0.5
9 0 1 0 0 0 1 0 0 0 1 65 98 -163 0.5 2.5 0.5
9 0 1 0 0 0 1 0 0 0 1 64 114 -174 0.5 2.5 0.5
9 0 1 0 0 0 1 0 0 0 1 64 110 -173 0.5 2.5 0.5
9 0 1 0 0 0 1 0 0 0 1 60 62 -48 0.5 2.5 0.5
9 0 1 0 0 0 1 0 0 0 1 59 62 -58 0.5 2.5 0.5
9 0 1 0 0 0 1 0 0 0 1 58 113 -196 0.5 2.5 0.5
9 0 1 0 0 0 1 0 0 0 1 58 110 -195 0.5 2.5 0.5
9 0 1 0 0 0 1 0 0 0 1 52 114 -215 0.5 2.5 0.5
9 0 1 0 0 0 1 0 0 0 1 47 28 -111 0.5 0.5 2.5
9 0 1 0 0 0 1 0 0 0 1 30 5 -39 0.5 0.5 2.5
9 0 1 0 0 0 1 0 0 0 1 29 52 -174 0.5 2.5 0.5
9 0 1 0 0 0 1 0 0 0 1 25 52 -176 0.5 2.5 0.5
9 0 1 0 0 0 1 0 0 0 1 20 52 -178 0.5 2.5 0.5
9 0 1 0 0 0 1 0 0 0 1 19 28 -134 2.5 0.5 0.5
9 0 1 0 0 0 1 0 0 0 1 14 57 -194 2.5 0.5 0.5
9 0 1 0 0 0 1 0 0 0 1 13 73 -224 2.5 0.5 0.5
9 0 1 0 0 0 1 0 0 0 1 13 43 -168 2.5 0.5 0.5
9 0 1 0 0 0 1 0 0 0 1 12 7 -76 2.5 0.5 0.5
9 0 1 0 0 0 1 0 0 0 1 12 5 -61 2.5 0.5 0.5
9 0 1 0 0 0 1 0 0 0 1 11 96 -268 2.5 0.5 0.5
9 0 1 0 0 0 1 0 0 0 1 11 82 -242 2.5 0.5 0.5
9 0 1 0 0 0 1 0 0 0 1 11 81 -240 2.5 0.5 0.5
9 0 1 0 0 0 1 0 0 0 1 11 39 -161 2.5 0.5 0.5
9 0 1 0 0 0 1 0 0 0 1 11 38 -159 2.5 0.5 0.5
9 0 1 0 0 0 1 0 0 0 1 10 92 -261 2.5 0.5 0.5
9 0 1 0 0 0 1 0 0 0 1 10 54 -189 2.5 0.5 0.5
9 0 1 0 0 0 1 0 0 0 1 10 40 -163 2.5 0.5 0.5
9 0 1 0 0 0 1 0 0 0 1 10 15 -109 2.5 0.5 0.5
9 0 1 0 0 0 1 0 0 0 1 9 89 -256 2.5 0.5 0.5
9 0 1 0 0 0 1 0 0 0 1 7 91 -190 0.5 2.5 0.5
9 0 1 0 0 0 1 0 0 0 1 9 41 -165 2.5 0.5 0.5
9 0 1 0 0 0 1 0 0 0 1 8 49 -180 2.5 0.5 0.5
9 0 1 0 0 0 1 0 0 0 1 5 91 -188 0.5 2.5 0.5
9 0 1 0 0 0 1 0 0 0 1 7 85 -249 2.5 0.5 0.5
9 0 1 0 0 0 1 0 0 0 1 6 87 -253 2.5 0.5 0.5
9 0 1 0 0 0 1 0 0 0 1 6 37 -158 2.5 0.5 0.5
9 0 1 0 0 0 1 0 0 0 1 6 18 -118 2.5 0.5 0.5
9 0 1 0 0 0 1 0 0 0 1 5 88 -255 2.5 0.5 0.5
9 0 1 0 0 0 1 0 0 0 1 4 66 -211 2.5 0.5 0.5
9 0 1 0 0 0 1 0 0 0 1 0 100 -277 2.5 0.5 0.5
9 0 1 0 0 0 1 0 0 0 1 0 77 -235 2.5 0.5 0.5
9 0 1 0 0 0 1 0 0 0 1 0 72 -225 2.5 0.5 0.5
9 0 1 0 0 0 1 0 0 0 1 0 60 -200 2.5 0.5 0.5
9 0 1 0 0 0 1 0 0 0 1 0 57 -196 2.5 0.5 0.5
9 0 1 0 0 0 1 0 0 0 1 0 57 -186 2.5 0.5 0.5
9 0 1 0 0 0 1 0 0 0 1 0 51 -185 2.5 0.5 0.5
9 0 1 0 0 0 1 0 0 0 1 0 49 -181 2.5 0.5 0.5
9 0 1 0 0 0 1 0 0 0 1 0 44 -172 2.5 0.5 0.5
9 0 1 0 0 0 1 0 0 0 1 0 36 -157 2.5 0.5 0.5
9 0 1 0 0 0 1 0 0 0 1 0 35 -155 2.5 0.5 0.5
9 0 1 0 0 0 1 0 0 0 1 0 27 -140 2.5 0.5 0.5
9 0 1 0 0 0 1 0 0 0 1 0 18 -119 2.5 0.5 0.5
9 0 1 0 0 0 1 0 0 0 1 0 11 -96 2.5 0.5 0.5
9 0 1 0 0 0 1 0 0 0 1 -5 91 -188 0.5 2.5 0.5
9 0 1 0 0 0 1 0 0 0 1 -4 66 -211 2.5 0.5 0.5
9 0 1 0 0 0 1 0 0 0 1 -7 91 -190 0.5 2.5 0.5
9 0 1 0 0 0 1 0 0 0 1 -5 88 -255 2.5 0.5 0.5
9 0 1 0 0 0 1 0 0 0 1 -6 87 -253 2.5 0.5 0.5
9 0 1 0 0 0 1 0 0 0 1 -6 37 -158 2.5 0.5 0.5
9 0 1 0 0 0 1 0 0 0 1 -6 18 -118 2.5 0.5 0.5
9 0 1 0 0 0 1 0 0 0 1 -7 85 -249 2.5 0.5 0.5
9 0 1 0 0 0 1 0 0 0 1 -8 49 -180 2.5 0.5 0.5
9 0 1 0 0 0 1 0 0 0 1 -9 89 -256 2.5 0.5 0.5
9 0 1 0 0 0 1 0 0 0 1 -9 41 -165 2.5 0.5 0.5
9 0 1 0 0 0 1 0 0 0 1 -10 92 -261 2.5 0.5 0.5
9 0 1 0 0 0 1 0 0 0 1 -10 54 -189 2.5 0.5 0.5
9 0 1 0 0 0 1 0 0 0 1 -10 40 -163 2.5 0.5 0.5
9 0 1 0 0 0 1 0 0 0 1 -10 15 -109 2.5 0.5 0.5
9 0 1 0 0 0 1 0 0 0 1 -11 96 -268 2.5 0.5 0.5
9 0 1 0 0 0 1 0 0 0 1 -11 82 -242 2.5 0.5 0.5
9 0 1 0 0 0 1 0 0 0 1 -11 81 -240 2.5 0.5 0.5
9 0 1 0 0 0 1 0 0 0 1 -11 79 -236 2.5 0.5 0.5
9 0 1 0 0 0 1 0 0 0 1 -11 39 -161 2.5 0.5 0.5
9 0 1 0 0 0 1 0 0 0 1 -11 38 -159 2.5 0.5 0.5
9 0 1 0 0 0 1 0 0 0 1 -12 75 -228 2.5 0.5 0.5
9 0 1 0 0 0 1 0 0 0 1 -12 74 -226 2.5 0.5 0.5
9 0 1 0 0 0 1 0 0 0 1 -12 7 -76 2.5 0.5 0.5
9 0 1 0 0 0 1 0 0 0 1 -13 43 -168 2.5 0.5 0.5
9 0 1 0 0 0 1 0 0 0 1 -14 57 -194 2.5 0.5 0.5
9 0 1 0 0 0 1 0 0 0 1 -20 52 -178 0.5 2.5 0.5
9 0 1 0 0 0 1 0 0 0 1 -20 27 -135 2.5 0.5 0.5
9 0 1 0 0 0 1 0 0 0 1 -25 52 -176 0.5 2.5 0.5
9 0 1 0 0 0 1 0 0 0 1 -29 52 -174 0.5 2.5 0.5
9 0 1 0 0 0 1 0 0 0 1 -30 5 -39 0.5 0.5 2.5
9 0 1 0 0 0 1 0 0 0 1 -37 7 -41 0.5 0.5 2.5
9 0 1 0 0 0 1 0 0 0 1 -39 6 -7 0.5 0.5 2.5
9 0 1 0 0 0 1 0 0 0 1 -40 6 10 0.5 0.5 2.5
9 0 1 0 0 0 1 0 0 0 1 -42 7 -5 0.5 0.5 2.5
9 0 1 0 0 0 1 0 0 0 1 -52 114 -215 0.5 2.5 0.5
9 0 1 0 0 0 1 0 0 0 1 -58 113 -196 0.5 2.5 0.5
9 0 1 0 0 0 1 0 0 0 1 -58 110 -195 0.5 2.5 0.5
9 0 1 0 0 0 1 0 0 0 1 -60 62 -59 0.5 2.5 0.5
9 0 1 0 0 0 1 0 0 0 1 -61 62 -47 0.5 2.5 0.5
9 0 1 0 0 0 1 0 0 0 1 -64 114 -174 0.5 2.5 0.5
9 0 1 0 0 0 1 0 0 0 1 -64 110 -173 0.5 2.5 0.5
9 0 1 0 0 0 1 0 0 0 1 -65 116 -170 0.5 2.5 0.5
9 0 1 0 0 0 1 0 0 0 1 -65 108 -168 0.5 2.5 0.5
9 0 1 0 0 0 1 0 0 0 1 -65 98 -163 0.5 2.5 0.5
9 0 1 0 0 0 1 0 0 0 1 -68 107 -151 0.5 2.5 0.5
9 0 1 0 0 0 1 0 0 0 1 -68 102 -152 0.5 2.5 0.5
9 0 1 0 0 0 1 0 0 0 1 -70 111 -141 0.5 2.5 0.5
9 0 1 0 0 0 1 0 0 0 1 -71 62 -60 0.5 2.5 0.5
9 0 1 0 0 0 1 0 0 0 1 -72 62 -48 0.5 2.5 0.5
9 0 1 0 0 0 1 0 0 0 1 -73 40 -54 0.5 0.5 2.5
9 0 1 0 0 0 1 0 0 0 1 75 41 -41.5 0.5 0.5 2
9 0 1 0 0 0 1 0 0 0 1 75.5 39.5 18 1 1 0.5
9 0 1 0 0 0 1 0 0 0 1 74 41 -50.5 0.5 0.5 2
9 0 1 0 0 0 1 0 0 0 1 73 42 -59.5 0.5 0.5 2
9 0 1 0 0 0 1 0 0 0 1 73 39 -50.5 0.5 0.5 2
9 0 1 0 0 0 1 0 0 0 1 72 98.5 -128 0.5 2 0.5
9 0 1 0 0 0 1 0 0 0 1 72 88.5 -116.5 0.5 1 1
9 0 1 0 0 0 1 0 0 0 1 72 86.5 -118.5 0.5 1 1
9 0 1 0 0 0 1 0 0 0 1 72 48.5 -78.5 0.5 1 1
9 0 1 0 0 0 1 0 0 0 1 71 97.5 -129 0.5 2 0.5
9 0 1 0 0 0 1 0 0 0 1 71 77.5 -117.5 0.5 1 1
9 0 1 0 0 0 1 0 0 0 1 71 66.5 -107.5 0.5 1 1
9 0 1 0 0 0 1 0 0 0 1 71 62.5 -103.5 0.5 1 1
9 0 1 0 0 0 1 0 0 0 1 71 54.5 -94.5 0.5 1 1
9 0 1 0 0 0 1 0 0 0 1 71 53.5 -92.5 0.5 1 1
9 0 1 0 0 0 1 0 0 0 1 71 51.5 -89.5 0.5 1 1
9 0 1 0 0 0 1 0 0 0 1 71 43 -73.5 0.5 0.5 2
9 0 1 0 0 0 1 0 0 0 1 71 40.5 -67.5 0.5 1 1
9 0 1 0 0 0 1 0 0 0 1 71.5 38.5 -52 1 1 0.5
9 0 1 0 0 0 1 0 0 0 1 70 103.5 -138 0.5 2 0.5
9 0 1 0 0 0 1 0 0 0 1 70 98.5 -139.5 0.5 1 1
9 0 1 0 0 0 1 0 0 0 1 70 93.5 -136.5 0.5 1 1
9 0 1 0 0 0 1 0 0 0 1 70 84.5 -129.5 0.5 1 1
9 0 1 0 0 0 1 0 0 0 1 70 65.5 -113.5 0.5 1 1
9 0 1 0 0 0 1 0 0 0 1 70 60.5 -107.5 0.5 1 1
9 0 1 0 0 0 1 0 0 0 1 70 57.5 -104.5 0.5 1 1
9 0 1 0 0 0 1 0 0 0 1 70 56.5 -102.5 0.5 1 1
9 0 1 0 0 0 1 0 0 0 1 70 54.5 -99.5 0.5 1 1
9 0 1 0 0 0 1 0 0 0 1 70 35.5 0.5 0.5 1 1
9 0 1 0 0 0 1 0 0 0 1 69 97.5 -144.5 0.5 1 1
9 0 1 0 0 0 1 0 0 0 1 69 83.5 -133.5 0.5 1 1
9 0 1 0 0 0 1 0 0 0 1 69 61.5 -114.5 0.5 1 1
9 0 1 0 0 0 1 0 0 0 1 69 53.5 -103.5 0.5 1 1
9 0 1 0 0 0 1 0 0 0 1 69 50.5 -99.5 0.5 1 1
9 0 1 0 0 0 1 0 0 0 1 68 116.5 -156 0.5 2 0.5
9 0 1 0 0 0 1 0 0 0 1 68 88.5 -142.5 0.5 1 1
9 0 1 0 0 0 1 0 0 0 1 68 83.5 -138.5 0.5 1 1
9 0 1 0 0 0 1 0 0 0 1 68 80.5 -136.5 0.5 1 1
9 0 1 0 0 0 1 0 0 0 1 68 76.5 -133.5 0.5 1 1
9 0 1 0 0 0 1 0 0 0 1 68 67.5 -126.5 0.5 1 1
9 0 1 0 0 0 1 0 0 0 1 68 65.5 -124.5 0.5 1 1
9 0 1 0 0 0 1 0 0 0 1 68 61.5 -119.5 0.5 1 1
9 0 1 0 0 0 1 0 0 0 1 67 113.5 -159.5 0.5 1 1
9 0 1 0 0 0 1 0 0 0 1 67 88.5 -147.5 0.5 1 1
9 0 1 0 0 0 1 0 0 0 1 67 86.5 -145.5 0.5 1 1
9 0 1 0 0 0 1 0 0 0 1 67 84.5 -144.5 0.5 1 1
9 0 1 0 0 0 1 0 0 0 1 67 82.5 -143 0.5 2 0.5
9 0 1 0 0 0 1 0 0 0 1 67 80.5 -141.5 0.5 1 1
9 0 1 0 0 0 1 0 0 0 1 67 78.5 -140 0.5 2 0.5
9 0 1 0 0 0 1 0 0 0 1 67 75.5 -137.5 0.5 1 1
9 0 1 0 0 0 1 0 0 0 1 67 66.5 -130.5 0.5 1 1
9 0 1 0 0 0 1 0 0 0 1 67.5 37.5 -45 1 1 0.5
9 0 1 0 0 0 1 0 0 0 1 66 91.5 -154 0.5 2 0.5
9 0 1 0 0 0 1 0 0 0 1 66 89.5 -152.5 0.5 1 1
9 0 1 0 0 0 1 0 0 0 1 66 87.5 -151.5 0.5 1 1
9 0 1 0 0 0 1 0 0 0 1 65 95.5 -161.5 0.5 1 1
9 0 1 0 0 0 1 0 0 0 1 64 100.5 -169.5 0.5 1 1
9 0 1 0 0 0 1 0 0 0 1 64 71.5 -146.5 0.5 1 1
9 0 1 0 0 0 1 0 0 0 1 63 79.5 -157.5 0.5 1 1
9 0 1 0 0 0 1 0 0 0 1 63 74.5 -153.5 0.5 1 1
9 0 1 0 0 0 1 0 0 0 1 63 72.5 -151.5 0.5 1 1
9 0 1 0 0 0 1 0 0 0 1 63 28 -72.5 0.5 0.5 2
9 0 1 0 0 0 1 0 0 0 1 63 24 -53.5 0.5 0.5 2
9 0 1 0 0 0 1 0 0 0 1 62 102.5 -178.5 0.5 1 1
9 0 1 0 0 0 1 0 0 0 1 62 98.5 -175.5 0.5 1 1
9 0 1 0 0 0 1 0 0 0 1 62 78.5 -160.5 0.5 1 1
9 0 1 0 0 0 1 0 0 0 1 62 76.5 -158.5 0.5 1 1
9 0 1 0 0 0 1 0 0 0 1 62 74.5 -156.5 0.5 1 1
9 0 1 0 0 0 1 0 0 0 1 62 72.5 -154.5 0.5 1 1
9 0 1 0 0 0 1 0 0 0 1 62 69.5 -151.5 0.5 1 1
9 0 1 0 0 0 1 0 0 0 1 61 116.5 -187 0.5 2 0.5
9 0 1 0 0 0 1 0 0 0 1 61 113.5 -186 0.5 2 0.5
9 0 1 0 0 0 1 0 0 0 1 61 101.5 -181.5 0.5 1 1
9 0 1 0 0 0 1 0 0 0 1 61 75.5 -160.5 0.5 1 1
9 0 1 0 0 0 1 0 0 0 1 61 27 -77.5 0.5 0.5 2
9 0 1 0 0 0 1 0 0 0 1 60 115.5 -190 0.5 2 0.5
9 0 1 0 0 0 1 0 0 0 1 60 100.5 -183.5 0.5 1 1
9 0 1 0 0 0 1 0 0 0 1 59 105.5 -190 0.5 2 0.5
9 0 1 0 0 0 1 0 0 0 1 59 44.5 -49 0.5 2 0.5
9 0 1 0 0 0 1 0 0 0 1 57 105.5 -196.5 0.5 1 1
9 0 1 0 0 0 1 0 0 0 1 50 115.5 -221 0.5 2 0.5
9 0 1 0 0 0 1 0 0 0 1 50 11 -23.5 0.5 0.5 2
9 0 1 0 0 0 1 0 0 0 1 34.5 74 -208.5 1 0.5 1
9 0 1 0 0 0 1 0 0 0 1 34.5 72 -205.5 1 0.5 1
9 0 1 0 0 0 1 0 0 0 1 33.5 76 -213.5 1 0.5 1
9 0 1 0 0 0 1 0 0 0 1 33.5 71 -205.5 1 0.5 1
9 0 1 0 0 0 1 0 0 0 1 32 73.5 -211.5 0.5 1 1
9 0 1 0 0 0 1 0 0 0 1 32.5 69 -203.5 1 0.5 1
9 0 1 0 0 0 1 0 0 0 1 31.5 76 -215.5 1 0.5 1
9 0 1 0 0 0 1 0 0 0 1 31.5 72.5 -210 1 1 0.5
9 0 1 0 0 0 1 0 0 0 1 31 68.5 -204.5 0.5 1 1
9 0 1 0 0 0 1 0 0 0 1 30.5 78 -220.5 1 0.5 1
9 0 1 0 0 0 1 0 0 0 1 30.5 75 -215.5 1 0.5 1
9 0 1 0 0 0 1 0 0 0 1 29.5 81 -226.5 1 0.5 1
9 0 1 0 0 0 1 0 0 0 1 29 77.5 -221.5 0.5 1 1
9 0 1 0 0 0 1 0 0 0 1 29.5 76 -218.5 1 0.5 1
9 0 1 0 0 0 1 0 0 0 1 29 74.5 -216.5 0.5 1 1
9 0 1 0 0 0 1 0 0 0 1 29.5 69 -206.5 1 0.5 1
9 0 1 0 0 0 1 0 0 0 1 28.5 79 -224.5 1 0.5 1
9 0 1 0 0 0 1 0 0 0 1 28 77.5 -222.5 0.5 1 1
9 0 1 0 0 0 1 0 0 0 1 28.5 72 -212.5 1 0.5 1
9 0 1 0 0 0 1 0 0 0 1 28.5 68 -205.5 1 0.5 1
9 0 1 0 0 0 1 0 0 0 1 28 28 -130.5 0.5 0.5 2
9 0 1 0 0 0 1 0 0 0 1 27.5 82 -230.5 1 0.5 1
9 0 1 0 0 0 1 0 0 0 1 27.5 81 -228.5 1 0.5 1
9 0 1 0 0 0 1 0 0 0 1 27.5 80 -227.5 1 0.5 1
9 0 1 0 0 0 1 0 0 0 1 27.5 76 -220.5 1 0.5 1
9 0 1 0 0 0 1 0 0 0 1 26 81.5 -231.5 0.5 1 1
9 0 1 0 0 0 1 0 0 0 1 26.5 77 -223.5 1 0.5 1
9 0 1 0 0 0 1 0 0 0 1 26.5 73 -215.5 1 0.5 1
9 0 1 0 0 0 1 0 0 0 1 26.5 72 -214.5 1 0.5 1
9 0 1 0 0 0 1 0 0 0 1 26.5 71 -212.5 1 0.5 1
9 0 1 0 0 0 1 0 0 0 1 25.5 86 -239.5 1 0.5 1
9 0 1 0 0 0 1 0 0 0 1 25.5 83 -234.5 1 0.5 1
9 0 1 0 0 0 1 0 0 0 1 25 81.5 -232.5 0.5 1 1
9 0 1 0 0 0 1 0 0 0 1 25.5 80 -229.5 1 0.5 1
9 0 1 0 0 0 1 0 0 0 1 25.5 76 -222.5 1 0.5 1
9 0 1 0 0 0 1 0 0 0 1 25.5 75 -220.5 1 0.5 1
9 0 1 0 0 0 1 0 0 0 1 24.5 85 -238.5 1 0.5 1
9 0 1 0 0 0 1 0 0 0 1 24.5 84 -237.5 1 0.5 1
9 0 1 0 0 0 1 0 0 0 1 24 81.5 -233.5 0.5 1 1
9 0 1 0 0 0 1 0 0 0 1 24.5 8 -73.5 1 0.5 1
9 0 1 0 0 0 1 0 0 0 1 23.5 86 -241.5 1 0.5 1
9 0 1 0 0 0 1 0 0 0 1 23.5 83 -236.5 1 0.5 1
9 0 1 0 0 0 1 0 0 0 1 23.5 80 -231.5 1 0.5 1
9 0 1 0 0 0 1 0 0 0 1 23.5 79 -229.5 1 0.5 1
9 0 1 0 0 0 1 0 0 0 1 24.5 78 -227 2 0.5 0.5
9 0 1 0 0 0 1 0 0 0 1 22.5 7 -67.5 1 0.5 1
9 0 1 0 0 0 1 0 0 0 1 21.5 86 -243.5 1 0.5 1
9 0 1 0 0 0 1 0 0 0 1 22.5 28 -136 2 0.5 0.5
9 0 1 0 0 0 1 0 0 0 1 22.5 27 -134 2 0.5 0.5
9 0 1 0 0 0 1 0 0 0 1 20.5 9 -80.5 1 0.5 1
9 0 1 0 0 0 1 0 0 0 1 20.5 5 -53.5 1 0.5 1
9 0 1 0 0 0 1 0 0 0 1 18.5 7 -71.5 1 0.5 1
9 0 1 0 0 0 1 0 0 0 1 17.5 6 -65.5 1 0.5 1
9 0 1 0 0 0 1 0 0 0 1 16.5 97 -265.5 1 0.5 1
9 0 1 0 0 0 1 0 0 0 1 16.5 95 -262.5 1 0.5 1
9 0 1 0 0 0 1 0 0 0 1 16.5 8 -78.5 1 0.5 1
9 0 1 0 0 0 1 0 0 0 1 16.5 61 -200 2 0.5 0.5
9 0 1 0 0 0 1 0 0 0 1 15.5 6 -70.5 1 0.5 1
9 0 1 0 0 0 1 0 0 0 1 13.5 94 -263.5 1 0.5 1
9 0 1 0 0 0 1 0 0 0 1 14.5 77 -231 2 0.5 0.5
9 0 1 0 0 0 1 0 0 0 1 14.5 61 -201 2 0.5 0.5
9 0 1 0 0 0 1 0 0 0 1 13.5 58 -196 2 0.5 0.5
9 0 1 0 0 0 1 0 0 0 1 13.5 42 -166 2 0.5 0.5
9 0 1 0 0 0 1 0 0 0 1 13.5 32 -147 2 0.5 0.5
9 0 1 0 0 0 1 0 0 0 1 13.5 31 -145 2 0.5 0.5
9 0 1 0 0 0 1 0 0 0 1 13.5 30 -143 2 0.5 0.5
9 0 1 0 0 0 1 0 0 0 1 13.5 29 -141 2 0.5 0.5
9 0 1 0 0 0 1 0 0 0 1 12.5 78 -234 2 0.5 0.5
9 0 1 0 0 0 1 0 0 0 1 11.5 72 -222.5 1 0.5 1
9 0 1 0 0 0 1 0 0 0 1 12.5 45 -172 2 0.5 0.5
9 0 1 0 0 0 1 0 0 0 1 12.5 36 -155 2 0.5 0.5
9 0 1 0 0 0 1 0 0 0 1 12.5 35 -153 2 0.5 0.5
9 0 1 0 0 0 1 0 0 0 1 12.5 33 -149 2 0.5 0.5
9 0 1 0 0 0 1 0 0 0 1 12.5 24 -132 2 0.5 0.5
9 0 1 0 0 0 1 0 0 0 1 11.5 95 -266 2 0.5 0.5
9 0 1 0 0 0 1 0 0 0 1 11.5 91 -259 2 0.5 0.5
9 0 1 0 0 0 1 0 0 0 1 11.5 85 -248 2 0.5 0.5
9 0 1 0 0 0 1 0 0 0 1 11.5 83 -244 2 0.5 0.5
9 0 1 0 0 0 1 0 0 0 1 11.5 80 -238 2 0.5 0.5
9 0 1 0 0 0 1 0 0 0 1 11.5 53 -187 2 0.5 0.5
9 0 1 0 0 0 1 0 0 0 1 11.5 21 -125 2 0.5 0.5
9 0 1 0 0 0 1 0 0 0 1 10.5 87 -252 2 0.5 0.5
9 0 1 0 0 0 1 0 0 0 1 10.5 86 -250 2 0.5 0.5
9 0 1 0 0 0 1 0 0 0 1 10.5 84 -246 2 0.5 0.5
9 0 1 0 0 0 1 0 0 0 1 10.5 46 -174 2 0.5 0.5
9 0 1 0 0 0 1 0 0 0 1 9.5 99 -273 2 0.5 0.5
9 0 1 0 0 0 1 0 0 0 1 9.5 56 -193 2 0.5 0.5
9 0 1 0 0 0 1 0 0 0 1 8.5 9 -84.5 1 0.5 1
9 0 1 0 0 0 1 0 0 0 1 8.5 98 -272 2 0.5 0.5
9 0 1 0 0 0 1 0 0 0 1 7 84.5 -199 0.5 2 0.5
9 0 1 0 0 0 1 0 0 0 1 8.5 5 -66 2 0.5 0.5
9 0 1 0 0 0 1 0 0 0 1 7.5 43 -169 2 0.5 0.5
9 0 1 0 0 0 1 0 0 0 1 7.5 42 -167 2 0.5 0.5
9 0 1 0 0 0 1 0 0 0 1 6.5 99 -274 2 0.5 0.5
9 0 1 0 0 0 1 0 0 0 1 6.5 94 -266 2 0.5 0.5
9 0 1 0 0 0 1 0 0 0 1 6.5 79 -237 2 0.5 0.5
9 0 1 0 0 0 1 0 0 0 1 6.5 9 -86 2 0.5 0.5
9 0 1 0 0 0 1 0 0 0 1 5.5 100 -276 2 0.5 0.5
9 0 1 0 0 0 1 0 0 0 1 5.5 95 -268 2 0.5 0.5
9 0 1 0 0 0 1 0 0 0 1 5.5 89 -257 2 0.5 0.5
9 0 1 0 0 0 1 0 0 0 1 5.5 69 -217 2 0.5 0.5
9 0 1 0 0 0 1 0 0 0 1 5.5 6 -74 2 0.5 0.5
9 0 1 0 0 0 1 0 0 0 1 4.5 98 -273 2 0.5 0.5
9 0 1 0 0 0 1 0 0 0 1 4.5 91 -261 2 0.5 0.5
9 0 1 0 0 0 1 0 0 0 1 4.5 90 -259 2 0.5 0.5
9 0 1 0 0 0 1 0 0 0 1 3.5 87.5 -190 1 1 0.5
9 0 1 0 0 0 1 0 0 0 1 4.5 64 -207 2 0.5 0.5
9 0 1 0 0 0 1 0 0 0 1 4.5 5 -62 2 0.5 0.5
9 0 1 0 0 0 1 0 0 0 1 3.5 74 -228 2 0.5 0.5
9 0 1 0 0 0 1 0 0 0 1 3.5 73 -226 2 0.5 0.5
9 0 1 0 0 0 1 0 0 0 1 3.5 72 -224 2 0.5 0.5
9 0 1 0 0 0 1 0 0 0 1 -5 87.5 -191.5 0.5 1 1
9 0 1 0 0 0 1 0 0 0 1 -3.5 73 -226 2 0.5 0.5
9 0 1 0 0 0 1 0 0 0 1 -3.5 72 -224 2 0.5 0.5
9 0 1 0 0 0 1 0 0 0 1 -4.5 98 -273 2 0.5 0.5
9 0 1 0 0 0 1 0 0 0 1 -4.5 91 -261 2 0.5 0.5
9 0 1 0 0 0 1 0 0 0 1 -4.5 90 -259 2 0.5 0.5
9 0 1 0 0 0 1 0 0 0 1 -4.5 64 -207 2 0.5 0.5
9 0 1 0 0 0 1 0 0 0 1 -4.5 5 -62 2 0.5 0.5
9 0 1 0 0 0 1 0 0 0 1 -5.5 100 -276 2 0.5 0.5
9 0 1 0 0 0 1 0 0 0 1 -5.5 95 -268 2 0.5 0.5
9 0 1 0 0 0 1 0 0 0 1 -5.5 89 -257 2 0.5 0.5
9 0 1 0 0 0 1 0 0 0 1 -7 84.5 -199 0.5 2 0.5
9 0 1 0 0 0 1 0 0 0 1 -5.5 69 -217 2 0.5 0.5
9 0 1 0 0 0 1 0 0 0 1 -5.5 6 -74 2 0.5 0.5
9 0 1 0 0 0 1 0 0 0 1 -6.5 99 -274 2 0.5 0.5
9 0 1 0 0 0 1 0 0 0 1 -6.5 94 -266 2 0.5 0.5
9 0 1 0 0 0 1 0 0 0 1 -8 62 -192.5 0.5 0.5 2
9 0 1 0 0 0 1 0 0 0 1 -6.5 9 -86 2 0.5 0.5
9 0 1 0 0 0 1 0 0 0 1 -7.5 5 -66.5 1 0.5 1
9 0 1 0 0 0 1 0 0 0 1 -7.5 43 -169 2 0.5 0.5
9 0 1 0 0 0 1 0 0 0 1 -7.5 42 -167 2 0.5 0.5
9 0 1 0 0 0 1 0 0 0 1 -8.5 9 -84.5 1 0.5 1
9 0 1 0 0 0 1 0 0 0 1 -8.5 98 -272 2 0.5 0.5
9 0 1 0 0 0 1 0 0 0 1 -9.5 99 -273 2 0.5 0.5
9 0 1 0 0 0 1 0 0 0 1 -9.5 56 -193 2 0.5 0.5
9 0 1 0 0 0 1 0 0 0 1 -10.5 87 -252 2 0.5 0.5
9 0 1 0 0 0 1 0 0 0 1 -10.5 86 -250 2 0.5 0.5
9 0 1 0 0 0 1 0 0 0 1 -10.5 84 -246 2 0.5 0.5
9 0 1 0 0 0 1 0 0 0 1 -10.5 46 -174 2 0.5 0.5
9 0 1 0 0 0 1 0 0 0 1 -11.5 95 -266 2 0.5 0.5
9 0 1 0 0 0 1 0 0 0 1 -11.5 91 -259 2 0.5 0.5
9 0 1 0 0 0 1 0 0 0 1 -11.5 85 -248 2 0.5 0.5
9 0 1 0 0 0 1 0 0 0 1 -11.5 83 -244 2 0.5 0.5
9 0 1 0 0 0 1 0 0 0 1 -11.5 80 -238 2 0.5 0.5
9 0 1 0 0 0 1 0 0 0 1 -12.5 73 -224.5 1 0.5 1
9 0 1 0 0 0 1 0 0 0 1 -11.5 53 -187 2 0.5 0.5
9 0 1 0 0 0 1 0 0 0 1 -11.5 21 -125 2 0.5 0.5
9 0 1 0 0 0 1 0 0 0 1 -11.5 5 -61 2 0.5 0.5
9 0 1 0 0 0 1 0 0 0 1 -12.5 94 -264 2 0.5 0.5
9 0 1 0 0 0 1 0 0 0 1 -12.5 78 -234 2 0.5 0.5
9 0 1 0 0 0 1 0 0 0 1 -12.5 45 -172 2 0.5 0.5
9 0 1 0 0 0 1 0 0 0 1 -12.5 36 -155 2 0.5 0.5
9 0 1 0 0 0 1 0 0 0 1 -12.5 35 -153 2 0.5 0.5
9 0 1 0 0 0 1 0 0 0 1 -12.5 33 -149 2 0.5 0.5
9 0 1 0 0 0 1 0 0 0 1 -12.5 24 -132 2 0.5 0.5
9 0 1 0 0 0 1 0 0 0 1 -14.5 73 -223.5 1 0.5 1
9 0 1 0 0 0 1 0 0 0 1 -14.5 72 -221.5 1 0.5 1
9 0 1 0 0 0 1 0 0 0 1 -13.5 58 -196 2 0.5 0.5
9 0 1 0 0 0 1 0 0 0 1 -13.5 42 -166 2 0.5 0.5
9 0 1 0 0 0 1 0 0 0 1 -13.5 32 -147 2 0.5 0.5
9 0 1 0 0 0 1 0 0 0 1 -13.5 31 -145 2 0.5 0.5
9 0 1 0 0 0 1 0 0 0 1 -13.5 30 -143 2 0.5 0.5
9 0 1 0 0 0 1 0 0 0 1 -13.5 29 -141 2 0.5 0.5
9 0 1 0 0 0 1 0 0 0 1 -14.5 6 -68.5 1 0.5 1
9 0 1 0 0 0 1 0 0 0 1 -15.5 95 -263.5 1 0.5 1
9 0 1 0 0 0 1 0 0 0 1 -14.5 77 -231 2 0.5 0.5
9 0 1 0 0 0 1 0 0 0 1 -14.5 61 -201 2 0.5 0.5
9 0 1 0 0 0 1 0 0 0 1 -15.5 6 -70.5 1 0.5 1
9 0 1 0 0 0 1 0 0 0 1 -16.5 97 -265.5 1 0.5 1
9 0 1 0 0 0 1 0 0 0 1 -16.5 8 -78.5 1 0.5 1
9 0 1 0 0 0 1 0 0 0 1 -16.5 61 -200 2 0.5 0.5
9 0 1 0 0 0 1 0 0 0 1 -19.5 9 -81.5 1 0.5 1
9 0 1 0 0 0 1 0 0 0 1 -20.5 7 -69.5 1 0.5 1
9 0 1 0 0 0 1 0 0 0 1 -20.5 6 -66.5 1 0.5 1
9 0 1 0 0 0 1 0 0 0 1 -21.5 86 -243.5 1 0.5 1
9 0 1 0 0 0 1 0 0 0 1 -21.5 28 -136.5 1 0.5 1
9 0 1 0 0 0 1 0 0 0 1 -22.5 83 -237.5 1 0.5 1
9 0 1 0 0 0 1 0 0 0 1 -22.5 7 -71.5 1 0.5 1
9 0 1 0 0 0 1 0 0 0 1 -23.5 86 -241.5 1 0.5 1
9 0 1 0 0 0 1 0 0 0 1 -23.5 84 -238.5 1 0.5 1
9 0 1 0 0 0 1 0 0 0 1 -23.5 81 -233.5 1 0.5 1
9 0 1 0 0 0 1 0 0 0 1 -23.5 80 -231.5 1 0.5 1
9 0 1 0 0 0 1 0 0 0 1 -23.5 79 -229.5 1 0.5 1
9 0 1 0 0 0 1 0 0 0 1 -23.5 78 -227.5 1 0.5 1
9 0 1 0 0 0 1 0 0 0 1 -22.5 27 -134 2 0.5 0.5
9 0 1 0 0 0 1 0 0 0 1 -24.5 85 -238.5 1 0.5 1
9 0 1 0 0 0 1 0 0 0 1 -24.5 83 -235.5 1 0.5 1
9 0 1 0 0 0 1 0 0 0 1 -24.5 82 -233.5 1 0.5 1
9 0 1 0 0 0 1 0 0 0 1 -24.5 8 -73.5 1 0.5 1
9 0 1 0 0 0 1 0 0 0 1 -25.5 86 -239.5 1 0.5 1
9 0 1 0 0 0 1 0 0 0 1 -25.5 81.5 -232 1 1 0.5
9 0 1 0 0 0 1 0 0 0 1 -25.5 80 -229.5 1 0.5 1
9 0 1 0 0 0 1 0 0 0 1 -25.5 77 -224.5 1 0.5 1
9 0 1 0 0 0 1 0 0 0 1 -25.5 76 -222.5 1 0.5 1
9 0 1 0 0 0 1 0 0 0 1 -26 6 -56.5 0.5 0.5 2
9 0 1 0 0 0 1 0 0 0 1 -27 80.5 -228.5 0.5 1 1
9 0 1 0 0 0 1 0 0 0 1 -26.5 72 -214.5 1 0.5 1
9 0 1 0 0 0 1 0 0 0 1 -26.5 71 -212.5 1 0.5 1
9 0 1 0 0 0 1 0 0 0 1 -26.5 7 -63.5 1 0.5 1
9 0 1 0 0 0 1 0 0 0 1 -27.5 82 -230.5 1 0.5 1
9 0 1 0 0 0 1 0 0 0 1 -27.5 79 -225.5 1 0.5 1
9 0 1 0 0 0 1 0 0 0 1 -27.5 77.5 -223 1 1 0.5
9 0 1 0 0 0 1 0 0 0 1 -27.5 76 -220.5 1 0.5 1
9 0 1 0 0 0 1 0 0 0 1 -28 72.5 -213.5 0.5 1 1
9 0 1 0 0 0 1 0 0 0 1 -28.5 77.5 -222 1 1 0.5
9 0 1 0 0 0 1 0 0 0 1 -28.5 75 -217.5 1 0.5 1
9 0 1 0 0 0 1 0 0 0 1 -28.5 69 -207.5 1 0.5 1
9 0 1 0 0 0 1 0 0 0 1 -28.5 68 -205.5 1 0.5 1
9 0 1 0 0 0 1 0 0 0 1 -29.5 81 -226.5 1 0.5 1
9 0 1 0 0 0 1 0 0 0 1 -29.5 76 -218.5 1 0.5 1
9 0 1 0 0 0 1 0 0 0 1 -30.5 78 -220.5 1 0.5 1
9 0 1 0 0 0 1 0 0 0 1 -30.5 75 -215.5 1 0.5 1
9 0 1 0 0 0 1 0 0 0 1 -30.5 69 -205.5 1 0.5 1
9 0 1 0 0 0 1 0 0 0 1 -30.5 68 -204.5 1 0.5 1
9 0 1 0 0 0 1 0 0 0 1 -31.5 76 -215.5 1 0.5 1
9 0 1 0 0 0 1 0 0 0 1 -31.5 74 -212.5 1 0.5 1
9 0 1 0 0 0 1 0 0 0 1 -33 71.5 -206.5 0.5 1 1
9 0 1 0 0 0 1 0 0 0 1 -32.5 69 -203.5 1 0.5 1
9 0 1 0 0 0 1 0 0 0 1 -33.5 76 -213.5 1 0.5 1
9 0 1 0 0 0 1 0 0 0 1 -33.5 74 -209.5 1 0.5 1
9 0 1 0 0 0 1 0 0 0 1 -34 71.5 -205.5 0.5 1 1
9 0 1 0 0 0 1 0 0 0 1 -33.5 28 -125.5 1 0.5 1
9 0 1 0 0 0 1 0 0 0 1 -41 7 -24.5 0.5 0.5 2
9 0 1 0 0 0 1 0 0 0 1 -50 115.5 -221 0.5 2 0.5
9 0 1 0 0 0 1 0 0 0 1 -50 11 -23.5 0.5 0.5 2
9 0 1 0 0 0 1 0 0 0 1 -57 105.5 -196.5 0.5 1 1
9 0 1 0 0 0 1 0 0 0 1 -59 105.5 -190 0.5 2 0.5
9 0 1 0 0 0 1 0 0 0 1 -59 44.5 -49 0.5 2 0.5
9 0 1 0 0 0 1 0 0 0 1 -60 115.5 -190 0.5 2 0.5
9 0 1 0 0 0 1 0 0 0 1 -60 100.5 -183.5 0.5 1 1
9 0 1 0 0 0 1 0 0 0 1 -61 116.5 -187 0.5 2 0.5
9 0 1 0 0 0 1 0 0 0 1 -61 113.5 -186 0.5 2 0.5
9 0 1 0 0 0 1 0 0 0 1 -61 101.5 -181.5 0.5 1 1
9 0 1 0 0 0 1 0 0 0 1 -61 75.5 -160.5 0.5 1 1
9 0 1 0 0 0 1 0 0 0 1 -61 27 -77.5 0.5 0.5 2
9 0 1 0 0 0 1 0 0 0 1 -62 102.5 -178.5 0.5 1 1
9 0 1 0 0 0 1 0 0 0 1 -62 98.5 -175.5 0.5 1 1
9 0 1 0 0 0 1 0 0 0 1 -62 78.5 -160.5 0.5 1 1
9 0 1 0 0 0 1 0 0 0 1 -62 76.5 -158.5 0.5 1 1
9 0 1 0 0 0 1 0 0 0 1 -62 74.5 -156.5 0.5 1 1
9 0 1 0 0 0 1 0 0 0 1 -62 72.5 -154.5 0.5 1 1
9 0 1 0 0 0 1 0 0 0 1 -62 69.5 -151.5 0.5 1 1
9 0 1 0 0 0 1 0 0 0 1 -63 79.5 -157.5 0.5 1 1
9 0 1 0 0 0 1 0 0 0 1 -63 74.5 -153.5 0.5 1 1
9 0 1 0 0 0 1 0 0 0 1 -63 72.5 -151.5 0.5 1 1
9 0 1 0 0 0 1 0 0 0 1 -63 28 -72.5 0.5 0.5 2
9 0 1 0 0 0 1 0 0 0 1 -64 100.5 -169.5 0.5 1 1
9 0 1 0 0 0 1 0 0 0 1 -64 71.5 -146.5 0.5 1 1
9 0 1 0 0 0 1 0 0 0 1 -65 95.5 -161.5 0.5 1 1
9 0 1 0 0 0 1 0 0 0 1 -65 53.5 -53 0.5 2 0.5
9 0 1 0 0 0 1 0 0 0 1 -66 91.5 -154 0.5 2 0.5
9 0 1 0 0 0 1 0 0 0 1 -66 89.5 -152.5 0.5 1 1
9 0 1 0 0 0 1 0 0 0 1 -66 87.5 -151.5 0.5 1 1
9 0 1 0 0 0 1 0 0 0 1 -66 59.5 -55 0.5 2 0.5
9 0 1 0 0 0 1 0 0 0 1 -67 113.5 -159.5 0.5 1 1
9 0 1 0 0 0 1 0 0 0 1 -67 88.5 -147.5 0.5 1 1
9 0 1 0 0 0 1 0 0 0 1 -67 86.5 -145.5 0.5 1 1
9 0 1 0 0 0 1 0 0 0 1 -67 84.5 -144.5 0.5 1 1
9 0 1 0 0 0 1 0 0 0 1 -67 82.5 -143 0.5 2 0.5
9 0 1 0 0 0 1 0 0 0 1 -67 80.5 -141.5 0.5 1 1
9 0 1 0 0 0 1 0 0 0 1 -67 78.5 -140 0.5 2 0.5
9 0 1 0 0 0 1 0 0 0 1 -67 75.5 -137.5 0.5 1 1
9 0 1 0 0 0 1 0 0 0 1 -67 66.5 -130.5 0.5 1 1
9 0 1 0 0 0 1 0 0 0 1 -68 116.5 -156 0.5 2 0.5
9 0 1 0 0 0 1 0 0 0 1 -68 88.5 -142.5 0.5 1 1
9 0 1 0 0 0 1 0 0 0 1 -68 83.5 -138.5 0.5 1 1
9 0 1 0 0 0 1 0 0 0 1 -68 80.5 -136.5 0.5 1 1
9 0 1 0 0 0 1 0 0 0 1 -68 76.5 -133.5 0.5 1 1
9 0 1 0 0 0 1 0 0 0 1 -68 67.5 -126.5 0.5 1 1
9 0 1 0 0 0 1 0 0 0 1 -68 65.5 -124.5 0.5 1 1
9 0 1 0 0 0 1 0 0 0 1 -68 61.5 -119.5 0.5 1 1
9 0 1 0 0 0 1 0 0 0 1 -67.5 37.5 -45 1 1 0.5
9 0 1 0 0 0 1 0 0 0 1 -69 97.5 -144.5 0.5 1 1
9 0 1 0 0 0 1 0 0 0 1 -69 83.5 -133.5 0.5 1 1
9 0 1 0 0 0 1 0 0 0 1 -69 61.5 -114.5 0.5 1 1
9 0 1 0 0 0 1 0 0 0 1 -69 53.5 -103.5 0.5 1 1
9 0 1 0 0 0 1 0 0 0 1 -69 50.5 -99.5 0.5 1 1
9 0 1 0 0 0 1 0 0 0 1 -70 103.5 -138 0.5 2 0.5
9 0 1 0 0 0 1 0 0 0 1 -70 98.5 -139.5 0.5 1 1
9 0 1 0 0 0 1 0 0 0 1 -70 93.5 -136.5 0.5 1 1
9 0 1 0 0 0 1 0 0 0 1 -70 84.5 -129.5 0.5 1 1
9 0 1 0 0 0 1 0 0 0 1 -70 65.5 -113.5 0.5 1 1
9 0 1 0 0 0 1 0 0 0 1 -70 60.5 -107.5 0.5 1 1
9 0 1 0 0 0 1 0 0 0 1 -70 57.5 -104.5 0.5 1 1
9 0 1 0 0 0 1 0 0 0 1 -70 56.5 -102.5 0.5 1 1
9 0 1 0 0 0 1 0 0 0 1 -70 54.5 -99.5 0.5 1 1
9 0 1 0 0 0 1 0 0 0 1 -70 35.5 0.5 0.5 1 1
9 0 1 0 0 0 1 0 0 0 1 -71 97.5 -129 0.5 2 0.5
9 0 1 0 0 0 1 0 0 0 1 -71 77.5 -117.5 0.5 1 1
9 0 1 0 0 0 1 0 0 0 1 -71 66.5 -107.5 0.5 1 1
9 0 1 0 0 0 1 0 0 0 1 -71 62.5 -103.5 0.5 1 1
9 0 1 0 0 0 1 0 0 0 1 -71 54.5 -94.5 0.5 1 1
9 0 1 0 0 0 1 0 0 0 1 -71 53.5 -92.5 0.5 1 1
9 0 1 0 0 0 1 0 0 0 1 -71 51.5 -89.5 0.5 1 1
9 0 1 0 0 0 1 0 0 0 1 -71 43 -73.5 0.5 0.5 2
9 0 1 0 0 0 1 0 0 0 1 -71 40.5 -67.5 0.5 1 1
9 0 1 0 0 0 1 0 0 0 1 -71.5 38.5 -52 1 1 0.5
9 0 1 0 0 0 1 0 0 0 1 -73 42 -59.5 0.5 0.5 2
9 0 1 0 0 0 1 0 0 0 1 -73 39 -50.5 0.5 0.5 2
9 0 1 0 0 0 1 0 0 0 1 -74 41 -50.5 0.5 0.5 2
9 0 1 0 0 0 1 0 0 0 1 -75 41 -41.5 0.5 0.5 2
9 0 1 0 0 0 1 0 0 0 1 75 44 -50 0.5 0.5 1.5
9 0 1 0 0 0 1 0 0 0 1 75 42 -45 0.5 0.5 1.5
9 0 1 0 0 0 1 0 0 0 1 74 38 -39 0.5 0.5 1.5
9 0 1 0 0 0 1 0 0 0 1 72 112 -132 0.5 1.5 0.5
9 0 1 0 0 0 1 0 0 0 1 72 106 -129 0.5 0.5 1.5
9 0 1 0 0 0 1 0 0 0 1 72 102 -125 0.5 1.5 0.5
9 0 1 0 0 0 1 0 0 0 1 72 94 -120 0.5 1.5 0.5
9 0 1 0 0 0 1 0 0 0 1 72 55 -89 0.5 1.5 0.5
9 0 1 0 0 0 1 0 0 0 1 72 51 -83 0.5 1.5 0.5
9 0 1 0 0 0 1 0 0 0 1 72 40 -61 0.5 0.5 1.5
9 0 1 0 0 0 1 0 0 0 1 72 37 -51 0.5 0.5 1.5
9 0 1 0 0 0 1 0 0 0 1 72 33 18 0.5 1.5 0.5
9 0 1 0 0 0 1 0 0 0 1 71 112 -139 0.5 1.5 0.5
9 0 1 0 0 0 1 0 0 0 1 71 112 -135 0.5 1.5 0.5
9 0 1 0 0 0 1 0 0 0 1 71 103 -136 0.5 1.5 0.5
9 0 1 0 0 0 1 0 0 0 1 71 103 -132 0.5 1.5 0.5
9 0 1 0 0 0 1 0 0 0 1 71 100 -135 0.5 1.5 0.5
9 0 1 0 0 0 1 0 0 0 1 71 93 -127 0.5 1.5 0.5
9 0 1 0 0 0 1 0 0 0 1 71 73 -114 0.5 1.5 0.5
9 0 1 0 0 0 1 0 0 0 1 71 70 -111 0.5 1.5 0.5
9 0 1 0 0 0 1 0 0 0 1 70 98 -135 0.5 1.5 0.5
9 0 1 0 0 0 1 0 0 0 1 70 93 -133 0.5 1.5 0.5
9 0 1 0 0 0 1 0 0 0 1 70 64 -112 0.5 1.5 0.5
9 0 1 0 0 0 1 0 0 0 1 70 59 -106 0.5 1.5 0.5
9 0 1 0 0 0 1 0 0 0 1 70 52 -96 0.5 0.5 1.5
9 0 1 0 0 0 1 0 0 0 1 70 35 -57 0.5 0.5 1.5
9 0 1 0 0 0 1 0 0 0 1 69 115 -151 0.5 1.5 0.5
9 0 1 0 0 0 1 0 0 0 1 69 112 -147 0.5 1.5 0.5
9 0 1 0 0 0 1 0 0 0 1 69 98 -141 0.5 1.5 0.5
9 0 1 0 0 0 1 0 0 0 1 69 93 -139 0.5 1.5 0.5
9 0 1 0 0 0 1 0 0 0 1 69 88 -137 0.5 0.5 1.5
9 0 1 0 0 0 1 0 0 0 1 69 80 -131 0.5 1.5 0.5
9 0 1 0 0 0 1 0 0 0 1 69 58 -110 0.5 0.5 1.5
9 0 1 0 0 0 1 0 0 0 1 69 56 -107 0.5 0.5 1.5
9 0 1 0 0 0 1 0 0 0 1 69 32 -51 0.5 0.5 1.5
9 0 1 0 0 0 1 0 0 0 1 68 111 -155 0.5 1.5 0.5
9 0 1 0 0 0 1 0 0 0 1 68 101 -148 0.5 1.5 0.5
9 0 1 0 0 0 1 0 0 0 1 68 96 -149 0.5 1.5 0.5
9 0 1 0 0 0 1 0 0 0 1 68 75 -132 0.5 1.5 0.5
9 0 1 0 0 0 1 0 0 0 1 68 72 -130 0.5 1.5 0.5
9 0 1 0 0 0 1 0 0 0 1 68 51 -105 0.5 0.5 1.5
9 0 1 0 0 0 1 0 0 0 1 67 97 -155 0.5 1.5 0.5
9 0 1 0 0 0 1 0 0 0 1 67 72 -135 0.5 1.5 0.5
9 0 1 0 0 0 1 0 0 0 1 66 102 -160 0.5 1.5 0.5
9 0 1 0 0 0 1 0 0 0 1 65 105 -167 0.5 1.5 0.5
9 0 1 0 0 0 1 0 0 0 1 65 94 -160 0.5 1.5 0.5
9 0 1 0 0 0 1 0 0 0 1 65 92 -159 0.5 1.5 0.5
9 0 1 0 0 0 1 0 0 0 1 65 27 -58 0.5 0.5 1.5
9 0 1 0 0 0 1 0 0 0 1 65 26 -51 0.5 0.5 1.5
9 0 1 0 0 0 1 0 0 0 1 64 117 -175 0.5 1.5 0.5
9 0 1 0 0 0 1 0 0 0 1 64 107 -172 0.5 1.5 0.5
9 0 1 0 0 0 1 0 0 0 1 64 99 -168 0.5 1.5 0.5
9 0 1 0 0 0 1 0 0 0 1 64 97 -167 0.5 1.5 0.5
9 0 1 0 0 0 1 0 0 0 1 64 75 -150 0.5 1.5 0.5
9 0 1 0 0 0 1 0 0 0 1 64 73 -148 0.5 1.5 0.5
9 0 1 0 0 0 1 0 0 0 1 64 56 -61 0.5 1.5 0.5
9 0 1 0 0 0 1 0 0 0 1 63 109 -177 0.5 1.5 0.5
9 0 1 0 0 0 1 0 0 0 1 63 106 -176 0.5 1.5 0.5
9 0 1 0 0 0 1 0 0 0 1 63 98 -171 0.5 1.5 0.5
9 0 1 0 0 0 1 0 0 0 1 63 96 -170 0.5 1.5 0.5
9 0 1 0 0 0 1 0 0 0 1 62 114 -183 0.5 1.5 0.5
9 0 1 0 0 0 1 0 0 0 1 62 111 -182 0.5 1.5 0.5
9 0 1 0 0 0 1 0 0 0 1 62 101 -177 0.5 1.5 0.5
9 0 1 0 0 0 1 0 0 0 1 62 96 -174 0.5 1.5 0.5
9 0 1 0 0 0 1 0 0 0 1 62 24 -54 0.5 1.5 0.5
9 0 1 0 0 0 1 0 0 0 1 61 60 -61 0.5 1.5 0.5
9 0 1 0 0 0 1 0 0 0 1 60 112 -189 0.5 1.5 0.5
9 0 1 0 0 0 1 0 0 0 1 60 108 -188 0.5 1.5 0.5
9 0 1 0 0 0 1 0 0 0 1 60 56 -59 0.5 1.5 0.5
9 0 1 0 0 0 1 0 0 0 1 60 27 -81 0.5 0.5 1.5
9 0 1 0 0 0 1 0 0 0 1 59 114 -193 0.5 1.5 0.5
9 0 1 0 0 0 1 0 0 0 1 59 108 -191 0.5 1.5 0.5
9 0 1 0 0 0 1 0 0 0 1 59 56 -57 0.5 1.5 0.5
9 0 1 0 0 0 1 0 0 0 1 59 56 -50 0.5 1.5 0.5
9 0 1 0 0 0 1 0 0 0 1 59 28 -86 0.5 0.5 1.5
9 0 1 0 0 0 1 0 0 0 1 58 106 -194 0.5 1.5 0.5
9 0 1 0 0 0 1 0 0 0 1 56 28 -83 0.5 0.5 1.5
9 0 1 0 0 0 1 0 0 0 1 54 111 -208 0.5 1.5 0.5
9 0 1 0 0 0 1 0 0 0 1 53 114 -212 0.5 1.5 0.5
9 0 1 0 0 0 1 0 0 0 1 53 111 -211 0.5 1.5 0.5
9 0 1 0 0 0 1 0 0 0 1 53 28 -92 0.5 0.5 1.5
9 0 1 0 0 0 1 0 0 0 1 52 117 -216 0.5 1.5 0.5
9 0 1 0 0 0 1 0 0 0 1 51 117 -219 0.5 1.5 0.5
9 0 1 0 0 0 1 0 0 0 1 51 115 -218 0.5 1.5 0.5
9 0 1 0 0 0 1 0 0 0 1 50 28 -100 0.5 0.5 1.5
9 0 1 0 0 0 1 0 0 0 1 48 117 -227 0.5 1.5 0.5
9 0 1 0 0 0 1 0 0 0 1 48 28 -109 0.5 0.5 1.5
9 0 1 0 0 0 1 0 0 0 1 48 11 -40 0.5 0.5 1.5
9 0 1 0 0 0 1 0 0 0 1 45 115 -234 0.5 1.5 0.5
9 0 1 0 0 0 1 0 0 0 1 45 10 -40 0.5 0.5 1.5
9 0 1 0 0 0 1 0 0 0 1 43 112 -238 0.5 1.5 0.5
9 0 1 0 0 0 1 0 0 0 1 43 7 10 0.5 0.5 1.5
9 0 1 0 0 0 1 0 0 0 1 39 10 10 0.5 0.5 1.5
9 0 1 0 0 0 1 0 0 0 1 36 76 -210 0.5 0.5 1.5
9 0 1 0 0 0 1 0 0 0 1 35 78 -215 0.5 0.5 1.5
9 0 1 0 0 0 1 0 0 0 1 34 75 -211 0.5 0.5 1.5
9 0 1 0 0 0 1 0 0 0 1 33 5 -29 0.5 0.5 1.5
9 0 1 0 0 0 1 0 0 0 1 32 80 -222 0.5 0.5 1.5
9 0 1 0 0 0 1 0 0 0 1 32 79 -220 0.5 0.5 1.5
9 0 1 0 0 0 1 0 0 0 1 31 77 -218 0.5 0.5 1.5
9 0 1 0 0 0 1 0 0 0 1 31 5 -36 0.5 0.5 1.5
9 0 1 0 0 0 1 0 0 0 1 31 67 -202 1.5 0.5 0.5
9 0 1 0 0 0 1 0 0 0 1 28 69 -208 1.5 0.5 0.5
9 0 1 0 0 0 1 0 0 0 1 27 7 -63 0.5 0.5 1.5
9 0 1 0 0 0 1 0 0 0 1 26 85 -237 0.5 0.5 1.5
9 0 1 0 0 0 1 0 0 0 1 27 70 -210 1.5 0.5 0.5
9 0 1 0 0 0 1 0 0 0 1 25 79 -228 0.5 0.5 1.5
9 0 1 0 0 0 1 0 0 0 1 26 28 -131 1.5 0.5 0.5
9 0 1 0 0 0 1 0 0 0 1 25 77 -225 1.5 0.5 0.5
9 0 1 0 0 0 1 0 0 0 1 24 6 -59 1.5 0.5 0.5
9 0 1 0 0 0 1 0 0 0 1 23 84 -239 1.5 0.5 0.5
9 0 1 0 0 0 1 0 0 0 1 22 21 10 0.5 1.5 0.5
9 0 1 0 0 0 1 0 0 0 1 22 83 -238 1.5 0.5 0.5
9 0 1 0 0 0 1 0 0 0 1 22 82 -236 1.5 0.5 0.5
9 0 1 0 0 0 1 0 0 0 1 20 21 8 0.5 1.5 0.5
9 0 1 0 0 0 1 0 0 0 1 20 21 12 0.5 1.5 0.5
9 0 1 0 0 0 1 0 0 0 1 19 100 -268 1.5 0.5 0.5
9 0 1 0 0 0 1 0 0 0 1 19 66 -208 1.5 0.5 0.5
9 0 1 0 0 0 1 0 0 0 1 18 21 10 0.5 1.5 0.5
9 0 1 0 0 0 1 0 0 0 1 19 9 -82 1.5 0.5 0.5
9 0 1 0 0 0 1 0 0 0 1 19 5 -60 1.5 0.5 0.5
9 0 1 0 0 0 1 0 0 0 1 18 95 -261 1.5 0.5 0.5
9 0 1 0 0 0 1 0 0 0 1 18 88 -250 1.5 0.5 0.5
9 0 1 0 0 0 1 0 0 0 1 18 70 -216 1.5 0.5 0.5
9 0 1 0 0 0 1 0 0 0 1 18 68 -212 1.5 0.5 0.5
9 0 1 0 0 0 1 0 0 0 1 18 67 -210 1.5 0.5 0.5
9 0 1 0 0 0 1 0 0 0 1 17 101 -271 1.5 0.5 0.5
9 0 1 0 0 0 1 0 0 0 1 17 60 -198 1.5 0.5 0.5
9 0 1 0 0 0 1 0 0 0 1 17 17 -113 1.5 0.5 0.5
9 0 1 0 0 0 1 0 0 0 1 16 62 -202 1.5 0.5 0.5
9 0 1 0 0 0 1 0 0 0 1 16 54 -188 1.5 0.5 0.5
9 0 1 0 0 0 1 0 0 0 1 16 48 -177 1.5 0.5 0.5
9 0 1 0 0 0 1 0 0 0 1 16 35 -152 1.5 0.5 0.5
9 0 1 0 0 0 1 0 0 0 1 16 34 -150 1.5 0.5 0.5
9 0 1 0 0 0 1 0 0 0 1 16 27 -136 1.5 0.5 0.5
9 0 1 0 0 0 1 0 0 0 1 15 95 -264 1.5 0.5 0.5
9 0 1 0 0 0 1 0 0 0 1 15 75 -227 1.5 0.5 0.5
9 0 1 0 0 0 1 0 0 0 1 15 74 -225 1.5 0.5 0.5
9 0 1 0 0 0 1 0 0 0 1 15 73 -223 1.5 0.5 0.5
9 0 1 0 0 0 1 0 0 0 1 15 41 -164 1.5 0.5 0.5
9 0 1 0 0 0 1 0 0 0 1 15 28 -139 1.5 0.5 0.5
9 0 1 0 0 0 1 0 0 0 1 15 23 -129 1.5 0.5 0.5
9 0 1 0 0 0 1 0 0 0 1 15 18 -116 1.5 0.5 0.5
9 0 1 0 0 0 1 0 0 0 1 14 98 -269 1.5 0.5 0.5
9 0 1 0 0 0 1 0 0 0 1 14 82 -241 1.5 0.5 0.5
9 0 1 0 0 0 1 0 0 0 1 14 65 -209 1.5 0.5 0.5
9 0 1 0 0 0 1 0 0 0 1 13 96 -267 1.5 0.5 0.5
9 0 1 0 0 0 1 0 0 0 1 13 93 -262 1.5 0.5 0.5
9 0 1 0 0 0 1 0 0 0 1 13 27 -138 1.5 0.5 0.5
9 0 1 0 0 0 1 0 0 0 1 12 90 -257 1.5 0.5 0.5
9 0 1 0 0 0 1 0 0 0 1 12 18 -117 1.5 0.5 0.5
9 0 1 0 0 0 1 0 0 0 1 11 98 -271 1.5 0.5 0.5
9 0 1 0 0 0 1 0 0 0 1 11 19 -120 1.5 0.5 0.5
9 0 1 0 0 0 1 0 0 0 1 10 101 -276 1.5 0.5 0.5
9 0 1 0 0 0 1 0 0 0 1 10 88 -254 1.5 0.5 0.5
9 0 1 0 0 0 1 0 0 0 1 10 71 -220 1.5 0.5 0.5
9 0 1 0 0 0 1 0 0 0 1 9 7 -77 1.5 0.5 0.5
9 0 1 0 0 0 1 0 0 0 1 8 100 -275 1.5 0.5 0.5
9 0 1 0 0 0 1 0 0 0 1 8 75 -229 1.5 0.5 0.5
9 0 1 0 0 0 1 0 0 0 1 7 101 -277 1.5 0.5 0.5
9 0 1 0 0 0 1 0 0 0 1 7 77 -233 1.5 0.5 0.5
9 0 1 0 0 0 1 0 0 0 1 6 70 -219 1.5 0.5 0.5
9 0 1 0 0 0 1 0 0 0 1 5 68 -215 1.5 0.5 0.5
9 0 1 0 0 0 1 0 0 0 1 5 14 -107 1.5 0.5 0.5
9 0 1 0 0 0 1 0 0 0 1 5 12 -99 1.5 0.5 0.5
9 0 1 0 0 0 1 0 0 0 1 4 67 -213 1.5 0.5 0.5
9 0 1 0 0 0 1 0 0 0 1 4 56 -194 1.5 0.5 0.5
9 0 1 0 0 0 1 0 0 0 1 4 13 -103 1.5 0.5 0.5
9 0 1 0 0 0 1 0 0 0 1 3 76 -232 1.5 0.5 0.5
9 0 1 0 0 0 1 0 0 0 1 3 71 -222 1.5 0.5 0.5
9 0 1 0 0 0 1 0 0 0 1 2 21 10 0.5 1.5 0.5
9 0 1 0 0 0 1 0 0 0 1 0 63 -195 0.5 1.5 0.5
9 0 1 0 0 0 1 0 0 0 1 0 21 8 0.5 1.5 0.5
9 0 1 0 0 0 1 0 0 0 1 0 21 12 0.5 1.5 0.5
9 0 1 0 0 0 1 0 0 0 1 0 118 -297 1.5 0.5 0.5
9 0 1 0 0 0 1 0 0 0 1 0 116 -296 1.5 0.5 0.5
9 0 1 0 0 0 1 0 0 0 1 0 111 -292 1.5 0.5 0.5
9 0 1 0 0 0 1 0 0 0 1 0 93 -266 1.5 0.5 0.5
9 0 1 0 0 0 1 0 0 0 1 0 92 -264 1.5 0.5 0.5
9 0 1 0 0 0 1 0 0 0 1 0 79 -239 1.5 0.5 0.5
9 0 1 0 0 0 1 0 0 0 1 0 76 -233 1.5 0.5 0.5
9 0 1 0 0 0 1 0 0 0 1 0 74 -229 1.5 0.5 0.5
9 0 1 0 0 0 1 0 0 0 1 0 65 -210 1.5 0.5 0.5
9 0 1 0 0 0 1 0 0 0 1 0 60 -202 1.5 0.5 0.5
9 0 1 0 0 0 1 0 0 0 1 0 45 -174 1.5 0.5 0.5
9 0 1 0 0 0 1 0 0 0 1 0 38 -161 1.5 0.5 0.5
9 0 1 0 0 0 1 0 0 0 1 0 37 -159 1.5 0.5 0.5
9 0 1 0 0 0 1 0 0 0 1 0 30 -146 1.5 0.5 0.5
9 0 1 0 0 0 1 0 0 0 1 0 28 -142 1.5 0.5 0.5
9 0 1 0 0 0 1 0 0 0 1 0 24 -134 1.5 0.5 0.5
9 0 1 0 0 0 1 0 0 0 1 0 21 -127 1.5 0.5 0.5
9 0 1 0 0 0 1 0 0 0 1 0 16 -114 1.5 0.5 0.5
9 0 1 0 0 0 1 0 0 0 1 0 10 -92 1.5 0.5 0.5
9 0 1 0 0 0 1 0 0 0 1 0 7 -80 1.5 0.5 0.5
9 0 1 0 0 0 1 0 0 0 1 -2 21 10 0.5 1.5 0.5
9 0 1 0 0 0 1 0 0 0 1 -3 76 -232 1.5 0.5 0.5
9 0 1 0 0 0 1 0 0 0 1 -3 71 -222 1.5 0.5 0.5
9 0 1 0 0 0 1 0 0 0 1 -4 67 -213 1.5 0.5 0.5
9 0 1 0 0 0 1 0 0 0 1 -4 56 -194 1.5 0.5 0.5
9 0 1 0 0 0 1 0 0 0 1 -4 13 -103 1.5 0.5 0.5
9 0 1 0 0 0 1 0 0 0 1 -5 68 -215 1.5 0.5 0.5
9 0 1 0 0 0 1 0 0 0 1 -5 12 -99 1.5 0.5 0.5
9 0 1 0 0 0 1 0 0 0 1 -6 70 -219 1.5 0.5 0.5
9 0 1 0 0 0 1 0 0 0 1 -7 101 -277 1.5 0.5 0.5
9 0 1 0 0 0 1 0 0 0 1 -7 77 -233 1.5 0.5 0.5
9 0 1 0 0 0 1 0 0 0 1 -8 100 -275 1.5 0.5 0.5
9 0 1 0 0 0 1 0 0 0 1 -8 14 -106 1.5 0.5 0.5
9 0 1 0 0 0 1 0 0 0 1 -10 101 -276 1.5 0.5 0.5
9 0 1 0 0 0 1 0 0 0 1 -10 88 -254 1.5 0.5 0.5
9 0 1 0 0 0 1 0 0 0 1 -10 71 -220 1.5 0.5 0.5
9 0 1 0 0 0 1 0 0 0 1 -11 98 -271 1.5 0.5 0.5
9 0 1 0 0 0 1 0 0 0 1 -11 19 -120 1.5 0.5 0.5
9 0 1 0 0 0 1 0 0 0 1 -12 90 -257 1.5 0.5 0.5
9 0 1 0 0 0 1 0 0 0 1 -12 18 -117 1.5 0.5 0.5
9 0 1 0 0 0 1 0 0 0 1 -13 5 -63 0.5 0.5 1.5
9 0 1 0 0 0 1 0 0 0 1 -13 96 -267 1.5 0.5 0.5
9 0 1 0 0 0 1 0 0 0 1 -13 93 -262 1.5 0.5 0.5
9 0 1 0 0 0 1 0 0 0 1 -13 27 -138 1.5 0.5 0.5
9 0 1 0 0 0 1 0 0 0 1 -14 98 -269 1.5 0.5 0.5
9 0 1 0 0 0 1 0 0 0 1 -14 94 -263 1.5 0.5 0.5
9 0 1 0 0 0 1 0 0 0 1 -14 82 -241 1.5 0.5 0.5
9 0 1 0 0 0 1 0 0 0 1 -14 65 -209 1.5 0.5 0.5
9 0 1 0 0 0 1 0 0 0 1 -15 75 -227 1.5 0.5 0.5
9 0 1 0 0 0 1 0 0 0 1 -15 74 -225 1.5 0.5 0.5
9 0 1 0 0 0 1 0 0 0 1 -15 41 -164 1.5 0.5 0.5
9 0 1 0 0 0 1 0 0 0 1 -15 28 -139 1.5 0.5 0.5
9 0 1 0 0 0 1 0 0 0 1 -15 28 -135 1.5 0.5 0.5
9 0 1 0 0 0 1 0 0 0 1 -15 23 -129 1.5 0.5 0.5
9 0 1 0 0 0 1 0 0 0 1 -15 18 -116 1.5 0.5 0.5
9 0 1 0 0 0 1 0 0 0 1 -16 62 -202 1.5 0.5 0.5
9 0 1 0 0 0 1 0 0 0 1 -16 54 -188 1.5 0.5 0.5
9 0 1 0 0 0 1 0 0 0 1 -16 48 -177 1.5 0.5 0.5
9 0 1 0 0 0 1 0 0 0 1 -16 35 -152 1.5 0.5 0.5
9 0 1 0 0 0 1 0 0 0 1 -16 34 -150 1.5 0.5 0.5
9 0 1 0 0 0 1 0 0 0 1 -17 101 -271 1.5 0.5 0.5
9 0 1 0 0 0 1 0 0 0 1 -17 60 -198 1.5 0.5 0.5
9 0 1 0 0 0 1 0 0 0 1 -18 21 10 0.5 1.5 0.5
9 0 1 0 0 0 1 0 0 0 1 -17 17 -113 1.5 0.5 0.5
9 0 1 0 0 0 1 0 0 0 1 -18 95 -261 1.5 0.5 0.5
9 0 1 0 0 0 1 0 0 0 1 -18 88 -250 1.5 0.5 0.5
9 0 1 0 0 0 1 0 0 0 1 -18 70 -216 1.5 0.5 0.5
9 0 1 0 0 0 1 0 0 0 1 -18 68 -212 1.5 0.5 0.5
9 0 1 0 0 0 1 0 0 0 1 -18 67 -210 1.5 0.5 0.5
9 0 1 0 0 0 1 0 0 0 1 -19 100 -268 1.5 0.5 0.5
9 0 1 0 0 0 1 0 0 0 1 -19 66 -208 1.5 0.5 0.5
9 0 1 0 0 0 1 0 0 0 1 -20 21 8 0.5 1.5 0.5
9 0 1 0 0 0 1 0 0 0 1 -20 21 12 0.5 1.5 0.5
9 0 1 0 0 0 1 0 0 0 1 -19 5 -60 1.5 0.5 0.5
9 0 1 0 0 0 1 0 0 0 1 -22 21 10 0.5 1.5 0.5
9 0 1 0 0 0 1 0 0 0 1 -21 9 -80 1.5 0.5 0.5
9 0 1 0 0 0 1 0 0 0 1 -22 82 -236 1.5 0.5 0.5
9 0 1 0 0 0 1 0 0 0 1 -26 85 -237 0.5 0.5 1.5
9 0 1 0 0 0 1 0 0 0 1 -25 75 -221 1.5 0.5 0.5
9 0 1 0 0 0 1 0 0 0 1 -25 5 -49 1.5 0.5 0.5
9 0 1 0 0 0 1 0 0 0 1 -26 28 -131 1.5 0.5 0.5
9 0 1 0 0 0 1 0 0 0 1 -27 70 -210 1.5 0.5 0.5
9 0 1 0 0 0 1 0 0 0 1 -30 72 -210 0.5 0.5 1.5
9 0 1 0 0 0 1 0 0 0 1 -31 77 -218 0.5 0.5 1.5
9 0 1 0 0 0 1 0 0 0 1 -31 5 -36 0.5 0.5 1.5
9 0 1 0 0 0 1 0 0 0 1 -32 80 -222 0.5 0.5 1.5
9 0 1 0 0 0 1 0 0 0 1 -32 79 -220 0.5 0.5 1.5
9 0 1 0 0 0 1 0 0 0 1 -31 67 -202 1.5 0.5 0.5
9 0 1 0 0 0 1 0 0 0 1 -33 5 -29 0.5 0.5 1.5
9 0 1 0 0 0 1 0 0 0 1 -33 28 -129 1.5 0.5 0.5
9 0 1 0 0 0 1 0 0 0 1 -35 78 -215 0.5 0.5 1.5
9 0 1 0 0 0 1 0 0 0 1 -36 76 -210 0.5 0.5 1.5
9 0 1 0 0 0 1 0 0 0 1 -36 6 -32 0.5 0.5 1.5
9 0 1 0 0 0 1 0 0 0 1 -39 10 10 0.5 0.5 1.5
9 0 1 0 0 0 1 0 0 0 1 -39 7 -35 0.5 0.5 1.5
9 0 1 0 0 0 1 0 0 0 1 -41 8 -42 0.5 0.5 1.5
9 0 1 0 0 0 1 0 0 0 1 -43 112 -238 0.5 1.5 0.5
9 0 1 0 0 0 1 0 0 0 1 -43 7 10 0.5 0.5 1.5
9 0 1 0 0 0 1 0 0 0 1 -45 115 -234 0.5 1.5 0.5
9 0 1 0 0 0 1 0 0 0 1 -48 117 -227 0.5 1.5 0.5
9 0 1 0 0 0 1 0 0 0 1 -48 11 -40 0.5 0.5 1.5
9 0 1 0 0 0 1 0 0 0 1 -49 28 -101 1.5 0.5 0.5
9 0 1 0 0 0 1 0 0 0 1 -51 117 -219 0.5 1.5 0.5
9 0 1 0 0 0 1 0 0 0 1 -51 115 -218 0.5 1.5 0.5
9 0 1 0 0 0 1 0 0 0 1 -52 117 -216 0.5 1.5 0.5
9 0 1 0 0 0 1 0 0 0 1 -53 114 -212 0.5 1.5 0.5
9 0 1 0 0 0 1 0 0 0 1 -53 111 -211 0.5 1.5 0.5
9 0 1 0 0 0 1 0 0 0 1 -53 28 -92 0.5 0.5 1.5
9 0 1 0 0 0 1 0 0 0 1 -54 111 -208 0.5 1.5 0.5
9 0 1 0 0 0 1 0 0 0 1 -57 28 -80 0.5 0.5 1.5
9 0 1 0 0 0 1 0 0 0 1 -58 106 -194 0.5 1.5 0.5
9 0 1 0 0 0 1 0 0 0 1 -59 114 -193 0.5 1.5 0.5
9 0 1 0 0 0 1 0 0 0 1 -59 108 -191 0.5 1.5 0.5
9 0 1 0 0 0 1 0 0 0 1 -59 56 -57 0.5 1.5 0.5
9 0 1 0 0 0 1 0 0 0 1 -59 56 -50 0.5 1.5 0.5
9 0 1 0 0 0 1 0 0 0 1 -60 112 -189 0.5 1.5 0.5
9 0 1 0 0 0 1 0 0 0 1 -60 108 -188 0.5 1.5 0.5
9 0 1 0 0 0 1 0 0 0 1 -60 56 -59 0.5 1.5 0.5
9 0 1 0 0 0 1 0 0 0 1 -60 27 -81 0.5 0.5 1.5
9 0 1 0 0 0 1 0 0 0 1 -61 60 -61 0.5 1.5 0.5
9 0 1 0 0 0 1 0 0 0 1 -61 28 -80 0.5 0.5 1.5
9 0 1 0 0 0 1 0 0 0 1 -62 114 -183 0.5 1.5 0.5
9 0 1 0 0 0 1 0 0 0 1 -62 111 -182 0.5 1.5 0.5
9 0 1 0 0 0 1 0 0 0 1 -62 101 -177 0.5 1.5 0.5
9 0 1 0 0 0 1 0 0 0 1 -62 96 -174 0.5 1.5 0.5
9 0 1 0 0 0 1 0 0 0 1 -62 24 -54 0.5 1.5 0.5
9 0 1 0 0 0 1 0 0 0 1 -63 24 -53.5 0.5 0.5 2
9 0 1 0 0 0 1 0 0 0 1 -63 109 -177 0.5 1.5 0.5
9 0 1 0 0 0 1 0 0 0 1 -63 106 -176 0.5 1.5 0.5
9 0 1 0 0 0 1 0 0 0 1 -63 98 -171 0.5 1.5 0.5
9 0 1 0 0 0 1 0 0 0 1 -63 96 -170 0.5 1.5 0.5
9 0 1 0 0 0 1 0 0 0 1 -64 117 -175 0.5 1.5 0.5
9 0 1 0 0 0 1 0 0 0 1 -64 107 -172 0.5 1.5 0.5
9 0 1 0 0 0 1 0 0 0 1 -64 99 -168 0.5 1.5 0.5
9 0 1 0 0 0 1 0 0 0 1 -64 97 -167 0.5 1.5 0.5
9 0 1 0 0 0 1 0 0 0 1 -64 75 -150 0.5 1.5 0.5
9 0 1 0 0 0 1 0 0 0 1 -64 73 -148 0.5 1.5 0.5
9 0 1 0 0 0 1 0 0 0 1 -64 56 -61 0.5 1.5 0.5
9 0 1 0 0 0 1 0 0 0 1 -65 105 -167 0.5 1.5 0.5
9 0 1 0 0 0 1 0 0 0 1 -65 94 -160 0.5 1.5 0.5
9 0 1 0 0 0 1 0 0 0 1 -65 92 -159 0.5 1.5 0.5
9 0 1 0 0 0 1 0 0 0 1 -65 27 -58 0.5 0.5 1.5
9 0 1 0 0 0 1 0 0 0 1 -66 102 -160 0.5 1.5 0.5
9 0 1 0 0 0 1 0 0 0 1 -67 97 -155 0.5 1.5 0.5
9 0 1 0 0 0 1 0 0 0 1 -67 72 -135 0.5 1.5 0.5
9 0 1 0 0 0 1 0 0 0 1 -68 111 -155 0.5 1.5 0.5
9 0 1 0 0 0 1 0 0 0 1 -68 101 -148 0.5 1.5 0.5
9 0 1 0 0 0 1 0 0 0 1 -68 96 -149 0.5 1.5 0.5
9 0 1 0 0 0 1 0 0 0 1 -68 75 -132 0.5 1.5 0.5
9 0 1 0 0 0 1 0 0 0 1 -68 72 -130 0.5 1.5 0.5
9 0 1 0 0 0 1 0 0 0 1 -68 51 -105 0.5 0.5 1.5
9 0 1 0 0 0 1 0 0 0 1 -69 115 -151 0.5 1.5 0.5
9 0 1 0 0 0 1 0 0 0 1 -69 112 -147 0.5 1.5 0.5
9 0 1 0 0 0 1 0 0 0 1 -69 98 -141 0.5 1.5 0.5
9 0 1 0 0 0 1 0 0 0 1 -69 93 -139 0.5 1.5 0.5
9 0 1 0 0 0 1 0 0 0 1 -69 88 -137 0.5 0.5 1.5
9 0 1 0 0 0 1 0 0 0 1 -69 80 -131 0.5 1.5 0.5
9 0 1 0 0 0 1 0 0 0 1 -69 58 -110 0.5 0.5 1.5
9 0 1 0 0 0 1 0 0 0 1 -69 56 -107 0.5 0.5 1.5
9 0 1 0 0 0 1 0 0 0 1 -69 33 -50 0.5 1.5 0.5
9 0 1 0 0 0 1 0 0 0 1 -70 98 -135 0.5 1.5 0.5
9 0 1 0 0 0 1 0 0 0 1 -70 93 -133 0.5 1.5 0.5
9 0 1 0 0 0 1 0 0 0 1 -70 64 -112 0.5 1.5 0.5
9 0 1 0 0 0 1 0 0 0 1 -70 59 -106 0.5 1.5 0.5
9 0 1 0 0 0 1 0 0 0 1 -70 52 -96 0.5 0.5 1.5
9 0 1 0 0 0 1 0 0 0 1 -70 35 -57 0.5 0.5 1.5
9 0 1 0 0 0 1 0 0 0 1 -71 112 -139 0.5 1.5 0.5
9 0 1 0 0 0 1 0 0 0 1 -71 112 -135 0.5 1.5 0.5
9 0 1 0 0 0 1 0 0 0 1 -71 103 -136 0.5 1.5 0.5
9 0 1 0 0 0 1 0 0 0 1 -71 103 -132 0.5 1.5 0.5
9 0 1 0 0 0 1 0 0 0 1 -71 100 -135 0.5 1.5 0.5
9 0 1 0 0 0 1 0 0 0 1 -71 93 -127 0.5 1.5 0.5
9 0 1 0 0 0 1 0 0 0 1 -71 73 -114 0.5 1.5 0.5
9 0 1 0 0 0 1 0 0 0 1 -71 70 -111 0.5 1.5 0.5
9 0 1 0 0 0 1 0 0 0 1 -72 40 -61 0.5 0.5 1.5
9 0 1 0 0 0 1 0 0 0 1 -72 37 -51 0.5 0.5 1.5
9 0 1 0 0 0 1 0 0 0 1 -73 41 -57 0.5 0.5 1.5
9 0 1 0 0 0 1 0 0 0 1 -74 38 -39 0.5 0.5 1.5
9 0 1 0 0 0 1 0 0 0 1 -75 44 -50 0.5 0.5 1.5
9 0 1 0 0 0 1 0 0 0 1 -75 42 -45 0.5 0.5 1.5
