9 0 1 0 0 0 1 0 0 0 1 0 17.8 -97.5 5.5 0.5 67
9 0 1 0 0 0 1 0 0 0 1 0 13.8 -98 0.5 3.5 67.5
9 0 1 0 0 0 1 0 0 0 1 0 -27.7 -5 0.5 17 13.5
9 0 1 0 0 0 1 0 0 0 1 0 -21.2 -199 0.5 13.5 5.5
9 0 1 0 0 0 1 0 0 0 1 2 -18.7 -181 1.5 4 4.5
9 0 1 0 0 0 1 0 0 0 1 2 -18.7 -151 1.5 4 4.5
9 0 1 0 0 0 1 0 0 0 1 2 -18.7 -121 1.5 4 4.5
9 0 1 0 0 0 1 0 0 0 1 2 -18.7 -91 1.5 4 4.5
9 0 1 0 0 0 1 0 0 0 1 2 -18.7 -61 1.5 4 4.5
9 0 1 0 0 0 1 0 0 0 1 0 -0.2000008 8 6.5 7.5 0.5
9 0 1 0 0 0 1 0 0 0 1 0 1.799999 -35.5 0.5 8.5 5
9 0 1 0 0 0 1 0 0 0 1 0 -36.2 -24.5 0.5 6.5 6
9 0 1 0 0 0 1 0 0 0 1 0 -0.2000008 20 4.5 0.5 8.5
9 0 1 0 0 0 1 0 0 0 1 0 -40.2 20 4.5 0.5 8.5
9 0 1 0 0 0 1 0 0 0 1 1 39.3 -104.5 0.5 2 19
9 0 1 0 0 0 1 0 0 0 1 0 26.3 -69.5 3.5 5 1
9 0 1 0 0 0 1 0 0 0 1 0 26.3 -49.5 3.5 5 1
9 0 1 0 0 0 1 0 0 0 1 0 -40.2 -214 0.5 4.5 7.5
9 0 1 0 0 0 1 0 0 0 1 0 4.799999 -166.5 0.5 5.5 6
9 0 1 0 0 0 1 0 0 0 1 0 25.8 -89.5 3.5 4.5 1
9 0 1 0 0 0 1 0 0 0 1 0 4.799999 -136 0.5 5.5 5.5
9 0 1 0 0 0 1 0 0 0 1 0 4.799999 -106 0.5 5.5 5.5
9 0 1 0 0 0 1 0 0 0 1 0 4.799999 -76 0.5 5.5 5.5
9 0 1 0 0 0 1 0 0 0 1 1.5 -27.7 -181.5 1 5 3
9 0 1 0 0 0 1 0 0 0 1 1.5 -27.7 -151.5 1 5 3
9 0 1 0 0 0 1 0 0 0 1 1.5 -27.7 -121.5 1 5 3
9 0 1 0 0 0 1 0 0 0 1 1.5 -27.7 -91.5 1 5 3
9 0 1 0 0 0 1 0 0 0 1 1.5 -27.7 -61.5 1 5 3
9 0 1 0 0 0 1 0 0 0 1 -1.5 -13.7 -11 1 2 7.5
9 0 1 0 0 0 1 0 0 0 1 0 24.8 -109.5 3.5 3.5 1
9 0 1 0 0 0 1 0 0 0 1 1 42.3 -39.5 0.5 3 8
9 0 1 0 0 0 1 0 0 0 1 2 -13.7 -11 1.5 1 7.5
9 0 1 0 0 0 1 0 0 0 1 1 32.3 -174.5 0.5 2 11
9 0 1 0 0 0 1 0 0 0 1 3 -0.2000008 -166 2.5 0.5 8.5
9 0 1 0 0 0 1 0 0 0 1 3 -0.2000008 -136 2.5 0.5 8.5
9 0 1 0 0 0 1 0 0 0 1 3 -0.2000008 -106 2.5 0.5 8.5
9 0 1 0 0 0 1 0 0 0 1 3 -0.2000008 -76 2.5 0.5 8.5
9 0 1 0 0 0 1 0 0 0 1 0 24.3 -129.5 3.5 3 1
9 0 1 0 0 0 1 0 0 0 1 0 9.799999 -20 0.5 2.5 7.5
9 0 1 0 0 0 1 0 0 0 1 0 -0.2000008 -10 0.5 7.5 2.5
9 0 1 0 0 0 1 0 0 0 1 3 32.8 -35.5 0.5 1.5 12
9 0 1 0 0 0 1 0 0 0 1 -3 32.3 -65 0.5 1 17.5
9 0 1 0 0 0 1 0 0 0 1 4 -1.700001 -239 0.5 2 8.5
9 0 1 0 0 0 1 0 0 0 1 0 2.299999 20 0.5 2 8.5
9 0 1 0 0 0 1 0 0 0 1 0 -2.700001 20 0.5 2 8.5
9 0 1 0 0 0 1 0 0 0 1 0 -37.7 20 0.5 2 8.5
9 0 1 0 0 0 1 0 0 0 1 0 -42.7 20 0.5 2 8.5
9 0 1 0 0 0 1 0 0 0 1 0 14.8 -171.5 5.5 0.5 3
9 0 1 0 0 0 1 0 0 0 1 0 -1.200001 -196 0.5 6.5 2.5
9 0 1 0 0 0 1 0 0 0 1 0 -41.2 -196 0.5 6.5 2.5
9 0 1 0 0 0 1 0 0 0 1 2.5 7.299999 -191.5 2 2 2
9 0 1 0 0 0 1 0 0 0 1 3 3.299999 -173.5 2.5 3 1
9 0 1 0 0 0 1 0 0 0 1 3 3.299999 -159.5 2.5 3 1
9 0 1 0 0 0 1 0 0 0 1 3 3.299999 -143.5 2.5 3 1
9 0 1 0 0 0 1 0 0 0 1 3 3.299999 -129.5 2.5 3 1
9 0 1 0 0 0 1 0 0 0 1 3 3.299999 -113.5 2.5 3 1
9 0 1 0 0 0 1 0 0 0 1 3 3.299999 -99.5 2.5 3 1
9 0 1 0 0 0 1 0 0 0 1 3 3.299999 -83.5 2.5 3 1
9 0 1 0 0 0 1 0 0 0 1 3 3.299999 -69.5 2.5 3 1
9 0 1 0 0 0 1 0 0 0 1 3 3.299999 -53.5 2.5 3 1
9 0 1 0 0 0 1 0 0 0 1 2.5 -1.200001 -188.5 2 3.5 1
9 0 1 0 0 0 1 0 0 0 1 0 -4.200001 -209 0.5 5.5 2.5
9 0 1 0 0 0 1 0 0 0 1 0 18.8 -175 5.5 2.5 0.5
9 0 1 0 0 0 1 0 0 0 1 0 -37.7 -233 0.5 3 4.5
9 0 1 0 0 0 1 0 0 0 1 0 6.299999 6.5 6.5 1 1
9 0 1 0 0 0 1 0 0 0 1 0 -5.700001 7 6.5 2 0.5
9 0 1 0 0 0 1 0 0 0 1 1 29.8 -190.5 0.5 2.5 5
9 0 1 0 0 0 1 0 0 0 1 4 -6.700001 -255.5 0.5 2 6
9 0 1 0 0 0 1 0 0 0 1 2.5 -2.700001 -54.5 2 3 1
9 0 1 0 0 0 1 0 0 0 1 2.5 -6.700001 -157.5 2 3 1
9 0 1 0 0 0 1 0 0 0 1 2.5 -6.700001 -127.5 2 3 1
9 0 1 0 0 0 1 0 0 0 1 2.5 -6.700001 -97.5 2 3 1
9 0 1 0 0 0 1 0 0 0 1 2.5 -6.700001 -67.5 2 3 1
9 0 1 0 0 0 1 0 0 0 1 2.5 -7.700001 -187.5 2 3 1
9 0 1 0 0 0 1 0 0 0 1 2.5 -4.700001 -175 2 6 0.5
9 0 1 0 0 0 1 0 0 0 1 2.5 -7.700001 -145.5 2 3 1
9 0 1 0 0 0 1 0 0 0 1 2.5 -7.700001 -115.5 2 3 1
9 0 1 0 0 0 1 0 0 0 1 2.5 -7.700001 -85.5 2 3 1
9 0 1 0 0 0 1 0 0 0 1 2.5 8.299999 -142.5 3 2 1
9 0 1 0 0 0 1 0 0 0 1 2.5 8.299999 -112.5 3 2 1
9 0 1 0 0 0 1 0 0 0 1 2.5 8.299999 -82.5 3 2 1
9 0 1 0 0 0 1 0 0 0 1 2.5 8.299999 -52.5 3 2 1
9 0 1 0 0 0 1 0 0 0 1 0 12.3 -174 5.5 2 0.5
9 0 1 0 0 0 1 0 0 0 1 2.5 -8.200001 -55.5 2 2.5 1
9 0 1 0 0 0 1 0 0 0 1 0 -7.200001 5 6.5 0.5 1.5
9 0 1 0 0 0 1 0 0 0 1 3 30.3 -105 0.5 1 9.5
9 0 1 0 0 0 1 0 0 0 1 -1 43.8 -66.5 0.5 0.5 19
9 0 1 0 0 0 1 0 0 0 1 1 16.3 -244 0.5 2 4.5
9 0 1 0 0 0 1 0 0 0 1 1 13.3 -253 0.5 2 4.5
9 0 1 0 0 0 1 0 0 0 1 2 -12.7 -156.5 1.5 3 1
9 0 1 0 0 0 1 0 0 0 1 2 -12.7 -126.5 1.5 3 1
9 0 1 0 0 0 1 0 0 0 1 2 -12.7 -96.5 1.5 3 1
9 0 1 0 0 0 1 0 0 0 1 2 -12.7 -66.5 1.5 3 1
9 0 1 0 0 0 1 0 0 0 1 2 -10.7 -176 1.5 6 0.5
9 0 1 0 0 0 1 0 0 0 1 1 42.3 -94 0.5 1 8.5
9 0 1 0 0 0 1 0 0 0 1 2 -16.2 -186 1.5 5.5 0.5
9 0 1 0 0 0 1 0 0 0 1 1 10.3 -261.5 0.5 2 4
9 0 1 0 0 0 1 0 0 0 1 2.5 -2.700001 -144.5 2 2 1
9 0 1 0 0 0 1 0 0 0 1 2.5 -2.700001 -114.5 2 2 1
9 0 1 0 0 0 1 0 0 0 1 2.5 -2.700001 -84.5 2 2 1
9 0 1 0 0 0 1 0 0 0 1 0 12.3 -169.5 0.5 2 4
9 0 1 0 0 0 1 0 0 0 1 0 -27.7 -22.5 0.5 2 4
9 0 1 0 0 0 1 0 0 0 1 0 -44.7 -202.5 0.5 2 4
9 0 1 0 0 0 1 0 0 0 1 0 -44.7 -22.5 0.5 2 4
9 0 1 0 0 0 1 0 0 0 1 -1.5 1.299999 -41.5 2 2 1
9 0 1 0 0 0 1 0 0 0 1 3 8.799999 -160.5 2.5 1.5 1
9 0 1 0 0 0 1 0 0 0 1 3 8.799999 -130.5 2.5 1.5 1
9 0 1 0 0 0 1 0 0 0 1 3 8.799999 -100.5 2.5 1.5 1
9 0 1 0 0 0 1 0 0 0 1 3 8.799999 -70.5 2.5 1.5 1
9 0 1 0 0 0 1 0 0 0 1 1 6.799999 -270.5 0.5 1.5 5
9 0 1 0 0 0 1 0 0 0 1 1 2.799999 -280.5 0.5 1.5 5
9 0 1 0 0 0 1 0 0 0 1 1 -1.200001 -288.5 0.5 2.5 3
9 0 1 0 0 0 1 0 0 0 1 1.5 -12.2 -11 1 0.5 7.5
9 0 1 0 0 0 1 0 0 0 1 1.5 -15.2 -11 1 0.5 7.5
9 0 1 0 0 0 1 0 0 0 1 0 2.799999 -201.5 0.5 2.5 3
9 0 1 0 0 0 1 0 0 0 1 -2 38.3 -65 0.5 1 7.5
9 0 1 0 0 0 1 0 0 0 1 -3 -13.7 -11 0.5 1 7.5
9 0 1 0 0 0 1 0 0 0 1 2 39.3 -34.5 0.5 1 7
9 0 1 0 0 0 1 0 0 0 1 0 20.3 -164 3.5 2 0.5
9 0 1 0 0 0 1 0 0 0 1 2 35.8 -107 0.5 0.5 13.5
9 0 1 0 0 0 1 0 0 0 1 0 -14.2 -206 0.5 4.5 1.5
9 0 1 0 0 0 1 0 0 0 1 0 -46.2 4 0.5 1.5 4.5
9 0 1 0 0 0 1 0 0 0 1 4 1.799999 -234.5 0.5 1.5 4
9 0 1 0 0 0 1 0 0 0 1 4 -10.2 -260.5 0.5 1.5 4
9 0 1 0 0 0 1 0 0 0 1 1 36.8 -111.5 0.5 0.5 12
9 0 1 0 0 0 1 0 0 0 1 2.5 5.299999 -189 2 3 0.5
9 0 1 0 0 0 1 0 0 0 1 2.5 -2.200001 -158.5 2 1.5 1
9 0 1 0 0 0 1 0 0 0 1 2.5 -2.200001 -128.5 2 1.5 1
9 0 1 0 0 0 1 0 0 0 1 2.5 -2.200001 -98.5 2 1.5 1
9 0 1 0 0 0 1 0 0 0 1 2.5 -2.200001 -68.5 2 1.5 1
9 0 1 0 0 0 1 0 0 0 1 2 -12.7 -146.5 1.5 2 1
9 0 1 0 0 0 1 0 0 0 1 2 -12.7 -116.5 1.5 2 1
9 0 1 0 0 0 1 0 0 0 1 2 -12.7 -86.5 1.5 2 1
9 0 1 0 0 0 1 0 0 0 1 2 -12.7 -56.5 1.5 2 1
9 0 1 0 0 0 1 0 0 0 1 1.5 -34.2 -181.5 1 1.5 2
9 0 1 0 0 0 1 0 0 0 1 1.5 -34.2 -151.5 1 1.5 2
9 0 1 0 0 0 1 0 0 0 1 1.5 -34.2 -121.5 1 1.5 2
9 0 1 0 0 0 1 0 0 0 1 1.5 -34.2 -91.5 1 1.5 2
9 0 1 0 0 0 1 0 0 0 1 1.5 -34.2 -61.5 1 1.5 2
9 0 1 0 0 0 1 0 0 0 1 0 -32.2 -224.5 0.5 1.5 4
9 0 1 0 0 0 1 0 0 0 1 -3 25.3 -154.5 0.5 1 6
9 0 1 0 0 0 1 0 0 0 1 3 31.3 -90 0.5 1 5.5
9 0 1 0 0 0 1 0 0 0 1 1 35.3 -167 0.5 1 5.5
9 0 1 0 0 0 1 0 0 0 1 0 6.799999 -42 0.5 3.5 1.5
9 0 1 0 0 0 1 0 0 0 1 -3 33.8 -58 0.5 0.5 10.5
9 0 1 0 0 0 1 0 0 0 1 0 30.8 -22 3.5 0.5 1.5
9 0 1 0 0 0 1 0 0 0 1 2 37.3 -90.5 0.5 1 5
9 0 1 0 0 0 1 0 0 0 1 2.5 -3.200001 -174 2 2.5 0.5
9 0 1 0 0 0 1 0 0 0 1 -3 28.3 -129.5 0.5 1 5
9 0 1 0 0 0 1 0 0 0 1 4 -3.200001 -250.5 0.5 1.5 3
9 0 1 0 0 0 1 0 0 0 1 2 28.3 -175 0.5 1 4.5
9 0 1 0 0 0 1 0 0 0 1 2 -18.7 -156 1.5 3 0.5
9 0 1 0 0 0 1 0 0 0 1 2 -18.7 -126 1.5 3 0.5
9 0 1 0 0 0 1 0 0 0 1 2 -18.7 -96 1.5 3 0.5
9 0 1 0 0 0 1 0 0 0 1 2 -18.7 -66 1.5 3 0.5
9 0 1 0 0 0 1 0 0 0 1 -1 44.8 -56.5 0.5 0.5 9
9 0 1 0 0 0 1 0 0 0 1 -2 34.3 -128 0.5 1 4.5
9 0 1 0 0 0 1 0 0 0 1 -1.5 -23.2 -46 1 1.5 1.5
9 0 1 0 0 0 1 0 0 0 1 -3 26.8 -143.5 0.5 0.5 9
9 0 1 0 0 0 1 0 0 0 1 -4 10.3 -206 0.5 1 4.5
9 0 1 0 0 0 1 0 0 0 1 3 29.3 -118.5 0.5 1 4
9 0 1 0 0 0 1 0 0 0 1 2 34.8 -115.5 0.5 0.5 8
9 0 1 0 0 0 1 0 0 0 1 2.5 3.299999 -190 2 2 0.5
9 0 1 0 0 0 1 0 0 0 1 0 -13.7 -25.5 0.5 1 4
9 0 1 0 0 0 1 0 0 0 1 0 -32.7 -206.5 0.5 2 2
9 0 1 0 0 0 1 0 0 0 1 -1.5 -22.7 -166.5 1 1 2
9 0 1 0 0 0 1 0 0 0 1 -1.5 -23.7 -136.5 1 2 1
9 0 1 0 0 0 1 0 0 0 1 -1.5 -23.7 -106.5 1 2 1
9 0 1 0 0 0 1 0 0 0 1 -1.5 -23.7 -76.5 1 2 1
9 0 1 0 0 0 1 0 0 0 1 1 -11.2 -11 0.5 0.5 7.5
9 0 1 0 0 0 1 0 0 0 1 2 -12.2 -177 1.5 2.5 0.5
9 0 1 0 0 0 1 0 0 0 1 2 -13.2 -187 1.5 2.5 0.5
9 0 1 0 0 0 1 0 0 0 1 1 -16.2 -11 0.5 0.5 7.5
9 0 1 0 0 0 1 0 0 0 1 -1 39.8 -131 0.5 0.5 7.5
9 0 1 0 0 0 1 0 0 0 1 -1 -11.2 -11 0.5 0.5 7.5
9 0 1 0 0 0 1 0 0 0 1 -1 -16.2 -11 0.5 0.5 7.5
9 0 1 0 0 0 1 0 0 0 1 -2 32.8 -141 0.5 0.5 7.5
9 0 1 0 0 0 1 0 0 0 1 -2 31.8 -150 0.5 0.5 7.5
9 0 1 0 0 0 1 0 0 0 1 4 24.8 -69.5 0.5 3.5 1
9 0 1 0 0 0 1 0 0 0 1 4 24.8 -49.5 0.5 3.5 1
9 0 1 0 0 0 1 0 0 0 1 4 -4.700001 -244 0.5 1 3.5
9 0 1 0 0 0 1 0 0 0 1 1 29.8 -178.5 0.5 0.5 7
9 0 1 0 0 0 1 0 0 0 1 -1 38.8 -139.5 0.5 0.5 7
9 0 1 0 0 0 1 0 0 0 1 -1 37.8 -148.5 0.5 0.5 7
9 0 1 0 0 0 1 0 0 0 1 2 4.299999 -27 3.5 1 0.5
9 0 1 0 0 0 1 0 0 0 1 0 -28.7 -28 3.5 1 0.5
9 0 1 0 0 0 1 0 0 0 1 -4 24.8 -69.5 0.5 3.5 1
9 0 1 0 0 0 1 0 0 0 1 -4 24.8 -49.5 0.5 3.5 1
9 0 1 0 0 0 1 0 0 0 1 -2 4.299999 7 3.5 1 0.5
9 0 1 0 0 0 1 0 0 0 1 2 29.8 -167 0.5 0.5 6.5
9 0 1 0 0 0 1 0 0 0 1 1 41.8 -109 0.5 0.5 6.5
9 0 1 0 0 0 1 0 0 0 1 0 -45.2 -213 0.5 0.5 6.5
9 0 1 0 0 0 1 0 0 0 1 -2 37.8 -79 0.5 0.5 6.5
9 0 1 0 0 0 1 0 0 0 1 0 15.8 -27 6.5 0.5 0.5
9 0 1 0 0 0 1 0 0 0 1 0 15.8 -13 6.5 0.5 0.5
9 0 1 0 0 0 1 0 0 0 1 0 6.799999 5 6.5 0.5 0.5
9 0 1 0 0 0 1 0 0 0 1 0 -6.200001 6 6.5 0.5 0.5
9 0 1 0 0 0 1 0 0 0 1 0 -7.200001 -16 6.5 0.5 0.5
9 0 1 0 0 0 1 0 0 0 1 0 -7.200001 -4 6.5 0.5 0.5
9 0 1 0 0 0 1 0 0 0 1 4 24.3 -89.5 0.5 3 1
9 0 1 0 0 0 1 0 0 0 1 3 23.8 -162.5 0.5 1.5 2
9 0 1 0 0 0 1 0 0 0 1 1 4.799999 -274.5 0.5 0.5 6
9 0 1 0 0 0 1 0 0 0 1 1.5 -25.7 -148 1 3 0.5
9 0 1 0 0 0 1 0 0 0 1 1.5 -25.7 -118 1 3 0.5
9 0 1 0 0 0 1 0 0 0 1 1.5 -25.7 -88 1 3 0.5
9 0 1 0 0 0 1 0 0 0 1 1.5 -25.7 -58 1 3 0.5
9 0 1 0 0 0 1 0 0 0 1 1 -37.2 -181.5 0.5 1.5 2
9 0 1 0 0 0 1 0 0 0 1 1 -37.2 -151.5 0.5 1.5 2
9 0 1 0 0 0 1 0 0 0 1 1 -37.2 -121.5 0.5 1.5 2
9 0 1 0 0 0 1 0 0 0 1 1 -37.2 -91.5 0.5 1.5 2
9 0 1 0 0 0 1 0 0 0 1 1 -37.2 -61.5 0.5 1.5 2
9 0 1 0 0 0 1 0 0 0 1 0 6.299999 -196.5 0.5 1 3
9 0 1 0 0 0 1 0 0 0 1 0 -42.7 -224.5 0.5 1 3
9 0 1 0 0 0 1 0 0 0 1 -0.5 15.8 -174.5 3 0.5 1
9 0 1 0 0 0 1 0 0 0 1 -4 24.3 -89.5 0.5 3 1
9 0 1 0 0 0 1 0 0 0 1 -2.5 5.299999 -173 3 1 0.5
9 0 1 0 0 0 1 0 0 0 1 -1 42.8 -80 0.5 0.5 5.5
9 0 1 0 0 0 1 0 0 0 1 5 -3.700001 -235 0.5 1 2.5
9 0 1 0 0 0 1 0 0 0 1 4 -7.700001 -264 0.5 1 2.5
9 0 1 0 0 0 1 0 0 0 1 2 36.8 -100.5 0.5 0.5 5
9 0 1 0 0 0 1 0 0 0 1 2 26.8 -186.5 0.5 0.5 5
9 0 1 0 0 0 1 0 0 0 1 2 25.8 -191.5 0.5 0.5 5
9 0 1 0 0 0 1 0 0 0 1 1 28.8 -196.5 0.5 2.5 1
9 0 1 0 0 0 1 0 0 0 1 1 19.3 -240 0.5 1 2.5
9 0 1 0 0 0 1 0 0 0 1 1 9.299999 -268 0.5 1 2.5
9 0 1 0 0 0 1 0 0 0 1 1 0.2999992 -283 0.5 1 2.5
9 0 1 0 0 0 1 0 0 0 1 1.5 -25.2 -185 1 2.5 0.5
9 0 1 0 0 0 1 0 0 0 1 1.5 -25.2 -178 1 2.5 0.5
9 0 1 0 0 0 1 0 0 0 1 1.5 -25.2 -155 1 2.5 0.5
9 0 1 0 0 0 1 0 0 0 1 1.5 -25.2 -125 1 2.5 0.5
9 0 1 0 0 0 1 0 0 0 1 1.5 -25.2 -95 1 2.5 0.5
9 0 1 0 0 0 1 0 0 0 1 1.5 -25.2 -65 1 2.5 0.5
9 0 1 0 0 0 1 0 0 0 1 0 2.299999 -207 0.5 1 2.5
9 0 1 0 0 0 1 0 0 0 1 0 -2.200001 -212.5 0.5 2.5 1
9 0 1 0 0 0 1 0 0 0 1 0 -36.2 -31.5 0.5 2.5 1
9 0 1 0 0 0 1 0 0 0 1 0 -45.7 -16 0.5 1 2.5
9 0 1 0 0 0 1 0 0 0 1 0 -47.7 -20 0.5 1 2.5
9 0 1 0 0 0 1 0 0 0 1 -1 36.8 -156.5 0.5 0.5 5
9 0 1 0 0 0 1 0 0 0 1 -1 -26.2 -166.5 0.5 2.5 1
9 0 1 0 0 0 1 0 0 0 1 -2 38.8 -52.5 0.5 0.5 5
9 0 1 0 0 0 1 0 0 0 1 -2 20.3 -217 0.5 1 2.5
9 0 1 0 0 0 1 0 0 0 1 -3 30.8 -79.5 0.5 0.5 5
9 0 1 0 0 0 1 0 0 0 1 3 20.8 -187 0.5 0.5 4.5
9 0 1 0 0 0 1 0 0 0 1 3 19.8 -192 0.5 0.5 4.5
9 0 1 0 0 0 1 0 0 0 1 3 -6.200001 -276 0.5 1.5 1.5
9 0 1 0 0 0 1 0 0 0 1 1 35.8 -119 0.5 0.5 4.5
9 0 1 0 0 0 1 0 0 0 1 0 -7.200001 -36 0.5 0.5 4.5
9 0 1 0 0 0 1 0 0 0 1 5 -1.700001 -230.5 0.5 1 2
9 0 1 0 0 0 1 0 0 0 1 5 -11.7 -258.5 0.5 1 2
9 0 1 0 0 0 1 0 0 0 1 4 23.3 -109.5 0.5 2 1
9 0 1 0 0 0 1 0 0 0 1 4 -8.700001 -176 0.5 4 0.5
9 0 1 0 0 0 1 0 0 0 1 3 -23.2 -181.5 0.5 0.5 4
9 0 1 0 0 0 1 0 0 0 1 3 -23.2 -151.5 0.5 0.5 4
9 0 1 0 0 0 1 0 0 0 1 3 -23.2 -121.5 0.5 0.5 4
9 0 1 0 0 0 1 0 0 0 1 3 -23.2 -91.5 0.5 0.5 4
9 0 1 0 0 0 1 0 0 0 1 3 -23.2 -61.5 0.5 0.5 4
9 0 1 0 0 0 1 0 0 0 1 1 41.3 -30.5 0.5 2 1
9 0 1 0 0 0 1 0 0 0 1 1 34.8 -176.5 0.5 0.5 4
9 0 1 0 0 0 1 0 0 0 1 2.5 9.799999 -190.5 2 0.5 1
9 0 1 0 0 0 1 0 0 0 1 1 -1.700001 -293.5 0.5 1 2
9 0 1 0 0 0 1 0 0 0 1 2.5 -9.700001 -186 2 1 0.5
9 0 1 0 0 0 1 0 0 0 1 0 -11.7 -208.5 0.5 2 1
9 0 1 0 0 0 1 0 0 0 1 0 -24.7 -20.5 0.5 1 2
9 0 1 0 0 0 1 0 0 0 1 0 -33.7 -230.5 0.5 1 2
9 0 1 0 0 0 1 0 0 0 1 0 -34.7 -218.5 0.5 1 2
9 0 1 0 0 0 1 0 0 0 1 0 -37.7 -238.5 0.5 2 1
9 0 1 0 0 0 1 0 0 0 1 0 -41.7 -229.5 0.5 1 2
9 0 1 0 0 0 1 0 0 0 1 -1 28.8 -206.5 0.5 0.5 4
9 0 1 0 0 0 1 0 0 0 1 -1 -7.700001 -41.5 0.5 2 1
9 0 1 0 0 0 1 0 0 0 1 -1 -26.7 -46.5 0.5 2 1
9 0 1 0 0 0 1 0 0 0 1 -2 33.8 -136.5 0.5 0.5 4
9 0 1 0 0 0 1 0 0 0 1 -2 30.8 -156.5 0.5 0.5 4
9 0 1 0 0 0 1 0 0 0 1 -2 24.3 -199.5 0.5 1 2
9 0 1 0 0 0 1 0 0 0 1 -2 22.8 -206.5 0.5 0.5 4
9 0 1 0 0 0 1 0 0 0 1 -2 18.3 -224.5 0.5 1 2
9 0 1 0 0 0 1 0 0 0 1 -3 27.8 -138.5 0.5 0.5 4
9 0 1 0 0 0 1 0 0 0 1 -1.5 5.299999 -160 2 1 0.5
9 0 1 0 0 0 1 0 0 0 1 -1.5 5.299999 -130 2 1 0.5
9 0 1 0 0 0 1 0 0 0 1 -1.5 5.299999 -100 2 1 0.5
9 0 1 0 0 0 1 0 0 0 1 -1.5 5.299999 -70 2 1 0.5
9 0 1 0 0 0 1 0 0 0 1 -4 23.3 -109.5 0.5 2 1
9 0 1 0 0 0 1 0 0 0 1 -4 12.3 -199.5 0.5 1 2
9 0 1 0 0 0 1 0 0 0 1 -2.5 0.2999992 -172 2 1 0.5
9 0 1 0 0 0 1 0 0 0 1 4 -9.200001 -268 0.5 0.5 3.5
9 0 1 0 0 0 1 0 0 0 1 3 22.8 -178 0.5 0.5 3.5
9 0 1 0 0 0 1 0 0 0 1 3 21.8 -183 0.5 0.5 3.5
9 0 1 0 0 0 1 0 0 0 1 1 28.8 -182 0.5 0.5 3.5
9 0 1 0 0 0 1 0 0 0 1 4 -32.2 -19 3.5 0.5 0.5
9 0 1 0 0 0 1 0 0 0 1 -1 27.8 -210 0.5 0.5 3.5
9 0 1 0 0 0 1 0 0 0 1 -1 26.8 -214 0.5 0.5 3.5
9 0 1 0 0 0 1 0 0 0 1 0 31.8 -22 3.5 0.5 0.5
9 0 1 0 0 0 1 0 0 0 1 -3 25.8 -145 0.5 0.5 3.5
9 0 1 0 0 0 1 0 0 0 1 -3 15.8 -211 0.5 0.5 3.5
9 0 1 0 0 0 1 0 0 0 1 -3 14.8 -215 0.5 0.5 3.5
9 0 1 0 0 0 1 0 0 0 1 0 -29.2 -29 3.5 0.5 0.5
9 0 1 0 0 0 1 0 0 0 1 -4 8.799999 -215 0.5 0.5 3.5
9 0 1 0 0 0 1 0 0 0 1 -4 5.799999 -226 0.5 0.5 3.5
9 0 1 0 0 0 1 0 0 0 1 -4 -32.2 -19 3.5 0.5 0.5
9 0 1 0 0 0 1 0 0 0 1 5 -5.700001 -243 0.5 1 1.5
9 0 1 0 0 0 1 0 0 0 1 5 -7.200001 -247.5 0.5 0.5 3
9 0 1 0 0 0 1 0 0 0 1 5 -8.700001 -252 0.5 1 1.5
9 0 1 0 0 0 1 0 0 0 1 4 1.299999 -240 0.5 1 1.5
9 0 1 0 0 0 1 0 0 0 1 4 -1.200001 -229.5 0.5 1.5 1
9 0 1 0 0 0 1 0 0 0 1 4 -3.700001 -255 0.5 1 1.5
9 0 1 0 0 0 1 0 0 0 1 4 -6.200001 -246.5 0.5 0.5 3
9 0 1 0 0 0 1 0 0 0 1 4 -11.2 -156.5 0.5 1.5 1
9 0 1 0 0 0 1 0 0 0 1 4 -11.2 -126.5 0.5 1.5 1
9 0 1 0 0 0 1 0 0 0 1 4 -11.2 -96.5 0.5 1.5 1
9 0 1 0 0 0 1 0 0 0 1 4 -11.2 -66.5 0.5 1.5 1
9 0 1 0 0 0 1 0 0 0 1 3 28.8 -111.5 0.5 0.5 3
9 0 1 0 0 0 1 0 0 0 1 3 8.799999 -235.5 0.5 0.5 3
9 0 1 0 0 0 1 0 0 0 1 3 -2.700001 -269 0.5 1 1.5
9 0 1 0 0 0 1 0 0 0 1 2 39.3 -46 0.5 1 1.5
9 0 1 0 0 0 1 0 0 0 1 2 27.8 -182.5 0.5 0.5 3
9 0 1 0 0 0 1 0 0 0 1 2 -3.700001 -285 0.5 1 1.5
9 0 1 0 0 0 1 0 0 0 1 1 32.8 -162.5 0.5 1.5 1
9 0 1 0 0 0 1 0 0 0 1 1 16.3 -250 0.5 1 1.5
9 0 1 0 0 0 1 0 0 0 1 1 16.8 -238.5 0.5 1.5 1
9 0 1 0 0 0 1 0 0 0 1 1 13.8 -245.5 0.5 0.5 3
9 0 1 0 0 0 1 0 0 0 1 1 13.3 -259 0.5 1 1.5
9 0 1 0 0 0 1 0 0 0 1 1 10.8 -254.5 0.5 0.5 3
9 0 1 0 0 0 1 0 0 0 1 2 6.799999 -159.5 1.5 0.5 1
9 0 1 0 0 0 1 0 0 0 1 2 6.799999 -129.5 1.5 0.5 1
9 0 1 0 0 0 1 0 0 0 1 2 6.799999 -99.5 1.5 0.5 1
9 0 1 0 0 0 1 0 0 0 1 2 6.799999 -69.5 1.5 0.5 1
9 0 1 0 0 0 1 0 0 0 1 2 -13.7 -185 1.5 1 0.5
9 0 1 0 0 0 1 0 0 0 1 2 -14.2 -154.5 1.5 0.5 1
9 0 1 0 0 0 1 0 0 0 1 2 -14.2 -124.5 1.5 0.5 1
9 0 1 0 0 0 1 0 0 0 1 2 -14.2 -94.5 1.5 0.5 1
9 0 1 0 0 0 1 0 0 0 1 2 -14.2 -64.5 1.5 0.5 1
9 0 1 0 0 0 1 0 0 0 1 2 -15.7 -146 1.5 1 0.5
9 0 1 0 0 0 1 0 0 0 1 2 -15.7 -116 1.5 1 0.5
9 0 1 0 0 0 1 0 0 0 1 2 -15.7 -86 1.5 1 0.5
9 0 1 0 0 0 1 0 0 0 1 2 -15.7 -56 1.5 1 0.5
9 0 1 0 0 0 1 0 0 0 1 2 -26.2 -13.5 1.5 0.5 1
9 0 1 0 0 0 1 0 0 0 1 2 -30.2 -27.5 1.5 0.5 1
9 0 1 0 0 0 1 0 0 0 1 2 -33.2 -23.5 1.5 0.5 1
9 0 1 0 0 0 1 0 0 0 1 2 -44.2 -10.5 1.5 0.5 1
9 0 1 0 0 0 1 0 0 0 1 0 13.3 -26 0.5 1 1.5
9 0 1 0 0 0 1 0 0 0 1 0 13.3 -14 0.5 1 1.5
9 0 1 0 0 0 1 0 0 0 1 0 3.299999 -142 0.5 3 0.5
9 0 1 0 0 0 1 0 0 0 1 0 3.299999 -112 0.5 3 0.5
9 0 1 0 0 0 1 0 0 0 1 0 3.299999 -82 0.5 3 0.5
9 0 1 0 0 0 1 0 0 0 1 0 -6.700001 -14 0.5 1 1.5
9 0 1 0 0 0 1 0 0 0 1 0 -6.700001 -6 0.5 1 1.5
9 0 1 0 0 0 1 0 0 0 1 0 -48.2 5.5 0.5 0.5 3
9 0 1 0 0 0 1 0 0 0 1 -1 29.8 -201.5 0.5 0.5 3
9 0 1 0 0 0 1 0 0 0 1 -1 25.8 -218.5 0.5 0.5 3
9 0 1 0 0 0 1 0 0 0 1 -1 24.8 -222.5 0.5 0.5 3
9 0 1 0 0 0 1 0 0 0 1 -1 23.8 -226.5 0.5 0.5 3
9 0 1 0 0 0 1 0 0 0 1 -1 22.8 -229.5 0.5 0.5 3
9 0 1 0 0 0 1 0 0 0 1 -1 -27.2 -136.5 0.5 1.5 1
9 0 1 0 0 0 1 0 0 0 1 -1 -27.2 -106.5 0.5 1.5 1
9 0 1 0 0 0 1 0 0 0 1 -1 -27.2 -76.5 0.5 1.5 1
9 0 1 0 0 0 1 0 0 0 1 -2 21.8 -210.5 0.5 0.5 3
9 0 1 0 0 0 1 0 0 0 1 -3 23.8 -157.5 0.5 0.5 3
9 0 1 0 0 0 1 0 0 0 1 -3 17.8 -202.5 0.5 0.5 3
9 0 1 0 0 0 1 0 0 0 1 -3 16.8 -206.5 0.5 0.5 3
9 0 1 0 0 0 1 0 0 0 1 -3 13.8 -219.5 0.5 0.5 3
9 0 1 0 0 0 1 0 0 0 1 -3 12.8 -222.5 0.5 0.5 3
9 0 1 0 0 0 1 0 0 0 1 -3 11.8 -226.5 0.5 0.5 3
9 0 1 0 0 0 1 0 0 0 1 -2 -11.7 -43 1.5 1 0.5
9 0 1 0 0 0 1 0 0 0 1 -2 -16.7 -139 1.5 1 0.5
9 0 1 0 0 0 1 0 0 0 1 -2 -16.7 -109 1.5 1 0.5
9 0 1 0 0 0 1 0 0 0 1 -2 -16.7 -79 1.5 1 0.5
9 0 1 0 0 0 1 0 0 0 1 -2 -16.7 -49 1.5 1 0.5
9 0 1 0 0 0 1 0 0 0 1 -2 -26.2 -13.5 1.5 0.5 1
9 0 1 0 0 0 1 0 0 0 1 -2 -30.2 -27.5 1.5 0.5 1
9 0 1 0 0 0 1 0 0 0 1 -2 -33.2 -23.5 1.5 0.5 1
9 0 1 0 0 0 1 0 0 0 1 -2 -44.2 -10.5 1.5 0.5 1
9 0 1 0 0 0 1 0 0 0 1 -4 13.3 -196 0.5 1 1.5
9 0 1 0 0 0 1 0 0 0 1 -4 7.799999 -219.5 0.5 0.5 3
9 0 1 0 0 0 1 0 0 0 1 -4 6.799999 -222.5 0.5 0.5 3
9 0 1 0 0 0 1 0 0 0 1 -2.5 5.799999 -143 3 0.5 0.5
9 0 1 0 0 0 1 0 0 0 1 -2.5 5.799999 -113 3 0.5 0.5
9 0 1 0 0 0 1 0 0 0 1 -2.5 5.799999 -83 3 0.5 0.5
9 0 1 0 0 0 1 0 0 0 1 -2.5 5.799999 -53 3 0.5 0.5
9 0 1 0 0 0 1 0 0 0 1 5 -10.2 -256 0.5 0.5 2.5
9 0 1 0 0 0 1 0 0 0 1 4 14.8 -191 0.5 0.5 2.5
9 0 1 0 0 0 1 0 0 0 1 4 3.799999 -233 0.5 0.5 2.5
9 0 1 0 0 0 1 0 0 0 1 3 4.799999 -248 0.5 0.5 2.5
9 0 1 0 0 0 1 0 0 0 1 3 3.799999 -251 0.5 0.5 2.5
9 0 1 0 0 0 1 0 0 0 1 3 2.799999 -254 0.5 0.5 2.5
9 0 1 0 0 0 1 0 0 0 1 3 1.799999 -257 0.5 0.5 2.5
9 0 1 0 0 0 1 0 0 0 1 2 24.8 -195 0.5 0.5 2.5
9 0 1 0 0 0 1 0 0 0 1 2 13.8 -240 0.5 0.5 2.5
9 0 1 0 0 0 1 0 0 0 1 2 8.799999 -255 0.5 0.5 2.5
9 0 1 0 0 0 1 0 0 0 1 4 4.799999 7 2.5 0.5 0.5
9 0 1 0 0 0 1 0 0 0 1 1 32.8 -188 0.5 0.5 2.5
9 0 1 0 0 0 1 0 0 0 1 1 26.8 -193 0.5 0.5 2.5
9 0 1 0 0 0 1 0 0 0 1 1 7.799999 -263 0.5 0.5 2.5
9 0 1 0 0 0 1 0 0 0 1 3 6.799999 -174 2.5 0.5 0.5
9 0 1 0 0 0 1 0 0 0 1 1 5.799999 -278 0.5 0.5 2.5
9 0 1 0 0 0 1 0 0 0 1 1 3.799999 -273 0.5 0.5 2.5
9 0 1 0 0 0 1 0 0 0 1 3 0.7999992 -172 2.5 0.5 0.5
9 0 1 0 0 0 1 0 0 0 1 3 0.7999992 -158 2.5 0.5 0.5
9 0 1 0 0 0 1 0 0 0 1 3 0.7999992 -128 2.5 0.5 0.5
9 0 1 0 0 0 1 0 0 0 1 3 0.7999992 -98 2.5 0.5 0.5
9 0 1 0 0 0 1 0 0 0 1 3 0.7999992 -68 2.5 0.5 0.5
9 0 1 0 0 0 1 0 0 0 1 3 -0.2000008 -145 2.5 0.5 0.5
9 0 1 0 0 0 1 0 0 0 1 3 -0.2000008 -115 2.5 0.5 0.5
9 0 1 0 0 0 1 0 0 0 1 3 -0.2000008 -85 2.5 0.5 0.5
9 0 1 0 0 0 1 0 0 0 1 2 9.799999 -45 2.5 0.5 0.5
9 0 1 0 0 0 1 0 0 0 1 0 7.799999 -44 0.5 2.5 0.5
9 0 1 0 0 0 1 0 0 0 1 0 -45.2 -3 0.5 0.5 2.5
9 0 1 0 0 0 1 0 0 0 1 -1 21.8 -233 0.5 0.5 2.5
9 0 1 0 0 0 1 0 0 0 1 -2 36.8 -83 0.5 0.5 2.5
9 0 1 0 0 0 1 0 0 0 1 -2 16.8 -230 0.5 0.5 2.5
9 0 1 0 0 0 1 0 0 0 1 0 -1.200001 -42 2.5 0.5 0.5
9 0 1 0 0 0 1 0 0 0 1 -3 18.8 -199 0.5 0.5 2.5
9 0 1 0 0 0 1 0 0 0 1 -3 10.8 -230 0.5 0.5 2.5
9 0 1 0 0 0 1 0 0 0 1 -3 4.799999 -40 2.5 0.5 0.5
9 0 1 0 0 0 1 0 0 0 1 -3 0.7999992 -142 2.5 0.5 0.5
9 0 1 0 0 0 1 0 0 0 1 -3 0.7999992 -112 2.5 0.5 0.5
9 0 1 0 0 0 1 0 0 0 1 -3 0.7999992 -82 2.5 0.5 0.5
9 0 1 0 0 0 1 0 0 0 1 -3 0.7999992 -52 2.5 0.5 0.5
9 0 1 0 0 0 1 0 0 0 1 -4 4.799999 -27 2.5 0.5 0.5
9 0 1 0 0 0 1 0 0 0 1 7.5 -6.700001 8 1 1 0.5
9 0 1 0 0 0 1 0 0 0 1 5 22.3 -49.5 0.5 1 1
9 0 1 0 0 0 1 0 0 0 1 5 -0.7000008 -54.5 0.5 1 1
9 0 1 0 0 0 1 0 0 0 1 5 -4.200001 -239.5 0.5 0.5 2
9 0 1 0 0 0 1 0 0 0 1 4 22.3 -129.5 0.5 1 1
9 0 1 0 0 0 1 0 0 0 1 4.5 19.3 -164 1 1 0.5
9 0 1 0 0 0 1 0 0 0 1 4.5 -9.200001 -254.5 1 0.5 1
9 0 1 0 0 0 1 0 0 0 1 4 -12.2 -258.5 0.5 0.5 2
9 0 1 0 0 0 1 0 0 0 1 4 -11.7 -186.5 0.5 1 1
9 0 1 0 0 0 1 0 0 0 1 4 -11.7 -146.5 0.5 1 1
9 0 1 0 0 0 1 0 0 0 1 4 -11.7 -116.5 0.5 1 1
9 0 1 0 0 0 1 0 0 0 1 4 -11.7 -86.5 0.5 1 1
9 0 1 0 0 0 1 0 0 0 1 4 -11.7 -56.5 0.5 1 1
9 0 1 0 0 0 1 0 0 0 1 3 31.8 -97.5 0.5 0.5 2
9 0 1 0 0 0 1 0 0 0 1 3 23.8 -175.5 0.5 0.5 2
9 0 1 0 0 0 1 0 0 0 1 3 7.799999 -239.5 0.5 0.5 2
9 0 1 0 0 0 1 0 0 0 1 3 6.799999 -242.5 0.5 0.5 2
9 0 1 0 0 0 1 0 0 0 1 3 5.799999 -245.5 0.5 0.5 2
9 0 1 0 0 0 1 0 0 0 1 3 0.7999992 -259.5 0.5 0.5 2
9 0 1 0 0 0 1 0 0 0 1 3 -0.2000008 -262.5 0.5 0.5 2
9 0 1 0 0 0 1 0 0 0 1 3 -1.200001 -265.5 0.5 0.5 2
9 0 1 0 0 0 1 0 0 0 1 2 30.8 -163.5 0.5 0.5 2
9 0 1 0 0 0 1 0 0 0 1 2 26.3 -171.5 0.5 1 1
9 0 1 0 0 0 1 0 0 0 1 2 14.8 -237.5 0.5 0.5 2
9 0 1 0 0 0 1 0 0 0 1 2 12.8 -243.5 0.5 0.5 2
9 0 1 0 0 0 1 0 0 0 1 2 11.8 -245.5 0.5 0.5 2
9 0 1 0 0 0 1 0 0 0 1 2 10.8 -248.5 0.5 0.5 2
9 0 1 0 0 0 1 0 0 0 1 2 9.799999 -251.5 0.5 0.5 2
9 0 1 0 0 0 1 0 0 0 1 2 7.799999 -257.5 0.5 0.5 2
9 0 1 0 0 0 1 0 0 0 1 2 6.799999 -260.5 0.5 0.5 2
9 0 1 0 0 0 1 0 0 0 1 2 5.799999 -263.5 0.5 0.5 2
9 0 1 0 0 0 1 0 0 0 1 1 36.8 -163.5 0.5 0.5 2
9 0 1 0 0 0 1 0 0 0 1 1 2.299999 -286.5 0.5 1 1
9 0 1 0 0 0 1 0 0 0 1 1.5 -4.200001 -287.5 1 0.5 1
9 0 1 0 0 0 1 0 0 0 1 2.5 -4.200001 -187 2 0.5 0.5
9 0 1 0 0 0 1 0 0 0 1 2.5 -4.200001 -159 2 0.5 0.5
9 0 1 0 0 0 1 0 0 0 1 2.5 -4.200001 -129 2 0.5 0.5
9 0 1 0 0 0 1 0 0 0 1 2.5 -4.200001 -99 2 0.5 0.5
9 0 1 0 0 0 1 0 0 0 1 2.5 -4.200001 -69 2 0.5 0.5
9 0 1 0 0 0 1 0 0 0 1 2.5 -5.200001 -144 2 0.5 0.5
9 0 1 0 0 0 1 0 0 0 1 2.5 -5.200001 -114 2 0.5 0.5
9 0 1 0 0 0 1 0 0 0 1 2.5 -5.200001 -84 2 0.5 0.5
9 0 1 0 0 0 1 0 0 0 1 2.5 -5.200001 -56 2 0.5 0.5
9 0 1 0 0 0 1 0 0 0 1 2.5 -10.2 -147 2 0.5 0.5
9 0 1 0 0 0 1 0 0 0 1 2.5 -10.2 -117 2 0.5 0.5
9 0 1 0 0 0 1 0 0 0 1 2.5 -10.2 -87 2 0.5 0.5
9 0 1 0 0 0 1 0 0 0 1 2.5 -10.2 -57 2 0.5 0.5
9 0 1 0 0 0 1 0 0 0 1 0 8.299999 -173 0.5 2 0.5
9 0 1 0 0 0 1 0 0 0 1 0 8.299999 -160 0.5 2 0.5
9 0 1 0 0 0 1 0 0 0 1 0 8.299999 -130 0.5 2 0.5
9 0 1 0 0 0 1 0 0 0 1 0 8.299999 -100 0.5 2 0.5
9 0 1 0 0 0 1 0 0 0 1 0 8.299999 -70 0.5 2 0.5
9 0 1 0 0 0 1 0 0 0 1 0 6.299999 -26.5 0.5 1 1
9 0 1 0 0 0 1 0 0 0 1 0 6.299999 -13.5 0.5 1 1
9 0 1 0 0 0 1 0 0 0 1 0 6.299999 -6.5 0.5 1 1
9 0 1 0 0 0 1 0 0 0 1 0 -2.700001 -41 0.5 2 0.5
9 0 1 0 0 0 1 0 0 0 1 0 -8.700001 -205.5 0.5 1 1
9 0 1 0 0 0 1 0 0 0 1 0 -19.7 -205.5 0.5 1 1
9 0 1 0 0 0 1 0 0 0 1 0 -29.7 -223.5 0.5 1 1
9 0 1 0 0 0 1 0 0 0 1 0 -29.7 -205.5 0.5 1 1
9 0 1 0 0 0 1 0 0 0 1 0 -33.7 -209 0.5 2 0.5
9 0 1 0 0 0 1 0 0 0 1 0 -43.7 -27.5 0.5 1 1
9 0 1 0 0 0 1 0 0 0 1 0 -46.2 -208.5 0.5 0.5 2
9 0 1 0 0 0 1 0 0 0 1 -1 40.8 -126.5 0.5 0.5 2
9 0 1 0 0 0 1 0 0 0 1 -2 23.8 -203.5 0.5 0.5 2
9 0 1 0 0 0 1 0 0 0 1 -2 20.8 -212.5 0.5 0.5 2
9 0 1 0 0 0 1 0 0 0 1 -2 19.8 -221.5 0.5 0.5 2
9 0 1 0 0 0 1 0 0 0 1 -2 15.8 -233.5 0.5 0.5 2
9 0 1 0 0 0 1 0 0 0 1 -1.5 -16.7 -169 1 1 0.5
9 0 1 0 0 0 1 0 0 0 1 -1.5 -22.7 -135 1 1 0.5
9 0 1 0 0 0 1 0 0 0 1 -1.5 -22.7 -105 1 1 0.5
9 0 1 0 0 0 1 0 0 0 1 -1.5 -22.7 -75 1 1 0.5
9 0 1 0 0 0 1 0 0 0 1 -2 -24.7 -166.5 0.5 1 1
9 0 1 0 0 0 1 0 0 0 1 -1.5 2.799999 -43 2 0.5 0.5
9 0 1 0 0 0 1 0 0 0 1 -4 22.3 -129.5 0.5 1 1
9 0 1 0 0 0 1 0 0 0 1 -4 11.8 -203.5 0.5 0.5 2
9 0 1 0 0 0 1 0 0 0 1 -4 9.799999 -212.5 0.5 0.5 2
9 0 1 0 0 0 1 0 0 0 1 -2.5 -0.2000008 -161 2 0.5 0.5
9 0 1 0 0 0 1 0 0 0 1 -2.5 -0.2000008 -131 2 0.5 0.5
9 0 1 0 0 0 1 0 0 0 1 -2.5 -0.2000008 -101 2 0.5 0.5
9 0 1 0 0 0 1 0 0 0 1 -2.5 -0.2000008 -71 2 0.5 0.5
9 0 1 0 0 0 1 0 0 0 1 -2.5 -5.200001 -171 2 0.5 0.5
9 0 1 0 0 0 1 0 0 0 1 -2.5 -5.200001 -141 2 0.5 0.5
9 0 1 0 0 0 1 0 0 0 1 -2.5 -5.200001 -111 2 0.5 0.5
9 0 1 0 0 0 1 0 0 0 1 -2.5 -5.200001 -81 2 0.5 0.5
9 0 1 0 0 0 1 0 0 0 1 -2.5 -5.200001 -51 2 0.5 0.5
9 0 1 0 0 0 1 0 0 0 1 -2.5 -6.200001 -162 2 0.5 0.5
9 0 1 0 0 0 1 0 0 0 1 -2.5 -6.200001 -132 2 0.5 0.5
9 0 1 0 0 0 1 0 0 0 1 -2.5 -6.200001 -102 2 0.5 0.5
9 0 1 0 0 0 1 0 0 0 1 -2.5 -6.200001 -72 2 0.5 0.5
9 0 1 0 0 0 1 0 0 0 1 -5 22.3 -49.5 0.5 1 1
9 0 1 0 0 0 1 0 0 0 1 -4.5 19.3 -164 1 1 0.5
9 0 1 0 0 0 1 0 0 0 1 -5 -0.2000008 -226.5 0.5 0.5 2
9 0 1 0 0 0 1 0 0 0 1 -7.5 -6.700001 8 1 1 0.5
9 0 1 0 0 0 1 0 0 0 1 6 -14.2 -251 0.5 0.5 1.5
9 0 1 0 0 0 1 0 0 0 1 5 -0.2000008 -175 0.5 1.5 0.5
9 0 1 0 0 0 1 0 0 0 1 4 -1.200001 -249 0.5 0.5 1.5
9 0 1 0 0 0 1 0 0 0 1 4 -6.200001 -263 0.5 0.5 1.5
9 0 1 0 0 0 1 0 0 0 1 4 -7.200001 -248 0.5 0.5 1.5
9 0 1 0 0 0 1 0 0 0 1 4 -10.2 -266 0.5 0.5 1.5
9 0 1 0 0 0 1 0 0 0 1 4 -11.2 -177 0.5 1.5 0.5
9 0 1 0 0 0 1 0 0 0 1 4 15.8 -174 1.5 0.5 0.5
9 0 1 0 0 0 1 0 0 0 1 3 -4.200001 -273 0.5 0.5 1.5
9 0 1 0 0 0 1 0 0 0 1 2 38.8 -43 0.5 0.5 1.5
9 0 1 0 0 0 1 0 0 0 1 2 3.799999 -268 0.5 0.5 1.5
9 0 1 0 0 0 1 0 0 0 1 2 2.799999 -271 0.5 0.5 1.5
9 0 1 0 0 0 1 0 0 0 1 2 1.799999 -273 0.5 0.5 1.5
9 0 1 0 0 0 1 0 0 0 1 2 0.7999992 -276 0.5 0.5 1.5
9 0 1 0 0 0 1 0 0 0 1 2 -0.2000008 -278 0.5 0.5 1.5
9 0 1 0 0 0 1 0 0 0 1 1 29.8 -198 0.5 1.5 0.5
9 0 1 0 0 0 1 0 0 0 1 1 18.8 -244 0.5 0.5 1.5
9 0 1 0 0 0 1 0 0 0 1 1 15.8 -253 0.5 0.5 1.5
9 0 1 0 0 0 1 0 0 0 1 1 12.8 -247 0.5 0.5 1.5
9 0 1 0 0 0 1 0 0 0 1 1 9.799999 -256 0.5 0.5 1.5
9 0 1 0 0 0 1 0 0 0 1 1 -1.200001 -284 0.5 0.5 1.5
9 0 1 0 0 0 1 0 0 0 1 2 -14.2 -184 1.5 0.5 0.5
9 0 1 0 0 0 1 0 0 0 1 2 -14.2 -178 1.5 0.5 0.5
9 0 1 0 0 0 1 0 0 0 1 2 -14.2 -148 1.5 0.5 0.5
9 0 1 0 0 0 1 0 0 0 1 2 -14.2 -118 1.5 0.5 0.5
9 0 1 0 0 0 1 0 0 0 1 2 -14.2 -88 1.5 0.5 0.5
9 0 1 0 0 0 1 0 0 0 1 2 -14.2 -58 1.5 0.5 0.5
9 0 1 0 0 0 1 0 0 0 1 2 -31.2 -26 1.5 0.5 0.5
9 0 1 0 0 0 1 0 0 0 1 2 -32.2 -25 1.5 0.5 0.5
9 0 1 0 0 0 1 0 0 0 1 2 -37.2 -8 1.5 0.5 0.5
9 0 1 0 0 0 1 0 0 0 1 0 14.8 -167 0.5 0.5 1.5
9 0 1 0 0 0 1 0 0 0 1 0 7.799999 -195 0.5 0.5 1.5
9 0 1 0 0 0 1 0 0 0 1 0 -1.200001 -214 0.5 1.5 0.5
9 0 1 0 0 0 1 0 0 0 1 0 -28.2 -27 0.5 1.5 0.5
9 0 1 0 0 0 1 0 0 0 1 0 -35.2 -207 0.5 0.5 1.5
9 0 1 0 0 0 1 0 0 0 1 0 -41.2 -233 0.5 0.5 1.5
9 0 1 0 0 0 1 0 0 0 1 0 -47.2 -200 0.5 0.5 1.5
9 0 1 0 0 0 1 0 0 0 1 -1 20.8 -236 0.5 0.5 1.5
9 0 1 0 0 0 1 0 0 0 1 0 -6.200001 5 1.5 0.5 0.5
9 0 1 0 0 0 1 0 0 0 1 -2 -11.2 -170 1.5 0.5 0.5
9 0 1 0 0 0 1 0 0 0 1 -2 -11.2 -140 1.5 0.5 0.5
9 0 1 0 0 0 1 0 0 0 1 -2 -11.2 -110 1.5 0.5 0.5
9 0 1 0 0 0 1 0 0 0 1 -2 -11.2 -80 1.5 0.5 0.5
9 0 1 0 0 0 1 0 0 0 1 -2 -11.2 -50 1.5 0.5 0.5
9 0 1 0 0 0 1 0 0 0 1 -2 -12.2 -163 1.5 0.5 0.5
9 0 1 0 0 0 1 0 0 0 1 -2 -12.2 -133 1.5 0.5 0.5
9 0 1 0 0 0 1 0 0 0 1 -2 -12.2 -103 1.5 0.5 0.5
9 0 1 0 0 0 1 0 0 0 1 -2 -12.2 -73 1.5 0.5 0.5
9 0 1 0 0 0 1 0 0 0 1 -2 -31.2 -26 1.5 0.5 0.5
9 0 1 0 0 0 1 0 0 0 1 -2 -32.2 -25 1.5 0.5 0.5
9 0 1 0 0 0 1 0 0 0 1 -2 -37.2 -8 1.5 0.5 0.5
9 0 1 0 0 0 1 0 0 0 1 -4 8.799999 -206 0.5 0.5 1.5
9 0 1 0 0 0 1 0 0 0 1 -4 4.799999 -229 0.5 0.5 1.5
9 0 1 0 0 0 1 0 0 0 1 -3 -6.200001 -42 1.5 0.5 0.5
9 0 1 0 0 0 1 0 0 0 1 -5 0.7999992 -224 0.5 0.5 1.5
