9 0 1 0 0 0 1 0 0 0 1 0 -26.5 0 28.5 1 9.5
9 0 1 0 0 0 1 0 0 0 1 0 -25 -19 28.5 0.5 6.5
9 0 1 0 0 0 1 0 0 0 1 0 -25 19 28.5 0.5 6.5
9 0 1 0 0 0 1 0 0 0 1 0 -24 -27 28.5 0.5 4.5
9 0 1 0 0 0 1 0 0 0 1 0 -24 27 28.5 0.5 4.5
9 0 1 0 0 0 1 0 0 0 1 0 -26 -14 28.5 0.5 4.5
9 0 1 0 0 0 1 0 0 0 1 0 -26 14 28.5 0.5 4.5
9 0 1 0 0 0 1 0 0 0 1 0 -23 -32 28.5 0.5 3.5
9 0 1 0 0 0 1 0 0 0 1 0 -23 32 28.5 0.5 3.5
9 0 1 0 0 0 1 0 0 0 1 0 -21 -41.5 28.5 0.5 3
9 0 1 0 0 0 1 0 0 0 1 0 -21 41.5 28.5 0.5 3
9 0 1 0 0 0 1 0 0 0 1 0 -22 -37.5 28.5 0.5 3
9 0 1 0 0 0 1 0 0 0 1 0 -22 37.5 28.5 0.5 3
9 0 1 0 0 0 1 0 0 0 1 0 -20 -46 28.5 0.5 2.5
9 0 1 0 0 0 1 0 0 0 1 0 -20 46 28.5 0.5 2.5
9 0 1 0 0 0 1 0 0 0 1 0 -19 -49.5 28.5 0.5 2
9 0 1 0 0 0 1 0 0 0 1 0 -19 49.5 28.5 0.5 2
9 0 1 0 0 0 1 0 0 0 1 27.5 -23.5 0 1 1 22.5
9 0 1 0 0 0 1 0 0 0 1 -27.5 -23.5 0 1 1 22.5
9 0 1 0 0 0 1 0 0 0 1 0 -18 -53 28.5 0.5 1.5
9 0 1 0 0 0 1 0 0 0 1 0 -18 52.5 19.5 0.5 2
9 0 1 0 0 0 1 0 0 0 1 0 -5.5 -72.5 6.5 2 1
9 0 1 0 0 0 1 0 0 0 1 0 -5.5 72.5 6.5 2 1
9 0 1 0 0 0 1 0 0 0 1 27.5 -21.5 -28 1 1 6.5
9 0 1 0 0 0 1 0 0 0 1 27.5 -21.5 28 1 1 6.5
9 0 1 0 0 0 1 0 0 0 1 -27.5 -21.5 -28 1 1 6.5
9 0 1 0 0 0 1 0 0 0 1 -27.5 -21.5 28 1 1 6.5
9 0 1 0 0 0 1 0 0 0 1 27.5 -25 0 1 0.5 12.5
9 0 1 0 0 0 1 0 0 0 1 -27.5 -25 0 1 0.5 12.5
9 0 1 0 0 0 1 0 0 0 1 27.5 -17.5 49 1 1 5.5
9 0 1 0 0 0 1 0 0 0 1 27.5 -16 -54 1 1.5 3.5
9 0 1 0 0 0 1 0 0 0 1 27.5 -15.5 55.5 1 1 5
9 0 1 0 0 0 1 0 0 0 1 -27.5 -16.5 -52.5 1 1 5
9 0 1 0 0 0 1 0 0 0 1 -27.5 -16.5 52.5 1 1 5
9 0 1 0 0 0 1 0 0 0 1 0 -7 -75 6.5 0.5 1.5
9 0 1 0 0 0 1 0 0 0 1 0 -18 -51 19.5 0.5 0.5
9 0 1 0 0 0 1 0 0 0 1 27.5 -18.5 -43 1 1 4.5
9 0 1 0 0 0 1 0 0 0 1 27.5 -19.5 39 1 1 4.5
9 0 1 0 0 0 1 0 0 0 1 -27.5 -18.5 -43 1 1 4.5
9 0 1 0 0 0 1 0 0 0 1 -27.5 -18.5 43 1 1 4.5
9 0 1 0 0 0 1 0 0 0 1 0 -8.5 72 8.5 1 0.5
9 0 1 0 0 0 1 0 0 0 1 -27.5 -14.5 -58.5 1 1 4
9 0 1 0 0 0 1 0 0 0 1 -27.5 -14.5 58.5 1 1 4
9 0 1 0 0 0 1 0 0 0 1 27.5 -20 -36 1 0.5 7.5
9 0 1 0 0 0 1 0 0 0 1 -27.5 -20 -36 1 0.5 7.5
9 0 1 0 0 0 1 0 0 0 1 -27.5 -20 36 1 0.5 7.5
9 0 1 0 0 0 1 0 0 0 1 27.5 -13.5 -62 1 1 3.5
9 0 1 0 0 0 1 0 0 0 1 27.5 -13.5 62 1 1 3.5
9 0 1 0 0 0 1 0 0 0 1 -24 -18 53 4.5 0.5 1.5
9 0 1 0 0 0 1 0 0 0 1 7.5 -9.5 -71 1 2 1.5
9 0 1 0 0 0 1 0 0 0 1 -7.5 -9 -71.5 1 1.5 2
9 0 1 0 0 0 1 0 0 0 1 23 -18 53 3.5 0.5 1.5
9 0 1 0 0 0 1 0 0 0 1 21.5 -13 -67.5 5 0.5 1
9 0 1 0 0 0 1 0 0 0 1 21.5 -13 67.5 5 0.5 1
9 0 1 0 0 0 1 0 0 0 1 -21.5 -13 -67.5 5 0.5 1
9 0 1 0 0 0 1 0 0 0 1 -21.5 -13 67.5 5 0.5 1
9 0 1 0 0 0 1 0 0 0 1 27.5 -17 -49 1 1.5 1.5
9 0 1 0 0 0 1 0 0 0 1 27.5 -22 -17 1 0.5 4.5
9 0 1 0 0 0 1 0 0 0 1 27.5 -22 17 1 0.5 4.5
9 0 1 0 0 0 1 0 0 0 1 -27.5 -22 -17 1 0.5 4.5
9 0 1 0 0 0 1 0 0 0 1 -27.5 -22 17 1 0.5 4.5
9 0 1 0 0 0 1 0 0 0 1 -20 -23 -36 8.5 0.5 0.5
9 0 1 0 0 0 1 0 0 0 1 -20 -23 36 8.5 0.5 0.5
9 0 1 0 0 0 1 0 0 0 1 7.5 -9.5 70.5 1 2 1
9 0 1 0 0 0 1 0 0 0 1 -7.5 -9.5 70.5 1 2 1
9 0 1 0 0 0 1 0 0 0 1 -27.5 -13 -62.5 1 0.5 4
9 0 1 0 0 0 1 0 0 0 1 -27.5 -13 62.5 1 0.5 4
9 0 1 0 0 0 1 0 0 0 1 25 -17 56.5 3.5 0.5 1
9 0 1 0 0 0 1 0 0 0 1 0 -3 -72 6.5 0.5 0.5
9 0 1 0 0 0 1 0 0 0 1 0 -3 72 6.5 0.5 0.5
9 0 1 0 0 0 1 0 0 0 1 0 -6 -74 6.5 0.5 0.5
9 0 1 0 0 0 1 0 0 0 1 -7 -24 -22 6.5 0.5 0.5
9 0 1 0 0 0 1 0 0 0 1 -7 -24 22 6.5 0.5 0.5
9 0 1 0 0 0 1 0 0 0 1 27.5 -15.5 -59 1 1 1.5
9 0 1 0 0 0 1 0 0 0 1 27.5 -20 31.5 1 0.5 3
9 0 1 0 0 0 1 0 0 0 1 27.5 -23 -25.5 1 0.5 3
9 0 1 0 0 0 1 0 0 0 1 27.5 -23 25.5 1 0.5 3
9 0 1 0 0 0 1 0 0 0 1 20.5 -17 -57 6 0.5 0.5
9 0 1 0 0 0 1 0 0 0 1 7 -9.5 73.5 1.5 1 1
9 0 1 0 0 0 1 0 0 0 1 -6.5 -9 73.5 1 1.5 1
9 0 1 0 0 0 1 0 0 0 1 -7.5 -11.5 -69 1 1 1.5
9 0 1 0 0 0 1 0 0 0 1 -25.5 -16 -59.5 3 0.5 1
9 0 1 0 0 0 1 0 0 0 1 -25.5 -16 59.5 3 0.5 1
9 0 1 0 0 0 1 0 0 0 1 -27.5 -23 -25.5 1 0.5 3
9 0 1 0 0 0 1 0 0 0 1 -27.5 -23 25.5 1 0.5 3
9 0 1 0 0 0 1 0 0 0 1 27.5 -18 41 1 0.5 2.5
9 0 1 0 0 0 1 0 0 0 1 -24 -17 -56.5 2.5 0.5 1
9 0 1 0 0 0 1 0 0 0 1 -24 -17 56.5 2.5 0.5 1
9 0 1 0 0 0 1 0 0 0 1 7 -13 -66 1.5 0.5 1.5
9 0 1 0 0 0 1 0 0 0 1 7 -13 66 1.5 0.5 1.5
9 0 1 0 0 0 1 0 0 0 1 -7 -13 -66 1.5 0.5 1.5
9 0 1 0 0 0 1 0 0 0 1 -7 -13 66 1.5 0.5 1.5
9 0 1 0 0 0 1 0 0 0 1 27.5 -14 -56.5 1 0.5 2
9 0 1 0 0 0 1 0 0 0 1 27.5 -14 56.5 1 0.5 2
9 0 1 0 0 0 1 0 0 0 1 27.5 -17 -45.5 1 0.5 2
9 0 1 0 0 0 1 0 0 0 1 27.5 -19 -36.5 1 0.5 2
9 0 1 0 0 0 1 0 0 0 1 27.5 -19 45.5 1 0.5 2
9 0 1 0 0 0 1 0 0 0 1 27.5 -21 -36.5 1 0.5 2
9 0 1 0 0 0 1 0 0 0 1 27.5 -21 36.5 1 0.5 2
9 0 1 0 0 0 1 0 0 0 1 16.5 -18.5 -46.5 1 1 1
9 0 1 0 0 0 1 0 0 0 1 16.5 -18.5 46.5 1 1 1
9 0 1 0 0 0 1 0 0 0 1 7.5 -11.5 -68.5 1 1 1
9 0 1 0 0 0 1 0 0 0 1 7.5 -11.5 68.5 1 1 1
9 0 1 0 0 0 1 0 0 0 1 -7.5 -11.5 68.5 1 1 1
9 0 1 0 0 0 1 0 0 0 1 -16.5 -18.5 -46.5 1 1 1
9 0 1 0 0 0 1 0 0 0 1 -16.5 -18.5 46.5 1 1 1
9 0 1 0 0 0 1 0 0 0 1 -27.5 -17 -45.5 1 0.5 2
9 0 1 0 0 0 1 0 0 0 1 -27.5 -17 45.5 1 0.5 2
9 0 1 0 0 0 1 0 0 0 1 -27.5 -18 -49.5 1 0.5 2
9 0 1 0 0 0 1 0 0 0 1 -27.5 -18 49.5 1 0.5 2
9 0 1 0 0 0 1 0 0 0 1 -27.5 -19 -36.5 1 0.5 2
9 0 1 0 0 0 1 0 0 0 1 -27.5 -19 36.5 1 0.5 2
9 0 1 0 0 0 1 0 0 0 1 -27.5 -21 -36.5 1 0.5 2
9 0 1 0 0 0 1 0 0 0 1 -27.5 -21 36.5 1 0.5 2
9 0 1 0 0 0 1 0 0 0 1 25 -13 -66 3.5 0.5 0.5
9 0 1 0 0 0 1 0 0 0 1 25 -13 66 3.5 0.5 0.5
9 0 1 0 0 0 1 0 0 0 1 23 -16 -60 3.5 0.5 0.5
9 0 1 0 0 0 1 0 0 0 1 23 -16 60 3.5 0.5 0.5
9 0 1 0 0 0 1 0 0 0 1 18 -17 57 3.5 0.5 0.5
9 0 1 0 0 0 1 0 0 0 1 27.5 -16 49 1 0.5 1.5
9 0 1 0 0 0 1 0 0 0 1 13.5 -13 -68 3 0.5 0.5
9 0 1 0 0 0 1 0 0 0 1 13.5 -13 68 3 0.5 0.5
9 0 1 0 0 0 1 0 0 0 1 7.5 -9 -73 1 1.5 0.5
9 0 1 0 0 0 1 0 0 0 1 6 -7.5 75 0.5 1 1.5
9 0 1 0 0 0 1 0 0 0 1 7 -10.5 72 1.5 1 0.5
9 0 1 0 0 0 1 0 0 0 1 7 -14 -64.5 1.5 0.5 1
9 0 1 0 0 0 1 0 0 0 1 7 -14 64.5 1.5 0.5 1
9 0 1 0 0 0 1 0 0 0 1 -6 -8 75.5 0.5 1.5 1
9 0 1 0 0 0 1 0 0 0 1 -7 -10.5 72 1.5 1 0.5
9 0 1 0 0 0 1 0 0 0 1 -7 -14 -64.5 1.5 0.5 1
9 0 1 0 0 0 1 0 0 0 1 -7 -14 64.5 1.5 0.5 1
9 0 1 0 0 0 1 0 0 0 1 -27.5 -14 -64 1 0.5 1.5
9 0 1 0 0 0 1 0 0 0 1 -27.5 -14 64 1 0.5 1.5
9 0 1 0 0 0 1 0 0 0 1 -27.5 -15 -53 1 0.5 1.5
9 0 1 0 0 0 1 0 0 0 1 -27.5 -15 53 1 0.5 1.5
9 0 1 0 0 0 1 0 0 0 1 24 -17 -56 2.5 0.5 0.5
9 0 1 0 0 0 1 0 0 0 1 -24 -13 -66 2.5 0.5 0.5
9 0 1 0 0 0 1 0 0 0 1 -24 -13 66 2.5 0.5 0.5
9 0 1 0 0 0 1 0 0 0 1 27.5 -15 -61.5 1 0.5 1
9 0 1 0 0 0 1 0 0 0 1 27.5 -15 61.5 1 0.5 1
9 0 1 0 0 0 1 0 0 0 1 7.5 -6.5 -71 1 1 0.5
9 0 1 0 0 0 1 0 0 0 1 7.5 -6.5 71 1 1 0.5
9 0 1 0 0 0 1 0 0 0 1 -7 -6.5 -71.5 0.5 1 1
9 0 1 0 0 0 1 0 0 0 1 -7 -6.5 71.5 0.5 1 1
9 0 1 0 0 0 1 0 0 0 1 -8 -9.5 -74.5 0.5 1 1
9 0 1 0 0 0 1 0 0 0 1 -8 -9.5 73.5 0.5 1 1
9 0 1 0 0 0 1 0 0 0 1 -7.5 -11 -71.5 1 0.5 1
9 0 1 0 0 0 1 0 0 0 1 -19.5 -17 -57 2 0.5 0.5
9 0 1 0 0 0 1 0 0 0 1 -19.5 -17 57 2 0.5 0.5
9 0 1 0 0 0 1 0 0 0 1 -20.5 -16 -60 2 0.5 0.5
9 0 1 0 0 0 1 0 0 0 1 -20.5 -16 60 2 0.5 0.5
9 0 1 0 0 0 1 0 0 0 1 27 -17 55 1.5 0.5 0.5
9 0 1 0 0 0 1 0 0 0 1 25 -14 -65 1.5 0.5 0.5
9 0 1 0 0 0 1 0 0 0 1 25 -14 65 1.5 0.5 0.5
9 0 1 0 0 0 1 0 0 0 1 25 -16 -59 1.5 0.5 0.5
9 0 1 0 0 0 1 0 0 0 1 25 -16 59 1.5 0.5 0.5
9 0 1 0 0 0 1 0 0 0 1 7 -8 73 1.5 0.5 0.5
9 0 1 0 0 0 1 0 0 0 1 6 -8 78 0.5 0.5 1.5
9 0 1 0 0 0 1 0 0 0 1 7 -9 75 1.5 0.5 0.5
9 0 1 0 0 0 1 0 0 0 1 -6 -8 78 0.5 0.5 1.5
9 0 1 0 0 0 1 0 0 0 1 -25 -14 -65 1.5 0.5 0.5
9 0 1 0 0 0 1 0 0 0 1 -25 -14 65 1.5 0.5 0.5
9 0 1 0 0 0 1 0 0 0 1 -25 -15 -62 1.5 0.5 0.5
9 0 1 0 0 0 1 0 0 0 1 -25 -15 62 1.5 0.5 0.5
