9 0 1 0 0 0 1 0 0 0 1 -30.25 0.25 -10 2.5 8 6.5
9 0 1 0 0 0 1 0 0 0 1 -230.25 100.25 -50 2.5 8 6.5
9 0 1 0 0 0 1 0 0 0 1 -9.75 0.25 -10 2 8 6.5
9 0 1 0 0 0 1 0 0 0 1 -209.75 100.25 -50 2 8 6.5
9 0 1 0 0 0 1 0 0 0 1 -19.75 7.75 -10 8 0.5 6.5
9 0 1 0 0 0 1 0 0 0 1 -219.75 107.75 -50 8 0.5 6.5
9 0 1 0 0 0 1 0 0 0 1 -4.25 7.75 -10 3.5 0.5 6.5
9 0 1 0 0 0 1 0 0 0 1 -204.25 107.75 -50 3.5 0.5 6.5
9 0 1 0 0 0 1 0 0 0 1 -12.25 4.25 -10 0.5 3 6.5
9 0 1 0 0 0 1 0 0 0 1 -12.25 -4.75 -10 0.5 3 6.5
9 0 1 0 0 0 1 0 0 0 1 -33.75 6.75 -10 1 1.5 6.5
9 0 1 0 0 0 1 0 0 0 1 -212.25 104.25 -50 0.5 3 6.5
9 0 1 0 0 0 1 0 0 0 1 -212.25 95.25 -50 0.5 3 6.5
9 0 1 0 0 0 1 0 0 0 1 -233.75 106.75 -50 1 1.5 6.5
9 0 1 0 0 0 1 0 0 0 1 -5.25 -7.25 -10 2.5 0.5 6.5
9 0 1 0 0 0 1 0 0 0 1 -27.25 -5.25 -10 0.5 2.5 6.5
9 0 1 0 0 0 1 0 0 0 1 -205.25 92.75 -50 2.5 0.5 6.5
9 0 1 0 0 0 1 0 0 0 1 -227.25 94.75 -50 0.5 2.5 6.5
9 0 1 0 0 0 1 0 0 0 1 -6.75 6.25 -10 1 1 6.5
9 0 1 0 0 0 1 0 0 0 1 -7.25 -4.75 -10 0.5 2 6.5
9 0 1 0 0 0 1 0 0 0 1 -13.75 6.25 -10 1 1 6.5
9 0 1 0 0 0 1 0 0 0 1 -13.75 -6.75 -10 1 1 6.5
9 0 1 0 0 0 1 0 0 0 1 -26.75 6.25 -10 1 1 6.5
9 0 1 0 0 0 1 0 0 0 1 -33.75 -6.75 -10 1 1 6.5
9 0 1 0 0 0 1 0 0 0 1 -36.75 7.75 -10 2 0.5 6.5
9 0 1 0 0 0 1 0 0 0 1 -206.75 106.25 -50 1 1 6.5
9 0 1 0 0 0 1 0 0 0 1 -207.25 95.25 -50 0.5 2 6.5
9 0 1 0 0 0 1 0 0 0 1 -213.75 106.25 -50 1 1 6.5
9 0 1 0 0 0 1 0 0 0 1 -213.75 93.25 -50 1 1 6.5
9 0 1 0 0 0 1 0 0 0 1 -226.75 106.25 -50 1 1 6.5
9 0 1 0 0 0 1 0 0 0 1 -233.75 93.25 -50 1 1 6.5
9 0 1 0 0 0 1 0 0 0 1 -236.75 107.75 -50 2 0.5 6.5
9 0 1 0 0 0 1 0 0 0 1 -25.25 -7.25 -10 1.5 0.5 6.5
9 0 1 0 0 0 1 0 0 0 1 -225.25 92.75 -50 1.5 0.5 6.5
9 0 1 0 0 0 1 0 0 0 1 -10.25 0.25 -17.5 0.5 8 1
9 0 1 0 0 0 1 0 0 0 1 -10.25 0.25 -2.5 0.5 8 1
9 0 1 0 0 0 1 0 0 0 1 -30.25 0.25 -17.5 0.5 8 1
9 0 1 0 0 0 1 0 0 0 1 -30.25 0.25 -2.5 0.5 8 1
9 0 1 0 0 0 1 0 0 0 1 -210.25 100.25 -57.5 0.5 8 1
9 0 1 0 0 0 1 0 0 0 1 -210.25 100.25 -42.5 0.5 8 1
9 0 1 0 0 0 1 0 0 0 1 -230.25 100.25 -57.5 0.5 8 1
9 0 1 0 0 0 1 0 0 0 1 -230.25 100.25 -42.5 0.5 8 1
9 0 1 0 0 0 1 0 0 0 1 -5.75 -6.25 -10 1 0.5 6.5
9 0 1 0 0 0 1 0 0 0 1 -7.25 4.25 -10 0.5 1 6.5
9 0 1 0 0 0 1 0 0 0 1 -15.75 -7.25 -10 1 0.5 6.5
9 0 1 0 0 0 1 0 0 0 1 -27.25 4.25 -10 0.5 1 6.5
9 0 1 0 0 0 1 0 0 0 1 -35.75 -7.25 -10 1 0.5 6.5
9 0 1 0 0 0 1 0 0 0 1 -205.75 93.75 -50 1 0.5 6.5
9 0 1 0 0 0 1 0 0 0 1 -207.25 104.25 -50 0.5 1 6.5
9 0 1 0 0 0 1 0 0 0 1 -215.75 92.75 -50 1 0.5 6.5
9 0 1 0 0 0 1 0 0 0 1 -227.25 104.25 -50 0.5 1 6.5
9 0 1 0 0 0 1 0 0 0 1 -235.75 92.75 -50 1 0.5 6.5
9 0 1 0 0 0 1 0 0 0 1 -40.25 7.75 -11 1.5 0.5 3.5
9 0 1 0 0 0 1 0 0 0 1 -26.25 -5.75 -7.5 0.5 1 4
9 0 1 0 0 0 1 0 0 0 1 -226.25 94.25 -47.5 0.5 1 4
9 0 1 0 0 0 1 0 0 0 1 -9.25 4.75 -17.5 0.5 3.5 1
9 0 1 0 0 0 1 0 0 0 1 -9.25 4.75 -2.5 0.5 3.5 1
9 0 1 0 0 0 1 0 0 0 1 -29.25 4.75 -17.5 0.5 3.5 1
9 0 1 0 0 0 1 0 0 0 1 -29.25 4.75 -2.5 0.5 3.5 1
9 0 1 0 0 0 1 0 0 0 1 -209.25 104.75 -57.5 0.5 3.5 1
9 0 1 0 0 0 1 0 0 0 1 -209.25 104.75 -42.5 0.5 3.5 1
9 0 1 0 0 0 1 0 0 0 1 -229.25 104.75 -57.5 0.5 3.5 1
9 0 1 0 0 0 1 0 0 0 1 -229.25 104.75 -42.5 0.5 3.5 1
9 0 1 0 0 0 1 0 0 0 1 -5.25 6.75 -10 0.5 0.5 6.5
9 0 1 0 0 0 1 0 0 0 1 -6.25 -5.25 -10 0.5 0.5 6.5
9 0 1 0 0 0 1 0 0 0 1 -13.25 4.75 -10 0.5 0.5 6.5
9 0 1 0 0 0 1 0 0 0 1 -13.25 -5.25 -10 0.5 0.5 6.5
9 0 1 0 0 0 1 0 0 0 1 -15.25 6.75 -10 0.5 0.5 6.5
9 0 1 0 0 0 1 0 0 0 1 -25.25 6.75 -10 0.5 0.5 6.5
9 0 1 0 0 0 1 0 0 0 1 -33.25 4.75 -10 0.5 0.5 6.5
9 0 1 0 0 0 1 0 0 0 1 -33.25 -5.25 -10 0.5 0.5 6.5
9 0 1 0 0 0 1 0 0 0 1 -35.25 6.75 -10 0.5 0.5 6.5
9 0 1 0 0 0 1 0 0 0 1 -205.25 106.75 -50 0.5 0.5 6.5
9 0 1 0 0 0 1 0 0 0 1 -206.25 94.75 -50 0.5 0.5 6.5
9 0 1 0 0 0 1 0 0 0 1 -213.25 104.75 -50 0.5 0.5 6.5
9 0 1 0 0 0 1 0 0 0 1 -213.25 94.75 -50 0.5 0.5 6.5
9 0 1 0 0 0 1 0 0 0 1 -215.25 106.75 -50 0.5 0.5 6.5
9 0 1 0 0 0 1 0 0 0 1 -225.25 106.75 -50 0.5 0.5 6.5
9 0 1 0 0 0 1 0 0 0 1 -233.25 104.75 -50 0.5 0.5 6.5
9 0 1 0 0 0 1 0 0 0 1 -233.25 94.75 -50 0.5 0.5 6.5
9 0 1 0 0 0 1 0 0 0 1 -235.25 106.75 -50 0.5 0.5 6.5
9 0 1 0 0 0 1 0 0 0 1 -8.25 -6.75 -17.5 1.5 1 1
9 0 1 0 0 0 1 0 0 0 1 -8.25 -6.75 -2.5 1.5 1 1
9 0 1 0 0 0 1 0 0 0 1 -11.75 6.75 -17.5 1 1.5 1
9 0 1 0 0 0 1 0 0 0 1 -11.75 6.75 -2.5 1 1.5 1
9 0 1 0 0 0 1 0 0 0 1 -28.25 -6.75 -17.5 1.5 1 1
9 0 1 0 0 0 1 0 0 0 1 -28.25 -6.75 -2.5 1.5 1 1
9 0 1 0 0 0 1 0 0 0 1 -31.75 6.75 -17.5 1 1.5 1
9 0 1 0 0 0 1 0 0 0 1 -31.75 6.75 -2.5 1 1.5 1
9 0 1 0 0 0 1 0 0 0 1 -43.75 8.75 -12 2 1.5 0.5
9 0 1 0 0 0 1 0 0 0 1 -48.75 0.25 -12 1 3 0.5
9 0 1 0 0 0 1 0 0 0 1 -191.75 102.75 -48.5 1 0.5 3
9 0 1 0 0 0 1 0 0 0 1 -191.25 99.75 -48 1.5 2.5 0.5
9 0 1 0 0 0 1 0 0 0 1 -198.75 91.75 -48.5 1 0.5 3
9 0 1 0 0 0 1 0 0 0 1 -208.25 93.25 -57.5 1.5 1 1
9 0 1 0 0 0 1 0 0 0 1 -208.25 93.25 -42.5 1.5 1 1
9 0 1 0 0 0 1 0 0 0 1 -211.75 106.75 -57.5 1 1.5 1
9 0 1 0 0 0 1 0 0 0 1 -211.75 106.75 -42.5 1 1.5 1
9 0 1 0 0 0 1 0 0 0 1 -228.25 93.25 -57.5 1.5 1 1
9 0 1 0 0 0 1 0 0 0 1 -228.25 93.25 -42.5 1.5 1 1
9 0 1 0 0 0 1 0 0 0 1 -231.75 106.75 -57.5 1 1.5 1
9 0 1 0 0 0 1 0 0 0 1 -231.75 106.75 -42.5 1 1.5 1
9 0 1 0 0 0 1 0 0 0 1 -11.25 -5.25 -17.5 0.5 2.5 1
9 0 1 0 0 0 1 0 0 0 1 -31.25 -5.25 -17.5 0.5 2.5 1
9 0 1 0 0 0 1 0 0 0 1 -31.25 -5.25 -2.5 0.5 2.5 1
9 0 1 0 0 0 1 0 0 0 1 -211.25 94.75 -57.5 0.5 2.5 1
9 0 1 0 0 0 1 0 0 0 1 -231.25 94.75 -57.5 0.5 2.5 1
9 0 1 0 0 0 1 0 0 0 1 -231.25 94.75 -42.5 0.5 2.5 1
9 0 1 0 0 0 1 0 0 0 1 -7.75 7.25 -17.5 1 1 1
9 0 1 0 0 0 1 0 0 0 1 -7.75 7.25 -2.5 1 1 1
9 0 1 0 0 0 1 0 0 0 1 -9.25 -3.75 -17.5 0.5 2 1
9 0 1 0 0 0 1 0 0 0 1 -9.25 -3.75 -2.5 0.5 2 1
9 0 1 0 0 0 1 0 0 0 1 -11.25 -5.75 -2.5 0.5 2 1
9 0 1 0 0 0 1 0 0 0 1 -27.75 7.25 -17.5 1 1 1
9 0 1 0 0 0 1 0 0 0 1 -27.75 7.25 -2.5 1 1 1
9 0 1 0 0 0 1 0 0 0 1 -29.25 -3.75 -17.5 0.5 2 1
9 0 1 0 0 0 1 0 0 0 1 -29.25 -3.75 -2.5 0.5 2 1
9 0 1 0 0 0 1 0 0 0 1 -195.75 91.25 -48 1 2 0.5
9 0 1 0 0 0 1 0 0 0 1 -207.75 107.25 -57.5 1 1 1
9 0 1 0 0 0 1 0 0 0 1 -207.75 107.25 -42.5 1 1 1
9 0 1 0 0 0 1 0 0 0 1 -209.25 96.25 -57.5 0.5 2 1
9 0 1 0 0 0 1 0 0 0 1 -209.25 96.25 -42.5 0.5 2 1
9 0 1 0 0 0 1 0 0 0 1 -211.25 94.25 -42.5 0.5 2 1
9 0 1 0 0 0 1 0 0 0 1 -227.75 107.25 -57.5 1 1 1
9 0 1 0 0 0 1 0 0 0 1 -227.75 107.25 -42.5 1 1 1
9 0 1 0 0 0 1 0 0 0 1 -229.25 96.25 -57.5 0.5 2 1
9 0 1 0 0 0 1 0 0 0 1 -229.25 96.25 -42.5 0.5 2 1
9 0 1 0 0 0 1 0 0 0 1 -47.25 -3.25 -11 0.5 0.5 3.5
9 0 1 0 0 0 1 0 0 0 1 -23.25 -7.25 -6.5 0.5 0.5 3
9 0 1 0 0 0 1 0 0 0 1 -41.25 8.75 -11.5 0.5 0.5 3
9 0 1 0 0 0 1 0 0 0 1 -48.75 -2.25 -10 1 0.5 1.5
9 0 1 0 0 0 1 0 0 0 1 -198.25 90.75 -48.5 0.5 0.5 3
9 0 1 0 0 0 1 0 0 0 1 -223.25 92.75 -46.5 0.5 0.5 3
9 0 1 0 0 0 1 0 0 0 1 -26.25 -6.25 -14 0.5 0.5 2.5
9 0 1 0 0 0 1 0 0 0 1 -226.25 93.75 -54 0.5 0.5 2.5
9 0 1 0 0 0 1 0 0 0 1 -11.25 4.25 -17.5 0.5 1 1
9 0 1 0 0 0 1 0 0 0 1 -11.25 4.25 -2.5 0.5 1 1
9 0 1 0 0 0 1 0 0 0 1 -12.25 -6.75 -17.5 0.5 1 1
9 0 1 0 0 0 1 0 0 0 1 -12.25 -6.75 -2.5 0.5 1 1
9 0 1 0 0 0 1 0 0 0 1 -13.75 7.75 -17.5 1 0.5 1
9 0 1 0 0 0 1 0 0 0 1 -13.75 7.75 -2.5 1 0.5 1
9 0 1 0 0 0 1 0 0 0 1 -31.25 4.25 -17.5 0.5 1 1
9 0 1 0 0 0 1 0 0 0 1 -31.25 4.25 -2.5 0.5 1 1
9 0 1 0 0 0 1 0 0 0 1 -32.25 -6.75 -17.5 0.5 1 1
9 0 1 0 0 0 1 0 0 0 1 -32.25 -6.75 -2.5 0.5 1 1
9 0 1 0 0 0 1 0 0 0 1 -33.75 7.75 -17.5 1 0.5 1
9 0 1 0 0 0 1 0 0 0 1 -33.75 7.75 -2.5 1 0.5 1
9 0 1 0 0 0 1 0 0 0 1 -47.75 4.25 -12 1 1 0.5
9 0 1 0 0 0 1 0 0 0 1 -48.75 -2.25 -13.5 1 0.5 1
9 0 1 0 0 0 1 0 0 0 1 -50.25 0.25 -12 0.5 2 0.5
9 0 1 0 0 0 1 0 0 0 1 -94.25 27.25 -23 0.5 2 0.5
9 0 1 0 0 0 1 0 0 0 1 -124.75 60.25 -32 1 1 0.5
9 0 1 0 0 0 1 0 0 0 1 -180.75 95.25 -46 1 1 0.5
9 0 1 0 0 0 1 0 0 0 1 -191.75 96.25 -48 1 1 0.5
9 0 1 0 0 0 1 0 0 0 1 -211.25 104.25 -57.5 0.5 1 1
9 0 1 0 0 0 1 0 0 0 1 -211.25 104.25 -42.5 0.5 1 1
9 0 1 0 0 0 1 0 0 0 1 -212.25 93.25 -57.5 0.5 1 1
9 0 1 0 0 0 1 0 0 0 1 -212.25 93.25 -42.5 0.5 1 1
9 0 1 0 0 0 1 0 0 0 1 -213.75 107.75 -57.5 1 0.5 1
9 0 1 0 0 0 1 0 0 0 1 -213.75 107.75 -42.5 1 0.5 1
9 0 1 0 0 0 1 0 0 0 1 -231.25 104.25 -57.5 0.5 1 1
9 0 1 0 0 0 1 0 0 0 1 -231.25 104.25 -42.5 0.5 1 1
9 0 1 0 0 0 1 0 0 0 1 -232.25 93.25 -57.5 0.5 1 1
9 0 1 0 0 0 1 0 0 0 1 -232.25 93.25 -42.5 0.5 1 1
9 0 1 0 0 0 1 0 0 0 1 -233.75 107.75 -57.5 1 0.5 1
9 0 1 0 0 0 1 0 0 0 1 -233.75 107.75 -42.5 1 0.5 1
9 0 1 0 0 0 1 0 0 0 1 -48.25 12.75 -13 1.5 0.5 0.5
9 0 1 0 0 0 1 0 0 0 1 -53.25 14.75 -14 0.5 1.5 0.5
9 0 1 0 0 0 1 0 0 0 1 -56.25 17.75 -15 1.5 0.5 0.5
9 0 1 0 0 0 1 0 0 0 1 -61.25 19.75 -16 0.5 1.5 0.5
9 0 1 0 0 0 1 0 0 0 1 -64.25 22.75 -17 1.5 0.5 0.5
9 0 1 0 0 0 1 0 0 0 1 -69.25 24.75 -18 0.5 1.5 0.5
9 0 1 0 0 0 1 0 0 0 1 -72.25 27.75 -19 1.5 0.5 0.5
9 0 1 0 0 0 1 0 0 0 1 -72.25 12.75 -17 1.5 0.5 0.5
9 0 1 0 0 0 1 0 0 0 1 -77.25 29.75 -20 0.5 1.5 0.5
9 0 1 0 0 0 1 0 0 0 1 -80.25 32.75 -21 1.5 0.5 0.5
9 0 1 0 0 0 1 0 0 0 1 -85.25 34.75 -22 0.5 1.5 0.5
9 0 1 0 0 0 1 0 0 0 1 -88.25 37.75 -23 1.5 0.5 0.5
9 0 1 0 0 0 1 0 0 0 1 -93.25 39.75 -24 0.5 1.5 0.5
9 0 1 0 0 0 1 0 0 0 1 -96.25 27.75 -23 1.5 0.5 0.5
9 0 1 0 0 0 1 0 0 0 1 -101.25 44.75 -26 0.5 1.5 0.5
9 0 1 0 0 0 1 0 0 0 1 -104.25 47.75 -27 1.5 0.5 0.5
9 0 1 0 0 0 1 0 0 0 1 -107.25 34.75 -26 0.5 1.5 0.5
9 0 1 0 0 0 1 0 0 0 1 -109.25 49.75 -28 0.5 1.5 0.5
9 0 1 0 0 0 1 0 0 0 1 -112.25 52.75 -29 1.5 0.5 0.5
9 0 1 0 0 0 1 0 0 0 1 -112.25 37.75 -27 1.5 0.5 0.5
9 0 1 0 0 0 1 0 0 0 1 -117.25 54.75 -30 0.5 1.5 0.5
9 0 1 0 0 0 1 0 0 0 1 -120.25 57.75 -31 1.5 0.5 0.5
9 0 1 0 0 0 1 0 0 0 1 -120.25 42.75 -29 1.5 0.5 0.5
9 0 1 0 0 0 1 0 0 0 1 -128.25 62.75 -33 1.5 0.5 0.5
9 0 1 0 0 0 1 0 0 0 1 -136.25 67.75 -35 1.5 0.5 0.5
9 0 1 0 0 0 1 0 0 0 1 -136.25 52.75 -33 1.5 0.5 0.5
9 0 1 0 0 0 1 0 0 0 1 -144.25 72.75 -37 1.5 0.5 0.5
9 0 1 0 0 0 1 0 0 0 1 -149.25 74.75 -38 0.5 1.5 0.5
9 0 1 0 0 0 1 0 0 0 1 -152.25 77.75 -39 1.5 0.5 0.5
9 0 1 0 0 0 1 0 0 0 1 -160.25 67.75 -39 1.5 0.5 0.5
9 0 1 0 0 0 1 0 0 0 1 -168.25 87.75 -43 1.5 0.5 0.5
9 0 1 0 0 0 1 0 0 0 1 -168.25 72.75 -41 1.5 0.5 0.5
9 0 1 0 0 0 1 0 0 0 1 -173.25 89.75 -44 0.5 1.5 0.5
9 0 1 0 0 0 1 0 0 0 1 -176.25 92.75 -45 1.5 0.5 0.5
9 0 1 0 0 0 1 0 0 0 1 -184.25 97.75 -47 1.5 0.5 0.5
9 0 1 0 0 0 1 0 0 0 1 -184.25 82.75 -45 1.5 0.5 0.5
