9 0 1 0 0 0 1 0 0 0 1 -116.5 -11.5 -68 31 10 0.5
9 0 1 0 0 0 1 0 0 0 1 -118 -12 48 29.5 10.5 0.5
9 0 1 0 0 0 1 0 0 0 1 -76.5 -7 48 12 5.5 0.5
9 0 1 0 0 0 1 0 0 0 1 -130 -25 -68 18.5 3.5 0.5
9 0 1 0 0 0 1 0 0 0 1 -74 -6.5 -68 11.5 5 0.5
9 0 1 0 0 0 1 0 0 0 1 -132.5 -26 48 16 3.5 0.5
9 0 1 0 0 0 1 0 0 0 1 -57 -3.5 48 7.5 2 0.5
9 0 1 0 0 0 1 0 0 0 1 -79.5 -14 -68 6 2.5 0.5
9 0 1 0 0 0 1 0 0 0 1 -81 -14.5 48 7.5 2 0.5
9 0 1 0 0 0 1 0 0 0 1 -139 -30 -68 9.5 1.5 0.5
9 0 1 0 0 0 1 0 0 0 1 -56 -3.5 -68 6.5 2 0.5
9 0 1 0 0 0 1 0 0 0 1 -105 -23.5 -68 6.5 2 0.5
9 0 1 0 0 0 1 0 0 0 1 -110 -24.5 48 6.5 2 0.5
9 0 1 0 0 0 1 0 0 0 1 -138.5 -30.5 48 10 1 0.5
9 0 1 0 0 0 1 0 0 0 1 8 -2.5 -10 0.5 1 6.5
9 0 1 0 0 0 1 0 0 0 1 -60.5 -7 48 4 1.5 0.5
9 0 1 0 0 0 1 0 0 0 1 -84.5 -18 48 4 1.5 0.5
9 0 1 0 0 0 1 0 0 0 1 -148 -12.5 48 0.5 10 0.5
9 0 1 0 0 0 1 0 0 0 1 -138.5 -38 -67 10 0.5 0.5
9 0 1 0 0 0 1 0 0 0 1 -148 -12 -68 0.5 9.5 0.5
9 0 1 0 0 0 1 0 0 0 1 -139 -38 47 9.5 0.5 0.5
9 0 1 0 0 0 1 0 0 0 1 -59.5 -7 -68 3 1.5 0.5
9 0 1 0 0 0 1 0 0 0 1 -99.5 -23.5 48 4 1 0.5
9 0 1 0 0 0 1 0 0 0 1 -83 -18 -68 2.5 1.5 0.5
9 0 1 0 0 0 1 0 0 0 1 -70 -12.5 -68 3.5 1 0.5
9 0 1 0 0 0 1 0 0 0 1 -126 -29.5 -68 3.5 1 0.5
9 0 1 0 0 0 1 0 0 0 1 -128.5 -37 -67 7 0.5 0.5
9 0 1 0 0 0 1 0 0 0 1 -95.5 -22.5 -68 3 1 0.5
9 0 1 0 0 0 1 0 0 0 1 -129.5 -37 47 6 0.5 0.5
9 0 1 0 0 0 1 0 0 0 1 -114 -27.5 48 2.5 1 0.5
9 0 1 0 0 0 1 0 0 0 1 -72 -14 48 1.5 1.5 0.5
9 0 1 0 0 0 1 0 0 0 1 -121 -36 -67 4.5 0.5 0.5
9 0 1 0 0 0 1 0 0 0 1 -62.5 -9.5 48 2 1 0.5
9 0 1 0 0 0 1 0 0 0 1 -107.5 -26 -68 4 0.5 0.5
9 0 1 0 0 0 1 0 0 0 1 -116 -35 47 3.5 0.5 0.5
9 0 1 0 0 0 1 0 0 0 1 -122 -36 47 3.5 0.5 0.5
9 0 1 0 0 0 1 0 0 0 1 4 -2.5 -30 0.5 1 1.5
9 0 1 0 0 0 1 0 0 0 1 4 -2.5 10 0.5 1 1.5
9 0 1 0 0 0 1 0 0 0 1 -48.5 -3 -68 1 1.5 0.5
9 0 1 0 0 0 1 0 0 0 1 -48.5 -3 48 1 1.5 0.5
9 0 1 0 0 0 1 0 0 0 1 -116.5 -35 -67 3 0.5 0.5
9 0 1 0 0 0 1 0 0 0 1 -119.5 -29 -68 3 0.5 0.5
9 0 1 0 0 0 1 0 0 0 1 -125.5 -30 48 3 0.5 0.5
9 0 1 0 0 0 1 0 0 0 1 -147.5 -85 -10 1 0.5 1.5
9 0 1 0 0 0 1 0 0 0 1 -78 -17 -68 2.5 0.5 0.5
9 0 1 0 0 0 1 0 0 0 1 -86 -20 48 2.5 0.5 0.5
9 0 1 0 0 0 1 0 0 0 1 -112 -34 47 2.5 0.5 0.5
9 0 1 0 0 0 1 0 0 0 1 -54.5 -6 -68 2 0.5 0.5
9 0 1 0 0 0 1 0 0 0 1 -54.5 -6 48 2 0.5 0.5
9 0 1 0 0 0 1 0 0 0 1 -60.5 -9 -68 2 0.5 0.5
9 0 1 0 0 0 1 0 0 0 1 -71.5 -14 -68 2 0.5 0.5
9 0 1 0 0 0 1 0 0 0 1 -78.5 -17 48 2 0.5 0.5
9 0 1 0 0 0 1 0 0 0 1 -89.5 -28 -67 2 0.5 0.5
9 0 1 0 0 0 1 0 0 0 1 -90.5 -22 -68 2 0.5 0.5
9 0 1 0 0 0 1 0 0 0 1 -93.5 -29 47 2 0.5 0.5
9 0 1 0 0 0 1 0 0 0 1 -96.5 -30 -67 2 0.5 0.5
9 0 1 0 0 0 1 0 0 0 1 -96.5 -30 47 2 0.5 0.5
9 0 1 0 0 0 1 0 0 0 1 -98.5 -31 47 2 0.5 0.5
9 0 1 0 0 0 1 0 0 0 1 -101.5 -25 48 2 0.5 0.5
9 0 1 0 0 0 1 0 0 0 1 -102.5 -32 47 2 0.5 0.5
9 0 1 0 0 0 1 0 0 0 1 -109.5 -27 -68 2 0.5 0.5
9 0 1 0 0 0 1 0 0 0 1 -111.5 -34 -67 2 0.5 0.5
9 0 1 0 0 0 1 0 0 0 1 -139.5 -39 -67 2 0.5 0.5
9 0 1 0 0 0 1 0 0 0 1 -69 -13 48 1.5 0.5 0.5
9 0 1 0 0 0 1 0 0 0 1 -79 -24 -67 1.5 0.5 0.5
9 0 1 0 0 0 1 0 0 0 1 -81 -25 -67 1.5 0.5 0.5
9 0 1 0 0 0 1 0 0 0 1 -84 -26 -67 1.5 0.5 0.5
9 0 1 0 0 0 1 0 0 0 1 -90 -28 47 1.5 0.5 0.5
9 0 1 0 0 0 1 0 0 0 1 -94 -23 48 1.5 0.5 0.5
9 0 1 0 0 0 1 0 0 0 1 -97 -24 -68 1.5 0.5 0.5
9 0 1 0 0 0 1 0 0 0 1 -103 -32 -67 1.5 0.5 0.5
9 0 1 0 0 0 1 0 0 0 1 -107 -33 -67 1.5 0.5 0.5
9 0 1 0 0 0 1 0 0 0 1 -107 -33 47 1.5 0.5 0.5
9 0 1 0 0 0 1 0 0 0 1 -110 -27 48 1.5 0.5 0.5
9 0 1 0 0 0 1 0 0 0 1 -148 -85 -13 0.5 0.5 1.5
9 0 1 0 0 0 1 0 0 0 1 -148 -85 -7 0.5 0.5 1.5
