9 0 1 0 0 0 1 0 0 0 1 -2.897472 -31.4 -21.5 14.5 4 3
9 0 1 0 0 0 1 0 0 0 1 24.10253 0.1000023 -1 1.5 6.5 16.5
9 0 1 0 0 0 1 0 0 0 1 0.1025276 24.1 -1 6.5 1.5 16.5
9 0 1 0 0 0 1 0 0 0 1 31.60253 2.600002 -22 3 15 3.5
9 0 1 0 0 0 1 0 0 0 1 2.602528 31.6 -22 15 3 3.5
9 0 1 0 0 0 1 0 0 0 1 -30.89747 -2.399998 -21.5 3.5 15 3
9 0 1 0 0 0 1 0 0 0 1 0.1025276 -23.9 -0.5 6.5 1.5 16
9 0 1 0 0 0 1 0 0 0 1 -23.89747 0.1000023 -0.5 1.5 6.5 16
9 0 1 0 0 0 1 0 0 0 1 40.10253 3.600002 -1 1.5 10 7.5
9 0 1 0 0 0 1 0 0 0 1 3.602528 40.1 -1 10 1.5 7.5
9 0 1 0 0 0 1 0 0 0 1 -0.3974724 -40.4 -5 7 1 11.5
9 0 1 0 0 0 1 0 0 0 1 -40.39747 -0.3999977 -5 1 7 11.5
9 0 1 0 0 0 1 0 0 0 1 27.10253 0.6000023 -20 1.5 27 1.5
9 0 1 0 0 0 1 0 0 0 1 17.60253 -28.4 -21.5 5 4 3
9 0 1 0 0 0 1 0 0 0 1 -0.3974724 27.1 -20 26 1.5 1.5
9 0 1 0 0 0 1 0 0 0 1 -28.89747 18.1 -21.5 3.5 5.5 3
9 0 1 0 0 0 1 0 0 0 1 40.10253 -3.899998 -12.5 1.5 9.5 4
9 0 1 0 0 0 1 0 0 0 1 -3.897472 40.1 -12.5 9.5 1.5 4
9 0 1 0 0 0 1 0 0 0 1 22.60253 9.100002 -0.5 1 2.5 16
9 0 1 0 0 0 1 0 0 0 1 22.60253 -8.899998 -0.5 1 2.5 16
9 0 1 0 0 0 1 0 0 0 1 11.10253 21.6 -0.5 2.5 1 16
9 0 1 0 0 0 1 0 0 0 1 9.102528 -22.4 -0.5 2.5 1 16
9 0 1 0 0 0 1 0 0 0 1 -8.897472 22.6 -0.5 2.5 1 16
9 0 1 0 0 0 1 0 0 0 1 -8.897472 -22.4 -0.5 2.5 1 16
9 0 1 0 0 0 1 0 0 0 1 -22.39747 9.100002 -0.5 1 2.5 16
9 0 1 0 0 0 1 0 0 0 1 -22.39747 -8.899998 -0.5 1 2.5 16
9 0 1 0 0 0 1 0 0 0 1 10.10253 -39.9 -9 3.5 1.5 7.5
9 0 1 0 0 0 1 0 0 0 1 -39.89747 10.1 -9 1.5 3.5 7.5
9 0 1 0 0 0 1 0 0 0 1 -7.897472 -38.9 -4.5 5.5 0.5 13
9 0 1 0 0 0 1 0 0 0 1 -35.89747 2.100002 -21 1.5 9.5 2.5
9 0 1 0 0 0 1 0 0 0 1 38.60253 -14.4 -1.5 1 5 7
9 0 1 0 0 0 1 0 0 0 1 -14.39747 38.6 -1.5 5 1 7
9 0 1 0 0 0 1 0 0 0 1 -38.89747 -8.399998 -5 0.5 6 11.5
9 0 1 0 0 0 1 0 0 0 1 -3.397472 36.1 -21 9 1.5 2.5
9 0 1 0 0 0 1 0 0 0 1 -16.39747 -37.9 -9 3 1.5 7.5
9 0 1 0 0 0 1 0 0 0 1 -21.89747 -25.4 -22 4.5 3 2.5
9 0 1 0 0 0 1 0 0 0 1 0.1025276 -42.4 -5 9.5 1 3.5
9 0 1 0 0 0 1 0 0 0 1 -42.39747 0.1000023 -5 1 9.5 3.5
9 0 1 0 0 0 1 0 0 0 1 19.60253 -14.4 -0.5 1 2 16
9 0 1 0 0 0 1 0 0 0 1 -13.39747 -20.4 -0.5 2 1 16
9 0 1 0 0 0 1 0 0 0 1 -14.39747 19.6 -0.5 2 1 16
9 0 1 0 0 0 1 0 0 0 1 -20.39747 -13.4 -0.5 1 2 16
9 0 1 0 0 0 1 0 0 0 1 16.60253 -37.9 -1.5 3 1.5 7
9 0 1 0 0 0 1 0 0 0 1 -37.89747 16.6 -1.5 1.5 3 7
9 0 1 0 0 0 1 0 0 0 1 38.10253 16.1 -9 1.5 2.5 7.5
9 0 1 0 0 0 1 0 0 0 1 16.10253 38.1 -9 2.5 1.5 7.5
9 0 1 0 0 0 1 0 0 0 1 -37.89747 -16.9 -9 1.5 2.5 7.5
9 0 1 0 0 0 1 0 0 0 1 24.10253 23.6 -23.5 3.5 4 2
9 0 1 0 0 0 1 0 0 0 1 31.10253 -17.9 -20.5 2.5 5.5 2
9 0 1 0 0 0 1 0 0 0 1 -17.89747 30.6 -21 5.5 2 2.5
9 0 1 0 0 0 1 0 0 0 1 36.10253 -3.399998 -21.5 1.5 9 2
9 0 1 0 0 0 1 0 0 0 1 -21.89747 23.1 -21.5 3.5 2.5 3
9 0 1 0 0 0 1 0 0 0 1 8.102528 23.6 -1.5 1.5 1 17
9 0 1 0 0 0 1 0 0 0 1 -0.3974724 -25.9 -1.5 3 0.5 17
9 0 1 0 0 0 1 0 0 0 1 -25.89747 -0.3999977 -1.5 0.5 3 17
9 0 1 0 0 0 1 0 0 0 1 -26.39747 -5.399998 -20 1 17 1.5
9 0 1 0 0 0 1 0 0 0 1 21.10253 12.6 -1 1.5 1 16.5
9 0 1 0 0 0 1 0 0 0 1 17.60253 17.1 -1 1 1.5 16.5
9 0 1 0 0 0 1 0 0 0 1 15.10253 -19.4 -1 1.5 1 16.5
9 0 1 0 0 0 1 0 0 0 1 -19.39747 15.1 -1 1 1.5 16.5
9 0 1 0 0 0 1 0 0 0 1 42.60253 -1.399998 -5 1 7 3.5
9 0 1 0 0 0 1 0 0 0 1 21.10253 -35.4 -8.5 3.5 1 7
9 0 1 0 0 0 1 0 0 0 1 -1.397472 42.6 -5 7 1 3.5
9 0 1 0 0 0 1 0 0 0 1 17.60253 -16.9 -0.5 1 1.5 16
9 0 1 0 0 0 1 0 0 0 1 14.10253 19.6 -0.5 1.5 1 16
9 0 1 0 0 0 1 0 0 0 1 12.60253 -20.9 -0.5 1 1.5 16
9 0 1 0 0 0 1 0 0 0 1 -15.89747 -18.4 -0.5 1.5 1 16
9 0 1 0 0 0 1 0 0 0 1 -16.89747 17.6 -0.5 1.5 1 16
9 0 1 0 0 0 1 0 0 0 1 -17.89747 -16.4 -0.5 1.5 1 16
9 0 1 0 0 0 1 0 0 0 1 -20.89747 12.6 -0.5 1.5 1 16
9 0 1 0 0 0 1 0 0 0 1 0.1025276 -9.399998 4 2.5 1 9.5
9 0 1 0 0 0 1 0 0 0 1 2.102528 -36.4 -21 9.5 1 2.5
9 0 1 0 0 0 1 0 0 0 1 -9.397472 0.1000023 4 1 2.5 9.5
9 0 1 0 0 0 1 0 0 0 1 24.10253 -21.9 -22 1.5 4.5 3.5
9 0 1 0 0 0 1 0 0 0 1 31.10253 12.6 0 1.5 1 15.5
9 0 1 0 0 0 1 0 0 0 1 12.60253 31.1 0 1 1.5 15.5
9 0 1 0 0 0 1 0 0 0 1 12.60253 -30.9 0 1 1.5 15.5
9 0 1 0 0 0 1 0 0 0 1 -12.39747 30.1 0 1 1.5 15.5
9 0 1 0 0 0 1 0 0 0 1 -30.89747 12.6 0 1.5 1 15.5
9 0 1 0 0 0 1 0 0 0 1 -35.39747 21.1 -8 1 3.5 6.5
9 0 1 0 0 0 1 0 0 0 1 34.60253 22.6 -1 1 3 7.5
9 0 1 0 0 0 1 0 0 0 1 34.60253 -22.4 -9 1 3 7.5
9 0 1 0 0 0 1 0 0 0 1 30.10253 -28.4 -1 1.5 2 7.5
9 0 1 0 0 0 1 0 0 0 1 28.60253 30.1 -9 2 1.5 7.5
9 0 1 0 0 0 1 0 0 0 1 25.10253 32.6 -1 1.5 2 7.5
9 0 1 0 0 0 1 0 0 0 1 -10.39747 -40.4 -1 3 1 7.5
9 0 1 0 0 0 1 0 0 0 1 -2.397472 -26.4 -20 15 1 1.5
9 0 1 0 0 0 1 0 0 0 1 -2.397472 -31.4 -25 15 3 0.5
9 0 1 0 0 0 1 0 0 0 1 -21.39747 -35.4 -1 3 1 7.5
9 0 1 0 0 0 1 0 0 0 1 -22.39747 34.6 -9 3 1 7.5
9 0 1 0 0 0 1 0 0 0 1 -28.39747 30.1 -1 2 1.5 7.5
9 0 1 0 0 0 1 0 0 0 1 -31.39747 -2.399998 -25 3 15 0.5
9 0 1 0 0 0 1 0 0 0 1 -33.89747 -23.4 -1 1.5 2 7.5
9 0 1 0 0 0 1 0 0 0 1 -40.39747 -10.4 -1 1 3 7.5
9 0 1 0 0 0 1 0 0 0 1 0.1025276 9.100002 4 4.5 0.5 9.5
9 0 1 0 0 0 1 0 0 0 1 22.10253 21.6 -20 3.5 4 1.5
9 0 1 0 0 0 1 0 0 0 1 -11.89747 21.1 -0.5 2.5 0.5 16
9 0 1 0 0 0 1 0 0 0 1 28.10253 2.100002 -23 0.5 25.5 1.5
9 0 1 0 0 0 1 0 0 0 1 2.102528 28.1 -23 25.5 0.5 1.5
9 0 1 0 0 0 1 0 0 0 1 11.60253 0.1000023 5 4 9.5 0.5
9 0 1 0 0 0 1 0 0 0 1 36.60253 -17.9 -1 1 2.5 7.5
9 0 1 0 0 0 1 0 0 0 1 24.10253 -33.4 -9 2.5 1 7.5
9 0 1 0 0 0 1 0 0 0 1 -17.89747 36.6 -1 2.5 1 7.5
9 0 1 0 0 0 1 0 0 0 1 -23.89747 -33.4 -1 2.5 1 7.5
9 0 1 0 0 0 1 0 0 0 1 -33.39747 24.1 -9 1 2.5 7.5
9 0 1 0 0 0 1 0 0 0 1 30.10253 -12.4 -4 1.5 1 11.5
9 0 1 0 0 0 1 0 0 0 1 0.1025276 15.6 9.5 8.5 2 1
9 0 1 0 0 0 1 0 0 0 1 0.1025276 -15.4 9.5 8.5 2 1
9 0 1 0 0 0 1 0 0 0 1 -15.39747 0.1000023 9.5 2 8.5 1
9 0 1 0 0 0 1 0 0 0 1 19.60253 14.6 -1 1 1 16.5
9 0 1 0 0 0 1 0 0 0 1 21.60253 -12.4 -0.5 1 1 16
9 0 1 0 0 0 1 0 0 0 1 8.602528 -0.3999977 9.5 1 4 4
9 0 1 0 0 0 1 0 0 0 1 40.60253 -10.9 -5 1 4.5 3.5
9 0 1 0 0 0 1 0 0 0 1 32.10253 25.1 -0.5 1.5 1.5 7
9 0 1 0 0 0 1 0 0 0 1 -10.89747 40.6 -5 4.5 1 3.5
9 0 1 0 0 0 1 0 0 0 1 -29.89747 -28.9 -8.5 1.5 1.5 7
9 0 1 0 0 0 1 0 0 0 1 38.10253 11.1 -4 0.5 2.5 12.5
9 0 1 0 0 0 1 0 0 0 1 11.10253 38.1 -4 2.5 0.5 12.5
9 0 1 0 0 0 1 0 0 0 1 11.60253 28.6 0 1 1 15.5
9 0 1 0 0 0 1 0 0 0 1 11.60253 -28.4 0 1 1 15.5
9 0 1 0 0 0 1 0 0 0 1 -11.89747 -29.4 0 0.5 2 15.5
9 0 1 0 0 0 1 0 0 0 1 -12.89747 -31.4 0 0.5 2 15.5
9 0 1 0 0 0 1 0 0 0 1 -28.39747 11.6 0 1 1 15.5
9 0 1 0 0 0 1 0 0 0 1 -29.39747 -11.9 0 2 0.5 15.5
9 0 1 0 0 0 1 0 0 0 1 -31.39747 -13.4 0 1 1 15.5
9 0 1 0 0 0 1 0 0 0 1 21.60253 34.6 -1 2 1 7.5
9 0 1 0 0 0 1 0 0 0 1 16.10253 -0.3999977 9.5 2.5 6 1
9 0 1 0 0 0 1 0 0 0 1 4.602528 -38.9 -5.5 2 0.5 15
9 0 1 0 0 0 1 0 0 0 1 -0.3974724 -7.899998 8.5 6 0.5 5
9 0 1 0 0 0 1 0 0 0 1 -7.897472 -0.3999977 8.5 0.5 6 5
9 0 1 0 0 0 1 0 0 0 1 -38.89747 4.600002 -5 0.5 2 14.5
9 0 1 0 0 0 1 0 0 0 1 36.10253 18.1 -5.5 0.5 2.5 11
9 0 1 0 0 0 1 0 0 0 1 0.1025276 8.100002 8.5 5.5 0.5 5
9 0 1 0 0 0 1 0 0 0 1 24.10253 8.100002 -2 0.5 1.5 17.5
9 0 1 0 0 0 1 0 0 0 1 8.102528 -23.9 -2 1.5 0.5 17.5
9 0 1 0 0 0 1 0 0 0 1 0.1025276 13.1 5 7.5 3.5 0.5
9 0 1 0 0 0 1 0 0 0 1 -23.89747 8.100002 -2 0.5 1.5 17.5
9 0 1 0 0 0 1 0 0 0 1 -37.89747 11.6 -4.5 0.5 2 13
9 0 1 0 0 0 1 0 0 0 1 -37.89747 -12.4 -5.5 0.5 2 13
9 0 1 0 0 0 1 0 0 0 1 26.10253 0.1000023 -1.5 0.5 1.5 17
9 0 1 0 0 0 1 0 0 0 1 24.10253 -7.899998 -1.5 0.5 1.5 17
9 0 1 0 0 0 1 0 0 0 1 0.1025276 26.1 -1.5 1.5 0.5 17
9 0 1 0 0 0 1 0 0 0 1 -7.897472 24.1 -1.5 1.5 0.5 17
9 0 1 0 0 0 1 0 0 0 1 -7.897472 -23.9 -1.5 1.5 0.5 17
9 0 1 0 0 0 1 0 0 0 1 -23.89747 -7.899998 -1.5 0.5 1.5 17
9 0 1 0 0 0 1 0 0 0 1 20.10253 -21.9 -20.5 2.5 2.5 2
9 0 1 0 0 0 1 0 0 0 1 11.60253 -37.9 -4 2 0.5 12.5
9 0 1 0 0 0 1 0 0 0 1 26.60253 -30.4 -4.5 1 1 12
9 0 1 0 0 0 1 0 0 0 1 21.10253 10.1 -0.5 0.5 1.5 16
9 0 1 0 0 0 1 0 0 0 1 16.10253 18.1 -0.5 0.5 1.5 16
9 0 1 0 0 0 1 0 0 0 1 7.102528 22.1 -0.5 1.5 0.5 16
9 0 1 0 0 0 1 0 0 0 1 0.6025276 -13.4 5 8 3 0.5
9 0 1 0 0 0 1 0 0 0 1 -13.39747 -0.3999977 5 3 8 0.5
9 0 1 0 0 0 1 0 0 0 1 -23.39747 -20.4 -22.5 2 2 3
9 0 1 0 0 0 1 0 0 0 1 -25.39747 -31.4 -4.5 1 1 12
9 0 1 0 0 0 1 0 0 0 1 -30.39747 26.6 -4.5 1 1 12
9 0 1 0 0 0 1 0 0 0 1 -31.39747 -25.4 -4.5 1 1 12
9 0 1 0 0 0 1 0 0 0 1 18.60253 35.6 -5 1 1 11.5
9 0 1 0 0 0 1 0 0 0 1 -35.39747 -19.4 -5 1 1 11.5
9 0 1 0 0 0 1 0 0 0 1 32.60253 -24.9 -9 1 1.5 7.5
9 0 1 0 0 0 1 0 0 0 1 30.10253 27.6 -9 1.5 1 7.5
9 0 1 0 0 0 1 0 0 0 1 30.10253 -17.4 -24 1.5 5 1.5
9 0 1 0 0 0 1 0 0 0 1 -24.89747 32.6 -9 1.5 1 7.5
9 0 1 0 0 0 1 0 0 0 1 36.60253 -1.399998 -19 2 11 0.5
9 0 1 0 0 0 1 0 0 0 1 26.60253 -17.9 -23.5 1 5.5 2
9 0 1 0 0 0 1 0 0 0 1 -17.89747 26.6 -23.5 5.5 1 2
9 0 1 0 0 0 1 0 0 0 1 -35.39747 -12.9 -20.5 1 5.5 2
9 0 1 0 0 0 1 0 0 0 1 -11.89747 -37.9 -5 1.5 0.5 13.5
9 0 1 0 0 0 1 0 0 0 1 42.60253 -3.899998 2.5 1 2.5 4
9 0 1 0 0 0 1 0 0 0 1 18.10253 25.6 -23.5 2.5 2 2
9 0 1 0 0 0 1 0 0 0 1 -3.897472 42.6 2.5 2.5 1 4
9 0 1 0 0 0 1 0 0 0 1 -3.897472 -42.4 -12.5 2.5 1 4
9 0 1 0 0 0 1 0 0 0 1 -22.89747 18.6 -20.5 2.5 2 2
9 0 1 0 0 0 1 0 0 0 1 -21.39747 -25.4 -19 4 5 0.5
9 0 1 0 0 0 1 0 0 0 1 -28.39747 -22.9 -20.5 1 5.5 2
9 0 1 0 0 0 1 0 0 0 1 -42.39747 -3.899998 -12.5 1 2.5 4
9 0 1 0 0 0 1 0 0 0 1 26.10253 16.6 -23.5 1.5 3 2
9 0 1 0 0 0 1 0 0 0 1 11.60253 35.6 -20 6 1 1.5
9 0 1 0 0 0 1 0 0 0 1 -35.39747 2.600002 -24.5 1 9 1
9 0 1 0 0 0 1 0 0 0 1 10.60253 23.1 -2 1 0.5 17.5
9 0 1 0 0 0 1 0 0 0 1 12.60253 0.1000023 -5 5 3.5 0.5
9 0 1 0 0 0 1 0 0 0 1 -27.39747 -31.9 -5 1 2.5 3.5
9 0 1 0 0 0 1 0 0 0 1 -12.39747 22.1 -1.5 1 0.5 17
9 0 1 0 0 0 1 0 0 0 1 -21.89747 -12.4 -1.5 0.5 1 17
9 0 1 0 0 0 1 0 0 0 1 -12.39747 -21.9 -1 1 0.5 16.5
9 0 1 0 0 0 1 0 0 0 1 -18.89747 -14.4 -1 0.5 1 16.5
9 0 1 0 0 0 1 0 0 0 1 42.60253 3.600002 -12.5 1 2 4
9 0 1 0 0 0 1 0 0 0 1 39.60253 7.600002 -12.5 1 2 4
9 0 1 0 0 0 1 0 0 0 1 21.10253 -10.4 -0.5 0.5 1 16
9 0 1 0 0 0 1 0 0 0 1 16.10253 -17.4 -0.5 0.5 1 16
9 0 1 0 0 0 1 0 0 0 1 10.60253 -20.9 -0.5 1 0.5 16
9 0 1 0 0 0 1 0 0 0 1 8.602528 -39.4 2.5 2 1 4
9 0 1 0 0 0 1 0 0 0 1 9.602528 39.1 -12.5 4 0.5 4
9 0 1 0 0 0 1 0 0 0 1 3.602528 42.6 -12.5 2 1 4
9 0 1 0 0 0 1 0 0 0 1 3.602528 -42.4 2.5 2 1 4
9 0 1 0 0 0 1 0 0 0 1 -10.39747 -20.9 -0.5 1 0.5 16
9 0 1 0 0 0 1 0 0 0 1 -17.39747 16.1 -0.5 1 0.5 16
9 0 1 0 0 0 1 0 0 0 1 -20.89747 10.6 -0.5 0.5 1 16
9 0 1 0 0 0 1 0 0 0 1 -20.89747 -10.4 -0.5 0.5 1 16
9 0 1 0 0 0 1 0 0 0 1 -39.39747 8.600002 2.5 1 2 4
9 0 1 0 0 0 1 0 0 0 1 -42.39747 3.600002 2.5 1 2 4
9 0 1 0 0 0 1 0 0 0 1 39.10253 2.100002 8 0.5 10.5 1.5
9 0 1 0 0 0 1 0 0 0 1 0.1025276 -43.9 -5 4.5 0.5 3.5
9 0 1 0 0 0 1 0 0 0 1 0.1025276 -14.9 0 10.5 1.5 0.5
9 0 1 0 0 0 1 0 0 0 1 -14.89747 0.1000023 0 1.5 10.5 0.5
9 0 1 0 0 0 1 0 0 0 1 -43.89747 0.1000023 -5 0.5 4.5 3.5
9 0 1 0 0 0 1 0 0 0 1 32.10253 -13.4 0 0.5 1 15.5
9 0 1 0 0 0 1 0 0 0 1 28.60253 12.1 0 1 0.5 15.5
9 0 1 0 0 0 1 0 0 0 1 28.10253 -11.4 0 0.5 1 15.5
9 0 1 0 0 0 1 0 0 0 1 -11.39747 28.1 0 1 0.5 15.5
9 0 1 0 0 0 1 0 0 0 1 -13.39747 32.1 0 1 0.5 15.5
9 0 1 0 0 0 1 0 0 0 1 -13.89747 -31.4 0 0.5 1 15.5
9 0 1 0 0 0 1 0 0 0 1 -17.39747 -35.9 -7 1 0.5 15.5
9 0 1 0 0 0 1 0 0 0 1 37.60253 19.6 -9 1 1 7.5
9 0 1 0 0 0 1 0 0 0 1 28.10253 -29.4 -1 0.5 2 7.5
9 0 1 0 0 0 1 0 0 0 1 19.60253 37.6 -9 1 1 7.5
9 0 1 0 0 0 1 0 0 0 1 16.60253 -35.9 -1.5 1 0.5 15
9 0 1 0 0 0 1 0 0 0 1 17.60253 -28.4 -25 5 3 0.5
9 0 1 0 0 0 1 0 0 0 1 3.602528 39.1 -21 2 1.5 2.5
9 0 1 0 0 0 1 0 0 0 1 -3.397472 -38.9 -21 2 1.5 2.5
9 0 1 0 0 0 1 0 0 0 1 2.602528 39.1 8 10 0.5 1.5
9 0 1 0 0 0 1 0 0 0 1 -16.39747 24.1 -21 2 1.5 2.5
9 0 1 0 0 0 1 0 0 0 1 -17.39747 30.1 -24.5 5 1.5 1
9 0 1 0 0 0 1 0 0 0 1 -28.89747 27.6 -2.5 0.5 1 15
9 0 1 0 0 0 1 0 0 0 1 -28.39747 17.6 -25 3 5 0.5
9 0 1 0 0 0 1 0 0 0 1 -35.89747 16.6 -1.5 0.5 1 15
9 0 1 0 0 0 1 0 0 0 1 -35.89747 -22.4 -1 0.5 2 7.5
9 0 1 0 0 0 1 0 0 0 1 -38.89747 -3.399998 -21 1.5 2 2.5
9 0 1 0 0 0 1 0 0 0 1 -22.39747 33.1 -7 1 0.5 14.5
9 0 1 0 0 0 1 0 0 0 1 15.10253 -0.8999977 0 1.5 9.5 0.5
9 0 1 0 0 0 1 0 0 0 1 -0.8974724 15.1 0 9.5 1.5 0.5
9 0 1 0 0 0 1 0 0 0 1 39.60253 3.600002 -20 1 2 3.5
9 0 1 0 0 0 1 0 0 0 1 35.10253 -18.4 -3.5 0.5 1 14
9 0 1 0 0 0 1 0 0 0 1 -18.39747 35.1 -3.5 1 0.5 14
9 0 1 0 0 0 1 0 0 0 1 33.10253 22.6 -3 0.5 1 13.5
9 0 1 0 0 0 1 0 0 0 1 25.10253 -31.4 -6 0.5 1 13.5
9 0 1 0 0 0 1 0 0 0 1 23.10253 32.6 -3 0.5 1 13.5
9 0 1 0 0 0 1 0 0 0 1 16.60253 36.1 -5 1 0.5 13.5
9 0 1 0 0 0 1 0 0 0 1 9.602528 0.1000023 0 1 1.5 4.5
9 0 1 0 0 0 1 0 0 0 1 -12.39747 38.1 -13 3 0.5 4.5
9 0 1 0 0 0 1 0 0 0 1 -14.39747 37.1 -4.5 1 0.5 14
9 0 1 0 0 0 1 0 0 0 1 -31.39747 25.1 -6 1 0.5 13.5
9 0 1 0 0 0 1 0 0 0 1 -35.89747 -17.4 -5 0.5 1 13.5
9 0 1 0 0 0 1 0 0 0 1 37.10253 -14.4 -3.5 0.5 1 13
9 0 1 0 0 0 1 0 0 0 1 0.1025276 -24.4 -17.5 6.5 1 1
9 0 1 0 0 0 1 0 0 0 1 -24.39747 0.1000023 -17.5 1 6.5 1
9 0 1 0 0 0 1 0 0 0 1 -26.89747 -20.9 -23.5 0.5 6.5 2
9 0 1 0 0 0 1 0 0 0 1 -34.39747 -20.9 -4.5 1 0.5 13
9 0 1 0 0 0 1 0 0 0 1 35.10253 18.6 -4 0.5 1 12.5
9 0 1 0 0 0 1 0 0 0 1 33.10253 -22.4 -5 0.5 1 12.5
9 0 1 0 0 0 1 0 0 0 1 31.10253 -25.4 -5 0.5 1 12.5
9 0 1 0 0 0 1 0 0 0 1 -25.39747 31.1 -5 1 0.5 12.5
9 0 1 0 0 0 1 0 0 0 1 42.10253 9.100002 -5 0.5 3.5 3.5
9 0 1 0 0 0 1 0 0 0 1 9.102528 42.1 -5 3.5 0.5 3.5
9 0 1 0 0 0 1 0 0 0 1 -13.89747 0.1000023 -5 3.5 3.5 0.5
9 0 1 0 0 0 1 0 0 0 1 39.60253 -7.899998 2.5 1 1.5 4
9 0 1 0 0 0 1 0 0 0 1 38.10253 -12.4 -12.5 0.5 3 4
9 0 1 0 0 0 1 0 0 0 1 35.60253 13.6 -20 1 4 1.5
9 0 1 0 0 0 1 0 0 0 1 30.10253 -12.4 11.5 1.5 1 4
9 0 1 0 0 0 1 0 0 0 1 24.60253 13.6 -20 1 4 1.5
9 0 1 0 0 0 1 0 0 0 1 23.60253 -29.4 -20.5 1 3 2
9 0 1 0 0 0 1 0 0 0 1 19.10253 -35.4 2.5 1.5 1 4
9 0 1 0 0 0 1 0 0 0 1 16.60253 23.6 -20 2 2 1.5
9 0 1 0 0 0 1 0 0 0 1 17.60253 -32.9 -20.5 6 0.5 2
9 0 1 0 0 0 1 0 0 0 1 -7.897472 39.6 2.5 1.5 1 4
9 0 1 0 0 0 1 0 0 0 1 -14.89747 -37.4 2.5 1.5 1 4
9 0 1 0 0 0 1 0 0 0 1 -30.39747 -26.9 -5.5 1 0.5 12
9 0 1 0 0 0 1 0 0 0 1 -35.39747 19.1 2.5 1 1.5 4
9 0 1 0 0 0 1 0 0 0 1 37.10253 15.1 3 0.5 2.5 4.5
9 0 1 0 0 0 1 0 0 0 1 24.10253 -15.9 -21 1.5 1.5 2.5
9 0 1 0 0 0 1 0 0 0 1 6.102528 -10.9 -5 2.5 4.5 0.5
9 0 1 0 0 0 1 0 0 0 1 -6.897472 11.1 -5 2.5 4.5 0.5
9 0 1 0 0 0 1 0 0 0 1 -18.89747 -29.9 -22 1.5 1.5 2.5
9 0 1 0 0 0 1 0 0 0 1 -21.89747 -24.9 -25 4.5 2.5 0.5
9 0 1 0 0 0 1 0 0 0 1 1.102528 39.6 -17.5 5.5 1 1
9 0 1 0 0 0 1 0 0 0 1 -32.89747 18.1 -20.5 0.5 5.5 2
9 0 1 0 0 0 1 0 0 0 1 39.10253 -5.399998 -18 0.5 7 1.5
9 0 1 0 0 0 1 0 0 0 1 36.60253 -21.9 -5 1 1.5 3.5
9 0 1 0 0 0 1 0 0 0 1 22.10253 36.6 -5 1.5 1 3.5
9 0 1 0 0 0 1 0 0 0 1 21.10253 -37.4 -5 1.5 1 3.5
9 0 1 0 0 0 1 0 0 0 1 5.602528 -37.9 -20 7 0.5 1.5
9 0 1 0 0 0 1 0 0 0 1 -5.397472 38.1 -20 7 0.5 1.5
9 0 1 0 0 0 1 0 0 0 1 -14.89747 -40.4 -5 1.5 1 3.5
9 0 1 0 0 0 1 0 0 0 1 -20.89747 -37.4 -5 1.5 1 3.5
9 0 1 0 0 0 1 0 0 0 1 -21.89747 36.6 -5 1.5 1 3.5
9 0 1 0 0 0 1 0 0 0 1 -30.89747 29.1 -1.5 0.5 1.5 7
9 0 1 0 0 0 1 0 0 0 1 -32.39747 -27.9 -5 1 1.5 3.5
9 0 1 0 0 0 1 0 0 0 1 -37.39747 21.1 -5 1 1.5 3.5
9 0 1 0 0 0 1 0 0 0 1 -37.39747 -20.9 -5 1 1.5 3.5
9 0 1 0 0 0 1 0 0 0 1 -40.39747 -14.9 -5 1 1.5 3.5
9 0 1 0 0 0 1 0 0 0 1 36.10253 -17.9 -12.5 0.5 2.5 4
9 0 1 0 0 0 1 0 0 0 1 35.60253 0.6000023 -24.5 1 5 1
9 0 1 0 0 0 1 0 0 0 1 30.60253 20.1 -19.5 2 2.5 1
9 0 1 0 0 0 1 0 0 0 1 22.60253 29.1 -20.5 5 0.5 2
9 0 1 0 0 0 1 0 0 0 1 16.10253 -36.9 -12.5 2.5 0.5 4
9 0 1 0 0 0 1 0 0 0 1 15.10253 37.1 2.5 2.5 0.5 4
9 0 1 0 0 0 1 0 0 0 1 13.60253 9.100002 9.5 2 2.5 1
9 0 1 0 0 0 1 0 0 0 1 0.6025276 35.6 -24.5 5 1 1
9 0 1 0 0 0 1 0 0 0 1 -6.397472 -6.399998 8.5 1 1 5
9 0 1 0 0 0 1 0 0 0 1 -4.897472 -9.399998 -4.5 2.5 2 1
9 0 1 0 0 0 1 0 0 0 1 -17.89747 36.1 -12.5 2.5 0.5 4
9 0 1 0 0 0 1 0 0 0 1 -36.89747 16.1 -12.5 0.5 2.5 4
9 0 1 0 0 0 1 0 0 0 1 -36.89747 -15.9 2.5 0.5 2.5 4
9 0 1 0 0 0 1 0 0 0 1 11.10253 -41.9 -8 1.5 0.5 6.5
9 0 1 0 0 0 1 0 0 0 1 0.1025276 -7.899998 -10 1.5 0.5 6.5
9 0 1 0 0 0 1 0 0 0 1 -7.897472 0.1000023 -10 0.5 1.5 6.5
9 0 1 0 0 0 1 0 0 0 1 -10.89747 -41.9 -2 1.5 0.5 6.5
9 0 1 0 0 0 1 0 0 0 1 -37.89747 5.100002 -20 0.5 6.5 1.5
9 0 1 0 0 0 1 0 0 0 1 -41.89747 11.1 -8 0.5 1.5 6.5
9 0 1 0 0 0 1 0 0 0 1 -41.89747 -10.9 -2 0.5 1.5 6.5
9 0 1 0 0 0 1 0 0 0 1 -8.897472 3.600002 4 0.5 1 9.5
9 0 1 0 0 0 1 0 0 0 1 -8.897472 -3.399998 4 0.5 1 9.5
9 0 1 0 0 0 1 0 0 0 1 38.10253 -3.399998 -20.5 0.5 9 1
9 0 1 0 0 0 1 0 0 0 1 24.60253 31.6 -13 1 1 4.5
9 0 1 0 0 0 1 0 0 0 1 20.60253 -22.9 -24 2 1.5 1.5
9 0 1 0 0 0 1 0 0 0 1 6.602528 11.1 -5 2 4.5 0.5
9 0 1 0 0 0 1 0 0 0 1 3.602528 -8.899998 4.5 1 0.5 9
9 0 1 0 0 0 1 0 0 0 1 -11.89747 -35.9 -20.5 4.5 0.5 2
9 0 1 0 0 0 1 0 0 0 1 -30.89747 -18.9 -20.5 1.5 1.5 2
9 0 1 0 0 0 1 0 0 0 1 21.10253 14.1 -2 0.5 0.5 17.5
9 0 1 0 0 0 1 0 0 0 1 19.10253 -16.9 -2 0.5 0.5 17.5
9 0 1 0 0 0 1 0 0 0 1 14.10253 21.1 -2 0.5 0.5 17.5
9 0 1 0 0 0 1 0 0 0 1 16.10253 -39.9 -5 2.5 0.5 3.5
9 0 1 0 0 0 1 0 0 0 1 -39.89747 16.1 -5 0.5 2.5 3.5
9 0 1 0 0 0 1 0 0 0 1 21.10253 -13.9 -1.5 0.5 0.5 17
9 0 1 0 0 0 1 0 0 0 1 17.10253 -18.9 -1.5 0.5 0.5 17
9 0 1 0 0 0 1 0 0 0 1 14.10253 -20.9 -1.5 0.5 0.5 17
9 0 1 0 0 0 1 0 0 0 1 -3.397472 -8.899998 5 1 0.5 8.5
9 0 1 0 0 0 1 0 0 0 1 3.102528 -35.4 -25 8.5 1 0.5
9 0 1 0 0 0 1 0 0 0 1 -15.89747 -19.9 -1.5 0.5 0.5 17
9 0 1 0 0 0 1 0 0 0 1 -18.89747 17.1 -1.5 0.5 0.5 17
9 0 1 0 0 0 1 0 0 0 1 -19.89747 -15.9 -1.5 0.5 0.5 17
9 0 1 0 0 0 1 0 0 0 1 -20.89747 14.1 -1.5 0.5 0.5 17
9 0 1 0 0 0 1 0 0 0 1 18.10253 15.1 -1 0.5 0.5 16.5
9 0 1 0 0 0 1 0 0 0 1 15.10253 18.1 -1 0.5 0.5 16.5
9 0 1 0 0 0 1 0 0 0 1 12.10253 20.1 -1 0.5 0.5 16.5
9 0 1 0 0 0 1 0 0 0 1 -11.89747 20.1 -1 0.5 0.5 16.5
9 0 1 0 0 0 1 0 0 0 1 -14.89747 18.1 -1 0.5 0.5 16.5
9 0 1 0 0 0 1 0 0 0 1 -16.89747 19.1 -1 0.5 0.5 16.5
9 0 1 0 0 0 1 0 0 0 1 -17.89747 -17.9 -1 0.5 0.5 16.5
9 0 1 0 0 0 1 0 0 0 1 -33.89747 -25.9 -3 1.5 0.5 5.5
9 0 1 0 0 0 1 0 0 0 1 39.10253 11.6 -12.5 0.5 2 4
9 0 1 0 0 0 1 0 0 0 1 39.60253 -3.399998 11.5 1 2 2
9 0 1 0 0 0 1 0 0 0 1 34.60253 20.6 -12.5 1 1 4
9 0 1 0 0 0 1 0 0 0 1 34.60253 -20.4 2.5 1 1 4
9 0 1 0 0 0 1 0 0 0 1 29.60253 -27.4 -12.5 1 1 4
9 0 1 0 0 0 1 0 0 0 1 22.10253 6.100002 -0.5 0.5 0.5 16
9 0 1 0 0 0 1 0 0 0 1 22.10253 -5.899998 -0.5 0.5 0.5 16
9 0 1 0 0 0 1 0 0 0 1 22.60253 -33.4 2.5 1 1 4
9 0 1 0 0 0 1 0 0 0 1 20.60253 34.6 -12.5 1 1 4
9 0 1 0 0 0 1 0 0 0 1 20.10253 -11.9 -0.5 0.5 0.5 16
9 0 1 0 0 0 1 0 0 0 1 19.10253 13.1 -0.5 0.5 0.5 16
9 0 1 0 0 0 1 0 0 0 1 18.10253 -14.9 -0.5 0.5 0.5 16
9 0 1 0 0 0 1 0 0 0 1 15.10253 -17.9 -0.5 0.5 0.5 16
9 0 1 0 0 0 1 0 0 0 1 15.60253 -23.4 -20.5 2 1 2
9 0 1 0 0 0 1 0 0 0 1 13.60253 -9.399998 9.5 2 2 1
9 0 1 0 0 0 1 0 0 0 1 7.602528 4.600002 9.5 1 1 4
9 0 1 0 0 0 1 0 0 0 1 7.602528 40.1 -12.5 2 0.5 4
9 0 1 0 0 0 1 0 0 0 1 -3.397472 39.6 11.5 2 1 2
9 0 1 0 0 0 1 0 0 0 1 -5.897472 22.1 -0.5 0.5 0.5 16
9 0 1 0 0 0 1 0 0 0 1 1.602528 -39.9 -17.5 8 0.5 1
9 0 1 0 0 0 1 0 0 0 1 -1.397472 -39.9 7.5 8 0.5 1
9 0 1 0 0 0 1 0 0 0 1 -10.39747 12.6 9.5 2 2 1
9 0 1 0 0 0 1 0 0 0 1 -13.89747 -18.9 -0.5 0.5 0.5 16
9 0 1 0 0 0 1 0 0 0 1 -14.39747 33.6 -20.5 2 1 2
9 0 1 0 0 0 1 0 0 0 1 -15.89747 -16.9 -0.5 0.5 0.5 16
9 0 1 0 0 0 1 0 0 0 1 -17.89747 15.1 -0.5 0.5 0.5 16
9 0 1 0 0 0 1 0 0 0 1 -17.89747 -14.9 -0.5 0.5 0.5 16
9 0 1 0 0 0 1 0 0 0 1 -19.39747 -35.4 -12.5 1 1 4
9 0 1 0 0 0 1 0 0 0 1 -20.39747 34.6 2.5 1 1 4
9 0 1 0 0 0 1 0 0 0 1 -22.39747 -33.4 -12.5 1 1 4
9 0 1 0 0 0 1 0 0 0 1 -23.89747 -31.9 -2.5 0.5 0.5 16
9 0 1 0 0 0 1 0 0 0 1 -24.89747 -4.399998 -19 0.5 16 0.5
9 0 1 0 0 0 1 0 0 0 1 -25.39747 -16.4 -23.5 1 2 2
9 0 1 0 0 0 1 0 0 0 1 -27.39747 29.6 -12.5 1 1 4
9 0 1 0 0 0 1 0 0 0 1 -28.39747 -30.9 -12.5 2 0.5 4
9 0 1 0 0 0 1 0 0 0 1 -31.89747 -23.9 -2.5 0.5 0.5 16
9 0 1 0 0 0 1 0 0 0 1 -33.39747 22.6 2.5 1 1 4
9 0 1 0 0 0 1 0 0 0 1 -33.39747 -22.4 -12.5 1 1 4
9 0 1 0 0 0 1 0 0 0 1 -39.89747 1.600002 -17.5 0.5 8 1
9 0 1 0 0 0 1 0 0 0 1 -39.89747 -1.399998 7.5 0.5 8 1
9 0 1 0 0 0 1 0 0 0 1 32.10253 23.1 -2 0.5 0.5 15.5
9 0 1 0 0 0 1 0 0 0 1 32.10253 14.1 0 0.5 0.5 15.5
9 0 1 0 0 0 1 0 0 0 1 31.10253 -13.9 0 0.5 0.5 15.5
9 0 1 0 0 0 1 0 0 0 1 28.10253 11.1 0 0.5 0.5 15.5
9 0 1 0 0 0 1 0 0 0 1 27.10253 -28.9 -2 0.5 0.5 15.5
9 0 1 0 0 0 1 0 0 0 1 22.10253 33.1 -2 0.5 0.5 15.5
9 0 1 0 0 0 1 0 0 0 1 14.10253 32.1 0 0.5 0.5 15.5
9 0 1 0 0 0 1 0 0 0 1 14.10253 -31.9 0 0.5 0.5 15.5
9 0 1 0 0 0 1 0 0 0 1 13.10253 -32.9 0 0.5 0.5 15.5
9 0 1 0 0 0 1 0 0 0 1 -10.89747 -27.9 0 0.5 0.5 15.5
9 0 1 0 0 0 1 0 0 0 1 -13.89747 31.1 0 0.5 0.5 15.5
9 0 1 0 0 0 1 0 0 0 1 -27.89747 28.1 -2 0.5 0.5 15.5
9 0 1 0 0 0 1 0 0 0 1 -27.89747 -10.9 0 0.5 0.5 15.5
9 0 1 0 0 0 1 0 0 0 1 -29.89747 -12.9 0 0.5 0.5 15.5
9 0 1 0 0 0 1 0 0 0 1 -31.89747 24.1 -7 0.5 0.5 15.5
9 0 1 0 0 0 1 0 0 0 1 -31.89747 14.1 0 0.5 0.5 15.5
9 0 1 0 0 0 1 0 0 0 1 -32.89747 13.1 0 0.5 0.5 15.5
9 0 1 0 0 0 1 0 0 0 1 -32.89747 -12.9 0 0.5 0.5 15.5
9 0 1 0 0 0 1 0 0 0 1 42.10253 -10.9 -6.5 0.5 1.5 5
9 0 1 0 0 0 1 0 0 0 1 29.60253 -30.9 -1 1 0.5 7.5
9 0 1 0 0 0 1 0 0 0 1 24.60253 35.1 -1 1 0.5 7.5
9 0 1 0 0 0 1 0 0 0 1 18.10253 32.6 -21 0.5 3 2.5
9 0 1 0 0 0 1 0 0 0 1 12.10253 -29.9 -21.5 0.5 2.5 3
9 0 1 0 0 0 1 0 0 0 1 14.10253 -34.4 -20 2.5 1 1.5
9 0 1 0 0 0 1 0 0 0 1 13.10253 26.6 -23 2.5 1 1.5
9 0 1 0 0 0 1 0 0 0 1 7.102528 -4.899998 8.5 0.5 1.5 5
9 0 1 0 0 0 1 0 0 0 1 5.102528 7.100002 8.5 1.5 0.5 5
9 0 1 0 0 0 1 0 0 0 1 5.102528 -6.899998 8.5 1.5 0.5 5
9 0 1 0 0 0 1 0 0 0 1 0.1025276 10.1 -0.5 1.5 0.5 5
9 0 1 0 0 0 1 0 0 0 1 -4.897472 7.100002 8.5 1.5 0.5 5
9 0 1 0 0 0 1 0 0 0 1 -6.897472 5.100002 8.5 0.5 1.5 5
9 0 1 0 0 0 1 0 0 0 1 -10.89747 42.1 -6.5 1.5 0.5 5
9 0 1 0 0 0 1 0 0 0 1 -10.39747 10.1 5 3 2.5 0.5
9 0 1 0 0 0 1 0 0 0 1 -11.89747 24.6 -20 2.5 1 1.5
9 0 1 0 0 0 1 0 0 0 1 -16.39747 -22.9 -20 1 2.5 1.5
9 0 1 0 0 0 1 0 0 0 1 -2.397472 -26.9 -22 15 0.5 0.5
9 0 1 0 0 0 1 0 0 0 1 -22.39747 23.1 -25 3 2.5 0.5
9 0 1 0 0 0 1 0 0 0 1 -38.89747 -7.399998 8 0.5 5 1.5
9 0 1 0 0 0 1 0 0 0 1 28.10253 28.1 -6 0.5 0.5 14.5
9 0 1 0 0 0 1 0 0 0 1 21.10253 -33.9 -6 0.5 0.5 14.5
9 0 1 0 0 0 1 0 0 0 1 -20.89747 -33.9 -4 0.5 0.5 14.5
9 0 1 0 0 0 1 0 0 0 1 -27.89747 -28.9 -7 0.5 0.5 14.5
9 0 1 0 0 0 1 0 0 0 1 -33.89747 21.1 -6 0.5 0.5 14.5
9 0 1 0 0 0 1 0 0 0 1 44.10253 -0.3999977 -5 0.5 2 3.5
9 0 1 0 0 0 1 0 0 0 1 40.60253 14.6 -5 1 1 3.5
9 0 1 0 0 0 1 0 0 0 1 36.10253 22.6 -5 0.5 2 3.5
9 0 1 0 0 0 1 0 0 0 1 32.60253 27.6 -5 1 1 3.5
9 0 1 0 0 0 1 0 0 0 1 32.60253 -27.4 -5 1 1 3.5
9 0 1 0 0 0 1 0 0 0 1 31.10253 29.6 -8.5 0.5 1 7
9 0 1 0 0 0 1 0 0 0 1 30.10253 -25.9 -4.5 0.5 0.5 14
9 0 1 0 0 0 1 0 0 0 1 27.60253 32.6 -5 1 1 3.5
9 0 1 0 0 0 1 0 0 0 1 27.60253 -32.4 -5 1 1 3.5
9 0 1 0 0 0 1 0 0 0 1 15.60253 40.1 -5 2 0.5 3.5
9 0 1 0 0 0 1 0 0 0 1 -0.3974724 44.1 -5 2 0.5 3.5
9 0 1 0 0 0 1 0 0 0 1 0.1025276 -18.4 9.5 3.5 1 1
9 0 1 0 0 0 1 0 0 0 1 -18.39747 0.1000023 9.5 1 3.5 1
9 0 1 0 0 0 1 0 0 0 1 -25.89747 30.1 -4.5 0.5 0.5 14
9 0 1 0 0 0 1 0 0 0 1 -27.39747 32.6 -5 1 1 3.5
9 0 1 0 0 0 1 0 0 0 1 -31.89747 27.6 -5 0.5 2 3.5
9 0 1 0 0 0 1 0 0 0 1 36.10253 7.100002 -21 1.5 1.5 1.5
9 0 1 0 0 0 1 0 0 0 1 24.10253 -31.9 -5 0.5 0.5 13.5
9 0 1 0 0 0 1 0 0 0 1 21.10253 -17.9 -20 1.5 1.5 1.5
9 0 1 0 0 0 1 0 0 0 1 19.10253 16.1 2 0.5 0.5 13.5
9 0 1 0 0 0 1 0 0 0 1 12.10253 -38.9 3 1.5 0.5 4.5
9 0 1 0 0 0 1 0 0 0 1 9.102528 3.100002 0 0.5 1.5 4.5
9 0 1 0 0 0 1 0 0 0 1 9.102528 -2.899998 0 0.5 1.5 4.5
9 0 1 0 0 0 1 0 0 0 1 -21.89747 -16.9 -20 1.5 1.5 1.5
9 0 1 0 0 0 1 0 0 0 1 -23.89747 19.1 -24 1.5 1.5 1.5
9 0 1 0 0 0 1 0 0 0 1 -23.89747 15.1 -21 1.5 1.5 1.5
9 0 1 0 0 0 1 0 0 0 1 -26.89747 -0.8999977 -22 0.5 13.5 0.5
9 0 1 0 0 0 1 0 0 0 1 -28.89747 -18.9 -24 1.5 1.5 1.5
9 0 1 0 0 0 1 0 0 0 1 30.10253 26.1 -4.5 0.5 0.5 13
9 0 1 0 0 0 1 0 0 0 1 27.10253 0.6000023 -22 0.5 13 0.5
9 0 1 0 0 0 1 0 0 0 1 26.10253 30.1 -4.5 0.5 0.5 13
9 0 1 0 0 0 1 0 0 0 1 25.10253 0.1000023 -18.5 0.5 6.5 1
9 0 1 0 0 0 1 0 0 0 1 0.1025276 25.1 -18.5 6.5 0.5 1
9 0 1 0 0 0 1 0 0 0 1 -9.897472 -10.9 5 2.5 2.5 0.5
9 0 1 0 0 0 1 0 0 0 1 -23.89747 -15.9 -21 0.5 2.5 2.5
9 0 1 0 0 0 1 0 0 0 1 40.10253 -0.3999977 7.5 0.5 6 1
9 0 1 0 0 0 1 0 0 0 1 29.10253 28.1 2.5 0.5 1.5 4
9 0 1 0 0 0 1 0 0 0 1 30.60253 19.1 -21.5 2 1.5 1
9 0 1 0 0 0 1 0 0 0 1 22.60253 15.6 -20 1 2 1.5
9 0 1 0 0 0 1 0 0 0 1 10.10253 0.1000023 9.5 0.5 1.5 4
9 0 1 0 0 0 1 0 0 0 1 10.60253 13.1 9.5 2 1.5 1
9 0 1 0 0 0 1 0 0 0 1 10.60253 -12.9 9.5 2 1.5 1
9 0 1 0 0 0 1 0 0 0 1 8.102528 0.1000023 -12.5 0.5 1.5 4
9 0 1 0 0 0 1 0 0 0 1 9.602528 -38.9 -18.5 3 0.5 2
9 0 1 0 0 0 1 0 0 0 1 11.60253 35.1 -22.5 6 0.5 1
9 0 1 0 0 0 1 0 0 0 1 4.102528 -39.4 11.5 1.5 1 2
9 0 1 0 0 0 1 0 0 0 1 0.1025276 10.1 9.5 1.5 0.5 4
9 0 1 0 0 0 1 0 0 0 1 0.1025276 8.100002 -12.5 1.5 0.5 4
9 0 1 0 0 0 1 0 0 0 1 -0.3974724 -11.4 4 6 1 0.5
9 0 1 0 0 0 1 0 0 0 1 -8.897472 -39.9 -12.5 1.5 0.5 4
9 0 1 0 0 0 1 0 0 0 1 -9.897472 -13.4 9.5 1.5 2 1
9 0 1 0 0 0 1 0 0 0 1 0.6025276 -24.9 -19 12 0.5 0.5
9 0 1 0 0 0 1 0 0 0 1 -8.397472 39.1 -18 4 0.5 1.5
9 0 1 0 0 0 1 0 0 0 1 -12.39747 -10.4 9.5 1 3 1
9 0 1 0 0 0 1 0 0 0 1 -13.39747 9.600002 9.5 3 1 1
9 0 1 0 0 0 1 0 0 0 1 -18.89747 -21.4 -21.5 1.5 1 2
9 0 1 0 0 0 1 0 0 0 1 -26.89747 24.6 -20.5 1.5 1 2
9 0 1 0 0 0 1 0 0 0 1 -35.39747 20.6 -15.5 1 3 1
9 0 1 0 0 0 1 0 0 0 1 -38.89747 12.1 2.5 0.5 1.5 4
9 0 1 0 0 0 1 0 0 0 1 -39.39747 4.100002 11.5 1 1.5 2
9 0 1 0 0 0 1 0 0 0 1 -39.89747 -8.899998 -12.5 0.5 1.5 4
9 0 1 0 0 0 1 0 0 0 1 33.10253 -12.9 4 0.5 0.5 11.5
9 0 1 0 0 0 1 0 0 0 1 26.10253 -31.9 -5 0.5 0.5 11.5
9 0 1 0 0 0 1 0 0 0 1 -0.8974724 27.1 -22 11.5 0.5 0.5
9 0 1 0 0 0 1 0 0 0 1 -12.89747 33.1 -4 0.5 0.5 11.5
9 0 1 0 0 0 1 0 0 0 1 25.60253 -34.9 -7 1 0.5 5.5
9 0 1 0 0 0 1 0 0 0 1 11.60253 0.1000023 4 1 5.5 0.5
9 0 1 0 0 0 1 0 0 0 1 0.1025276 11.6 4 5.5 1 0.5
9 0 1 0 0 0 1 0 0 0 1 -0.8974724 40.1 7.5 5.5 0.5 1
9 0 1 0 0 0 1 0 0 0 1 -11.39747 0.1000023 4 1 5.5 0.5
9 0 1 0 0 0 1 0 0 0 1 -25.39747 -34.9 -3 1 0.5 5.5
9 0 1 0 0 0 1 0 0 0 1 -34.89747 25.6 -7 0.5 1 5.5
9 0 1 0 0 0 1 0 0 0 1 43.10253 7.100002 -5 0.5 1.5 3.5
9 0 1 0 0 0 1 0 0 0 1 39.10253 -7.899998 -5 0.5 1.5 3.5
9 0 1 0 0 0 1 0 0 0 1 8.102528 0.1000023 -4 0.5 10.5 0.5
9 0 1 0 0 0 1 0 0 0 1 7.102528 43.1 -5 1.5 0.5 3.5
9 0 1 0 0 0 1 0 0 0 1 -7.897472 39.1 -5 1.5 0.5 3.5
9 0 1 0 0 0 1 0 0 0 1 -11.89747 0.1000023 -4 1.5 3.5 0.5
9 0 1 0 0 0 1 0 0 0 1 -23.89747 -28.9 -21 3.5 0.5 1.5
9 0 1 0 0 0 1 0 0 0 1 -28.89747 -31.9 -5 0.5 1.5 3.5
9 0 1 0 0 0 1 0 0 0 1 34.60253 -14.9 -19.5 1 2.5 1
9 0 1 0 0 0 1 0 0 0 1 32.10253 24.6 -12.5 0.5 1 5
9 0 1 0 0 0 1 0 0 0 1 31.10253 25.6 -12.5 0.5 1 5
9 0 1 0 0 0 1 0 0 0 1 23.60253 17.1 -22.5 1 2.5 1
9 0 1 0 0 0 1 0 0 0 1 16.60253 -0.3999977 5 1 5 0.5
9 0 1 0 0 0 1 0 0 0 1 15.60253 -36.9 8 2 0.5 2.5
9 0 1 0 0 0 1 0 0 0 1 12.10253 24.6 -20.5 2.5 1 1
9 0 1 0 0 0 1 0 0 0 1 6.602528 6.100002 8.5 1 0.5 5
9 0 1 0 0 0 1 0 0 0 1 0.1025276 18.6 9.5 2.5 1 1
9 0 1 0 0 0 1 0 0 0 1 -6.397472 -13.9 -5 2 2.5 0.5
9 0 1 0 0 0 1 0 0 0 1 1.602528 -35.9 -24 10 0.5 0.5
9 0 1 0 0 0 1 0 0 0 1 -14.89747 -26.4 -24.5 2.5 1 1
9 0 1 0 0 0 1 0 0 0 1 -14.39747 -25.4 -22.5 3 1 1
9 0 1 0 0 0 1 0 0 0 1 -12.89747 -24.4 -20.5 2.5 1 1
9 0 1 0 0 0 1 0 0 0 1 -12.39747 -36.9 -19.5 5 0.5 1
9 0 1 0 0 0 1 0 0 0 1 -17.89747 -33.4 -21 0.5 2 2.5
9 0 1 0 0 0 1 0 0 0 1 -27.39747 -29.9 -13.5 1 0.5 5
9 0 1 0 0 0 1 0 0 0 1 -34.39747 15.1 -19.5 1 2.5 1
9 0 1 0 0 0 1 0 0 0 1 -36.89747 15.6 8 0.5 2 2.5
9 0 1 0 0 0 1 0 0 0 1 -36.89747 -12.4 -19.5 0.5 5 1
9 0 1 0 0 0 1 0 0 0 1 38.10253 -12.4 7 0.5 3 1.5
9 0 1 0 0 0 1 0 0 0 1 37.10253 13.1 -10.5 0.5 0.5 9
9 0 1 0 0 0 1 0 0 0 1 37.10253 -16.4 -13 0.5 1 4.5
9 0 1 0 0 0 1 0 0 0 1 35.10253 13.1 -22.5 0.5 4.5 1
9 0 1 0 0 0 1 0 0 0 1 34.60253 -25.9 -6 1 0.5 4.5
9 0 1 0 0 0 1 0 0 0 1 32.10253 -24.4 3 0.5 1 4.5
9 0 1 0 0 0 1 0 0 0 1 28.10253 -14.4 -25 0.5 9 0.5
9 0 1 0 0 0 1 0 0 0 1 28.10253 -28.4 -13 0.5 1 4.5
9 0 1 0 0 0 1 0 0 0 1 27.60253 29.1 3 1 0.5 4.5
9 0 1 0 0 0 1 0 0 0 1 21.60253 30.1 -20 3 0.5 1.5
9 0 1 0 0 0 1 0 0 0 1 19.60253 22.1 -23 1 1.5 1.5
9 0 1 0 0 0 1 0 0 0 1 17.10253 5.600002 0 0.5 3 1.5
9 0 1 0 0 0 1 0 0 0 1 17.60253 -4.899998 0 1 1.5 1.5
9 0 1 0 0 0 1 0 0 0 1 13.10253 37.1 -10.5 0.5 0.5 9
9 0 1 0 0 0 1 0 0 0 1 5.102528 -17.4 0 1.5 1 1.5
9 0 1 0 0 0 1 0 0 0 1 5.602528 17.1 0 3 0.5 1.5
9 0 1 0 0 0 1 0 0 0 1 0.1025276 8.100002 -4.5 4.5 0.5 1
9 0 1 0 0 0 1 0 0 0 1 -4.897472 17.6 0 1.5 1 1.5
9 0 1 0 0 0 1 0 0 0 1 -4.897472 -17.4 0 1.5 1 1.5
9 0 1 0 0 0 1 0 0 0 1 -7.897472 -5.399998 -1 0.5 1 4.5
9 0 1 0 0 0 1 0 0 0 1 -12.39747 38.1 7 3 0.5 1.5
9 0 1 0 0 0 1 0 0 0 1 -16.89747 5.600002 0 0.5 3 1.5
9 0 1 0 0 0 1 0 0 0 1 -16.89747 -5.399998 0 0.5 3 1.5
9 0 1 0 0 0 1 0 0 0 1 -16.89747 36.1 9.5 1.5 0.5 3
9 0 1 0 0 0 1 0 0 0 1 -16.89747 21.6 -20 1.5 1 1.5
9 0 1 0 0 0 1 0 0 0 1 -19.39747 19.1 -20 1 1.5 1.5
9 0 1 0 0 0 1 0 0 0 1 -19.89747 -19.4 -20 1.5 1 1.5
9 0 1 0 0 0 1 0 0 0 1 -14.39747 28.1 -25 9 0.5 0.5
9 0 1 0 0 0 1 0 0 0 1 -24.39747 32.1 3 1 0.5 4.5
9 0 1 0 0 0 1 0 0 0 1 -25.89747 34.6 -6 0.5 1 4.5
9 0 1 0 0 0 1 0 0 0 1 -26.89747 -25.4 -20 0.5 3 1.5
9 0 1 0 0 0 1 0 0 0 1 -29.89747 28.1 -1.5 0.5 0.5 9
9 0 1 0 0 0 1 0 0 0 1 -38.89747 9.600002 -18 0.5 3 1.5
9 0 1 0 0 0 1 0 0 0 1 -14.89747 -27.9 -25 8.5 0.5 0.5
9 0 1 0 0 0 1 0 0 0 1 -36.89747 -13.9 -10 0.5 0.5 8.5
9 0 1 0 0 0 1 0 0 0 1 38.10253 14.6 2.5 0.5 1 4
9 0 1 0 0 0 1 0 0 0 1 37.60253 3.600002 -24.5 1 2 1
9 0 1 0 0 0 1 0 0 0 1 36.10253 -17.4 8.5 0.5 2 2
9 0 1 0 0 0 1 0 0 0 1 34.10253 -22.4 2.5 0.5 1 4
9 0 1 0 0 0 1 0 0 0 1 30.60253 -23.9 -20.5 2 0.5 2
9 0 1 0 0 0 1 0 0 0 1 28.10253 13.6 -25 0.5 8 0.5
9 0 1 0 0 0 1 0 0 0 1 25.10253 -10.4 -20.5 0.5 4 1
9 0 1 0 0 0 1 0 0 0 1 20.10253 -37.4 2.5 0.5 1 4
9 0 1 0 0 0 1 0 0 0 1 14.60253 38.1 2.5 1 0.5 4
9 0 1 0 0 0 1 0 0 0 1 14.60253 -37.9 -12.5 1 0.5 4
9 0 1 0 0 0 1 0 0 0 1 10.60253 38.1 10.5 2 0.5 2
9 0 1 0 0 0 1 0 0 0 1 10.60253 -11.4 5 2 2 0.5
9 0 1 0 0 0 1 0 0 0 1 9.602528 11.6 5 2 2 0.5
9 0 1 0 0 0 1 0 0 0 1 8.102528 4.600002 0.5 0.5 1 4
9 0 1 0 0 0 1 0 0 0 1 8.102528 -4.399998 0.5 0.5 1 4
9 0 1 0 0 0 1 0 0 0 1 7.602528 37.6 -19.5 2 1 1
9 0 1 0 0 0 1 0 0 0 1 13.60253 28.1 -25 8 0.5 0.5
9 0 1 0 0 0 1 0 0 0 1 3.602528 37.6 -24.5 2 1 1
9 0 1 0 0 0 1 0 0 0 1 -3.397472 -37.4 -24.5 2 1 1
9 0 1 0 0 0 1 0 0 0 1 -6.397472 7.100002 -0.5 1 0.5 4
9 0 1 0 0 0 1 0 0 0 1 -9.397472 -6.399998 4.5 1 2 1
9 0 1 0 0 0 1 0 0 0 1 -16.39747 37.1 -12.5 1 0.5 4
9 0 1 0 0 0 1 0 0 0 1 -17.39747 -36.9 2.5 1 0.5 4
9 0 1 0 0 0 1 0 0 0 1 -17.39747 -39.9 -5.5 1 0.5 4
9 0 1 0 0 0 1 0 0 0 1 -19.89747 -37.4 -12.5 0.5 1 4
9 0 1 0 0 0 1 0 0 0 1 -22.39747 34.1 2.5 1 0.5 4
9 0 1 0 0 0 1 0 0 0 1 -23.89747 30.6 -20.5 0.5 2 2
9 0 1 0 0 0 1 0 0 0 1 -25.89747 -20.4 -23.5 0.5 2 2
9 0 1 0 0 0 1 0 0 0 1 -26.89747 -30.4 2.5 0.5 1 4
9 0 1 0 0 0 1 0 0 0 1 -28.89747 -28.4 2.5 0.5 1 4
9 0 1 0 0 0 1 0 0 0 1 -30.39747 -22.4 -19.5 1 2 1
9 0 1 0 0 0 1 0 0 0 1 -37.39747 20.1 2.5 1 0.5 4
9 0 1 0 0 0 1 0 0 0 1 -37.89747 14.6 -12.5 0.5 1 4
9 0 1 0 0 0 1 0 0 0 1 -36.39747 12.1 -20.5 2 0.5 2
9 0 1 0 0 0 1 0 0 0 1 -37.39747 -3.399998 -24.5 1 2 1
9 0 1 0 0 0 1 0 0 0 1 -37.89747 -15.4 2.5 0.5 1 4
9 0 1 0 0 0 1 0 0 0 1 -37.39747 -19.9 -12.5 1 0.5 4
9 0 1 0 0 0 1 0 0 0 1 -38.89747 -6.399998 -17.5 0.5 4 1
9 0 1 0 0 0 1 0 0 0 1 -39.89747 -17.4 -5.5 0.5 1 4
9 0 1 0 0 0 1 0 0 0 1 38.10253 -19.9 -1 0.5 0.5 7.5
9 0 1 0 0 0 1 0 0 0 1 34.10253 26.1 -1 0.5 0.5 7.5
9 0 1 0 0 0 1 0 0 0 1 34.10253 18.1 -21 1.5 0.5 2.5
9 0 1 0 0 0 1 0 0 0 1 29.10253 25.1 -20 0.5 2.5 1.5
9 0 1 0 0 0 1 0 0 0 1 20.10253 36.1 -9 0.5 0.5 7.5
9 0 1 0 0 0 1 0 0 0 1 12.10253 0.1000023 -4 1.5 2.5 0.5
9 0 1 0 0 0 1 0 0 0 1 6.102528 -8.899998 -4 1.5 2.5 0.5
9 0 1 0 0 0 1 0 0 0 1 -19.89747 38.1 -1 0.5 0.5 7.5
9 0 1 0 0 0 1 0 0 0 1 -18.89747 33.1 -20 2.5 0.5 1.5
9 0 1 0 0 0 1 0 0 0 1 -23.89747 36.1 -9 0.5 0.5 7.5
9 0 1 0 0 0 1 0 0 0 1 42.10253 10.6 2 0.5 1 3.5
9 0 1 0 0 0 1 0 0 0 1 40.10253 16.6 -5 0.5 1 3.5
9 0 1 0 0 0 1 0 0 0 1 40.10253 -1.899998 -17.5 0.5 3.5 1
9 0 1 0 0 0 1 0 0 0 1 40.10253 -16.4 -5 0.5 1 3.5
9 0 1 0 0 0 1 0 0 0 1 38.10253 12.1 -17.5 0.5 3.5 1
9 0 1 0 0 0 1 0 0 0 1 37.60253 21.1 -5 1 0.5 3.5
9 0 1 0 0 0 1 0 0 0 1 36.10253 -23.9 -8.5 0.5 0.5 7
9 0 1 0 0 0 1 0 0 0 1 35.60253 -7.899998 -24 1 3.5 0.5
9 0 1 0 0 0 1 0 0 0 1 14.60253 41.1 -5 1 0.5 3.5
9 0 1 0 0 0 1 0 0 0 1 14.60253 -40.9 -5 1 0.5 3.5
9 0 1 0 0 0 1 0 0 0 1 10.60253 42.1 2 1 0.5 3.5
9 0 1 0 0 0 1 0 0 0 1 12.10253 38.1 -17.5 3.5 0.5 1
9 0 1 0 0 0 1 0 0 0 1 4.602528 8.100002 0 1 0.5 3.5
9 0 1 0 0 0 1 0 0 0 1 -4.397472 8.100002 0 1 0.5 3.5
9 0 1 0 0 0 1 0 0 0 1 -5.397472 -7.899998 0 1 0.5 3.5
9 0 1 0 0 0 1 0 0 0 1 -7.897472 35.6 -24 3.5 1 0.5
9 0 1 0 0 0 1 0 0 0 1 -16.39747 40.1 -5 1 0.5 3.5
9 0 1 0 0 0 1 0 0 0 1 -24.89747 -14.9 -20.5 0.5 3.5 1
9 0 1 0 0 0 1 0 0 0 1 -27.89747 -23.9 -23.5 0.5 3.5 1
9 0 1 0 0 0 1 0 0 0 1 -32.89747 27.6 -5 0.5 1 3.5
9 0 1 0 0 0 1 0 0 0 1 -33.89747 -27.4 -5 0.5 1 3.5
9 0 1 0 0 0 1 0 0 0 1 -35.39747 18.1 10 1 0.5 3.5
9 0 1 0 0 0 1 0 0 0 1 -40.89747 14.6 -5 0.5 1 3.5
9 0 1 0 0 0 1 0 0 0 1 24.10253 0.1000023 -18 0.5 6.5 0.5
9 0 1 0 0 0 1 0 0 0 1 0.1025276 24.1 -18 6.5 0.5 0.5
9 0 1 0 0 0 1 0 0 0 1 -10.89747 -26.9 -23 6.5 0.5 0.5
9 0 1 0 0 0 1 0 0 0 1 38.10253 11.1 10.5 0.5 1.5 2
9 0 1 0 0 0 1 0 0 0 1 37.10253 15.6 -18 0.5 2 1.5
9 0 1 0 0 0 1 0 0 0 1 32.60253 -13.4 -24 1 1 1.5
9 0 1 0 0 0 1 0 0 0 1 31.60253 24.6 8 1 1 1.5
9 0 1 0 0 0 1 0 0 0 1 30.10253 18.6 -23.5 1.5 1 1
9 0 1 0 0 0 1 0 0 0 1 29.10253 11.1 -9.5 0.5 0.5 6
9 0 1 0 0 0 1 0 0 0 1 27.10253 11.6 -24 0.5 2 1.5
9 0 1 0 0 0 1 0 0 0 1 25.60253 -27.4 -20 1 1 1.5
9 0 1 0 0 0 1 0 0 0 1 24.10253 36.1 -2.5 0.5 0.5 6
9 0 1 0 0 0 1 0 0 0 1 21.60253 -20.4 -24 1 1 1.5
9 0 1 0 0 0 1 0 0 0 1 20.10253 31.6 -20.5 1.5 1 1
9 0 1 0 0 0 1 0 0 0 1 19.60253 29.1 -24 2 0.5 1.5
9 0 1 0 0 0 1 0 0 0 1 19.60253 -34.9 -17 2 0.5 1.5
9 0 1 0 0 0 1 0 0 0 1 18.60253 -35.4 8 1 1 1.5
9 0 1 0 0 0 1 0 0 0 1 17.60253 20.6 -20 1 1 1.5
9 0 1 0 0 0 1 0 0 0 1 16.60253 7.100002 9.5 1 1.5 1
9 0 1 0 0 0 1 0 0 0 1 16.60253 -20.9 -19.5 1 1.5 1
9 0 1 0 0 0 1 0 0 0 1 15.60253 37.1 -18 2 0.5 1.5
9 0 1 0 0 0 1 0 0 0 1 14.60253 9.600002 0 1 1 1.5
9 0 1 0 0 0 1 0 0 0 1 14.10253 24.6 -22.5 1.5 1 1
9 0 1 0 0 0 1 0 0 0 1 13.10253 -33.4 -23.5 1.5 1 1
9 0 1 0 0 0 1 0 0 0 1 9.602528 14.6 0 1 1 1.5
9 0 1 0 0 0 1 0 0 0 1 6.602528 -8.899998 4.5 1 1.5 1
9 0 1 0 0 0 1 0 0 0 1 6.102528 8.600002 -4 1.5 2 0.5
9 0 1 0 0 0 1 0 0 0 1 0.6025276 -10.9 -4.5 3 0.5 1
9 0 1 0 0 0 1 0 0 0 1 -3.397472 -40.9 -18 2 0.5 1.5
9 0 1 0 0 0 1 0 0 0 1 -0.3974724 -16.9 5 6 0.5 0.5
9 0 1 0 0 0 1 0 0 0 1 -5.897472 -9.399998 4.5 1.5 1 1
9 0 1 0 0 0 1 0 0 0 1 -6.397472 9.100002 -4 2 1.5 0.5
9 0 1 0 0 0 1 0 0 0 1 -7.397472 5.100002 -4.5 1 1.5 1
9 0 1 0 0 0 1 0 0 0 1 -8.397472 -7.899998 -4.5 1 1.5 1
9 0 1 0 0 0 1 0 0 0 1 -8.897472 6.600002 4.5 1.5 1 1
9 0 1 0 0 0 1 0 0 0 1 -9.897472 -38.9 10.5 1.5 0.5 2
9 0 1 0 0 0 1 0 0 0 1 -13.89747 35.6 -19.5 1.5 1 1
9 0 1 0 0 0 1 0 0 0 1 -14.39747 -9.899998 9.5 1 1.5 1
9 0 1 0 0 0 1 0 0 0 1 -14.89747 -37.4 -17.5 1.5 1 1
9 0 1 0 0 0 1 0 0 0 1 -16.89747 -0.3999977 5 0.5 6 0.5
9 0 1 0 0 0 1 0 0 0 1 -16.89747 24.6 -24.5 1.5 1 1
9 0 1 0 0 0 1 0 0 0 1 -19.39747 -32.4 -20 1 1 1.5
9 0 1 0 0 0 1 0 0 0 1 -21.39747 -30.4 -21 1 1 1.5
9 0 1 0 0 0 1 0 0 0 1 -22.39747 -32.9 9.5 1 0.5 3
9 0 1 0 0 0 1 0 0 0 1 -24.39747 12.1 -20.5 1 1.5 1
9 0 1 0 0 0 1 0 0 0 1 -27.39747 29.1 9.5 1 0.5 3
9 0 1 0 0 0 1 0 0 0 1 -29.89747 24.1 -20.5 1.5 0.5 2
9 0 1 0 0 0 1 0 0 0 1 -32.89747 -22.4 9.5 0.5 1 3
9 0 1 0 0 0 1 0 0 0 1 -37.89747 -11.4 10.5 0.5 1 3
9 0 1 0 0 0 1 0 0 0 1 39.10253 19.1 -7 0.5 0.5 5.5
9 0 1 0 0 0 1 0 0 0 1 19.10253 39.1 -7 0.5 0.5 5.5
9 0 1 0 0 0 1 0 0 0 1 19.10253 17.1 -6 0.5 0.5 5.5
9 0 1 0 0 0 1 0 0 0 1 17.10253 19.1 6 0.5 0.5 5.5
9 0 1 0 0 0 1 0 0 0 1 -19.89747 -38.9 -7 0.5 0.5 5.5
9 0 1 0 0 0 1 0 0 0 1 -34.89747 -12.9 -23 0.5 5.5 0.5
9 0 1 0 0 0 1 0 0 0 1 39.10253 8.100002 -17.5 0.5 2.5 1
9 0 1 0 0 0 1 0 0 0 1 32.10253 -19.4 -23 0.5 5 0.5
9 0 1 0 0 0 1 0 0 0 1 29.10253 -27.4 9 0.5 1 2.5
9 0 1 0 0 0 1 0 0 0 1 28.10253 -28.4 9 0.5 1 2.5
9 0 1 0 0 0 1 0 0 0 1 27.10253 -9.899998 -23.5 0.5 2.5 1
9 0 1 0 0 0 1 0 0 0 1 26.10253 11.1 -22.5 0.5 2.5 1
9 0 1 0 0 0 1 0 0 0 1 24.60253 -8.899998 -19 1 2.5 0.5
9 0 1 0 0 0 1 0 0 0 1 23.10253 9.100002 -17.5 0.5 2.5 1
9 0 1 0 0 0 1 0 0 0 1 23.10253 -8.899998 -17.5 0.5 2.5 1
9 0 1 0 0 0 1 0 0 0 1 23.10253 -28.9 -23.5 0.5 2.5 1
9 0 1 0 0 0 1 0 0 0 1 19.10253 16.6 -17 0.5 1 2.5
9 0 1 0 0 0 1 0 0 0 1 19.10253 0.1000023 9.5 0.5 2.5 1
9 0 1 0 0 0 1 0 0 0 1 16.10253 -38.4 6 2.5 1 0.5
9 0 1 0 0 0 1 0 0 0 1 15.10253 -6.899998 9.5 2.5 0.5 1
9 0 1 0 0 0 1 0 0 0 1 10.10253 -24.9 -20.5 2.5 0.5 1
9 0 1 0 0 0 1 0 0 0 1 9.102528 24.6 -19 2.5 1 0.5
9 0 1 0 0 0 1 0 0 0 1 6.102528 -5.899998 8.5 0.5 0.5 5
9 0 1 0 0 0 1 0 0 0 1 -0.8974724 39.1 -19.5 2.5 0.5 1
9 0 1 0 0 0 1 0 0 0 1 -5.897472 6.100002 8.5 0.5 0.5 5
9 0 1 0 0 0 1 0 0 0 1 -6.897472 -4.899998 8.5 0.5 0.5 5
9 0 1 0 0 0 1 0 0 0 1 -8.897472 23.1 -17.5 2.5 0.5 1
9 0 1 0 0 0 1 0 0 0 1 -11.39747 -37.9 11 1 0.5 2.5
9 0 1 0 0 0 1 0 0 0 1 -23.89747 -10.9 -19.5 0.5 2.5 1
9 0 1 0 0 0 1 0 0 0 1 -22.89747 15.6 -19 2.5 1 0.5
9 0 1 0 0 0 1 0 0 0 1 -26.89747 -9.399998 -23 0.5 5 0.5
9 0 1 0 0 0 1 0 0 0 1 -33.39747 -17.9 -21 1 0.5 2.5
9 0 1 0 0 0 1 0 0 0 1 -37.89747 -7.899998 -19.5 0.5 2.5 1
9 0 1 0 0 0 1 0 0 0 1 -38.39747 16.1 6 1 2.5 0.5
9 0 1 0 0 0 1 0 0 0 1 -38.89747 -19.9 -6.5 0.5 0.5 5
9 0 1 0 0 0 1 0 0 0 1 -40.89747 0.6000023 7 0.5 5 0.5
9 0 1 0 0 0 1 0 0 0 1 39.10253 -13.9 6 0.5 4.5 0.5
9 0 1 0 0 0 1 0 0 0 1 34.10253 22.1 -13 0.5 0.5 4.5
9 0 1 0 0 0 1 0 0 0 1 34.10253 21.1 8 0.5 1.5 1.5
9 0 1 0 0 0 1 0 0 0 1 34.10253 -13.9 -22 0.5 1.5 1.5
9 0 1 0 0 0 1 0 0 0 1 34.10253 -20.9 -18 0.5 1.5 1.5
9 0 1 0 0 0 1 0 0 0 1 33.10253 24.1 -12 0.5 0.5 4.5
9 0 1 0 0 0 1 0 0 0 1 30.10253 27.1 3 0.5 0.5 4.5
9 0 1 0 0 0 1 0 0 0 1 27.10253 30.1 3 0.5 0.5 4.5
9 0 1 0 0 0 1 0 0 0 1 26.10253 31.1 -13 0.5 0.5 4.5
9 0 1 0 0 0 1 0 0 0 1 25.10253 8.100002 -20 0.5 1.5 1.5
9 0 1 0 0 0 1 0 0 0 1 22.10253 34.1 -13 0.5 0.5 4.5
9 0 1 0 0 0 1 0 0 0 1 22.10253 -11.9 -18 0.5 1.5 1.5
9 0 1 0 0 0 1 0 0 0 1 21.10253 -34.9 3 0.5 0.5 4.5
9 0 1 0 0 0 1 0 0 0 1 21.10253 34.1 8 1.5 0.5 1.5
9 0 1 0 0 0 1 0 0 0 1 20.10253 32.1 -19 1.5 1.5 0.5
9 0 1 0 0 0 1 0 0 0 1 13.10253 -41.9 -6 0.5 0.5 4.5
9 0 1 0 0 0 1 0 0 0 1 12.10253 22.1 -18 1.5 0.5 1.5
9 0 1 0 0 0 1 0 0 0 1 12.10253 -23.9 -20 1.5 0.5 1.5
9 0 1 0 0 0 1 0 0 0 1 10.10253 -12.9 -5 1.5 1.5 0.5
9 0 1 0 0 0 1 0 0 0 1 9.102528 7.100002 4 1.5 1.5 0.5
9 0 1 0 0 0 1 0 0 0 1 9.102528 -6.899998 4 1.5 1.5 0.5
9 0 1 0 0 0 1 0 0 0 1 7.102528 6.100002 -1 0.5 0.5 4.5
9 0 1 0 0 0 1 0 0 0 1 7.102528 -5.899998 -1 0.5 0.5 4.5
9 0 1 0 0 0 1 0 0 0 1 3.102528 -40.9 8 1.5 0.5 1.5
9 0 1 0 0 0 1 0 0 0 1 0.1025276 17.1 5 4.5 0.5 0.5
9 0 1 0 0 0 1 0 0 0 1 -6.897472 -6.899998 -1 0.5 0.5 4.5
9 0 1 0 0 0 1 0 0 0 1 -6.897472 9.100002 4 1.5 1.5 0.5
9 0 1 0 0 0 1 0 0 0 1 -9.897472 38.1 -23 1.5 0.5 1.5
9 0 1 0 0 0 1 0 0 0 1 -9.897472 -12.9 -5 1.5 1.5 0.5
9 0 1 0 0 0 1 0 0 0 1 -7.897472 27.1 -23 4.5 0.5 0.5
9 0 1 0 0 0 1 0 0 0 1 -12.89747 -28.9 -11 0.5 0.5 4.5
9 0 1 0 0 0 1 0 0 0 1 -12.89747 -41.9 -4 0.5 0.5 4.5
9 0 1 0 0 0 1 0 0 0 1 -13.89747 39.1 6 4.5 0.5 0.5
9 0 1 0 0 0 1 0 0 0 1 -17.89747 5.100002 0 0.5 1.5 1.5
9 0 1 0 0 0 1 0 0 0 1 -17.89747 -4.899998 0 0.5 1.5 1.5
9 0 1 0 0 0 1 0 0 0 1 -20.89747 -34.9 -13 0.5 0.5 4.5
9 0 1 0 0 0 1 0 0 0 1 -20.89747 34.1 -18 1.5 0.5 1.5
9 0 1 0 0 0 1 0 0 0 1 -22.89747 -13.9 -20 0.5 1.5 1.5
9 0 1 0 0 0 1 0 0 0 1 -23.89747 -32.9 -13 0.5 0.5 4.5
9 0 1 0 0 0 1 0 0 0 1 -24.89747 16.1 -24 0.5 1.5 1.5
9 0 1 0 0 0 1 0 0 0 1 -26.89747 11.1 -24 0.5 1.5 1.5
9 0 1 0 0 0 1 0 0 0 1 -29.89747 -28.9 -16 1.5 1.5 0.5
9 0 1 0 0 0 1 0 0 0 1 -34.89747 21.1 3 0.5 0.5 4.5
9 0 1 0 0 0 1 0 0 0 1 -37.89747 10.1 -23 0.5 1.5 1.5
9 0 1 0 0 0 1 0 0 0 1 -38.89747 -9.899998 11 0.5 1.5 1.5
9 0 1 0 0 0 1 0 0 0 1 -40.89747 -2.899998 -18 0.5 1.5 1.5
9 0 1 0 0 0 1 0 0 0 1 -41.89747 13.1 -6 0.5 0.5 4.5
9 0 1 0 0 0 1 0 0 0 1 -41.89747 -12.9 -4 0.5 0.5 4.5
9 0 1 0 0 0 1 0 0 0 1 42.10253 -10.4 -13.5 0.5 1 2
9 0 1 0 0 0 1 0 0 0 1 38.60253 9.100002 11.5 1 0.5 2
9 0 1 0 0 0 1 0 0 0 1 38.10253 3.600002 -22.5 0.5 2 1
9 0 1 0 0 0 1 0 0 0 1 38.10253 -10.4 -22.5 0.5 2 1
9 0 1 0 0 0 1 0 0 0 1 38.10253 -11.4 -17.5 0.5 2 1
9 0 1 0 0 0 1 0 0 0 1 37.10253 22.6 -3.5 0.5 1 2
9 0 1 0 0 0 1 0 0 0 1 35.60253 18.6 -17.5 1 1 1
9 0 1 0 0 0 1 0 0 0 1 33.10253 -23.9 2.5 0.5 0.5 4
9 0 1 0 0 0 1 0 0 0 1 31.10253 -26.9 -12.5 0.5 0.5 4
9 0 1 0 0 0 1 0 0 0 1 29.10253 -28.9 -12.5 0.5 0.5 4
9 0 1 0 0 0 1 0 0 0 1 26.10253 -10.4 -22.5 0.5 2 1
9 0 1 0 0 0 1 0 0 0 1 26.60253 -24.4 -22.5 1 1 1
9 0 1 0 0 0 1 0 0 0 1 25.10253 -35.9 -5.5 0.5 0.5 4
9 0 1 0 0 0 1 0 0 0 1 24.10253 33.1 -12.5 0.5 0.5 4
9 0 1 0 0 0 1 0 0 0 1 24.10253 17.6 -24.5 0.5 2 1
9 0 1 0 0 0 1 0 0 0 1 24.10253 -12.4 -20.5 0.5 2 1
9 0 1 0 0 0 1 0 0 0 1 24.60253 -16.4 -24.5 1 1 1
9 0 1 0 0 0 1 0 0 0 1 24.10253 -32.9 2.5 0.5 0.5 4
9 0 1 0 0 0 1 0 0 0 1 21.10253 33.1 -14.5 0.5 0.5 4
9 0 1 0 0 0 1 0 0 0 1 21.60253 18.6 -22.5 1 1 1
9 0 1 0 0 0 1 0 0 0 1 21.60253 -15.4 -19.5 1 1 1
9 0 1 0 0 0 1 0 0 0 1 21.60253 -18.4 -22.5 1 1 1
9 0 1 0 0 0 1 0 0 0 1 20.60253 16.6 -19.5 1 1 1
9 0 1 0 0 0 1 0 0 0 1 19.60253 30.6 -22.5 1 1 1
9 0 1 0 0 0 1 0 0 0 1 19.60253 -15.4 -17.5 1 1 1
9 0 1 0 0 0 1 0 0 0 1 18.60253 35.6 -17.5 1 1 1
9 0 1 0 0 0 1 0 0 0 1 17.60253 22.6 -22.5 1 1 1
9 0 1 0 0 0 1 0 0 0 1 17.60253 -23.4 -23.5 1 1 1
9 0 1 0 0 0 1 0 0 0 1 18.60253 -33.9 -19.5 2 0.5 1
9 0 1 0 0 0 1 0 0 0 1 15.60253 19.6 -17.5 1 1 1
9 0 1 0 0 0 1 0 0 0 1 18.60253 -24.9 -25 4 0.5 0.5
9 0 1 0 0 0 1 0 0 0 1 14.10253 -38.9 -12.5 0.5 0.5 4
9 0 1 0 0 0 1 0 0 0 1 12.60253 8.600002 0 1 2 0.5
9 0 1 0 0 0 1 0 0 0 1 12.60253 -21.4 -17.5 1 1 1
9 0 1 0 0 0 1 0 0 0 1 13.60253 -35.9 -19.5 2 0.5 1
9 0 1 0 0 0 1 0 0 0 1 10.60253 10.6 9.5 1 1 1
9 0 1 0 0 0 1 0 0 0 1 10.60253 -10.4 9.5 1 1 1
9 0 1 0 0 0 1 0 0 0 1 10.60253 -22.4 -17.5 1 1 1
9 0 1 0 0 0 1 0 0 0 1 11.60253 -37.9 -17.5 2 0.5 1
9 0 1 0 0 0 1 0 0 0 1 9.602528 -15.4 9.5 1 1 1
9 0 1 0 0 0 1 0 0 0 1 10.60253 -25.9 -22.5 2 0.5 1
9 0 1 0 0 0 1 0 0 0 1 10.60253 -26.9 -23.5 2 0.5 1
9 0 1 0 0 0 1 0 0 0 1 9.602528 -38.4 -22.5 1 1 1
9 0 1 0 0 0 1 0 0 0 1 8.102528 -4.899998 9.5 0.5 0.5 4
9 0 1 0 0 0 1 0 0 0 1 8.602528 12.6 0 2 1 0.5
9 0 1 0 0 0 1 0 0 0 1 7.602528 12.6 9.5 1 1 1
9 0 1 0 0 0 1 0 0 0 1 7.102528 -6.899998 4.5 0.5 0.5 4
9 0 1 0 0 0 1 0 0 0 1 8.602528 -38.9 7.5 2 0.5 1
9 0 1 0 0 0 1 0 0 0 1 6.102528 41.1 -12.5 0.5 0.5 4
9 0 1 0 0 0 1 0 0 0 1 7.602528 36.1 -22.5 2 0.5 1
9 0 1 0 0 0 1 0 0 0 1 7.602528 35.1 -24.5 2 0.5 1
9 0 1 0 0 0 1 0 0 0 1 6.602528 8.600002 4.5 1 1 1
9 0 1 0 0 0 1 0 0 0 1 6.602528 -12.9 9.5 2 0.5 1
9 0 1 0 0 0 1 0 0 0 1 3.602528 10.6 -4.5 1 1 1
9 0 1 0 0 0 1 0 0 0 1 5.602528 25.1 -20 4 0.5 0.5
9 0 1 0 0 0 1 0 0 0 1 0.6025276 -38.9 -19.5 2 0.5 1
9 0 1 0 0 0 1 0 0 0 1 -3.397472 10.6 -4.5 1 1 1
9 0 1 0 0 0 1 0 0 0 1 -3.397472 41.1 7.5 2 0.5 1
9 0 1 0 0 0 1 0 0 0 1 -4.397472 18.1 9.5 2 0.5 1
9 0 1 0 0 0 1 0 0 0 1 -6.397472 13.1 9.5 2 0.5 1
9 0 1 0 0 0 1 0 0 0 1 -7.397472 -37.9 -19.5 2 0.5 1
9 0 1 0 0 0 1 0 0 0 1 -9.397472 15.6 9.5 1 1 1
9 0 1 0 0 0 1 0 0 0 1 -6.397472 -38.9 -18 4 0.5 0.5
9 0 1 0 0 0 1 0 0 0 1 -10.39747 42.1 -13.5 1 0.5 2
9 0 1 0 0 0 1 0 0 0 1 -7.397472 -22.9 -17 4 0.5 0.5
9 0 1 0 0 0 1 0 0 0 1 -10.39747 26.1 -22.5 2 0.5 1
9 0 1 0 0 0 1 0 0 0 1 -13.39747 32.6 -24.5 1 1 1
9 0 1 0 0 0 1 0 0 0 1 -12.39747 23.1 -19.5 2 0.5 1
9 0 1 0 0 0 1 0 0 0 1 -13.39747 11.6 9.5 1 1 1
9 0 1 0 0 0 1 0 0 0 1 -13.89747 -38.9 2.5 0.5 0.5 4
9 0 1 0 0 0 1 0 0 0 1 -13.39747 -20.9 -17.5 2 0.5 1
9 0 1 0 0 0 1 0 0 0 1 -15.39747 -23.9 -22.5 2 0.5 1
9 0 1 0 0 0 1 0 0 0 1 -18.89747 -35.4 -18.5 0.5 1 2
9 0 1 0 0 0 1 0 0 0 1 -20.39747 -14.4 -17.5 1 1 1
9 0 1 0 0 0 1 0 0 0 1 -21.39747 19.6 -23.5 1 1 1
9 0 1 0 0 0 1 0 0 0 1 -21.39747 12.6 -17.5 1 1 1
9 0 1 0 0 0 1 0 0 0 1 -22.39747 9.600002 -17 1 2 0.5
9 0 1 0 0 0 1 0 0 0 1 -22.89747 -7.399998 -17 0.5 4 0.5
9 0 1 0 0 0 1 0 0 0 1 -23.89747 33.1 2.5 0.5 0.5 4
9 0 1 0 0 0 1 0 0 0 1 -24.39747 26.6 -22.5 1 1 1
9 0 1 0 0 0 1 0 0 0 1 -24.89747 -35.9 -4.5 0.5 0.5 4
9 0 1 0 0 0 1 0 0 0 1 -25.89747 10.6 -22.5 0.5 2 1
9 0 1 0 0 0 1 0 0 0 1 -25.89747 -10.4 -22 0.5 4 0.5
9 0 1 0 0 0 1 0 0 0 1 -25.89747 -26.4 -19 0.5 4 0.5
9 0 1 0 0 0 1 0 0 0 1 -26.89747 31.1 -12.5 0.5 0.5 4
9 0 1 0 0 0 1 0 0 0 1 -26.39747 -13.4 -24.5 1 1 1
9 0 1 0 0 0 1 0 0 0 1 -27.89747 -12.4 -25 0.5 5 0.5
9 0 1 0 0 0 1 0 0 0 1 -27.39747 26.6 -19.5 1 1 1
9 0 1 0 0 0 1 0 0 0 1 -27.89747 -29.9 2.5 0.5 0.5 4
9 0 1 0 0 0 1 0 0 0 1 -28.89747 29.1 -12.5 0.5 0.5 4
9 0 1 0 0 0 1 0 0 0 1 -29.89747 -27.9 2.5 0.5 0.5 4
9 0 1 0 0 0 1 0 0 0 1 -31.89747 26.1 -12.5 0.5 0.5 4
9 0 1 0 0 0 1 0 0 0 1 -31.89747 26.1 2.5 0.5 0.5 4
9 0 1 0 0 0 1 0 0 0 1 -32.89747 24.1 2.5 0.5 0.5 4
9 0 1 0 0 0 1 0 0 0 1 -32.89747 14.6 -23.5 0.5 2 1
9 0 1 0 0 0 1 0 0 0 1 -33.89747 14.1 -22 0.5 1.5 1.5
9 0 1 0 0 0 1 0 0 0 1 -32.89747 -23.9 -12.5 0.5 0.5 4
9 0 1 0 0 0 1 0 0 0 1 -33.39747 -25.9 4.5 1 0.5 2
9 0 1 0 0 0 1 0 0 0 1 -34.89747 19.6 -17.5 0.5 2 1
9 0 1 0 0 0 1 0 0 0 1 -34.89747 -8.399998 -24.5 0.5 2 1
9 0 1 0 0 0 1 0 0 0 1 -35.89747 25.1 -5.5 0.5 0.5 4
9 0 1 0 0 0 1 0 0 0 1 -34.39747 -18.9 -19.5 2 0.5 1
9 0 1 0 0 0 1 0 0 0 1 -35.89747 -24.9 -4.5 0.5 0.5 4
9 0 1 0 0 0 1 0 0 0 1 -36.89747 -16.4 -17.5 0.5 2 1
9 0 1 0 0 0 1 0 0 0 1 -38.89747 14.1 -12.5 0.5 0.5 4
9 0 1 0 0 0 1 0 0 0 1 -38.89747 9.600002 -21.5 0.5 1 2
9 0 1 0 0 0 1 0 0 0 1 -38.89747 8.600002 7.5 0.5 2 1
9 0 1 0 0 0 1 0 0 0 1 -38.89747 0.6000023 -19.5 0.5 2 1
9 0 1 0 0 0 1 0 0 0 1 -39.89747 17.1 2.5 0.5 0.5 4
9 0 1 0 0 0 1 0 0 0 1 42.10253 -8.899998 -5 0.5 0.5 3.5
9 0 1 0 0 0 1 0 0 0 1 41.10253 6.100002 -12 0.5 0.5 3.5
9 0 1 0 0 0 1 0 0 0 1 41.10253 -2.899998 7 0.5 3.5 0.5
9 0 1 0 0 0 1 0 0 0 1 38.10253 -20.9 -5 0.5 0.5 3.5
9 0 1 0 0 0 1 0 0 0 1 34.10253 27.1 -5 0.5 0.5 3.5
9 0 1 0 0 0 1 0 0 0 1 34.10253 -26.9 -5 0.5 0.5 3.5
9 0 1 0 0 0 1 0 0 0 1 32.10253 29.1 -5 0.5 0.5 3.5
9 0 1 0 0 0 1 0 0 0 1 32.10253 -28.9 -5 0.5 0.5 3.5
9 0 1 0 0 0 1 0 0 0 1 29.10253 32.1 -5 0.5 0.5 3.5
9 0 1 0 0 0 1 0 0 0 1 29.10253 -31.9 -5 0.5 0.5 3.5
9 0 1 0 0 0 1 0 0 0 1 27.10253 34.1 -5 0.5 0.5 3.5
9 0 1 0 0 0 1 0 0 0 1 27.10253 6.100002 -23 0.5 3.5 0.5
9 0 1 0 0 0 1 0 0 0 1 27.10253 -33.9 -5 0.5 0.5 3.5
9 0 1 0 0 0 1 0 0 0 1 23.10253 -36.9 -5 0.5 0.5 3.5
9 0 1 0 0 0 1 0 0 0 1 21.10253 38.1 -5 0.5 0.5 3.5
9 0 1 0 0 0 1 0 0 0 1 19.10253 17.1 6 0.5 0.5 3.5
9 0 1 0 0 0 1 0 0 0 1 17.10253 19.1 -6 0.5 0.5 3.5
9 0 1 0 0 0 1 0 0 0 1 17.10253 -39.9 2 0.5 0.5 3.5
9 0 1 0 0 0 1 0 0 0 1 16.10253 7.100002 -1 0.5 3.5 0.5
9 0 1 0 0 0 1 0 0 0 1 16.10253 -6.899998 -1 0.5 3.5 0.5
9 0 1 0 0 0 1 0 0 0 1 16.10253 -6.899998 1 0.5 3.5 0.5
9 0 1 0 0 0 1 0 0 0 1 8.102528 0.1000023 4 0.5 3.5 0.5
9 0 1 0 0 0 1 0 0 0 1 6.102528 7.100002 0 0.5 0.5 3.5
9 0 1 0 0 0 1 0 0 0 1 6.102528 -6.899998 0 0.5 0.5 3.5
9 0 1 0 0 0 1 0 0 0 1 5.102528 -7.899998 0 0.5 0.5 3.5
9 0 1 0 0 0 1 0 0 0 1 7.102528 27.1 -23 3.5 0.5 0.5
9 0 1 0 0 0 1 0 0 0 1 5.102528 10.1 4 3.5 0.5 0.5
9 0 1 0 0 0 1 0 0 0 1 2.102528 -39.9 9 3.5 0.5 0.5
9 0 1 0 0 0 1 0 0 0 1 -1.897472 -7.899998 -12 0.5 0.5 3.5
9 0 1 0 0 0 1 0 0 0 1 0.1025276 -12.9 4 3.5 0.5 0.5
9 0 1 0 0 0 1 0 0 0 1 -4.897472 -6.899998 10 0.5 0.5 3.5
9 0 1 0 0 0 1 0 0 0 1 -6.897472 6.100002 0 0.5 0.5 3.5
9 0 1 0 0 0 1 0 0 0 1 -7.897472 5.100002 0 0.5 0.5 3.5
9 0 1 0 0 0 1 0 0 0 1 -8.897472 42.1 -5 0.5 0.5 3.5
9 0 1 0 0 0 1 0 0 0 1 -5.897472 25.1 -20 3.5 0.5 0.5
9 0 1 0 0 0 1 0 0 0 1 -6.897472 16.1 -1 3.5 0.5 0.5
9 0 1 0 0 0 1 0 0 0 1 -6.897472 16.1 1 3.5 0.5 0.5
9 0 1 0 0 0 1 0 0 0 1 -7.897472 35.1 -25 3.5 0.5 0.5
9 0 1 0 0 0 1 0 0 0 1 -12.89747 0.1000023 4 0.5 3.5 0.5
9 0 1 0 0 0 1 0 0 0 1 -20.89747 38.1 -5 0.5 0.5 3.5
9 0 1 0 0 0 1 0 0 0 1 -22.89747 -36.9 -5 0.5 0.5 3.5
9 0 1 0 0 0 1 0 0 0 1 -20.89747 -30.9 -19 3.5 0.5 0.5
9 0 1 0 0 0 1 0 0 0 1 -24.89747 7.100002 -20 0.5 3.5 0.5
9 0 1 0 0 0 1 0 0 0 1 -24.89747 -7.899998 -20 0.5 3.5 0.5
9 0 1 0 0 0 1 0 0 0 1 -26.89747 34.1 -5 0.5 0.5 3.5
9 0 1 0 0 0 1 0 0 0 1 -28.89747 32.1 -5 0.5 0.5 3.5
9 0 1 0 0 0 1 0 0 0 1 -29.89747 -30.9 -5 0.5 0.5 3.5
9 0 1 0 0 0 1 0 0 0 1 -33.89747 27.1 -5 0.5 0.5 3.5
9 0 1 0 0 0 1 0 0 0 1 -36.89747 23.1 -5 0.5 0.5 3.5
9 0 1 0 0 0 1 0 0 0 1 -36.89747 -22.9 -5 0.5 0.5 3.5
9 0 1 0 0 0 1 0 0 0 1 -39.89747 -16.9 -13 0.5 0.5 3.5
9 0 1 0 0 0 1 0 0 0 1 41.10253 3.100002 -17.5 0.5 1.5 1
9 0 1 0 0 0 1 0 0 0 1 39.10253 -9.399998 -21 0.5 1 1.5
9 0 1 0 0 0 1 0 0 0 1 37.10253 11.1 -19.5 0.5 1.5 1
9 0 1 0 0 0 1 0 0 0 1 37.10253 -13.4 -18 0.5 1 1.5
9 0 1 0 0 0 1 0 0 0 1 37.10253 -15.9 9.5 0.5 0.5 3
9 0 1 0 0 0 1 0 0 0 1 36.10253 24.1 1.5 0.5 0.5 3
9 0 1 0 0 0 1 0 0 0 1 36.10253 17.1 6.5 0.5 1.5 1
9 0 1 0 0 0 1 0 0 0 1 36.10253 -16.4 12 0.5 1 1.5
9 0 1 0 0 0 1 0 0 0 1 36.10253 9.100002 -20.5 1.5 0.5 1
9 0 1 0 0 0 1 0 0 0 1 35.10253 8.600002 -24 0.5 3 0.5
9 0 1 0 0 0 1 0 0 0 1 35.60253 7.100002 -23 1 1.5 0.5
9 0 1 0 0 0 1 0 0 0 1 36.10253 -9.399998 -25 1.5 1 0.5
9 0 1 0 0 0 1 0 0 0 1 34.10253 -25.9 -13.5 0.5 0.5 3
9 0 1 0 0 0 1 0 0 0 1 31.60253 24.1 11 1 0.5 1.5
9 0 1 0 0 0 1 0 0 0 1 29.10253 22.1 -22.5 0.5 1.5 1
9 0 1 0 0 0 1 0 0 0 1 30.10253 21.6 -21 1.5 1 0.5
9 0 1 0 0 0 1 0 0 0 1 30.10253 -22.9 -23.5 1.5 0.5 1
9 0 1 0 0 0 1 0 0 0 1 26.60253 28.1 -20 1 0.5 1.5
9 0 1 0 0 0 1 0 0 0 1 26.60253 -29.9 9 1 0.5 1.5
9 0 1 0 0 0 1 0 0 0 1 25.10253 31.6 8 0.5 1 1.5
9 0 1 0 0 0 1 0 0 0 1 25.10253 -13.4 -23 0.5 1 1.5
9 0 1 0 0 0 1 0 0 0 1 24.10253 32.1 9.5 0.5 0.5 3
9 0 1 0 0 0 1 0 0 0 1 23.10253 12.1 -19.5 0.5 1.5 1
9 0 1 0 0 0 1 0 0 0 1 23.10253 -32.9 -17.5 1.5 0.5 1
9 0 1 0 0 0 1 0 0 0 1 19.10253 -18.4 -20 0.5 1 1.5
9 0 1 0 0 0 1 0 0 0 1 18.10253 4.600002 0 0.5 1 1.5
9 0 1 0 0 0 1 0 0 0 1 20.60253 -35.9 -16 3 0.5 0.5
9 0 1 0 0 0 1 0 0 0 1 18.10253 -35.4 11 0.5 1 1.5
9 0 1 0 0 0 1 0 0 0 1 17.10253 -7.399998 0 0.5 1 1.5
9 0 1 0 0 0 1 0 0 0 1 16.10253 6.600002 1 0.5 3 0.5
9 0 1 0 0 0 1 0 0 0 1 15.10253 -36.9 -17.5 1.5 0.5 1
9 0 1 0 0 0 1 0 0 0 1 14.10253 37.1 7.5 1.5 0.5 1
9 0 1 0 0 0 1 0 0 0 1 14.10253 26.6 -25 1.5 1 0.5
9 0 1 0 0 0 1 0 0 0 1 14.10253 6.100002 9.5 1.5 0.5 1
9 0 1 0 0 0 1 0 0 0 1 13.10253 -7.399998 0 0.5 3 0.5
9 0 1 0 0 0 1 0 0 0 1 14.10253 -21.9 -19.5 1.5 0.5 1
9 0 1 0 0 0 1 0 0 0 1 13.10253 23.1 -20.5 1.5 0.5 1
9 0 1 0 0 0 1 0 0 0 1 14.60253 -33.9 -22 3 0.5 0.5
9 0 1 0 0 0 1 0 0 0 1 11.10253 37.1 -19.5 1.5 0.5 1
9 0 1 0 0 0 1 0 0 0 1 10.10253 39.1 10.5 1.5 0.5 1
9 0 1 0 0 0 1 0 0 0 1 10.10253 15.1 9.5 1.5 0.5 1
9 0 1 0 0 0 1 0 0 0 1 10.10253 12.6 -5 1.5 1 0.5
9 0 1 0 0 0 1 0 0 0 1 9.602528 -11.9 0 1 1.5 0.5
9 0 1 0 0 0 1 0 0 0 1 9.602528 -14.9 -1 1 1.5 0.5
9 0 1 0 0 0 1 0 0 0 1 10.10253 -36.9 -24.5 1.5 0.5 1
9 0 1 0 0 0 1 0 0 0 1 8.102528 -0.3999977 -7 0.5 1 1.5
9 0 1 0 0 0 1 0 0 0 1 9.102528 -15.4 1 1.5 1 0.5
9 0 1 0 0 0 1 0 0 0 1 9.602528 39.1 -17 3 0.5 0.5
9 0 1 0 0 0 1 0 0 0 1 8.102528 4.600002 -5 1.5 1 0.5
9 0 1 0 0 0 1 0 0 0 1 8.102528 -4.399998 -5 1.5 1 0.5
9 0 1 0 0 0 1 0 0 0 1 7.602528 -16.9 0 1 0.5 1.5
9 0 1 0 0 0 1 0 0 0 1 9.602528 -27.9 -25 3 0.5 0.5
9 0 1 0 0 0 1 0 0 0 1 7.602528 40.1 7 3 0.5 0.5
9 0 1 0 0 0 1 0 0 0 1 4.602528 18.1 0 1 0.5 1.5
9 0 1 0 0 0 1 0 0 0 1 6.602528 16.1 -1 3 0.5 0.5
9 0 1 0 0 0 1 0 0 0 1 7.102528 16.1 1 3.5 0.5 0.5
9 0 1 0 0 0 1 0 0 0 1 5.102528 -17.9 9.5 1.5 0.5 1
9 0 1 0 0 0 1 0 0 0 1 6.602528 -22.9 -17 3 0.5 0.5
9 0 1 0 0 0 1 0 0 0 1 4.102528 18.1 9.5 1.5 0.5 1
9 0 1 0 0 0 1 0 0 0 1 4.102528 -9.899998 4.5 1.5 0.5 1
9 0 1 0 0 0 1 0 0 0 1 3.102528 41.1 -17.5 1.5 0.5 1
9 0 1 0 0 0 1 0 0 0 1 1.602528 -37.9 -22 3 0.5 0.5
9 0 1 0 0 0 1 0 0 0 1 -3.897472 -38.9 9.5 1.5 0.5 1
9 0 1 0 0 0 1 0 0 0 1 -4.897472 -17.9 9.5 1.5 0.5 1
9 0 1 0 0 0 1 0 0 0 1 -7.397472 17.1 0 1 0.5 1.5
9 0 1 0 0 0 1 0 0 0 1 -7.897472 -2.899998 -4.5 0.5 1.5 1
9 0 1 0 0 0 1 0 0 0 1 -6.897472 -12.9 9.5 1.5 0.5 1
9 0 1 0 0 0 1 0 0 0 1 -7.397472 -16.9 0 1 0.5 1.5
9 0 1 0 0 0 1 0 0 0 1 -7.897472 24.6 -19 1.5 1 0.5
9 0 1 0 0 0 1 0 0 0 1 -8.397472 14.1 5 1 1.5 0.5
9 0 1 0 0 0 1 0 0 0 1 -7.397472 40.1 -17 3 0.5 0.5
9 0 1 0 0 0 1 0 0 0 1 -9.397472 39.1 -21 1 0.5 1.5
9 0 1 0 0 0 1 0 0 0 1 -7.397472 13.1 0 3 0.5 0.5
9 0 1 0 0 0 1 0 0 0 1 -9.897472 4.100002 4.5 0.5 1.5 1
9 0 1 0 0 0 1 0 0 0 1 -8.897472 -12.4 0 1.5 1 0.5
9 0 1 0 0 0 1 0 0 0 1 -8.897472 -15.4 -1 1.5 1 0.5
9 0 1 0 0 0 1 0 0 0 1 -8.897472 -15.4 1 1.5 1 0.5
9 0 1 0 0 0 1 0 0 0 1 -7.397472 -24.9 -20 3 0.5 0.5
9 0 1 0 0 0 1 0 0 0 1 -9.897472 -25.9 -22.5 1.5 0.5 1
9 0 1 0 0 0 1 0 0 0 1 -10.89747 27.1 -24.5 1.5 0.5 1
9 0 1 0 0 0 1 0 0 0 1 -11.89747 9.600002 0 1.5 1 0.5
9 0 1 0 0 0 1 0 0 0 1 -12.89747 7.100002 9.5 0.5 1.5 1
9 0 1 0 0 0 1 0 0 0 1 -12.39747 -8.899998 0 1 1.5 0.5
9 0 1 0 0 0 1 0 0 0 1 -12.89747 25.1 -22.5 1.5 0.5 1
9 0 1 0 0 0 1 0 0 0 1 -12.89747 21.1 -17.5 1.5 0.5 1
9 0 1 0 0 0 1 0 0 0 1 -13.39747 -9.899998 5 1 1.5 0.5
9 0 1 0 0 0 1 0 0 0 1 -13.89747 33.6 -23 1.5 1 0.5
9 0 1 0 0 0 1 0 0 0 1 -14.39747 22.1 -20 1 0.5 1.5
9 0 1 0 0 0 1 0 0 0 1 -13.89747 -22.9 -20.5 1.5 0.5 1
9 0 1 0 0 0 1 0 0 0 1 -14.39747 -36.9 8 1 0.5 1.5
9 0 1 0 0 0 1 0 0 0 1 -15.89747 37.1 9.5 0.5 0.5 3
9 0 1 0 0 0 1 0 0 0 1 -14.89747 20.1 -17.5 1.5 0.5 1
9 0 1 0 0 0 1 0 0 0 1 -14.89747 9.600002 1 1.5 1 0.5
9 0 1 0 0 0 1 0 0 0 1 -15.39747 9.100002 -1 1 1.5 0.5
9 0 1 0 0 0 1 0 0 0 1 -15.39747 -8.899998 -1 1 1.5 0.5
9 0 1 0 0 0 1 0 0 0 1 -15.39747 -8.899998 1 1 1.5 0.5
9 0 1 0 0 0 1 0 0 0 1 -16.39747 -18.9 -18 1 0.5 1.5
9 0 1 0 0 0 1 0 0 0 1 -15.89747 -24.9 -24.5 1.5 0.5 1
9 0 1 0 0 0 1 0 0 0 1 -16.89747 -39.9 -12.5 0.5 0.5 3
9 0 1 0 0 0 1 0 0 0 1 -16.89747 36.1 -17.5 1.5 0.5 1
9 0 1 0 0 0 1 0 0 0 1 -16.89747 20.1 -19.5 1.5 0.5 1
9 0 1 0 0 0 1 0 0 0 1 -17.39747 18.1 -18 1 0.5 1.5
9 0 1 0 0 0 1 0 0 0 1 -17.89747 5.100002 9.5 0.5 1.5 1
9 0 1 0 0 0 1 0 0 0 1 -17.89747 -4.899998 9.5 0.5 1.5 1
9 0 1 0 0 0 1 0 0 0 1 -17.89747 34.1 -19.5 1.5 0.5 1
9 0 1 0 0 0 1 0 0 0 1 -18.89747 -29.4 -25 1.5 1 0.5
9 0 1 0 0 0 1 0 0 0 1 -20.89747 -19.4 -22 0.5 3 0.5
9 0 1 0 0 0 1 0 0 0 1 -19.89747 -34.9 7.5 1.5 0.5 1
9 0 1 0 0 0 1 0 0 0 1 -22.39747 -16.9 -22 1 1.5 0.5
9 0 1 0 0 0 1 0 0 0 1 -22.89747 -19.4 -19 1.5 1 0.5
9 0 1 0 0 0 1 0 0 0 1 -23.89747 32.1 -17.5 1.5 0.5 1
9 0 1 0 0 0 1 0 0 0 1 -24.89747 -12.9 -22.5 0.5 1.5 1
9 0 1 0 0 0 1 0 0 0 1 -25.89747 34.1 -13.5 0.5 0.5 3
9 0 1 0 0 0 1 0 0 0 1 -25.89747 24.6 -24 0.5 1 1.5
9 0 1 0 0 0 1 0 0 0 1 -26.39747 12.1 -20 1 0.5 1.5
9 0 1 0 0 0 1 0 0 0 1 -27.89747 9.600002 -25 0.5 3 0.5
9 0 1 0 0 0 1 0 0 0 1 -28.89747 -27.9 -17.5 0.5 1.5 1
9 0 1 0 0 0 1 0 0 0 1 -29.89747 26.6 9 0.5 1 1.5
9 0 1 0 0 0 1 0 0 0 1 -29.89747 -21.4 -22 0.5 1 1.5
9 0 1 0 0 0 1 0 0 0 1 -29.89747 -25.9 -17.5 0.5 0.5 3
9 0 1 0 0 0 1 0 0 0 1 -32.89747 23.1 -17.5 0.5 1.5 1
9 0 1 0 0 0 1 0 0 0 1 -33.89747 19.1 -19.5 0.5 1.5 1
9 0 1 0 0 0 1 0 0 0 1 -35.39747 19.1 8 1 0.5 1.5
9 0 1 0 0 0 1 0 0 0 1 -35.89747 17.1 -17.5 0.5 1.5 1
9 0 1 0 0 0 1 0 0 0 1 -35.89747 14.1 -19.5 0.5 1.5 1
9 0 1 0 0 0 1 0 0 0 1 -36.89747 10.1 -24.5 0.5 1.5 1
9 0 1 0 0 0 1 0 0 0 1 -36.89747 -14.9 7.5 0.5 1.5 1
9 0 1 0 0 0 1 0 0 0 1 -37.89747 1.600002 -22 0.5 3 0.5
9 0 1 0 0 0 1 0 0 0 1 -39.89747 2.600002 9 0.5 3 0.5
9 0 1 0 0 0 1 0 0 0 1 -40.89747 3.100002 8.5 0.5 1.5 1
9 0 1 0 0 0 1 0 0 0 1 40.10253 8.100002 7 0.5 2.5 0.5
9 0 1 0 0 0 1 0 0 0 1 40.10253 -7.899998 -17 0.5 2.5 0.5
9 0 1 0 0 0 1 0 0 0 1 39.10253 1.100002 10 0.5 2.5 0.5
9 0 1 0 0 0 1 0 0 0 1 39.10253 -0.8999977 -20 0.5 2.5 0.5
9 0 1 0 0 0 1 0 0 0 1 32.10253 -22.9 -12 0.5 0.5 2.5
9 0 1 0 0 0 1 0 0 0 1 32.10253 -22.9 -4 0.5 0.5 2.5
9 0 1 0 0 0 1 0 0 0 1 30.10253 25.1 -19 0.5 2.5 0.5
9 0 1 0 0 0 1 0 0 0 1 22.10253 -33.9 -19 0.5 0.5 2.5
9 0 1 0 0 0 1 0 0 0 1 13.10253 0.1000023 4 0.5 2.5 0.5
9 0 1 0 0 0 1 0 0 0 1 8.102528 37.1 -21 2.5 0.5 0.5
9 0 1 0 0 0 1 0 0 0 1 8.102528 26.1 -22 2.5 0.5 0.5
9 0 1 0 0 0 1 0 0 0 1 4.102528 14.1 -5 0.5 2.5 0.5
9 0 1 0 0 0 1 0 0 0 1 1.102528 39.1 10 2.5 0.5 0.5
9 0 1 0 0 0 1 0 0 0 1 0.1025276 13.1 4 2.5 0.5 0.5
9 0 1 0 0 0 1 0 0 0 1 -0.8974724 -40.9 7 2.5 0.5 0.5
9 0 1 0 0 0 1 0 0 0 1 -8.897472 7.100002 -4 0.5 2.5 0.5
9 0 1 0 0 0 1 0 0 0 1 -7.897472 -34.9 -25 2.5 0.5 0.5
9 0 1 0 0 0 1 0 0 0 1 -8.897472 -23.9 -19 2.5 0.5 0.5
9 0 1 0 0 0 1 0 0 0 1 -9.897472 39.1 7 2.5 0.5 0.5
9 0 1 0 0 0 1 0 0 0 1 -14.89747 -22.9 -19 0.5 2.5 0.5
9 0 1 0 0 0 1 0 0 0 1 -15.89747 38.1 -11 0.5 0.5 2.5
9 0 1 0 0 0 1 0 0 0 1 -21.89747 -33.9 9 0.5 0.5 2.5
9 0 1 0 0 0 1 0 0 0 1 -22.89747 32.1 -9 0.5 0.5 2.5
9 0 1 0 0 0 1 0 0 0 1 -25.89747 -11.9 -23 0.5 2.5 0.5
9 0 1 0 0 0 1 0 0 0 1 -26.89747 7.100002 -23 0.5 2.5 0.5
9 0 1 0 0 0 1 0 0 0 1 -26.89747 -28.9 -13 0.5 0.5 2.5
9 0 1 0 0 0 1 0 0 0 1 -24.89747 -29.9 -20 2.5 0.5 0.5
9 0 1 0 0 0 1 0 0 0 1 -27.89747 -27.9 -4 0.5 0.5 2.5
9 0 1 0 0 0 1 0 0 0 1 -27.89747 -27.9 4 0.5 0.5 2.5
9 0 1 0 0 0 1 0 0 0 1 -27.89747 23.1 -25 2.5 0.5 0.5
9 0 1 0 0 0 1 0 0 0 1 -31.89747 15.1 -25 0.5 2.5 0.5
9 0 1 0 0 0 1 0 0 0 1 -33.89747 22.1 -19 0.5 0.5 2.5
9 0 1 0 0 0 1 0 0 0 1 -40.89747 1.100002 -17 0.5 2.5 0.5
9 0 1 0 0 0 1 0 0 0 1 40.10253 17.1 -10.5 0.5 0.5 2
9 0 1 0 0 0 1 0 0 0 1 40.10253 -3.399998 9 0.5 2 0.5
9 0 1 0 0 0 1 0 0 0 1 40.10253 -16.9 0.5 0.5 0.5 2
9 0 1 0 0 0 1 0 0 0 1 39.10253 10.6 10.5 0.5 1 1
9 0 1 0 0 0 1 0 0 0 1 39.10253 3.600002 -24 0.5 2 0.5
9 0 1 0 0 0 1 0 0 0 1 39.10253 -3.399998 14 0.5 2 0.5
9 0 1 0 0 0 1 0 0 0 1 39.10253 -9.399998 7.5 0.5 1 1
9 0 1 0 0 0 1 0 0 0 1 38.10253 7.600002 -20 0.5 2 0.5
9 0 1 0 0 0 1 0 0 0 1 38.10253 -17.4 6 0.5 2 0.5
9 0 1 0 0 0 1 0 0 0 1 37.10253 13.6 8.5 0.5 1 1
9 0 1 0 0 0 1 0 0 0 1 37.60253 -9.399998 -24 1 1 0.5
9 0 1 0 0 0 1 0 0 0 1 36.10253 16.6 -22.5 0.5 1 1
9 0 1 0 0 0 1 0 0 0 1 36.10253 16.6 -17.5 0.5 1 1
9 0 1 0 0 0 1 0 0 0 1 36.10253 -13.4 -19.5 0.5 1 1
9 0 1 0 0 0 1 0 0 0 1 36.10253 -16.4 -17.5 0.5 1 1
9 0 1 0 0 0 1 0 0 0 1 35.10253 -6.399998 -25 0.5 2 0.5
9 0 1 0 0 0 1 0 0 0 1 35.10253 -13.4 -21.5 0.5 1 1
9 0 1 0 0 0 1 0 0 0 1 35.10253 -17.9 12.5 0.5 0.5 2
9 0 1 0 0 0 1 0 0 0 1 34.10253 20.6 -17.5 0.5 1 1
9 0 1 0 0 0 1 0 0 0 1 34.10253 -18.4 -19.5 0.5 1 1
9 0 1 0 0 0 1 0 0 0 1 34.10253 -20.4 7.5 0.5 1 1
9 0 1 0 0 0 1 0 0 0 1 33.10253 21.6 11.5 0.5 1 1
9 0 1 0 0 0 1 0 0 0 1 33.60253 19.6 -19 1 1 0.5
9 0 1 0 0 0 1 0 0 0 1 32.10253 -15.4 -24.5 0.5 1 1
9 0 1 0 0 0 1 0 0 0 1 32.60253 -23.4 -18 1 1 0.5
9 0 1 0 0 0 1 0 0 0 1 31.60253 -24.9 -18.5 1 0.5 1
9 0 1 0 0 0 1 0 0 0 1 30.10253 28.1 0.5 0.5 0.5 2
9 0 1 0 0 0 1 0 0 0 1 30.10253 -27.4 7.5 0.5 1 1
9 0 1 0 0 0 1 0 0 0 1 29.10253 28.1 -18.5 0.5 0.5 2
9 0 1 0 0 0 1 0 0 0 1 29.60253 27.1 -17.5 1 0.5 1
9 0 1 0 0 0 1 0 0 0 1 29.10253 20.6 -24.5 0.5 1 1
9 0 1 0 0 0 1 0 0 0 1 29.60253 18.6 -25 1 1 0.5
9 0 1 0 0 0 1 0 0 0 1 29.10253 -25.4 -19.5 0.5 1 1
9 0 1 0 0 0 1 0 0 0 1 28.10253 29.1 -18.5 0.5 0.5 2
9 0 1 0 0 0 1 0 0 0 1 27.10253 29.6 -17.5 0.5 1 1
9 0 1 0 0 0 1 0 0 0 1 27.10253 -5.399998 -23 0.5 2 0.5
9 0 1 0 0 0 1 0 0 0 1 27.60253 -26.9 -19.5 1 0.5 1
9 0 1 0 0 0 1 0 0 0 1 25.10253 12.6 -22.5 0.5 1 1
9 0 1 0 0 0 1 0 0 0 1 25.10253 4.600002 -20 0.5 2 0.5
9 0 1 0 0 0 1 0 0 0 1 25.10253 -4.399998 -20 0.5 2 0.5
9 0 1 0 0 0 1 0 0 0 1 25.60253 -28.9 -19.5 1 0.5 1
9 0 1 0 0 0 1 0 0 0 1 25.10253 -34.9 -14.5 0.5 0.5 2
9 0 1 0 0 0 1 0 0 0 1 24.10253 13.6 -22.5 0.5 1 1
9 0 1 0 0 0 1 0 0 0 1 24.10253 -27.4 -23.5 0.5 1 1
9 0 1 0 0 0 1 0 0 0 1 23.10253 18.6 -24.5 0.5 1 1
9 0 1 0 0 0 1 0 0 0 1 23.10253 -13.4 -20.5 0.5 1 1
9 0 1 0 0 0 1 0 0 0 1 22.60253 31.1 -19.5 1 0.5 1
9 0 1 0 0 0 1 0 0 0 1 22.10253 12.6 -18.5 0.5 1 1
9 0 1 0 0 0 1 0 0 0 1 22.10253 10.6 -17.5 0.5 1 1
9 0 1 0 0 0 1 0 0 0 1 21.10253 -12.4 -17.5 0.5 1 1
9 0 1 0 0 0 1 0 0 0 1 20.10253 36.1 4.5 0.5 0.5 2
9 0 1 0 0 0 1 0 0 0 1 20.60253 34.1 -17.5 1 0.5 1
9 0 1 0 0 0 1 0 0 0 1 20.10253 19.6 -22.5 0.5 1 1
9 0 1 0 0 0 1 0 0 0 1 19.60253 22.6 -25 1 1 0.5
9 0 1 0 0 0 1 0 0 0 1 19.60253 -20.9 -23.5 1 0.5 1
9 0 1 0 0 0 1 0 0 0 1 19.60253 35.1 7 2 0.5 0.5
9 0 1 0 0 0 1 0 0 0 1 18.60253 30.6 -24 1 1 0.5
9 0 1 0 0 0 1 0 0 0 1 18.10253 18.6 -19.5 0.5 1 1
9 0 1 0 0 0 1 0 0 0 1 18.10253 -17.4 -17.5 0.5 1 1
9 0 1 0 0 0 1 0 0 0 1 18.60253 -36.9 6.5 1 0.5 1
9 0 1 0 0 0 1 0 0 0 1 17.10253 40.1 -10.5 0.5 0.5 2
9 0 1 0 0 0 1 0 0 0 1 17.10253 19.1 -18.5 0.5 0.5 2
9 0 1 0 0 0 1 0 0 0 1 17.10253 -21.4 -21.5 0.5 1 1
9 0 1 0 0 0 1 0 0 0 1 16.60253 36.1 -22.5 1 0.5 1
9 0 1 0 0 0 1 0 0 0 1 16.10253 20.6 -19.5 0.5 1 1
9 0 1 0 0 0 1 0 0 0 1 16.60253 -7.899998 9.5 1 0.5 1
9 0 1 0 0 0 1 0 0 0 1 17.60253 -35.9 -17 2 0.5 0.5
9 0 1 0 0 0 1 0 0 0 1 15.60253 23.1 -22.5 1 0.5 1
9 0 1 0 0 0 1 0 0 0 1 15.60253 -19.4 -18 1 1 0.5
9 0 1 0 0 0 1 0 0 0 1 15.60253 -23.9 -23.5 1 0.5 1
9 0 1 0 0 0 1 0 0 0 1 15.60253 -32.9 -23.5 1 0.5 1
9 0 1 0 0 0 1 0 0 0 1 14.60253 -37.9 7.5 1 0.5 1
9 0 1 0 0 0 1 0 0 0 1 13.60253 12.1 9.5 1 0.5 1
9 0 1 0 0 0 1 0 0 0 1 13.10253 -5.399998 9.5 0.5 1 1
9 0 1 0 0 0 1 0 0 0 1 13.60253 -11.9 9.5 1 0.5 1
9 0 1 0 0 0 1 0 0 0 1 14.60253 -31.9 -25 2 0.5 0.5
9 0 1 0 0 0 1 0 0 0 1 12.60253 21.1 -17.5 1 0.5 1
9 0 1 0 0 0 1 0 0 0 1 12.60253 10.6 5 1 1 0.5
9 0 1 0 0 0 1 0 0 0 1 12.60253 -22.9 -19.5 1 0.5 1
9 0 1 0 0 0 1 0 0 0 1 12.60253 -34.9 -22.5 1 0.5 1
9 0 1 0 0 0 1 0 0 0 1 12.10253 -36.4 -21.5 0.5 1 1
9 0 1 0 0 0 1 0 0 0 1 12.60253 -36.9 -19.5 1 0.5 1
9 0 1 0 0 0 1 0 0 0 1 11.60253 -9.399998 0 1 1 0.5
9 0 1 0 0 0 1 0 0 0 1 10.60253 10.6 0 1 1 0.5
9 0 1 0 0 0 1 0 0 0 1 10.10253 3.600002 4 0.5 2 0.5
9 0 1 0 0 0 1 0 0 0 1 10.10253 -3.399998 4 0.5 2 0.5
9 0 1 0 0 0 1 0 0 0 1 10.60253 -41.9 -15.5 1 0.5 1
9 0 1 0 0 0 1 0 0 0 1 9.602528 38.1 13.5 1 0.5 1
9 0 1 0 0 0 1 0 0 0 1 8.602528 14.6 5 1 1 0.5
9 0 1 0 0 0 1 0 0 0 1 7.102528 4.600002 4.5 0.5 1 1
9 0 1 0 0 0 1 0 0 0 1 5.602528 13.1 9.5 1 0.5 1
9 0 1 0 0 0 1 0 0 0 1 6.602528 -26.9 -23 2 0.5 0.5
9 0 1 0 0 0 1 0 0 0 1 5.602528 -15.9 -5 2 0.5 0.5
9 0 1 0 0 0 1 0 0 0 1 3.602528 39.1 -24 2 0.5 0.5
9 0 1 0 0 0 1 0 0 0 1 2.602528 -7.899998 -4.5 1 0.5 1
9 0 1 0 0 0 1 0 0 0 1 2.102528 -39.9 11.5 0.5 0.5 2
9 0 1 0 0 0 1 0 0 0 1 2.602528 -43.9 -0.5 1 0.5 1
9 0 1 0 0 0 1 0 0 0 1 0.6025276 -40.9 -17 2 0.5 0.5
9 0 1 0 0 0 1 0 0 0 1 -0.3974724 38.1 -22 2 0.5 0.5
9 0 1 0 0 0 1 0 0 0 1 -0.3974724 -17.9 5 2 0.5 0.5
9 0 1 0 0 0 1 0 0 0 1 -1.897472 -43.9 -10.5 0.5 0.5 2
9 0 1 0 0 0 1 0 0 0 1 -3.397472 -9.899998 4.5 1 0.5 1
9 0 1 0 0 0 1 0 0 0 1 -3.397472 40.1 9 2 0.5 0.5
9 0 1 0 0 0 1 0 0 0 1 -3.397472 39.1 14 2 0.5 0.5
9 0 1 0 0 0 1 0 0 0 1 -3.397472 10.1 4 2 0.5 0.5
9 0 1 0 0 0 1 0 0 0 1 -3.397472 -38.9 -24 2 0.5 0.5
9 0 1 0 0 0 1 0 0 0 1 -5.397472 -6.899998 -4.5 1 0.5 1
9 0 1 0 0 0 1 0 0 0 1 -6.397472 8.600002 5 1 1 0.5
9 0 1 0 0 0 1 0 0 0 1 -6.397472 -5.899998 -4.5 1 0.5 1
9 0 1 0 0 0 1 0 0 0 1 -7.897472 2.600002 -4.5 0.5 1 1
9 0 1 0 0 0 1 0 0 0 1 -7.397472 -7.899998 4.5 1 0.5 1
9 0 1 0 0 0 1 0 0 0 1 -8.897472 -5.399998 -4.5 0.5 1 1
9 0 1 0 0 0 1 0 0 0 1 -8.397472 -10.4 -5 1 1 0.5
9 0 1 0 0 0 1 0 0 0 1 -8.397472 -14.4 5 1 1 0.5
9 0 1 0 0 0 1 0 0 0 1 -8.397472 -36.9 -21.5 1 0.5 1
9 0 1 0 0 0 1 0 0 0 1 -9.897472 40.1 0.5 0.5 0.5 2
9 0 1 0 0 0 1 0 0 0 1 -9.397472 37.1 -24.5 1 0.5 1
9 0 1 0 0 0 1 0 0 0 1 -9.897472 12.6 -5 0.5 2 0.5
9 0 1 0 0 0 1 0 0 0 1 -9.397472 11.6 0 1 1 0.5
9 0 1 0 0 0 1 0 0 0 1 -9.897472 3.600002 -4.5 0.5 1 1
9 0 1 0 0 0 1 0 0 0 1 -9.897472 -3.399998 -4.5 0.5 1 1
9 0 1 0 0 0 1 0 0 0 1 -9.897472 -3.399998 4.5 0.5 1 1
9 0 1 0 0 0 1 0 0 0 1 -9.397472 -15.9 9.5 1 0.5 1
9 0 1 0 0 0 1 0 0 0 1 -9.397472 36.1 -25 2 0.5 0.5
9 0 1 0 0 0 1 0 0 0 1 -9.397472 22.1 -17 2 0.5 0.5
9 0 1 0 0 0 1 0 0 0 1 -10.39747 -10.9 9.5 1 0.5 1
9 0 1 0 0 0 1 0 0 0 1 -9.397472 -22.9 -18 2 0.5 0.5
9 0 1 0 0 0 1 0 0 0 1 -9.397472 -35.9 -23 2 0.5 0.5
9 0 1 0 0 0 1 0 0 0 1 -10.39747 -41.9 5.5 1 0.5 1
9 0 1 0 0 0 1 0 0 0 1 -10.39747 -26.9 -24 2 0.5 0.5
9 0 1 0 0 0 1 0 0 0 1 -11.39747 38.1 -18 2 0.5 0.5
9 0 1 0 0 0 1 0 0 0 1 -12.89747 -6.399998 9.5 0.5 1 1
9 0 1 0 0 0 1 0 0 0 1 -13.39747 35.1 -21.5 1 0.5 1
9 0 1 0 0 0 1 0 0 0 1 -13.89747 9.600002 5 0.5 2 0.5
9 0 1 0 0 0 1 0 0 0 1 -14.39747 -19.9 -17.5 1 0.5 1
9 0 1 0 0 0 1 0 0 0 1 -15.39747 32.6 -24 1 1 0.5
9 0 1 0 0 0 1 0 0 0 1 -15.89747 -9.399998 9.5 0.5 1 1
9 0 1 0 0 0 1 0 0 0 1 -16.89747 40.1 0.5 0.5 0.5 2
9 0 1 0 0 0 1 0 0 0 1 -16.39747 35.1 -19.5 1 0.5 1
9 0 1 0 0 0 1 0 0 0 1 -16.39747 -22.4 -22 1 1 0.5
9 0 1 0 0 0 1 0 0 0 1 -17.89747 35.1 12.5 0.5 0.5 2
9 0 1 0 0 0 1 0 0 0 1 -17.39747 22.1 -22.5 1 0.5 1
9 0 1 0 0 0 1 0 0 0 1 -17.89747 -0.3999977 -5 0.5 2 0.5
9 0 1 0 0 0 1 0 0 0 1 -17.89747 -0.3999977 5 0.5 2 0.5
9 0 1 0 0 0 1 0 0 0 1 -17.39747 -19.9 -19.5 1 0.5 1
9 0 1 0 0 0 1 0 0 0 1 -17.39747 38.1 6 2 0.5 0.5
9 0 1 0 0 0 1 0 0 0 1 -18.89747 36.1 8.5 0.5 0.5 2
9 0 1 0 0 0 1 0 0 0 1 -18.89747 23.6 -25 0.5 2 0.5
9 0 1 0 0 0 1 0 0 0 1 -18.39747 -16.4 -17 1 1 0.5
9 0 1 0 0 0 1 0 0 0 1 -19.39747 20.1 -22.5 1 0.5 1
9 0 1 0 0 0 1 0 0 0 1 -19.39747 16.6 -19 1 1 0.5
9 0 1 0 0 0 1 0 0 0 1 -19.89747 -16.4 -19 0.5 2 0.5
9 0 1 0 0 0 1 0 0 0 1 -19.39747 35.1 -18 2 0.5 0.5
9 0 1 0 0 0 1 0 0 0 1 -20.39747 34.1 7.5 1 0.5 1
9 0 1 0 0 0 1 0 0 0 1 -20.39747 -21.4 -24 1 1 0.5
9 0 1 0 0 0 1 0 0 0 1 -20.89747 -21.4 -20.5 0.5 1 1
9 0 1 0 0 0 1 0 0 0 1 -20.89747 -29.4 -23.5 0.5 1 1
9 0 1 0 0 0 1 0 0 0 1 -21.39747 16.1 -20.5 1 0.5 1
9 0 1 0 0 0 1 0 0 0 1 -21.39747 13.6 -19 1 1 0.5
9 0 1 0 0 0 1 0 0 0 1 -21.89747 -10.4 -17.5 0.5 1 1
9 0 1 0 0 0 1 0 0 0 1 -21.39747 -14.4 -19 1 1 0.5
9 0 1 0 0 0 1 0 0 0 1 -21.39747 -31.9 -19.5 1 0.5 1
9 0 1 0 0 0 1 0 0 0 1 -22.89747 30.6 -24 0.5 2 0.5
9 0 1 0 0 0 1 0 0 0 1 -22.89747 10.6 -18.5 0.5 1 1
9 0 1 0 0 0 1 0 0 0 1 -22.89747 5.600002 -17 0.5 2 0.5
9 0 1 0 0 0 1 0 0 0 1 -22.89747 -9.399998 -18 0.5 2 0.5
9 0 1 0 0 0 1 0 0 0 1 -22.39747 -17.9 -23.5 1 0.5 1
9 0 1 0 0 0 1 0 0 0 1 -23.39747 17.1 -23.5 1 0.5 1
9 0 1 0 0 0 1 0 0 0 1 -23.89747 -32.9 8.5 0.5 0.5 2
9 0 1 0 0 0 1 0 0 0 1 -24.89747 30.6 -19 0.5 2 0.5
9 0 1 0 0 0 1 0 0 0 1 -24.39747 26.1 -24.5 1 0.5 1
9 0 1 0 0 0 1 0 0 0 1 -24.89747 12.6 -22.5 0.5 1 1
9 0 1 0 0 0 1 0 0 0 1 -24.89747 -31.4 8.5 0.5 1 1
9 0 1 0 0 0 1 0 0 0 1 -24.89747 -34.9 4.5 0.5 0.5 2
9 0 1 0 0 0 1 0 0 0 1 -26.89747 -10.4 -24 0.5 2 0.5
9 0 1 0 0 0 1 0 0 0 1 -28.89747 25.6 -19.5 0.5 1 1
9 0 1 0 0 0 1 0 0 0 1 -28.89747 -21.4 -23.5 0.5 1 1
9 0 1 0 0 0 1 0 0 0 1 -28.89747 -26.9 4.5 0.5 0.5 2
9 0 1 0 0 0 1 0 0 0 1 -30.89747 -18.4 -23.5 0.5 1 1
9 0 1 0 0 0 1 0 0 0 1 -31.89747 -21.4 -19.5 0.5 1 1
9 0 1 0 0 0 1 0 0 0 1 -31.39747 -24.9 8.5 1 0.5 1
9 0 1 0 0 0 1 0 0 0 1 -32.89747 -22.4 -17.5 0.5 1 1
9 0 1 0 0 0 1 0 0 0 1 -32.89747 -23.9 8.5 0.5 0.5 2
9 0 1 0 0 0 1 0 0 0 1 -33.89747 -21.4 9.5 0.5 1 1
9 0 1 0 0 0 1 0 0 0 1 -33.89747 -22.4 7.5 0.5 1 1
9 0 1 0 0 0 1 0 0 0 1 -34.89747 25.1 -14.5 0.5 0.5 2
9 0 1 0 0 0 1 0 0 0 1 -34.89747 13.6 -21.5 0.5 1 1
9 0 1 0 0 0 1 0 0 0 1 -34.89747 -15.4 -24.5 0.5 1 1
9 0 1 0 0 0 1 0 0 0 1 -34.89747 -19.4 -17.5 0.5 1 1
9 0 1 0 0 0 1 0 0 0 1 -34.89747 -19.4 7.5 0.5 1 1
9 0 1 0 0 0 1 0 0 0 1 -35.89747 -9.399998 -23 0.5 2 0.5
9 0 1 0 0 0 1 0 0 0 1 -36.89747 15.6 -17 0.5 2 0.5
9 0 1 0 0 0 1 0 0 0 1 -36.89747 -8.399998 -21.5 0.5 1 1
9 0 1 0 0 0 1 0 0 0 1 -37.89747 14.6 7.5 0.5 1 1
9 0 1 0 0 0 1 0 0 0 1 -37.89747 11.6 -18 0.5 2 0.5
9 0 1 0 0 0 1 0 0 0 1 -37.89747 -15.4 -17.5 0.5 1 1
9 0 1 0 0 0 1 0 0 0 1 -38.89747 -3.399998 -24 0.5 2 0.5
9 0 1 0 0 0 1 0 0 0 1 -39.89747 2.100002 11.5 0.5 0.5 2
9 0 1 0 0 0 1 0 0 0 1 -41.89747 10.6 -15.5 0.5 1 1
9 0 1 0 0 0 1 0 0 0 1 -41.89747 -10.4 5.5 0.5 1 1
9 0 1 0 0 0 1 0 0 0 1 -43.89747 2.600002 -0.5 0.5 1 1
9 0 1 0 0 0 1 0 0 0 1 -43.89747 -1.899998 -10.5 0.5 0.5 2
9 0 1 0 0 0 1 0 0 0 1 42.10253 12.1 0 0.5 0.5 1.5
9 0 1 0 0 0 1 0 0 0 1 41.10253 -2.899998 8 0.5 1.5 0.5
9 0 1 0 0 0 1 0 0 0 1 40.10253 7.100002 -17 0.5 1.5 0.5
9 0 1 0 0 0 1 0 0 0 1 39.10253 7.100002 -19 0.5 1.5 0.5
9 0 1 0 0 0 1 0 0 0 1 38.10253 0.1000023 -22 0.5 1.5 0.5
9 0 1 0 0 0 1 0 0 0 1 37.10253 22.1 -7 0.5 0.5 1.5
9 0 1 0 0 0 1 0 0 0 1 37.10253 -12.9 -10 0.5 0.5 1.5
9 0 1 0 0 0 1 0 0 0 1 37.10253 -12.9 -2 0.5 0.5 1.5
9 0 1 0 0 0 1 0 0 0 1 37.10253 -12.9 6 0.5 0.5 1.5
9 0 1 0 0 0 1 0 0 0 1 37.10253 -16.9 8 0.5 0.5 1.5
9 0 1 0 0 0 1 0 0 0 1 36.10253 18.1 -20 0.5 0.5 1.5
9 0 1 0 0 0 1 0 0 0 1 36.10253 10.1 -22 0.5 1.5 0.5
9 0 1 0 0 0 1 0 0 0 1 35.10253 16.1 -24 0.5 1.5 0.5
9 0 1 0 0 0 1 0 0 0 1 35.10253 7.100002 -25 0.5 1.5 0.5
9 0 1 0 0 0 1 0 0 0 1 33.10253 -15.9 -23 0.5 1.5 0.5
9 0 1 0 0 0 1 0 0 0 1 32.10253 -22.9 8 0.5 0.5 1.5
9 0 1 0 0 0 1 0 0 0 1 32.10253 -24.9 -17 0.5 1.5 0.5
9 0 1 0 0 0 1 0 0 0 1 30.10253 20.1 -23 1.5 0.5 0.5
9 0 1 0 0 0 1 0 0 0 1 28.10253 28.1 -22 0.5 0.5 1.5
9 0 1 0 0 0 1 0 0 0 1 26.10253 12.1 -24 0.5 1.5 0.5
9 0 1 0 0 0 1 0 0 0 1 26.10253 7.100002 -22 0.5 1.5 0.5
9 0 1 0 0 0 1 0 0 0 1 26.10253 -6.899998 -22 0.5 1.5 0.5
9 0 1 0 0 0 1 0 0 0 1 26.10253 30.1 -19 1.5 0.5 0.5
9 0 1 0 0 0 1 0 0 0 1 25.10253 -10.9 -22 0.5 1.5 0.5
9 0 1 0 0 0 1 0 0 0 1 23.10253 32.1 12 0.5 0.5 1.5
9 0 1 0 0 0 1 0 0 0 1 22.10253 -8.899998 -17 0.5 1.5 0.5
9 0 1 0 0 0 1 0 0 0 1 23.10253 -34.9 -16 1.5 0.5 0.5
9 0 1 0 0 0 1 0 0 0 1 21.10253 -8.899998 -13 0.5 0.5 1.5
9 0 1 0 0 0 1 0 0 0 1 21.10253 -8.899998 0 0.5 0.5 1.5
9 0 1 0 0 0 1 0 0 0 1 21.10253 -8.899998 6 0.5 0.5 1.5
9 0 1 0 0 0 1 0 0 0 1 20.10253 15.1 -18 0.5 1.5 0.5
9 0 1 0 0 0 1 0 0 0 1 20.10253 11.1 -2 0.5 0.5 1.5
9 0 1 0 0 0 1 0 0 0 1 19.10253 16.1 -13 0.5 0.5 1.5
9 0 1 0 0 0 1 0 0 0 1 18.10253 36.1 -20 0.5 0.5 1.5
9 0 1 0 0 0 1 0 0 0 1 18.10253 17.1 -18 0.5 1.5 0.5
9 0 1 0 0 0 1 0 0 0 1 17.10253 -2.899998 0 0.5 0.5 1.5
9 0 1 0 0 0 1 0 0 0 1 16.10253 37.1 -21 0.5 0.5 1.5
9 0 1 0 0 0 1 0 0 0 1 16.10253 6.100002 5 0.5 1.5 0.5
9 0 1 0 0 0 1 0 0 0 1 16.10253 35.1 -24 1.5 0.5 0.5
9 0 1 0 0 0 1 0 0 0 1 15.10253 -8.899998 -1 0.5 1.5 0.5
9 0 1 0 0 0 1 0 0 0 1 15.10253 -8.899998 1 0.5 1.5 0.5
9 0 1 0 0 0 1 0 0 0 1 14.10253 22.1 -20 0.5 0.5 1.5
9 0 1 0 0 0 1 0 0 0 1 14.10253 25.1 -24 1.5 0.5 0.5
9 0 1 0 0 0 1 0 0 0 1 13.10253 -18.9 10 0.5 0.5 1.5
9 0 1 0 0 0 1 0 0 0 1 12.10253 42.1 0 0.5 0.5 1.5
9 0 1 0 0 0 1 0 0 0 1 11.10253 20.1 2 0.5 0.5 1.5
9 0 1 0 0 0 1 0 0 0 1 11.10253 36.1 -22 1.5 0.5 0.5
9 0 1 0 0 0 1 0 0 0 1 11.10253 27.1 -25 1.5 0.5 0.5
9 0 1 0 0 0 1 0 0 0 1 11.10253 25.1 -22 1.5 0.5 0.5
9 0 1 0 0 0 1 0 0 0 1 11.10253 3.100002 -4 1.5 0.5 0.5
9 0 1 0 0 0 1 0 0 0 1 11.10253 -2.899998 -4 1.5 0.5 0.5
9 0 1 0 0 0 1 0 0 0 1 11.10253 -37.9 9 1.5 0.5 0.5
9 0 1 0 0 0 1 0 0 0 1 9.102528 4.100002 12 0.5 0.5 1.5
9 0 1 0 0 0 1 0 0 0 1 10.10253 -13.9 5 1.5 0.5 0.5
9 0 1 0 0 0 1 0 0 0 1 10.10253 -38.9 -21 1.5 0.5 0.5
9 0 1 0 0 0 1 0 0 0 1 9.102528 27.1 -24 1.5 0.5 0.5
9 0 1 0 0 0 1 0 0 0 1 9.102528 22.1 -17 1.5 0.5 0.5
9 0 1 0 0 0 1 0 0 0 1 8.102528 39.1 -18 1.5 0.5 0.5
9 0 1 0 0 0 1 0 0 0 1 8.102528 25.1 -21 1.5 0.5 0.5
9 0 1 0 0 0 1 0 0 0 1 6.102528 5.100002 10 0.5 0.5 1.5
9 0 1 0 0 0 1 0 0 0 1 7.102528 -12.9 0 1.5 0.5 0.5
9 0 1 0 0 0 1 0 0 0 1 7.102528 -15.9 -1 1.5 0.5 0.5
9 0 1 0 0 0 1 0 0 0 1 6.102528 16.1 -5 1.5 0.5 0.5
9 0 1 0 0 0 1 0 0 0 1 5.102528 6.100002 10 0.5 0.5 1.5
9 0 1 0 0 0 1 0 0 0 1 6.102528 -24.9 -20 1.5 0.5 0.5
9 0 1 0 0 0 1 0 0 0 1 4.102528 -10.9 -4 0.5 1.5 0.5
9 0 1 0 0 0 1 0 0 0 1 3.102528 -16.9 0 0.5 0.5 1.5
9 0 1 0 0 0 1 0 0 0 1 4.102528 -38.9 14 1.5 0.5 0.5
9 0 1 0 0 0 1 0 0 0 1 1.102528 -7.899998 15 0.5 0.5 1.5
9 0 1 0 0 0 1 0 0 0 1 0.1025276 8.100002 -7 0.5 0.5 1.5
9 0 1 0 0 0 1 0 0 0 1 0.1025276 41.1 -17 1.5 0.5 0.5
9 0 1 0 0 0 1 0 0 0 1 0.1025276 41.1 7 1.5 0.5 0.5
9 0 1 0 0 0 1 0 0 0 1 0.1025276 -36.9 -24 1.5 0.5 0.5
9 0 1 0 0 0 1 0 0 0 1 0.1025276 -39.9 -19 1.5 0.5 0.5
9 0 1 0 0 0 1 0 0 0 1 -2.897472 17.1 0 0.5 0.5 1.5
9 0 1 0 0 0 1 0 0 0 1 -2.897472 -16.9 0 0.5 0.5 1.5
9 0 1 0 0 0 1 0 0 0 1 -3.897472 -6.899998 -12 0.5 0.5 1.5
9 0 1 0 0 0 1 0 0 0 1 -3.897472 -6.899998 8 0.5 0.5 1.5
9 0 1 0 0 0 1 0 0 0 1 -4.897472 -6.899998 5 0.5 0.5 1.5
9 0 1 0 0 0 1 0 0 0 1 -5.897472 16.1 -5 1.5 0.5 0.5
9 0 1 0 0 0 1 0 0 0 1 -6.897472 7.100002 12 0.5 0.5 1.5
9 0 1 0 0 0 1 0 0 0 1 -6.897472 -3.899998 -8 0.5 0.5 1.5
9 0 1 0 0 0 1 0 0 0 1 -6.897472 -3.899998 12 0.5 0.5 1.5
9 0 1 0 0 0 1 0 0 0 1 -6.897472 26.1 -22 1.5 0.5 0.5
9 0 1 0 0 0 1 0 0 0 1 -7.897472 1.100002 15 0.5 0.5 1.5
9 0 1 0 0 0 1 0 0 0 1 -6.897472 -38.9 9 1.5 0.5 0.5
9 0 1 0 0 0 1 0 0 0 1 -7.897472 25.1 -21 1.5 0.5 0.5
9 0 1 0 0 0 1 0 0 0 1 -8.897472 21.1 0 0.5 0.5 1.5
9 0 1 0 0 0 1 0 0 0 1 -8.897472 21.1 6 0.5 0.5 1.5
9 0 1 0 0 0 1 0 0 0 1 -8.897472 15.1 -1 1.5 0.5 0.5
9 0 1 0 0 0 1 0 0 0 1 -8.897472 15.1 1 1.5 0.5 0.5
9 0 1 0 0 0 1 0 0 0 1 -8.897472 -24.9 -21 1.5 0.5 0.5
9 0 1 0 0 0 1 0 0 0 1 -9.897472 -21.9 -17 1.5 0.5 0.5
9 0 1 0 0 0 1 0 0 0 1 -10.89747 -37.9 -19 1.5 0.5 0.5
9 0 1 0 0 0 1 0 0 0 1 -12.89747 37.1 -6 0.5 0.5 1.5
9 0 1 0 0 0 1 0 0 0 1 -11.89747 12.1 -5 1.5 0.5 0.5
9 0 1 0 0 0 1 0 0 0 1 -12.89747 7.100002 0 0.5 1.5 0.5
9 0 1 0 0 0 1 0 0 0 1 -11.89747 -21.9 -18 1.5 0.5 0.5
9 0 1 0 0 0 1 0 0 0 1 -12.89747 24.1 -22 1.5 0.5 0.5
9 0 1 0 0 0 1 0 0 0 1 -14.89747 19.1 -17 1.5 0.5 0.5
9 0 1 0 0 0 1 0 0 0 1 -15.89747 7.100002 1 0.5 1.5 0.5
9 0 1 0 0 0 1 0 0 0 1 -15.89747 -36.9 -22 0.5 0.5 1.5
9 0 1 0 0 0 1 0 0 0 1 -16.89747 37.1 8 0.5 0.5 1.5
9 0 1 0 0 0 1 0 0 0 1 -16.89747 -35.9 -23 1.5 0.5 0.5
9 0 1 0 0 0 1 0 0 0 1 -18.89747 13.1 10 0.5 0.5 1.5
9 0 1 0 0 0 1 0 0 0 1 -17.89747 -36.9 -17 1.5 0.5 0.5
9 0 1 0 0 0 1 0 0 0 1 -19.89747 15.1 -18 0.5 1.5 0.5
9 0 1 0 0 0 1 0 0 0 1 -20.89747 -11.9 -17 0.5 1.5 0.5
9 0 1 0 0 0 1 0 0 0 1 -20.89747 -20.9 -23 0.5 1.5 0.5
9 0 1 0 0 0 1 0 0 0 1 -21.89747 14.1 -20 0.5 1.5 0.5
9 0 1 0 0 0 1 0 0 0 1 -21.89747 -32.9 -18 0.5 0.5 1.5
9 0 1 0 0 0 1 0 0 0 1 -22.89747 -10.9 -19 0.5 1.5 0.5
9 0 1 0 0 0 1 0 0 0 1 -23.89747 33.1 -18 0.5 0.5 1.5
9 0 1 0 0 0 1 0 0 0 1 -23.89747 15.1 -23 0.5 1.5 0.5
9 0 1 0 0 0 1 0 0 0 1 -23.89747 -6.899998 -19 0.5 1.5 0.5
9 0 1 0 0 0 1 0 0 0 1 -24.89747 9.100002 -21 0.5 1.5 0.5
9 0 1 0 0 0 1 0 0 0 1 -24.89747 -9.899998 -21 0.5 1.5 0.5
9 0 1 0 0 0 1 0 0 0 1 -25.89747 3.100002 -17 0.5 0.5 1.5
9 0 1 0 0 0 1 0 0 0 1 -25.89747 -29.9 -14 0.5 0.5 1.5
9 0 1 0 0 0 1 0 0 0 1 -25.89747 -29.9 -6 0.5 0.5 1.5
9 0 1 0 0 0 1 0 0 0 1 -25.89747 -29.9 2 0.5 0.5 1.5
9 0 1 0 0 0 1 0 0 0 1 -26.89747 30.1 8 0.5 0.5 1.5
9 0 1 0 0 0 1 0 0 0 1 -26.89747 24.1 -24 0.5 0.5 1.5
9 0 1 0 0 0 1 0 0 0 1 -26.89747 -27.9 -23 0.5 0.5 1.5
9 0 1 0 0 0 1 0 0 0 1 -26.89747 -28.9 -6 0.5 0.5 1.5
9 0 1 0 0 0 1 0 0 0 1 -26.89747 -28.9 2 0.5 0.5 1.5
9 0 1 0 0 0 1 0 0 0 1 -25.89747 -30.9 -17 1.5 0.5 0.5
9 0 1 0 0 0 1 0 0 0 1 -27.89747 -21.9 -25 0.5 1.5 0.5
9 0 1 0 0 0 1 0 0 0 1 -28.89747 -26.9 -10 0.5 0.5 1.5
9 0 1 0 0 0 1 0 0 0 1 -28.89747 -26.9 -2 0.5 0.5 1.5
9 0 1 0 0 0 1 0 0 0 1 -29.89747 -25.9 -10 0.5 0.5 1.5
9 0 1 0 0 0 1 0 0 0 1 -29.89747 -25.9 -2 0.5 0.5 1.5
9 0 1 0 0 0 1 0 0 0 1 -29.89747 -25.9 6 0.5 0.5 1.5
9 0 1 0 0 0 1 0 0 0 1 -29.89747 -26.9 -19 0.5 0.5 1.5
9 0 1 0 0 0 1 0 0 0 1 -32.89747 -19.9 -20 0.5 0.5 1.5
9 0 1 0 0 0 1 0 0 0 1 -33.89747 17.1 -21 0.5 1.5 0.5
9 0 1 0 0 0 1 0 0 0 1 -35.89747 -16.9 -23 0.5 1.5 0.5
9 0 1 0 0 0 1 0 0 0 1 -36.89747 18.1 7 0.5 0.5 1.5
9 0 1 0 0 0 1 0 0 0 1 -36.89747 0.1000023 -24 0.5 1.5 0.5
9 0 1 0 0 0 1 0 0 0 1 -36.89747 -15.9 -22 0.5 0.5 1.5
9 0 1 0 0 0 1 0 0 0 1 -38.89747 4.100002 -20 0.5 1.5 0.5
9 0 1 0 0 0 1 0 0 0 1 -38.89747 4.100002 14 0.5 1.5 0.5
9 0 1 0 0 0 1 0 0 0 1 -38.89747 -3.899998 10 0.5 1.5 0.5
9 0 1 0 0 0 1 0 0 0 1 -38.89747 -6.899998 -19 0.5 1.5 0.5
