9 0 1 0 0 0 1 0 0 0 1 0.1380005 -21.588 -0.138 1.5 20.5 1.5
9 0 1 0 0 0 1 0 0 0 1 -17.862 -49.588 -0.138 10.5 1.5 1.5
9 0 1 0 0 0 1 0 0 0 1 0.1380005 -81.588 -0.138 1.5 6.5 1.5
9 0 1 0 0 0 1 0 0 0 1 0.1380005 -49.588 3.862 4.5 4.5 0.5
9 0 1 0 0 0 1 0 0 0 1 0.1380005 -59.588 -0.138 1.5 2.5 1.5
9 0 1 0 0 0 1 0 0 0 1 0.1380005 -21.588 1.862 0.5 20.5 0.5
9 0 1 0 0 0 1 0 0 0 1 -1.862 -21.588 -0.138 0.5 20.5 0.5
9 0 1 0 0 0 1 0 0 0 1 10.638 -68.588 -0.138 4 1.5 0.5
9 0 1 0 0 0 1 0 0 0 1 -17.862 -49.588 1.862 10.5 0.5 0.5
9 0 1 0 0 0 1 0 0 0 1 -17.862 -51.588 -0.138 10.5 0.5 0.5
9 0 1 0 0 0 1 0 0 0 1 4.138 -46.088 -0.638 0.5 1 4
9 0 1 0 0 0 1 0 0 0 1 -1.862 -82.588 -0.138 0.5 7.5 0.5
9 0 1 0 0 0 1 0 0 0 1 0.1380005 -81.588 1.862 0.5 6.5 0.5
9 0 1 0 0 0 1 0 0 0 1 10.638 -68.588 -1.138 4 0.5 0.5
9 0 1 0 0 0 1 0 0 0 1 10.638 -68.588 0.862 4 0.5 0.5
9 0 1 0 0 0 1 0 0 0 1 4.138 -53.588 -0.638 0.5 0.5 4
9 0 1 0 0 0 1 0 0 0 1 3.138 -45.588 -0.638 0.5 0.5 4
9 0 1 0 0 0 1 0 0 0 1 -3.862 -45.588 -0.638 0.5 0.5 4
9 0 1 0 0 0 1 0 0 0 1 -3.862 -53.588 -0.638 0.5 0.5 4
9 0 1 0 0 0 1 0 0 0 1 -0.3619995 -88.588 -0.138 1 0.5 1.5
9 0 1 0 0 0 1 0 0 0 1 0.1380005 -59.588 1.862 0.5 2.5 0.5
9 0 1 0 0 0 1 0 0 0 1 -1.862 -59.588 -0.138 0.5 2.5 0.5
9 0 1 0 0 0 1 0 0 0 1 13.138 -69.588 0.862 1.5 0.5 0.5
9 0 1 0 0 0 1 0 0 0 1 -2.862 -45.588 -3.138 0.5 0.5 1.5
