9 0 1 0 0 0 1 0 0 0 1 0.1369991 -27 0 1.5 25.5 1.5
9 0 1 0 0 0 1 0 0 0 1 -17.863 -60 0 10.5 1.5 1.5
9 0 1 0 0 0 1 0 0 0 1 0.1369991 -77 0 1.5 9.5 1.5
9 0 1 0 0 0 1 0 0 0 1 0.1369991 -60 -4 4.5 4.5 0.5
9 0 1 0 0 0 1 0 0 0 1 28.137 -100 0 0.5 5.5 3.5
9 0 1 0 0 0 1 0 0 0 1 0.1369991 -27 -2 0.5 25.5 0.5
9 0 1 0 0 0 1 0 0 0 1 0.1369991 -27 2 0.5 25.5 0.5
9 0 1 0 0 0 1 0 0 0 1 -1.863001 -27 0 0.5 25.5 0.5
9 0 1 0 0 0 1 0 0 0 1 -17.863 -58 0 10.5 0.5 0.5
9 0 1 0 0 0 1 0 0 0 1 -17.863 -60 -2 10.5 0.5 0.5
9 0 1 0 0 0 1 0 0 0 1 -17.863 -60 2 10.5 0.5 0.5
9 0 1 0 0 0 1 0 0 0 1 -17.863 -62 0 10.5 0.5 0.5
9 0 1 0 0 0 1 0 0 0 1 0.1369991 -77 -2 0.5 9.5 0.5
9 0 1 0 0 0 1 0 0 0 1 0.1369991 -77 2 0.5 9.5 0.5
9 0 1 0 0 0 1 0 0 0 1 -1.863001 -77 0 0.5 9.5 0.5
9 0 1 0 0 0 1 0 0 0 1 4.136999 -56.5 0.5 0.5 1 4
9 0 1 0 0 0 1 0 0 0 1 4.136999 -63.5 0.5 0.5 1 4
9 0 1 0 0 0 1 0 0 0 1 -3.363001 -64 -1 1 0.5 2.5
9 0 1 0 0 0 1 0 0 0 1 0.1369991 -93 0 1.5 0.5 1.5
9 0 1 0 0 0 1 0 0 0 1 0.1369991 -114 0 1.5 0.5 1.5
9 0 1 0 0 0 1 0 0 0 1 3.136999 -56 0.5 0.5 0.5 4
9 0 1 0 0 0 1 0 0 0 1 3.136999 -64 0.5 0.5 0.5 4
9 0 1 0 0 0 1 0 0 0 1 -3.863001 -56 0.5 0.5 0.5 4
9 0 1 0 0 0 1 0 0 0 1 2.136999 -22 0 0.5 3.5 0.5
9 0 1 0 0 0 1 0 0 0 1 2.136999 -33.5 0 0.5 2 0.5
9 0 1 0 0 0 1 0 0 0 1 2.136999 -46.5 0 0.5 2 0.5
9 0 1 0 0 0 1 0 0 0 1 5.136999 -91 -4 0.5 0.5 1.5
9 0 1 0 0 0 1 0 0 0 1 5.136999 -91 4 0.5 0.5 1.5
9 0 1 0 0 0 1 0 0 0 1 5.136999 -109 -4 0.5 0.5 1.5
9 0 1 0 0 0 1 0 0 0 1 5.136999 -109 4 0.5 0.5 1.5
9 0 1 0 0 0 1 0 0 0 1 -3.863001 -64 3 0.5 0.5 1.5
9 0 1 0 0 0 1 0 0 0 1 -5.863001 -91 -4 0.5 0.5 1.5
9 0 1 0 0 0 1 0 0 0 1 -5.863001 -91 4 0.5 0.5 1.5
9 0 1 0 0 0 1 0 0 0 1 -5.863001 -109 -4 0.5 0.5 1.5
9 0 1 0 0 0 1 0 0 0 1 -5.863001 -109 4 0.5 0.5 1.5
