9 0 1 0 0 0 1 0 0 0 1 -14.19 11.5 0 7 10 0.5
9 0 1 0 0 0 1 0 0 0 1 14.31 9.5 0 8.5 8 0.5
9 0 1 0 0 0 1 0 0 0 1 13.31 20 0 5.5 2.5 0.5
9 0 1 0 0 0 1 0 0 0 1 -23.19 7.5 0 2 6 0.5
9 0 1 0 0 0 1 0 0 0 1 -6.189999 9.5 0 1 8 0.5
9 0 1 0 0 0 1 0 0 0 1 24.31 6.5 0 1.5 5 0.5
9 0 1 0 0 0 1 0 0 0 1 16.81 24 0 2 1.5 0.5
9 0 1 0 0 0 1 0 0 0 1 -16.69 23.5 0 1.5 2 0.5
9 0 1 0 0 0 1 0 0 0 1 -0.1899986 4 -6 1 2.5 0.5
9 0 1 0 0 0 1 0 0 0 1 -0.1899986 4 6 1 2.5 0.5
9 0 1 0 0 0 1 0 0 0 1 19.81 19.5 0 1 2 0.5
9 0 1 0 0 0 1 0 0 0 1 -11.19 22 0 4 0.5 0.5
9 0 1 0 0 0 1 0 0 0 1 -22.19 15.5 0 1 2 0.5
9 0 1 0 0 0 1 0 0 0 1 -25.69 5.5 0 0.5 4 0.5
9 0 1 0 0 0 1 0 0 0 1 26.31 4.5 0 0.5 3 0.5
9 0 1 0 0 0 1 0 0 0 1 23.81 13 0 1 1.5 0.5
9 0 1 0 0 0 1 0 0 0 1 -5.689999 4 -1 0.5 2.5 0.5
9 0 1 0 0 0 1 0 0 0 1 -5.689999 4 1 0.5 2.5 0.5
9 0 1 0 0 0 1 0 0 0 1 -21.69 4 -1 0.5 2.5 0.5
9 0 1 0 0 0 1 0 0 0 1 -21.69 4 1 0.5 2.5 0.5
9 0 1 0 0 0 1 0 0 0 1 21.31 5.5 -1 0.5 2 0.5
9 0 1 0 0 0 1 0 0 0 1 21.31 5.5 1 0.5 2 0.5
9 0 1 0 0 0 1 0 0 0 1 -26.69 3.5 0 0.5 2 0.5
9 0 1 0 0 0 1 0 0 0 1 -18.69 23 0 0.5 1.5 0.5
