9 0 1 0 0 0 1 0 0 0 1 0 -9.670395 10 7.5 6.5 2.5
9 0 1 0 0 0 1 0 0 0 1 -10 -9.670395 0 2.5 6.5 7.5
9 0 1 0 0 0 1 0 0 0 1 -40 -36.67039 6.5 6.5 1.5 1
9 0 1 0 0 0 1 0 0 0 1 1 -49.67039 27 3.5 4.5 0.5
9 0 1 0 0 0 1 0 0 0 1 6.5 -9.670395 6.5 1 6.5 1
9 0 1 0 0 0 1 0 0 0 1 6.5 -9.670395 13.5 1 6.5 1
9 0 1 0 0 0 1 0 0 0 1 -6.5 -9.670395 -6.5 1 6.5 1
9 0 1 0 0 0 1 0 0 0 1 -6.5 -9.670395 6.5 1 6.5 1
9 0 1 0 0 0 1 0 0 0 1 -6.5 -9.670395 13.5 1 6.5 1
9 0 1 0 0 0 1 0 0 0 1 -13.5 -9.670395 -6.5 1 6.5 1
9 0 1 0 0 0 1 0 0 0 1 -13.5 -9.670395 6.5 1 6.5 1
9 0 1 0 0 0 1 0 0 0 1 -40 -37.67039 3.5 6.5 0.5 2
9 0 1 0 0 0 1 0 0 0 1 -37.5 -23.17039 6 4 1 1.5
9 0 1 0 0 0 1 0 0 0 1 4.5 -2.170395 10 3 1 1.5
9 0 1 0 0 0 1 0 0 0 1 -4.5 -2.170395 10 3 1 1.5
9 0 1 0 0 0 1 0 0 0 1 -10 -2.170395 -4.5 1.5 1 3
9 0 1 0 0 0 1 0 0 0 1 -10 -2.170395 4.5 1.5 1 3
9 0 1 0 0 0 1 0 0 0 1 -10 -17.17039 0 0.5 1 7.5
9 0 1 0 0 0 1 0 0 0 1 -8 -9.670395 20.5 0.5 6.5 1
9 0 1 0 0 0 1 0 0 0 1 -25.5 -9.670395 -7 1 6.5 0.5
9 0 1 0 0 0 1 0 0 0 1 -34 -9.670395 -6.5 0.5 6.5 1
9 0 1 0 0 0 1 0 0 0 1 -34 -30.17039 8 0.5 8 0.5
9 0 1 0 0 0 1 0 0 0 1 -37.5 -25.17039 7 4 1 0.5
9 0 1 0 0 0 1 0 0 0 1 7 -9.670395 5 0.5 6.5 0.5
9 0 1 0 0 0 1 0 0 0 1 7 -9.670395 15 0.5 6.5 0.5
9 0 1 0 0 0 1 0 0 0 1 5 -9.670395 7 0.5 6.5 0.5
9 0 1 0 0 0 1 0 0 0 1 5 -9.670395 13 0.5 6.5 0.5
9 0 1 0 0 0 1 0 0 0 1 -5 -9.670395 -7 0.5 6.5 0.5
9 0 1 0 0 0 1 0 0 0 1 -5 -9.670395 7 0.5 6.5 0.5
9 0 1 0 0 0 1 0 0 0 1 -5 -9.670395 13 0.5 6.5 0.5
9 0 1 0 0 0 1 0 0 0 1 -7 -9.670395 -5 0.5 6.5 0.5
9 0 1 0 0 0 1 0 0 0 1 -7 -9.670395 5 0.5 6.5 0.5
9 0 1 0 0 0 1 0 0 0 1 -7 -9.670395 15 0.5 6.5 0.5
9 0 1 0 0 0 1 0 0 0 1 -9 -9.670395 20 0.5 6.5 0.5
9 0 1 0 0 0 1 0 0 0 1 -13 -9.670395 -5 0.5 6.5 0.5
9 0 1 0 0 0 1 0 0 0 1 -13 -9.670395 5 0.5 6.5 0.5
9 0 1 0 0 0 1 0 0 0 1 -15 -9.670395 -7 0.5 6.5 0.5
9 0 1 0 0 0 1 0 0 0 1 -15 -9.670395 7 0.5 6.5 0.5
9 0 1 0 0 0 1 0 0 0 1 -26 -9.670395 -6 0.5 6.5 0.5
9 0 1 0 0 0 1 0 0 0 1 -35 -9.670395 -7 0.5 6.5 0.5
9 0 1 0 0 0 1 0 0 0 1 -35 -9.670395 7 0.5 6.5 0.5
9 0 1 0 0 0 1 0 0 0 1 -40 -34.67039 7 6.5 0.5 0.5
9 0 1 0 0 0 1 0 0 0 1 -40 -36.67039 5 6.5 0.5 0.5
9 0 1 0 0 0 1 0 0 0 1 -39.5 -22.67039 4 6 0.5 0.5
9 0 1 0 0 0 1 0 0 0 1 0 -55.17039 27 2.5 1 0.5
9 0 1 0 0 0 1 0 0 0 1 -11 -17.17039 5 0.5 1 2.5
9 0 1 0 0 0 1 0 0 0 1 0 -44.67039 27 3.5 0.5 0.5
9 0 1 0 0 0 1 0 0 0 1 5.5 -49.67039 27 1 1.5 0.5
9 0 1 0 0 0 1 0 0 0 1 0 -2.170395 10 1.5 1 0.5
9 0 1 0 0 0 1 0 0 0 1 -10 -2.170395 0 0.5 1 1.5
9 0 1 0 0 0 1 0 0 0 1 -36 -22.67039 3 2.5 0.5 0.5
9 0 1 0 0 0 1 0 0 0 1 7 -2.170395 7.5 0.5 1 1
9 0 1 0 0 0 1 0 0 0 1 7 -2.170395 12.5 0.5 1 1
9 0 1 0 0 0 1 0 0 0 1 -6.5 -2.170395 8 1 1 0.5
9 0 1 0 0 0 1 0 0 0 1 -6.5 -2.170395 12 1 1 0.5
9 0 1 0 0 0 1 0 0 0 1 -7.5 -2.170395 -7 1 1 0.5
9 0 1 0 0 0 1 0 0 0 1 -7.5 -2.170395 7 1 1 0.5
9 0 1 0 0 0 1 0 0 0 1 -8 -30.17039 21 0.5 2 0.5
9 0 1 0 0 0 1 0 0 0 1 -12 -2.170395 -6.5 0.5 1 1
9 0 1 0 0 0 1 0 0 0 1 -12 -2.170395 6.5 0.5 1 1
9 0 1 0 0 0 1 0 0 0 1 -12 -17.17039 6.5 0.5 1 1
9 0 1 0 0 0 1 0 0 0 1 -42 -23.17039 5.5 0.5 1 1
9 0 1 0 0 0 1 0 0 0 1 -8 -13.67039 19 0.5 1.5 0.5
