9 0 1 0 0 0 1 0 0 0 1 -10 -0.1999969 13.5 2.5 7.5 5
9 0 1 0 0 0 1 0 0 0 1 -10 -0.1999969 46.5 2.5 7.5 5
9 0 1 0 0 0 1 0 0 0 1 -5.5 5.300003 13.5 2 2 5
9 0 1 0 0 0 1 0 0 0 1 -5.5 5.300003 46.5 2 2 5
9 0 1 0 0 0 1 0 0 0 1 -5.5 -5.699997 13.5 2 2 5
9 0 1 0 0 0 1 0 0 0 1 -5.5 -5.699997 46.5 2 2 5
9 0 1 0 0 0 1 0 0 0 1 -14.5 5.300003 13.5 2 2 5
9 0 1 0 0 0 1 0 0 0 1 -14.5 5.300003 46.5 2 2 5
9 0 1 0 0 0 1 0 0 0 1 -14.5 -5.699997 13.5 2 2 5
9 0 1 0 0 0 1 0 0 0 1 -14.5 -5.699997 46.5 2 2 5
9 0 1 0 0 0 1 0 0 0 1 -25.5 -5.699997 13.5 2 2 5
9 0 1 0 0 0 1 0 0 0 1 -25.5 -5.699997 46.5 2 2 5
9 0 1 0 0 0 1 0 0 0 1 -14.5 -15.2 5 2 1.5 3.5
9 0 1 0 0 0 1 0 0 0 1 -14.5 -15.2 55 2 1.5 3.5
9 0 1 0 0 0 1 0 0 0 1 -25.5 -15.2 5 2 1.5 3.5
9 0 1 0 0 0 1 0 0 0 1 -25.5 -15.2 55 2 1.5 3.5
9 0 1 0 0 0 1 0 0 0 1 -22 15.3 17.5 9.5 1 1
9 0 1 0 0 0 1 0 0 0 1 -22 15.3 42.5 9.5 1 1
9 0 1 0 0 0 1 0 0 0 1 -4.5 5.300003 5 1 2 3.5
9 0 1 0 0 0 1 0 0 0 1 -4.5 5.300003 55 1 2 3.5
9 0 1 0 0 0 1 0 0 0 1 -4.5 -5.699997 5 1 2 3.5
9 0 1 0 0 0 1 0 0 0 1 -4.5 -5.699997 55 1 2 3.5
9 0 1 0 0 0 1 0 0 0 1 -15.5 5.300003 5 1 2 3.5
9 0 1 0 0 0 1 0 0 0 1 -15.5 5.300003 55 1 2 3.5
9 0 1 0 0 0 1 0 0 0 1 -24.5 4.300003 11.5 1 1 7
9 0 1 0 0 0 1 0 0 0 1 -24.5 4.300003 48.5 1 1 7
9 0 1 0 0 0 1 0 0 0 1 -25.5 -4.699997 5 2 1 3.5
9 0 1 0 0 0 1 0 0 0 1 -25.5 -4.699997 55 2 1 3.5
9 0 1 0 0 0 1 0 0 0 1 -23 -52.2 17.5 10.5 0.5 1
9 0 1 0 0 0 1 0 0 0 1 -23 -52.2 42.5 10.5 0.5 1
9 0 1 0 0 0 1 0 0 0 1 4.5 3.800003 10 1 0.5 8.5
9 0 1 0 0 0 1 0 0 0 1 4.5 3.800003 50 1 0.5 8.5
9 0 1 0 0 0 1 0 0 0 1 -15.5 -4.699997 5 1 1 3.5
9 0 1 0 0 0 1 0 0 0 1 -15.5 -4.699997 55 1 1 3.5
9 0 1 0 0 0 1 0 0 0 1 -24 6.300003 12.5 0.5 1 6
9 0 1 0 0 0 1 0 0 0 1 -24 6.300003 47.5 0.5 1 6
9 0 1 0 0 0 1 0 0 0 1 -23 -53.2 42 10.5 0.5 0.5
9 0 1 0 0 0 1 0 0 0 1 4 4.800003 10 0.5 0.5 8.5
9 0 1 0 0 0 1 0 0 0 1 4 4.800003 50 0.5 0.5 8.5
9 0 1 0 0 0 1 0 0 0 1 4 -4.199997 10 0.5 0.5 8.5
9 0 1 0 0 0 1 0 0 0 1 4 -4.199997 50 0.5 0.5 8.5
9 0 1 0 0 0 1 0 0 0 1 -25 -53.2 18 8.5 0.5 0.5
9 0 1 0 0 0 1 0 0 0 1 -14.5 -25.7 2 2 2 0.5
9 0 1 0 0 0 1 0 0 0 1 -14.5 -25.7 58 2 2 0.5
9 0 1 0 0 0 1 0 0 0 1 -24.5 -25.7 7.5 1 2 1
9 0 1 0 0 0 1 0 0 0 1 -24.5 -25.7 52.5 1 2 1
9 0 1 0 0 0 1 0 0 0 1 -15.5 -24.2 5.5 1 0.5 3
9 0 1 0 0 0 1 0 0 0 1 -15.5 -24.2 54.5 1 0.5 3
9 0 1 0 0 0 1 0 0 0 1 -24 -24.7 4 0.5 1 2.5
9 0 1 0 0 0 1 0 0 0 1 -24 -24.7 56 0.5 1 2.5
9 0 1 0 0 0 1 0 0 0 1 -26 3.800003 7.5 0.5 0.5 5
9 0 1 0 0 0 1 0 0 0 1 -26 3.800003 52 0.5 0.5 4.5
9 0 1 0 0 0 1 0 0 0 1 -26.5 -25.7 8 1 2 0.5
9 0 1 0 0 0 1 0 0 0 1 -26.5 -25.7 52 1 2 0.5
9 0 1 0 0 0 1 0 0 0 1 -6 3.800003 5 0.5 0.5 3.5
9 0 1 0 0 0 1 0 0 0 1 -6 3.800003 55 0.5 0.5 3.5
9 0 1 0 0 0 1 0 0 0 1 -6 -7.199997 5 0.5 0.5 3.5
9 0 1 0 0 0 1 0 0 0 1 -6 -7.199997 55 0.5 0.5 3.5
9 0 1 0 0 0 1 0 0 0 1 -14 3.800003 5 0.5 0.5 3.5
9 0 1 0 0 0 1 0 0 0 1 -14 3.800003 55 0.5 0.5 3.5
9 0 1 0 0 0 1 0 0 0 1 5 -4.199997 15.5 0.5 0.5 3
9 0 1 0 0 0 1 0 0 0 1 5 -4.199997 44.5 0.5 0.5 3
9 0 1 0 0 0 1 0 0 0 1 4 -5.199997 15.5 0.5 0.5 3
9 0 1 0 0 0 1 0 0 0 1 4 -5.199997 44.5 0.5 0.5 3
9 0 1 0 0 0 1 0 0 0 1 -16 -25.2 5.5 0.5 0.5 3
9 0 1 0 0 0 1 0 0 0 1 -16 -25.2 54.5 0.5 0.5 3
9 0 1 0 0 0 1 0 0 0 1 -24 4.300003 3 0.5 1 1.5
9 0 1 0 0 0 1 0 0 0 1 -24 4.300003 57 0.5 1 1.5
9 0 1 0 0 0 1 0 0 0 1 -30.5 -51.2 43 3 0.5 0.5
9 0 1 0 0 0 1 0 0 0 1 6 3.800003 44 0.5 0.5 2.5
9 0 1 0 0 0 1 0 0 0 1 5 -4.199997 4 0.5 0.5 2.5
9 0 1 0 0 0 1 0 0 0 1 5 -4.199997 56 0.5 0.5 2.5
9 0 1 0 0 0 1 0 0 0 1 4 -5.199997 4 0.5 0.5 2.5
9 0 1 0 0 0 1 0 0 0 1 4 -5.199997 56 0.5 0.5 2.5
9 0 1 0 0 0 1 0 0 0 1 -25 -24.2 4 0.5 0.5 2.5
9 0 1 0 0 0 1 0 0 0 1 -25 -24.2 56 0.5 0.5 2.5
9 0 1 0 0 0 1 0 0 0 1 6 3.800003 55.5 0.5 0.5 2
9 0 1 0 0 0 1 0 0 0 1 -32.5 -66.7 30 1 1 0.5
9 0 1 0 0 0 1 0 0 0 1 6 3.800003 3 0.5 0.5 1.5
9 0 1 0 0 0 1 0 0 0 1 -24 5.800003 5 0.5 0.5 1.5
9 0 1 0 0 0 1 0 0 0 1 -25 3.800003 3 0.5 0.5 1.5
9 0 1 0 0 0 1 0 0 0 1 -25 3.800003 57 0.5 0.5 1.5
9 0 1 0 0 0 1 0 0 0 1 -26 3.800003 17 0.5 0.5 1.5
9 0 1 0 0 0 1 0 0 0 1 -26 3.800003 43 0.5 0.5 1.5
9 0 1 0 0 0 1 0 0 0 1 -27 -6.199997 57 0.5 0.5 1.5
9 0 1 0 0 0 1 0 0 0 1 -28 -14.2 8 0.5 1.5 0.5
9 0 1 0 0 0 1 0 0 0 1 -28 -14.2 52 0.5 1.5 0.5
9 0 1 0 0 0 1 0 0 0 1 -36 -40.2 30 1.5 0.5 0.5
