9 0 1 0 0 0 1 0 0 0 1 -0.0009994507 1.499001 68.5 18.5 23 45
9 0 1 0 0 0 1 0 0 0 1 21.999 -3.000999 66.5 3.5 13.5 45
9 0 1 0 0 0 1 0 0 0 1 -22.001 -3.000999 66.5 3.5 13.5 45
9 0 1 0 0 0 1 0 0 0 1 -0.0009994507 -23.501 66.5 16.5 2 45
9 0 1 0 0 0 1 0 0 0 1 -0.0009994507 4.999001 116 18.5 19.5 2.5
9 0 1 0 0 0 1 0 0 0 1 13.999 16.999 14.5 4.5 7.5 9
9 0 1 0 0 0 1 0 0 0 1 -14.001 16.999 14.5 4.5 7.5 9
9 0 1 0 0 0 1 0 0 0 1 19.999 13.999 60.5 1.5 3.5 55
9 0 1 0 0 0 1 0 0 0 1 -20.001 13.999 60.5 1.5 3.5 55
9 0 1 0 0 0 1 0 0 0 1 -0.0009994507 26.499 70 2.5 2 48.5
9 0 1 0 0 0 1 0 0 0 1 13.999 -13.501 14.5 4.5 4 9
9 0 1 0 0 0 1 0 0 0 1 -12.501 -14.501 14.5 3 6 9
9 0 1 0 0 0 1 0 0 0 1 25.999 -0.0009994507 68 0.5 6.5 46.5
9 0 1 0 0 0 1 0 0 0 1 -26.001 -0.0009994507 68 0.5 6.5 46.5
9 0 1 0 0 0 1 0 0 0 1 -0.0009994507 -26.001 67 6.5 0.5 45.5
9 0 1 0 0 0 1 0 0 0 1 20.499 -19.001 85.5 2 2.5 26
9 0 1 0 0 0 1 0 0 0 1 -20.501 -19.001 85.5 2 2.5 26
9 0 1 0 0 0 1 0 0 0 1 22.499 11.999 60.5 1 1.5 55
9 0 1 0 0 0 1 0 0 0 1 -22.501 11.999 60.5 1 1.5 55
9 0 1 0 0 0 1 0 0 0 1 -0.0009994507 -16.501 116 14.5 2 2.5
9 0 1 0 0 0 1 0 0 0 1 21.499 -0.0009994507 114 3 9.5 2.5
9 0 1 0 0 0 1 0 0 0 1 -21.501 -0.0009994507 114 3 9.5 2.5
9 0 1 0 0 0 1 0 0 0 1 20.999 -18.501 34.5 2.5 2 14
9 0 1 0 0 0 1 0 0 0 1 -20.501 -19.001 34.5 2 2.5 14
9 0 1 0 0 0 1 0 0 0 1 -0.0009994507 17.499 22.5 9.5 7 1
9 0 1 0 0 0 1 0 0 0 1 -18.001 -12.501 13.5 2.5 3 8
9 0 1 0 0 0 1 0 0 0 1 17.999 26.499 60 0.5 2 58.5
9 0 1 0 0 0 1 0 0 0 1 -18.001 26.499 60 0.5 2 58.5
9 0 1 0 0 0 1 0 0 0 1 17.999 -23.001 85 1.5 1.5 25.5
9 0 1 0 0 0 1 0 0 0 1 -18.001 -23.001 85 1.5 1.5 25.5
9 0 1 0 0 0 1 0 0 0 1 -19.501 18.499 60 1 1 55.5
9 0 1 0 0 0 1 0 0 0 1 19.499 18.499 60.5 1 1 55
9 0 1 0 0 0 1 0 0 0 1 -0.0009994507 -16.001 22.5 9.5 5.5 1
9 0 1 0 0 0 1 0 0 0 1 16.499 8.499001 11 9 1 5.5
9 0 1 0 0 0 1 0 0 0 1 -16.501 8.499001 11 9 1 5.5
9 0 1 0 0 0 1 0 0 0 1 11.499 -0.0009994507 10 1 7.5 6.5
9 0 1 0 0 0 1 0 0 0 1 16.499 -8.500999 11 9 1 5.5
9 0 1 0 0 0 1 0 0 0 1 -0.0009994507 11.499 10 7.5 1 6.5
9 0 1 0 0 0 1 0 0 0 1 -0.0009994507 -11.501 10 7.5 1 6.5
9 0 1 0 0 0 1 0 0 0 1 -8.500999 -16.501 11 1 9 5.5
9 0 1 0 0 0 1 0 0 0 1 -11.501 -0.0009994507 10 1 7.5 6.5
9 0 1 0 0 0 1 0 0 0 1 11.999 -19.501 14.5 2.5 2 9
9 0 1 0 0 0 1 0 0 0 1 8.499001 -17.501 11 1 8 5.5
9 0 1 0 0 0 1 0 0 0 1 8.499001 16.999 11 1 7.5 5.5
9 0 1 0 0 0 1 0 0 0 1 -8.500999 16.999 11 1 7.5 5.5
9 0 1 0 0 0 1 0 0 0 1 23.999 -17.501 85 1.5 1 25.5
9 0 1 0 0 0 1 0 0 0 1 -23.501 -18.001 85 1 1.5 25.5
9 0 1 0 0 0 1 0 0 0 1 14.499 -0.0009994507 22.5 4 9.5 1
9 0 1 0 0 0 1 0 0 0 1 -14.501 0.4990005 22.5 4 9 1
9 0 1 0 0 0 1 0 0 0 1 26.999 -0.0009994507 68 0.5 1.5 46.5
9 0 1 0 0 0 1 0 0 0 1 -27.001 -0.0009994507 68 0.5 1.5 46.5
9 0 1 0 0 0 1 0 0 0 1 -0.0009994507 -27.001 66.5 1.5 0.5 45
9 0 1 0 0 0 1 0 0 0 1 20.499 -11.501 13.5 2 2 8
9 0 1 0 0 0 1 0 0 0 1 17.999 -23.001 34.5 1.5 1.5 14
9 0 1 0 0 0 1 0 0 0 1 -18.001 -23.001 34.5 1.5 1.5 14
9 0 1 0 0 0 1 0 0 0 1 21.999 14.499 60 0.5 1 55.5
9 0 1 0 0 0 1 0 0 0 1 -22.001 14.499 60 0.5 1 55.5
9 0 1 0 0 0 1 0 0 0 1 -20.501 -8.500999 11 5 1 5.5
9 0 1 0 0 0 1 0 0 0 1 23.999 11.499 60 0.5 1 54.5
9 0 1 0 0 0 1 0 0 0 1 18.999 20.499 60 0.5 1 54.5
9 0 1 0 0 0 1 0 0 0 1 -19.001 20.499 60 0.5 1 54.5
9 0 1 0 0 0 1 0 0 0 1 -24.001 11.499 60 0.5 1 54.5
9 0 1 0 0 0 1 0 0 0 1 -0.0009994507 -23.501 112.5 13.5 2 1
9 0 1 0 0 0 1 0 0 0 1 -23.501 -18.001 34.5 1 1.5 14
9 0 1 0 0 0 1 0 0 0 1 -11.001 -22.001 13.5 1.5 1.5 8
9 0 1 0 0 0 1 0 0 0 1 -20.501 0.4990005 117.5 2 9 1
9 0 1 0 0 0 1 0 0 0 1 -22.001 -11.001 13.5 1.5 1.5 8
9 0 1 0 0 0 1 0 0 0 1 20.499 -0.0009994507 117.5 2 8.5 1
9 0 1 0 0 0 1 0 0 0 1 -17.501 -17.501 9.5 2 2 4
9 0 1 0 0 0 1 0 0 0 1 24.499 -17.501 34.5 1 1 14
9 0 1 0 0 0 1 0 0 0 1 20.499 -21.501 34.5 1 1 14
9 0 1 0 0 0 1 0 0 0 1 21.999 9.999001 13.5 3.5 0.5 8
9 0 1 0 0 0 1 0 0 0 1 -22.001 9.999001 13.5 3.5 0.5 8
9 0 1 0 0 0 1 0 0 0 1 -20.501 -22.001 85.5 1 0.5 26
9 0 1 0 0 0 1 0 0 0 1 23.499 -19.001 85 1 0.5 25.5
9 0 1 0 0 0 1 0 0 0 1 20.499 -22.001 85 1 0.5 25.5
9 0 1 0 0 0 1 0 0 0 1 17.499 -25.001 85 1 0.5 25.5
9 0 1 0 0 0 1 0 0 0 1 -17.501 -25.001 85 1 0.5 25.5
9 0 1 0 0 0 1 0 0 0 1 -25.001 -17.501 85 0.5 1 25.5
9 0 1 0 0 0 1 0 0 0 1 -16.001 21.999 3.5 2.5 2.5 2
9 0 1 0 0 0 1 0 0 0 1 10.999 -22.501 13.5 1.5 1 8
9 0 1 0 0 0 1 0 0 0 1 -17.001 -18.501 21 1.5 3 2.5
9 0 1 0 0 0 1 0 0 0 1 20.499 -13.001 113 2 3.5 1.5
9 0 1 0 0 0 1 0 0 0 1 16.499 21.999 3.5 2 2.5 2
9 0 1 0 0 0 1 0 0 0 1 16.999 -18.501 9.5 2.5 1 4
9 0 1 0 0 0 1 0 0 0 1 16.499 -19.501 21 2 2 2.5
9 0 1 0 0 0 1 0 0 0 1 -20.501 -12.001 113.5 2 2.5 2
9 0 1 0 0 0 1 0 0 0 1 24.999 -0.0009994507 113.5 0.5 9.5 2
9 0 1 0 0 0 1 0 0 0 1 -25.001 -0.0009994507 113.5 0.5 9.5 2
9 0 1 0 0 0 1 0 0 0 1 19.999 -15.001 9.5 1.5 1.5 4
9 0 1 0 0 0 1 0 0 0 1 9.499001 -20.501 115 3 2 1.5
9 0 1 0 0 0 1 0 0 0 1 -10.001 -6.500999 14.5 0.5 2 9
9 0 1 0 0 0 1 0 0 0 1 -9.500999 -20.001 115.5 3 1.5 2
9 0 1 0 0 0 1 0 0 0 1 19.999 -17.501 54 1.5 1 5.5
9 0 1 0 0 0 1 0 0 0 1 9.999001 5.999001 12.5 0.5 1.5 11
9 0 1 0 0 0 1 0 0 0 1 9.999001 -6.000999 12.5 0.5 1.5 11
9 0 1 0 0 0 1 0 0 0 1 5.999001 9.999001 12.5 1.5 0.5 11
9 0 1 0 0 0 1 0 0 0 1 5.999001 -10.001 12.5 1.5 0.5 11
9 0 1 0 0 0 1 0 0 0 1 -6.000999 9.999001 12.5 1.5 0.5 11
9 0 1 0 0 0 1 0 0 0 1 -6.000999 -10.001 12.5 1.5 0.5 11
9 0 1 0 0 0 1 0 0 0 1 -10.001 5.999001 12.5 0.5 1.5 11
9 0 1 0 0 0 1 0 0 0 1 -13.501 -7.000999 11 1 1.5 5.5
9 0 1 0 0 0 1 0 0 0 1 -19.501 -18.001 54 1 1.5 5.5
9 0 1 0 0 0 1 0 0 0 1 -0.0009994507 27.999 10 2.5 0.5 6.5
9 0 1 0 0 0 1 0 0 0 1 23.499 -10.501 13.5 1 1 8
9 0 1 0 0 0 1 0 0 0 1 10.499 8.499001 19 3 1 2.5
9 0 1 0 0 0 1 0 0 0 1 9.999001 26.499 118 7.5 2 0.5
9 0 1 0 0 0 1 0 0 0 1 -8.500999 -10.501 19 1 3 2.5
9 0 1 0 0 0 1 0 0 0 1 -10.501 8.499001 19 3 1 2.5
9 0 1 0 0 0 1 0 0 0 1 -10.001 26.499 118 7.5 2 0.5
9 0 1 0 0 0 1 0 0 0 1 17.499 -25.001 34.5 1 0.5 14
9 0 1 0 0 0 1 0 0 0 1 -17.501 -25.001 34.5 1 0.5 14
9 0 1 0 0 0 1 0 0 0 1 -20.001 -22.501 34.5 0.5 1 14
9 0 1 0 0 0 1 0 0 0 1 -25.001 -17.501 34.5 0.5 1 14
9 0 1 0 0 0 1 0 0 0 1 14.499 6.999001 10 2 0.5 6.5
9 0 1 0 0 0 1 0 0 0 1 14.499 -7.000999 10 2 0.5 6.5
9 0 1 0 0 0 1 0 0 0 1 6.999001 14.499 10 0.5 2 6.5
9 0 1 0 0 0 1 0 0 0 1 6.999001 -14.501 10 0.5 2 6.5
9 0 1 0 0 0 1 0 0 0 1 -5.500999 12.999 10 2 0.5 6.5
9 0 1 0 0 0 1 0 0 0 1 -5.500999 -13.001 10 2 0.5 6.5
9 0 1 0 0 0 1 0 0 0 1 -13.001 5.499001 10 0.5 2 6.5
9 0 1 0 0 0 1 0 0 0 1 22.999 -20.001 85 0.5 0.5 25.5
9 0 1 0 0 0 1 0 0 0 1 19.999 -23.001 85 0.5 0.5 25.5
9 0 1 0 0 0 1 0 0 0 1 -20.001 -23.001 85 0.5 0.5 25.5
9 0 1 0 0 0 1 0 0 0 1 -23.001 -20.001 85 0.5 0.5 25.5
9 0 1 0 0 0 1 0 0 0 1 8.499001 -11.001 19 1 2.5 2.5
9 0 1 0 0 0 1 0 0 0 1 16.499 -16.501 115 2 2 1.5
9 0 1 0 0 0 1 0 0 0 1 -14.001 -21.501 9.5 1.5 1 4
9 0 1 0 0 0 1 0 0 0 1 -16.501 -16.501 115 2 2 1.5
9 0 1 0 0 0 1 0 0 0 1 -21.501 -14.001 9.5 1 1.5 4
9 0 1 0 0 0 1 0 0 0 1 20.999 -15.001 20 2.5 1.5 1.5
9 0 1 0 0 0 1 0 0 0 1 -17.001 -12.001 22.5 1.5 3.5 1
9 0 1 0 0 0 1 0 0 0 1 8.499001 11.499 19 1 2 2.5
9 0 1 0 0 0 1 0 0 0 1 -23.001 -14.501 20.5 2.5 2 1
9 0 1 0 0 0 1 0 0 0 1 12.999 4.999001 10 0.5 1.5 6.5
9 0 1 0 0 0 1 0 0 0 1 12.999 -5.000999 10 0.5 1.5 6.5
9 0 1 0 0 0 1 0 0 0 1 4.999001 12.999 10 1.5 0.5 6.5
9 0 1 0 0 0 1 0 0 0 1 4.999001 -13.001 10 1.5 0.5 6.5
9 0 1 0 0 0 1 0 0 0 1 -7.000999 14.999 10 0.5 1.5 6.5
9 0 1 0 0 0 1 0 0 0 1 -7.000999 -15.001 10 0.5 1.5 6.5
9 0 1 0 0 0 1 0 0 0 1 -15.001 6.999001 10 1.5 0.5 6.5
9 0 1 0 0 0 1 0 0 0 1 12.999 26.499 2 4.5 2 0.5
9 0 1 0 0 0 1 0 0 0 1 -14.001 -22.501 20 1.5 2 1.5
9 0 1 0 0 0 1 0 0 0 1 -13.001 26.499 2 4.5 2 0.5
9 0 1 0 0 0 1 0 0 0 1 -23.001 13.999 95 0.5 0.5 17.5
9 0 1 0 0 0 1 0 0 0 1 4.499001 -4.000999 10 1 0.5 8.5
9 0 1 0 0 0 1 0 0 0 1 -4.000999 4.499001 10 0.5 1 8.5
9 0 1 0 0 0 1 0 0 0 1 -4.000999 -4.500999 10 0.5 1 8.5
9 0 1 0 0 0 1 0 0 0 1 -24.001 -10.501 13 0.5 1 8.5
9 0 1 0 0 0 1 0 0 0 1 6.999001 -25.001 11 0.5 1.5 5.5
9 0 1 0 0 0 1 0 0 0 1 -7.000999 -25.001 11 0.5 1.5 5.5
9 0 1 0 0 0 1 0 0 0 1 15.499 -20.501 9.5 1 1 4
9 0 1 0 0 0 1 0 0 0 1 14.499 -23.501 20.5 2 2 1
9 0 1 0 0 0 1 0 0 0 1 10.499 -24.001 13.5 1 0.5 8
9 0 1 0 0 0 1 0 0 0 1 -10.001 -24.501 13.5 0.5 1 8
9 0 1 0 0 0 1 0 0 0 1 -11.501 -8.000999 13.5 1 0.5 8
9 0 1 0 0 0 1 0 0 0 1 12.499 -9.000999 19 3 0.5 2.5
9 0 1 0 0 0 1 0 0 0 1 -16.501 -17.001 16 1 1.5 2.5
9 0 1 0 0 0 1 0 0 0 1 -20.001 -17.001 112.5 1.5 2.5 1
9 0 1 0 0 0 1 0 0 0 1 18.999 -21.001 34 0.5 0.5 14.5
9 0 1 0 0 0 1 0 0 0 1 23.999 -19.001 34.5 0.5 0.5 14
9 0 1 0 0 0 1 0 0 0 1 21.999 -21.001 34.5 0.5 0.5 14
9 0 1 0 0 0 1 0 0 0 1 19.999 -23.001 34.5 0.5 0.5 14
9 0 1 0 0 0 1 0 0 0 1 19.499 -19.501 52 1 1 3.5
9 0 1 0 0 0 1 0 0 0 1 4.499001 3.999001 11.5 1 0.5 7
9 0 1 0 0 0 1 0 0 0 1 -21.001 -22.001 34.5 0.5 0.5 14
9 0 1 0 0 0 1 0 0 0 1 -23.001 -20.001 34.5 0.5 0.5 14
9 0 1 0 0 0 1 0 0 0 1 19.999 -11.001 116 1.5 1.5 1.5
9 0 1 0 0 0 1 0 0 0 1 -13.001 -4.500999 10 0.5 1 6.5
9 0 1 0 0 0 1 0 0 0 1 -15.501 -7.000999 10 1 0.5 6.5
9 0 1 0 0 0 1 0 0 0 1 20.999 9.999001 114 2.5 0.5 2.5
9 0 1 0 0 0 1 0 0 0 1 -7.000999 10.999 19 2.5 0.5 2.5
9 0 1 0 0 0 1 0 0 0 1 -21.001 9.999001 114 2.5 0.5 2.5
9 0 1 0 0 0 1 0 0 0 1 23.999 -11.501 112.5 1.5 2 1
9 0 1 0 0 0 1 0 0 0 1 13.499 22.999 3.5 1 1.5 2
9 0 1 0 0 0 1 0 0 0 1 13.999 -22.001 9.5 1.5 0.5 4
9 0 1 0 0 0 1 0 0 0 1 9.499001 -19.501 117.5 3 1 1
9 0 1 0 0 0 1 0 0 0 1 -9.500999 -22.501 114.5 3 1 1
9 0 1 0 0 0 1 0 0 0 1 -12.001 23.499 3.5 1.5 1 2
9 0 1 0 0 0 1 0 0 0 1 -17.001 18.499 3.5 1.5 1 2
9 0 1 0 0 0 1 0 0 0 1 24.499 6.999001 11 1 0.5 5.5
9 0 1 0 0 0 1 0 0 0 1 24.499 -7.000999 11 1 0.5 5.5
9 0 1 0 0 0 1 0 0 0 1 8.999001 6.999001 12.5 0.5 0.5 11
9 0 1 0 0 0 1 0 0 0 1 8.999001 -7.000999 12.5 0.5 0.5 11
9 0 1 0 0 0 1 0 0 0 1 6.999001 8.999001 12.5 0.5 0.5 11
9 0 1 0 0 0 1 0 0 0 1 6.999001 -9.000999 12.5 0.5 0.5 11
9 0 1 0 0 0 1 0 0 0 1 -7.000999 8.999001 12.5 0.5 0.5 11
9 0 1 0 0 0 1 0 0 0 1 -7.000999 -9.000999 12.5 0.5 0.5 11
9 0 1 0 0 0 1 0 0 0 1 -9.000999 6.999001 12.5 0.5 0.5 11
9 0 1 0 0 0 1 0 0 0 1 -9.000999 -7.000999 12.5 0.5 0.5 11
9 0 1 0 0 0 1 0 0 0 1 -21.001 -17.501 54 0.5 1 5.5
9 0 1 0 0 0 1 0 0 0 1 -24.501 6.999001 11 1 0.5 5.5
9 0 1 0 0 0 1 0 0 0 1 -24.501 -7.000999 11 1 0.5 5.5
9 0 1 0 0 0 1 0 0 0 1 8.999001 -8.000999 20 1.5 0.5 3.5
9 0 1 0 0 0 1 0 0 0 1 24.499 -14.001 20.5 1 2.5 1
9 0 1 0 0 0 1 0 0 0 1 23.499 0.4990005 117 1 5 0.5
9 0 1 0 0 0 1 0 0 0 1 19.499 -14.501 16 1 1 2.5
9 0 1 0 0 0 1 0 0 0 1 15.499 -18.501 16 1 1 2.5
9 0 1 0 0 0 1 0 0 0 1 10.999 -6.500999 19 0.5 2 2.5
9 0 1 0 0 0 1 0 0 0 1 -9.000999 13.499 19 0.5 2 2.5
9 0 1 0 0 0 1 0 0 0 1 -15.001 -19.501 114.5 2.5 1 1
9 0 1 0 0 0 1 0 0 0 1 -19.501 12.999 116.5 1 2.5 1
9 0 1 0 0 0 1 0 0 0 1 -23.501 -0.5009995 117 1 5 0.5
9 0 1 0 0 0 1 0 0 0 1 -23.501 -12.001 112.5 1 2.5 1
9 0 1 0 0 0 1 0 0 0 1 19.999 9.999001 117.5 1.5 1.5 1
9 0 1 0 0 0 1 0 0 0 1 19.499 -17.001 9 1 0.5 4.5
9 0 1 0 0 0 1 0 0 0 1 13.999 -19.501 115 1.5 1 1.5
9 0 1 0 0 0 1 0 0 0 1 -16.501 -20.001 9 1 0.5 4.5
9 0 1 0 0 0 1 0 0 0 1 -19.501 -11.001 117 1 1.5 1.5
9 0 1 0 0 0 1 0 0 0 1 -20.001 -16.501 9 0.5 1 4.5
9 0 1 0 0 0 1 0 0 0 1 -19.501 -17.001 19 1 1.5 1.5
9 0 1 0 0 0 1 0 0 0 1 -5.000999 -4.000999 10 0.5 0.5 8.5
9 0 1 0 0 0 1 0 0 0 1 24.999 -10.001 13.5 0.5 0.5 8
9 0 1 0 0 0 1 0 0 0 1 23.499 -12.001 9.5 1 0.5 4
9 0 1 0 0 0 1 0 0 0 1 21.999 -14.501 9.5 0.5 1 4
9 0 1 0 0 0 1 0 0 0 1 19.499 -18.501 112.5 1 2 1
9 0 1 0 0 0 1 0 0 0 1 17.499 18.499 3.5 1 1 2
9 0 1 0 0 0 1 0 0 0 1 9.999001 -25.001 13.5 0.5 0.5 8
9 0 1 0 0 0 1 0 0 0 1 -11.001 -24.001 13.5 0.5 0.5 8
9 0 1 0 0 0 1 0 0 0 1 -25.001 -10.001 13.5 0.5 0.5 8
9 0 1 0 0 0 1 0 0 0 1 19.999 12.999 116 1.5 2.5 0.5
9 0 1 0 0 0 1 0 0 0 1 10.999 5.999001 19 0.5 1.5 2.5
9 0 1 0 0 0 1 0 0 0 1 5.999001 10.999 19 1.5 0.5 2.5
9 0 1 0 0 0 1 0 0 0 1 5.999001 -11.001 19 1.5 0.5 2.5
9 0 1 0 0 0 1 0 0 0 1 -6.000999 -11.001 19 1.5 0.5 2.5
9 0 1 0 0 0 1 0 0 0 1 -11.001 5.999001 19 0.5 1.5 2.5
9 0 1 0 0 0 1 0 0 0 1 -11.001 -6.000999 19 0.5 1.5 2.5
9 0 1 0 0 0 1 0 0 0 1 -22.001 -15.001 19 1.5 2.5 0.5
9 0 1 0 0 0 1 0 0 0 1 21.999 -17.501 52 0.5 1 3.5
9 0 1 0 0 0 1 0 0 0 1 3.999001 4.999001 11.5 0.5 0.5 7
9 0 1 0 0 0 1 0 0 0 1 3.999001 -5.000999 11.5 0.5 0.5 7
9 0 1 0 0 0 1 0 0 0 1 -5.000999 3.999001 11.5 0.5 0.5 7
9 0 1 0 0 0 1 0 0 0 1 -8.500999 9.999001 20 1 0.5 3.5
9 0 1 0 0 0 1 0 0 0 1 -17.501 -22.001 52 1 0.5 3.5
9 0 1 0 0 0 1 0 0 0 1 -19.001 -20.501 52 0.5 1 3.5
9 0 1 0 0 0 1 0 0 0 1 13.999 5.999001 10 0.5 0.5 6.5
9 0 1 0 0 0 1 0 0 0 1 13.999 -6.000999 10 0.5 0.5 6.5
9 0 1 0 0 0 1 0 0 0 1 6.999001 23.999 10 0.5 0.5 6.5
9 0 1 0 0 0 1 0 0 0 1 5.999001 13.999 10 0.5 0.5 6.5
9 0 1 0 0 0 1 0 0 0 1 5.999001 -14.001 10 0.5 0.5 6.5
9 0 1 0 0 0 1 0 0 0 1 -6.000999 13.999 10 0.5 0.5 6.5
9 0 1 0 0 0 1 0 0 0 1 -6.000999 -14.001 10 0.5 0.5 6.5
9 0 1 0 0 0 1 0 0 0 1 -0.0009994507 -19.001 114 6.5 0.5 0.5
9 0 1 0 0 0 1 0 0 0 1 -7.000999 23.999 10 0.5 0.5 6.5
9 0 1 0 0 0 1 0 0 0 1 -14.001 5.999001 10 0.5 0.5 6.5
9 0 1 0 0 0 1 0 0 0 1 19.499 -14.001 115.5 1 1.5 1
9 0 1 0 0 0 1 0 0 0 1 19.999 -17.501 19.5 1.5 1 1
9 0 1 0 0 0 1 0 0 0 1 15.999 -15.501 117.5 1.5 1 1
9 0 1 0 0 0 1 0 0 0 1 14.999 -22.501 112.5 1.5 1 1
9 0 1 0 0 0 1 0 0 0 1 10.999 23.999 3.5 1.5 0.5 2
9 0 1 0 0 0 1 0 0 0 1 8.999001 8.499001 22.5 1.5 1 1
9 0 1 0 0 0 1 0 0 0 1 9.499001 -23.001 114.5 3 0.5 1
9 0 1 0 0 0 1 0 0 0 1 -8.500999 -9.000999 22.5 1 1.5 1
9 0 1 0 0 0 1 0 0 0 1 -9.000999 8.499001 22.5 1.5 1 1
9 0 1 0 0 0 1 0 0 0 1 -10.001 -6.000999 3.5 0.5 1.5 2
9 0 1 0 0 0 1 0 0 0 1 -12.501 -25.001 20 2 0.5 1.5
9 0 1 0 0 0 1 0 0 0 1 -12.501 -21.001 22.5 3 0.5 1
9 0 1 0 0 0 1 0 0 0 1 -15.501 -16.001 117.5 1 1.5 1
9 0 1 0 0 0 1 0 0 0 1 -19.001 16.499 4.5 1.5 1 1
9 0 1 0 0 0 1 0 0 0 1 -19.501 -16.001 114.5 1 1.5 1
9 0 1 0 0 0 1 0 0 0 1 25.999 5.999001 11 0.5 0.5 5.5
9 0 1 0 0 0 1 0 0 0 1 25.999 -6.000999 11 0.5 0.5 5.5
9 0 1 0 0 0 1 0 0 0 1 22.999 13.999 54 0.5 0.5 5.5
9 0 1 0 0 0 1 0 0 0 1 5.999001 -26.001 11 0.5 0.5 5.5
9 0 1 0 0 0 1 0 0 0 1 -6.000999 -26.001 11 0.5 0.5 5.5
9 0 1 0 0 0 1 0 0 0 1 -15.001 -8.000999 11 0.5 0.5 5.5
9 0 1 0 0 0 1 0 0 0 1 -22.001 -17.001 54 0.5 0.5 5.5
9 0 1 0 0 0 1 0 0 0 1 -26.001 5.999001 11 0.5 0.5 5.5
9 0 1 0 0 0 1 0 0 0 1 -26.001 -6.000999 11 0.5 0.5 5.5
9 0 1 0 0 0 1 0 0 0 1 22.999 13.999 71.5 0.5 0.5 5
9 0 1 0 0 0 1 0 0 0 1 22.999 13.999 91.5 0.5 0.5 5
9 0 1 0 0 0 1 0 0 0 1 17.499 -22.001 54 1 0.5 2.5
9 0 1 0 0 0 1 0 0 0 1 14.499 8.999001 19 1 0.5 2.5
9 0 1 0 0 0 1 0 0 0 1 14.999 -22.501 19 2.5 1 0.5
9 0 1 0 0 0 1 0 0 0 1 12.499 -8.000999 19 1 0.5 2.5
9 0 1 0 0 0 1 0 0 0 1 8.999001 14.499 19 0.5 1 2.5
9 0 1 0 0 0 1 0 0 0 1 8.999001 -14.501 19 0.5 1 2.5
9 0 1 0 0 0 1 0 0 0 1 -7.500999 11.999 19 1 0.5 2.5
9 0 1 0 0 0 1 0 0 0 1 -9.000999 -14.501 19 0.5 1 2.5
9 0 1 0 0 0 1 0 0 0 1 -9.000999 -19.501 118 2.5 1 0.5
9 0 1 0 0 0 1 0 0 0 1 -13.001 -21.501 16 0.5 1 2.5
9 0 1 0 0 0 1 0 0 0 1 -14.501 8.999001 19 1 0.5 2.5
9 0 1 0 0 0 1 0 0 0 1 -18.001 -16.501 16 0.5 1 2.5
9 0 1 0 0 0 1 0 0 0 1 -16.001 -22.001 112.5 2.5 0.5 1
9 0 1 0 0 0 1 0 0 0 1 -21.001 -13.501 16 0.5 1 2.5
9 0 1 0 0 0 1 0 0 0 1 25.999 -0.0009994507 115 0.5 4.5 0.5
9 0 1 0 0 0 1 0 0 0 1 24.999 -0.0009994507 116 0.5 4.5 0.5
9 0 1 0 0 0 1 0 0 0 1 22.999 -0.0009994507 118 0.5 4.5 0.5
9 0 1 0 0 0 1 0 0 0 1 16.999 -20.001 9 0.5 0.5 4.5
9 0 1 0 0 0 1 0 0 0 1 9.999001 27.999 20 1.5 0.5 1.5
9 0 1 0 0 0 1 0 0 0 1 9.999001 27.999 40 1.5 0.5 1.5
9 0 1 0 0 0 1 0 0 0 1 9.999001 27.999 60 1.5 0.5 1.5
9 0 1 0 0 0 1 0 0 0 1 9.999001 27.999 80 1.5 0.5 1.5
9 0 1 0 0 0 1 0 0 0 1 9.999001 27.999 100 1.5 0.5 1.5
9 0 1 0 0 0 1 0 0 0 1 -10.001 27.999 20 1.5 0.5 1.5
9 0 1 0 0 0 1 0 0 0 1 -10.001 27.999 40 1.5 0.5 1.5
9 0 1 0 0 0 1 0 0 0 1 -10.001 27.999 60 1.5 0.5 1.5
9 0 1 0 0 0 1 0 0 0 1 -10.001 27.999 80 1.5 0.5 1.5
9 0 1 0 0 0 1 0 0 0 1 -10.001 27.999 100 1.5 0.5 1.5
9 0 1 0 0 0 1 0 0 0 1 -23.001 -0.0009994507 118 0.5 4.5 0.5
9 0 1 0 0 0 1 0 0 0 1 -25.001 -0.0009994507 116 0.5 4.5 0.5
9 0 1 0 0 0 1 0 0 0 1 -26.001 -0.0009994507 115 0.5 4.5 0.5
9 0 1 0 0 0 1 0 0 0 1 23.499 -10.501 114.5 1 1 1
9 0 1 0 0 0 1 0 0 0 1 22.999 -13.001 9.5 0.5 0.5 4
9 0 1 0 0 0 1 0 0 0 1 23.499 -14.501 112.5 1 1 1
9 0 1 0 0 0 1 0 0 0 1 19.499 17.499 5 1 2 0.5
9 0 1 0 0 0 1 0 0 0 1 19.499 -10.501 118 1 2 0.5
9 0 1 0 0 0 1 0 0 0 1 19.499 -19.001 57.5 1 0.5 2
9 0 1 0 0 0 1 0 0 0 1 17.499 -22.501 111.5 1 1 1
9 0 1 0 0 0 1 0 0 0 1 17.499 -19.501 114 2 1 0.5
9 0 1 0 0 0 1 0 0 0 1 14.499 -21.501 114 2 1 0.5
9 0 1 0 0 0 1 0 0 0 1 12.999 -23.001 9.5 0.5 0.5 4
9 0 1 0 0 0 1 0 0 0 1 11.999 -24.001 9.5 0.5 0.5 4
9 0 1 0 0 0 1 0 0 0 1 8.499001 -9.500999 22.5 1 1 1
9 0 1 0 0 0 1 0 0 0 1 2.499001 -27.001 23.5 1 0.5 2
9 0 1 0 0 0 1 0 0 0 1 -2.500999 -27.001 23.5 1 0.5 2
9 0 1 0 0 0 1 0 0 0 1 -12.001 -24.001 9.5 0.5 0.5 4
9 0 1 0 0 0 1 0 0 0 1 -12.501 21.999 3.5 1 0.5 2
9 0 1 0 0 0 1 0 0 0 1 -13.001 -23.001 9.5 0.5 0.5 4
9 0 1 0 0 0 1 0 0 0 1 -13.501 -6.500999 4.5 1 1 1
9 0 1 0 0 0 1 0 0 0 1 -13.501 -21.501 114.5 1 1 1
9 0 1 0 0 0 1 0 0 0 1 -16.001 -21.001 9.5 0.5 0.5 4
9 0 1 0 0 0 1 0 0 0 1 -16.001 -23.501 20.5 0.5 2 1
9 0 1 0 0 0 1 0 0 0 1 -16.501 -18.501 4.5 1 1 1
9 0 1 0 0 0 1 0 0 0 1 -20.501 14.499 4.5 1 1 1
9 0 1 0 0 0 1 0 0 0 1 -21.001 -16.001 9.5 0.5 0.5 4
9 0 1 0 0 0 1 0 0 0 1 -23.001 -13.001 9.5 0.5 0.5 4
9 0 1 0 0 0 1 0 0 0 1 -22.501 -15.501 112.5 1 1 1
9 0 1 0 0 0 1 0 0 0 1 -24.001 -12.001 9.5 0.5 0.5 4
9 0 1 0 0 0 1 0 0 0 1 22.999 13.999 20 0.5 0.5 3.5
9 0 1 0 0 0 1 0 0 0 1 20.999 -19.001 52 0.5 0.5 3.5
9 0 1 0 0 0 1 0 0 0 1 -20.001 -20.001 52 0.5 0.5 3.5
9 0 1 0 0 0 1 0 0 0 1 24.499 9.999001 113 1 0.5 1.5
9 0 1 0 0 0 1 0 0 0 1 24.499 -13.001 19 1 1.5 0.5
9 0 1 0 0 0 1 0 0 0 1 22.999 -12.501 19 0.5 1 2.5
9 0 1 0 0 0 1 0 0 0 1 22.999 13.999 8.5 0.5 0.5 3
9 0 1 0 0 0 1 0 0 0 1 22.999 13.999 30.5 0.5 0.5 3
9 0 1 0 0 0 1 0 0 0 1 21.999 -11.001 115.5 0.5 1.5 1
9 0 1 0 0 0 1 0 0 0 1 21.999 -17.501 112 1.5 1 0.5
9 0 1 0 0 0 1 0 0 0 1 19.499 12.999 117 1 1.5 0.5
9 0 1 0 0 0 1 0 0 0 1 19.999 -19.501 20 1.5 1 0.5
9 0 1 0 0 0 1 0 0 0 1 17.999 -17.001 4.5 0.5 1.5 1
9 0 1 0 0 0 1 0 0 0 1 17.999 -18.501 18 1.5 1 0.5
9 0 1 0 0 0 1 0 0 0 1 12.999 -24.501 19 1.5 1 0.5
9 0 1 0 0 0 1 0 0 0 1 10.999 5.999001 2.5 0.5 1.5 1
9 0 1 0 0 0 1 0 0 0 1 10.999 -6.000999 2.5 0.5 1.5 1
9 0 1 0 0 0 1 0 0 0 1 10.999 22.499 2 1.5 1 0.5
9 0 1 0 0 0 1 0 0 0 1 9.499001 -24.001 114 3 0.5 0.5
9 0 1 0 0 0 1 0 0 0 1 5.999001 10.999 2.5 1.5 0.5 1
9 0 1 0 0 0 1 0 0 0 1 5.999001 -11.001 2.5 1.5 0.5 1
9 0 1 0 0 0 1 0 0 0 1 4.499001 3.999001 3 1 0.5 1.5
9 0 1 0 0 0 1 0 0 0 1 -6.000999 10.999 2.5 1.5 0.5 1
9 0 1 0 0 0 1 0 0 0 1 -6.000999 -11.001 2.5 1.5 0.5 1
9 0 1 0 0 0 1 0 0 0 1 -9.000999 23.999 4.5 1.5 0.5 1
9 0 1 0 0 0 1 0 0 0 1 -11.001 5.999001 2.5 0.5 1.5 1
9 0 1 0 0 0 1 0 0 0 1 -11.001 -6.000999 2.5 0.5 1.5 1
9 0 1 0 0 0 1 0 0 0 1 -9.500999 -22.001 116 3 0.5 0.5
9 0 1 0 0 0 1 0 0 0 1 -9.500999 -24.001 114 3 0.5 0.5
9 0 1 0 0 0 1 0 0 0 1 -14.001 -19.501 116 1.5 1 0.5
9 0 1 0 0 0 1 0 0 0 1 -15.001 -23.501 112 1.5 1 0.5
9 0 1 0 0 0 1 0 0 0 1 -18.001 -17.001 4.5 0.5 1.5 1
9 0 1 0 0 0 1 0 0 0 1 -17.501 -23.001 111 1 1.5 0.5
9 0 1 0 0 0 1 0 0 0 1 -19.001 -14.001 116.5 0.5 1.5 1
9 0 1 0 0 0 1 0 0 0 1 -19.501 10.999 118 1 1.5 0.5
9 0 1 0 0 0 1 0 0 0 1 -19.501 -20.001 20 1 1.5 0.5
9 0 1 0 0 0 1 0 0 0 1 -20.001 -9.000999 117.5 1.5 0.5 1
9 0 1 0 0 0 1 0 0 0 1 -20.001 -20.501 112 1.5 1 0.5
9 0 1 0 0 0 1 0 0 0 1 -21.501 11.999 116 1 1.5 0.5
9 0 1 0 0 0 1 0 0 0 1 -21.501 -11.001 116 1 1.5 0.5
9 0 1 0 0 0 1 0 0 0 1 -21.501 -18.001 20 1 1.5 0.5
9 0 1 0 0 0 1 0 0 0 1 -23.001 -11.001 114.5 0.5 1.5 1
9 0 1 0 0 0 1 0 0 0 1 -24.501 9.999001 113 1 0.5 1.5
9 0 1 0 0 0 1 0 0 0 1 -25.001 -10.501 113 0.5 1 1.5
9 0 1 0 0 0 1 0 0 0 1 -24.501 -12.001 20 1 0.5 1.5
9 0 1 0 0 0 1 0 0 0 1 24.999 8.999001 19 0.5 0.5 2.5
9 0 1 0 0 0 1 0 0 0 1 24.999 -9.000999 19 0.5 0.5 2.5
9 0 1 0 0 0 1 0 0 0 1 22.999 -7.000999 117 0.5 2.5 0.5
9 0 1 0 0 0 1 0 0 0 1 20.999 -14.001 16 0.5 0.5 2.5
9 0 1 0 0 0 1 0 0 0 1 18.999 -16.001 16 0.5 0.5 2.5
9 0 1 0 0 0 1 0 0 0 1 14.999 -20.001 16 0.5 0.5 2.5
9 0 1 0 0 0 1 0 0 0 1 12.999 -22.001 16 0.5 0.5 2.5
9 0 1 0 0 0 1 0 0 0 1 11.999 6.999001 19 0.5 0.5 2.5
9 0 1 0 0 0 1 0 0 0 1 11.999 -7.000999 19 0.5 0.5 2.5
9 0 1 0 0 0 1 0 0 0 1 8.999001 -25.001 19 0.5 0.5 2.5
9 0 1 0 0 0 1 0 0 0 1 6.999001 11.999 19 0.5 0.5 2.5
9 0 1 0 0 0 1 0 0 0 1 6.999001 -12.001 19 0.5 0.5 2.5
9 0 1 0 0 0 1 0 0 0 1 8.999001 -21.001 117 2.5 0.5 0.5
9 0 1 0 0 0 1 0 0 0 1 -7.000999 -12.001 19 0.5 0.5 2.5
9 0 1 0 0 0 1 0 0 0 1 -8.000999 12.999 19 0.5 0.5 2.5
9 0 1 0 0 0 1 0 0 0 1 -9.000999 -25.001 19 0.5 0.5 2.5
9 0 1 0 0 0 1 0 0 0 1 -12.001 6.999001 19 0.5 0.5 2.5
9 0 1 0 0 0 1 0 0 0 1 -12.001 -7.000999 19 0.5 0.5 2.5
9 0 1 0 0 0 1 0 0 0 1 -12.001 -24.001 19 0.5 0.5 2.5
9 0 1 0 0 0 1 0 0 0 1 -13.001 -8.000999 19 0.5 0.5 2.5
9 0 1 0 0 0 1 0 0 0 1 -14.001 -21.001 16 0.5 0.5 2.5
9 0 1 0 0 0 1 0 0 0 1 -16.001 -19.001 16 0.5 0.5 2.5
9 0 1 0 0 0 1 0 0 0 1 -22.001 -13.001 16 0.5 0.5 2.5
9 0 1 0 0 0 1 0 0 0 1 -22.001 -18.001 54 0.5 0.5 2.5
9 0 1 0 0 0 1 0 0 0 1 -23.001 13.999 43 0.5 0.5 2.5
9 0 1 0 0 0 1 0 0 0 1 -23.001 6.999001 117 0.5 2.5 0.5
9 0 1 0 0 0 1 0 0 0 1 -25.001 8.999001 19 0.5 0.5 2.5
9 0 1 0 0 0 1 0 0 0 1 -25.001 -9.000999 19 0.5 0.5 2.5
9 0 1 0 0 0 1 0 0 0 1 22.999 13.999 38.5 0.5 0.5 2
9 0 1 0 0 0 1 0 0 0 1 22.999 13.999 112.5 0.5 0.5 2
9 0 1 0 0 0 1 0 0 0 1 22.999 7.499001 117 0.5 2 0.5
9 0 1 0 0 0 1 0 0 0 1 23.499 -12.501 114 1 1 0.5
9 0 1 0 0 0 1 0 0 0 1 23.499 -17.501 111 1 1 0.5
9 0 1 0 0 0 1 0 0 0 1 22.499 -17.001 19.5 1 0.5 1
9 0 1 0 0 0 1 0 0 0 1 21.999 -17.001 57.5 0.5 0.5 2
9 0 1 0 0 0 1 0 0 0 1 20.999 15.499 5 0.5 2 0.5
9 0 1 0 0 0 1 0 0 0 1 21.499 -13.501 5 1 1 0.5
9 0 1 0 0 0 1 0 0 0 1 19.999 -14.501 4.5 0.5 1 1
9 0 1 0 0 0 1 0 0 0 1 19.499 16.499 4 1 1 0.5
9 0 1 0 0 0 1 0 0 0 1 19.499 16.499 116 1 1 0.5
9 0 1 0 0 0 1 0 0 0 1 20.499 -9.000999 117 2 0.5 0.5
9 0 1 0 0 0 1 0 0 0 1 18.999 -15.501 4.5 0.5 1 1
9 0 1 0 0 0 1 0 0 0 1 19.499 -16.501 115 1 1 0.5
9 0 1 0 0 0 1 0 0 0 1 19.499 -17.501 114 1 1 0.5
9 0 1 0 0 0 1 0 0 0 1 18.999 -20.001 57.5 0.5 0.5 2
9 0 1 0 0 0 1 0 0 0 1 19.499 -21.001 52.5 1 0.5 1
9 0 1 0 0 0 1 0 0 0 1 17.999 16.999 3.5 0.5 0.5 2
9 0 1 0 0 0 1 0 0 0 1 16.999 -18.001 15.5 0.5 0.5 2
9 0 1 0 0 0 1 0 0 0 1 17.499 -22.501 20 1 1 0.5
9 0 1 0 0 0 1 0 0 0 1 15.999 18.999 3.5 0.5 0.5 2
9 0 1 0 0 0 1 0 0 0 1 16.499 -18.001 4.5 1 0.5 1
9 0 1 0 0 0 1 0 0 0 1 16.499 -19.001 115.5 1 0.5 1
9 0 1 0 0 0 1 0 0 0 1 15.499 -17.001 117.5 1 0.5 1
9 0 1 0 0 0 1 0 0 0 1 16.499 -19.001 5 2 0.5 0.5
9 0 1 0 0 0 1 0 0 0 1 13.999 20.999 3.5 0.5 0.5 2
9 0 1 0 0 0 1 0 0 0 1 14.499 -20.001 4.5 1 0.5 1
9 0 1 0 0 0 1 0 0 0 1 14.499 -24.001 112.5 1 0.5 1
9 0 1 0 0 0 1 0 0 0 1 13.499 -21.501 115 1 1 0.5
9 0 1 0 0 0 1 0 0 0 1 11.999 -24.501 20.5 0.5 1 1
9 0 1 0 0 0 1 0 0 0 1 8.499001 23.999 4.5 1 0.5 1
9 0 1 0 0 0 1 0 0 0 1 8.499001 9.999001 22.5 1 0.5 1
9 0 1 0 0 0 1 0 0 0 1 6.999001 -26.001 23.5 0.5 0.5 2
9 0 1 0 0 0 1 0 0 0 1 -7.000999 -26.001 23.5 0.5 0.5 2
9 0 1 0 0 0 1 0 0 0 1 -13.001 20.999 3.5 0.5 0.5 2
9 0 1 0 0 0 1 0 0 0 1 -13.501 -21.501 5 1 1 0.5
9 0 1 0 0 0 1 0 0 0 1 -15.001 18.999 3.5 0.5 0.5 2
9 0 1 0 0 0 1 0 0 0 1 -14.501 -20.001 4.5 1 0.5 1
9 0 1 0 0 0 1 0 0 0 1 -17.001 -15.501 117.5 0.5 1 1
9 0 1 0 0 0 1 0 0 0 1 -17.001 -22.001 57.5 0.5 0.5 2
9 0 1 0 0 0 1 0 0 0 1 -16.501 -22.501 19 1 1 0.5
9 0 1 0 0 0 1 0 0 0 1 -18.001 16.499 2.5 0.5 1 1
9 0 1 0 0 0 1 0 0 0 1 -17.501 -22.501 20 1 1 0.5
9 0 1 0 0 0 1 0 0 0 1 -19.001 -15.501 4.5 0.5 1 1
9 0 1 0 0 0 1 0 0 0 1 -19.001 -16.001 15.5 0.5 0.5 2
9 0 1 0 0 0 1 0 0 0 1 -19.001 -20.001 57.5 0.5 0.5 2
9 0 1 0 0 0 1 0 0 0 1 -19.501 16.499 116 1 1 0.5
9 0 1 0 0 0 1 0 0 0 1 -20.001 -14.501 4.5 0.5 1 1
9 0 1 0 0 0 1 0 0 0 1 -21.001 -19.001 53.5 0.5 0.5 2
9 0 1 0 0 0 1 0 0 0 1 -21.501 12.999 4.5 1 0.5 1
9 0 1 0 0 0 1 0 0 0 1 -20.501 9.999001 117 2 0.5 0.5
9 0 1 0 0 0 1 0 0 0 1 -23.001 13.999 7.5 0.5 0.5 2
9 0 1 0 0 0 1 0 0 0 1 -23.001 13.999 21.5 0.5 0.5 2
9 0 1 0 0 0 1 0 0 0 1 -23.001 13.999 28.5 0.5 0.5 2
9 0 1 0 0 0 1 0 0 0 1 -22.501 -17.501 112 1 1 0.5
9 0 1 0 0 0 1 0 0 0 1 -23.501 -17.501 111 1 1 0.5
9 0 1 0 0 0 1 0 0 0 1 -24.501 -13.501 19 1 1 0.5
9 0 1 0 0 0 1 0 0 0 1 24.999 -11.001 20 0.5 0.5 1.5
9 0 1 0 0 0 1 0 0 0 1 24.999 -19.001 61 0.5 0.5 1.5
9 0 1 0 0 0 1 0 0 0 1 22.999 -12.001 15 0.5 0.5 1.5
9 0 1 0 0 0 1 0 0 0 1 23.999 -17.001 55 1.5 0.5 0.5
9 0 1 0 0 0 1 0 0 0 1 21.999 11.999 116 0.5 1.5 0.5
9 0 1 0 0 0 1 0 0 0 1 21.999 9.999001 117 0.5 1.5 0.5
9 0 1 0 0 0 1 0 0 0 1 20.999 -14.001 115 0.5 1.5 0.5
9 0 1 0 0 0 1 0 0 0 1 20.999 -20.001 112 0.5 1.5 0.5
9 0 1 0 0 0 1 0 0 0 1 18.999 12.999 118 0.5 1.5 0.5
9 0 1 0 0 0 1 0 0 0 1 16.999 -22.001 50 0.5 0.5 1.5
9 0 1 0 0 0 1 0 0 0 1 16.999 -22.001 58 0.5 0.5 1.5
9 0 1 0 0 0 1 0 0 0 1 16.999 -24.001 53 0.5 1.5 0.5
9 0 1 0 0 0 1 0 0 0 1 16.999 -20.001 18 1.5 0.5 0.5
9 0 1 0 0 0 1 0 0 0 1 13.999 -19.001 117 1.5 0.5 0.5
9 0 1 0 0 0 1 0 0 0 1 13.999 -21.001 5 1.5 0.5 0.5
9 0 1 0 0 0 1 0 0 0 1 11.999 22.999 4 0.5 0.5 1.5
9 0 1 0 0 0 1 0 0 0 1 10.999 -25.001 20 0.5 0.5 1.5
9 0 1 0 0 0 1 0 0 0 1 4.999001 4.999001 6 0.5 0.5 1.5
9 0 1 0 0 0 1 0 0 0 1 4.999001 4.999001 16 0.5 0.5 1.5
9 0 1 0 0 0 1 0 0 0 1 4.999001 -5.000999 6 0.5 0.5 1.5
9 0 1 0 0 0 1 0 0 0 1 4.999001 -5.000999 16 0.5 0.5 1.5
9 0 1 0 0 0 1 0 0 0 1 3.999001 4.999001 3 0.5 0.5 1.5
9 0 1 0 0 0 1 0 0 0 1 3.999001 -5.000999 3 0.5 0.5 1.5
9 0 1 0 0 0 1 0 0 0 1 -5.000999 4.999001 6 0.5 0.5 1.5
9 0 1 0 0 0 1 0 0 0 1 -5.000999 4.999001 16 0.5 0.5 1.5
9 0 1 0 0 0 1 0 0 0 1 -5.000999 3.999001 3 0.5 0.5 1.5
9 0 1 0 0 0 1 0 0 0 1 -5.000999 -5.000999 6 0.5 0.5 1.5
9 0 1 0 0 0 1 0 0 0 1 -5.000999 -5.000999 16 0.5 0.5 1.5
9 0 1 0 0 0 1 0 0 0 1 -10.001 22.999 2 0.5 1.5 0.5
9 0 1 0 0 0 1 0 0 0 1 -15.001 -19.001 4 0.5 0.5 1.5
9 0 1 0 0 0 1 0 0 0 1 -16.001 -21.001 114 1.5 0.5 0.5
9 0 1 0 0 0 1 0 0 0 1 -17.001 -24.001 55 0.5 1.5 0.5
9 0 1 0 0 0 1 0 0 0 1 -19.001 14.999 4 0.5 0.5 1.5
9 0 1 0 0 0 1 0 0 0 1 -18.001 -19.001 18 1.5 0.5 0.5
9 0 1 0 0 0 1 0 0 0 1 -19.001 -25.001 61 0.5 0.5 1.5
9 0 1 0 0 0 1 0 0 0 1 -20.001 -14.001 116 0.5 1.5 0.5
9 0 1 0 0 0 1 0 0 0 1 -21.001 -14.001 5 0.5 1.5 0.5
9 0 1 0 0 0 1 0 0 0 1 -21.001 -16.001 114 0.5 1.5 0.5
9 0 1 0 0 0 1 0 0 0 1 -22.001 15.999 10 0.5 0.5 1.5
9 0 1 0 0 0 1 0 0 0 1 -22.001 15.999 24 0.5 0.5 1.5
9 0 1 0 0 0 1 0 0 0 1 -22.001 15.999 32 0.5 0.5 1.5
9 0 1 0 0 0 1 0 0 0 1 -23.001 13.999 14 0.5 0.5 1.5
9 0 1 0 0 0 1 0 0 0 1 -23.001 13.999 36 0.5 0.5 1.5
9 0 1 0 0 0 1 0 0 0 1 -23.001 -7.000999 117 0.5 1.5 0.5
9 0 1 0 0 0 1 0 0 0 1 -24.001 -11.001 114 0.5 1.5 0.5
9 0 1 0 0 0 1 0 0 0 1 -25.001 -11.001 20 0.5 0.5 1.5
9 0 1 0 0 0 1 0 0 0 1 -25.001 -13.001 112 0.5 1.5 0.5
9 0 1 0 0 0 1 0 0 0 1 -24.001 -17.001 53 1.5 0.5 0.5
