9 0 -1 0 0 0 1 0 0 0 -1 0 6 0 3.35 0.5 3.35
9 0 1 0 0 0 1 0 0 0 1 -1.5 10 -1.5 10 0.5 10
9 0 1 0 0 0 1 0 0 0 1 -1 12.5 -12 9.5 10 0.5
9 0 1 0 0 0 1 0 0 0 1 -12 12.5 -1 0.5 10 9.5
9 0 1 0 0 0 1 0 0 0 1 8 15 -18 0.5 7.5 5.5
9 0 1 0 0 0 1 0 0 0 1 -18 15 8 5.5 7.5 0.5
9 0 1 0 0 0 1 0 0 0 1 -2 20.5 -28 10.5 2 0.5
9 0 1 0 0 0 1 0 0 0 1 -28 20.5 -2 0.5 2 10.5
9 0 1 0 0 0 1 0 0 0 1 8 12.5 -1.5 0.5 2 10
9 0 1 0 0 0 1 0 0 0 1 -2 12.5 8 9.5 2 0.5
9 0 1 0 0 0 1 0 0 0 1 -0.5 3 -14.5 9 0.5 2
9 0 1 0 0 0 1 0 0 0 1 -14.5 3 -0.5 2 0.5 9
9 0 1 0 0 0 1 0 0 0 1 8 18 -25.5 0.5 4.5 2
9 0 1 0 0 0 1 0 0 0 1 -25.5 18 8 2 4.5 0.5
9 0 1 0 0 0 1 0 0 0 1 -0.5 14.5 -27 8 1 0.5
9 0 1 0 0 0 1 0 0 0 1 -27 14.5 -0.5 0.5 1 8
9 0 1 0 0 0 1 0 0 0 1 8 6 -16 0.5 1.5 3.5
9 0 1 0 0 0 1 0 0 0 1 -16 6 8 3.5 1.5 0.5
9 0 1 0 0 0 1 0 0 0 1 -12.5 3 -13 2 0.5 1.5
9 0 1 0 0 0 1 0 0 0 1 8 12 -24.5 0.5 1.5 1
9 0 1 0 0 0 1 0 0 0 1 -14 3 -10.5 1.5 0.5 1
9 0 1 0 0 0 1 0 0 0 1 -24.5 12 8 1 1.5 0.5
9 0 1 0 0 0 1 0 0 0 1 8 4 -15 0.5 0.5 2.5
9 0 1 0 0 0 1 0 0 0 1 -15 4 8 2.5 0.5 0.5
9 0 1 0 0 0 1 0 0 0 1 8 7 -21 0.5 0.5 1.5
9 0 1 0 0 0 1 0 0 0 1 -10 3 -14 0.5 0.5 1.5
9 0 1 0 0 0 1 0 0 0 1 -21 7 8 1.5 0.5 0.5
