9 0 1 0 0 0 1 0 0 0 1 7 -4 18 5.5 2.5 0.5
9 0 1 0 0 0 1 0 0 0 1 -18 -4 -7 0.5 2.5 5.5
9 0 1 0 0 0 1 0 0 0 1 -10.5 -11 18 8 1.5 0.5
9 0 1 0 0 0 1 0 0 0 1 -18 -11 10 0.5 1.5 7.5
9 0 1 0 0 0 1 0 0 0 1 4.5 -8 18 3 1.5 0.5
9 0 1 0 0 0 1 0 0 0 1 -18 -8 -4.5 0.5 1.5 3
9 0 1 0 0 0 1 0 0 0 1 -16.5 -14 17 2 0.5 1.5
9 0 1 0 0 0 1 0 0 0 1 -13 -13 18 5.5 0.5 0.5
9 0 1 0 0 0 1 0 0 0 1 15 -2.5 18 2.5 1 0.5
9 0 1 0 0 0 1 0 0 0 1 -18 -2.5 -15 0.5 1 2.5
9 0 1 0 0 0 1 0 0 0 1 -18 -13 12.5 0.5 0.5 5
9 0 1 0 0 0 1 0 0 0 1 0.5 -10 18 3 0.5 0.5
9 0 1 0 0 0 1 0 0 0 1 -18 -10 -0.5 0.5 0.5 3
9 0 1 0 0 0 1 0 0 0 1 13.5 -4.5 18 1 1 0.5
9 0 1 0 0 0 1 0 0 0 1 -18 -4.5 -13.5 0.5 1 1
9 0 1 0 0 0 1 0 0 0 1 9 -7 18 1.5 0.5 0.5
9 0 1 0 0 0 1 0 0 0 1 -1 -11 18 1.5 0.5 0.5
9 0 1 0 0 0 1 0 0 0 1 -18 -7 -9 0.5 0.5 1.5
9 0 1 0 0 0 1 0 0 0 1 -18 -11 1 0.5 0.5 1.5
9 0 1 0 0 0 1 0 0 0 1 -17 -14 15 1.5 0.5 0.5
