9 0 1 0 0 0 1 0 0 0 1 0.04962206 -13.85 -3.588 2 3.5 0.5
9 0 1 0 0 0 1 0 0 0 1 3.549622 -13.35 -0.5880003 0.5 3 1.5
9 0 1 0 0 0 1 0 0 0 1 0.04962206 -14.35 4.412 1 3 0.5
9 0 1 0 0 0 1 0 0 0 1 -4.450378 -13.85 -1.088 0.5 2.5 1
9 0 1 0 0 0 1 0 0 0 1 4.549622 -13.85 -1.088 0.5 1.5 1
9 0 1 0 0 0 1 0 0 0 1 3.549622 -17.85 -1.088 0.5 1.5 1
9 0 1 0 0 0 1 0 0 0 1 -3.450378 -14.35 -2.588 0.5 3 0.5
9 0 1 0 0 0 1 0 0 0 1 3.549622 -13.85 -2.588 0.5 2.5 0.5
9 0 1 0 0 0 1 0 0 0 1 3.549622 -12.35 1.412 0.5 2 0.5
