9 0 1 0 0 0 1 0 0 0 1 37 70 -4.5 1.5 68.5 4
9 0 1 0 0 0 1 0 0 0 1 -37 70 -4.5 1.5 68.5 4
9 0 1 0 0 0 1 0 0 0 1 0 3 -4.5 35.5 1.5 4
9 0 1 0 0 0 1 0 0 0 1 38 72 4 0.5 70.5 4.5
9 0 1 0 0 0 1 0 0 0 1 -38 72 4 0.5 70.5 4.5
9 0 1 0 0 0 1 0 0 0 1 0 138 0 28.5 0.5 8.5
9 0 1 0 0 0 1 0 0 0 1 0 2 4 28.5 0.5 4.5
9 0 1 0 0 0 1 0 0 0 1 0 140.5 -8 38.5 2 0.5
9 0 1 0 0 0 1 0 0 0 1 0 140.5 8 28.5 2 0.5
9 0 1 0 0 0 1 0 0 0 1 32 138 -3.5 3.5 0.5 5
9 0 1 0 0 0 1 0 0 0 1 -32 138 -3.5 3.5 0.5 5
9 0 1 0 0 0 1 0 0 0 1 38 140.5 -4 0.5 2 3.5
9 0 1 0 0 0 1 0 0 0 1 -38 140.5 -4 0.5 2 3.5
9 0 1 0 0 0 1 0 0 0 1 30 -2 -1 2.5 0.5 2.5
9 0 1 0 0 0 1 0 0 0 1 -30 -2 -1 2.5 0.5 2.5
9 0 1 0 0 0 1 0 0 0 1 36.5 138 4 1 0.5 4.5
9 0 1 0 0 0 1 0 0 0 1 36.5 2 4 1 0.5 4.5
9 0 1 0 0 0 1 0 0 0 1 -36.5 138 4 1 0.5 4.5
9 0 1 0 0 0 1 0 0 0 1 -33 2 0.5 4.5 0.5 1
9 0 1 0 0 0 1 0 0 0 1 32 2 0.5 3.5 0.5 1
9 0 1 0 0 0 1 0 0 0 1 -36.5 2 5 1 0.5 3.5
9 0 1 0 0 0 1 0 0 0 1 20 142 0 1.5 0.5 1.5
9 0 1 0 0 0 1 0 0 0 1 0 142 0 1.5 0.5 1.5
9 0 1 0 0 0 1 0 0 0 1 -20 142 0 1.5 0.5 1.5
9 0 1 0 0 0 1 0 0 0 1 36.5 140.5 8 1 2 0.5
9 0 1 0 0 0 1 0 0 0 1 -36.5 140.5 8 1 2 0.5
9 0 1 0 0 0 1 0 0 0 1 27 -2 0 0.5 0.5 2.5
9 0 1 0 0 0 1 0 0 0 1 -27 -2 0 0.5 0.5 2.5
9 0 1 0 0 0 1 0 0 0 1 33.5 -2 0.5 1 0.5 1
9 0 1 0 0 0 1 0 0 0 1 -33 -2 -0.5 0.5 0.5 2
