9 0 1 0 0 0 1 0 0 0 1 32 102 0 24.5 21.5 0.5
9 0 1 0 0 0 1 0 0 0 1 32 68 0 33.5 7.5 0.5
9 0 1 0 0 0 1 0 0 0 1 37 131 0 28.5 2.5 0.5
9 0 1 0 0 0 1 0 0 0 1 37 9 0 28.5 2.5 0.5
9 0 1 0 0 0 1 0 0 0 1 0.5 103 0 2 27.5 0.5
9 0 1 0 0 0 1 0 0 0 1 63.5 102 0 2 26.5 0.5
9 0 1 0 0 0 1 0 0 0 1 32 36 0 33.5 1.5 0.5
9 0 1 0 0 0 1 0 0 0 1 60 68 -1 5.5 6.5 0.5
9 0 1 0 0 0 1 0 0 0 1 60 68 1 5.5 6.5 0.5
9 0 1 0 0 0 1 0 0 0 1 0.5 22 0 2 12.5 0.5
9 0 1 0 0 0 1 0 0 0 1 63.5 49 0 2 11.5 0.5
9 0 1 0 0 0 1 0 0 0 1 63.5 23 0 2 11.5 0.5
9 0 1 0 0 0 1 0 0 0 1 0.5 49 0 2 11.5 0.5
9 0 1 0 0 0 1 0 0 0 1 32 49 0 1.5 11.5 0.5
9 0 1 0 0 0 1 0 0 0 1 32 23 0 1.5 11.5 0.5
9 0 1 0 0 0 1 0 0 0 1 53 68 -1 1.5 3.5 0.5
9 0 1 0 0 0 1 0 0 0 1 53 68 1 1.5 3.5 0.5
9 0 1 0 0 0 1 0 0 0 1 6 130.5 0 2.5 2 0.5
9 0 1 0 0 0 1 0 0 0 1 6 9.5 0 2.5 2 0.5
9 0 1 0 0 0 1 0 0 0 1 61 75 -1 4.5 0.5 0.5
9 0 1 0 0 0 1 0 0 0 1 61 75 1 4.5 0.5 0.5
9 0 1 0 0 0 1 0 0 0 1 61 61 -1 4.5 0.5 0.5
9 0 1 0 0 0 1 0 0 0 1 61 61 1 4.5 0.5 0.5
9 0 1 0 0 0 1 0 0 0 1 51 68 -1 0.5 1.5 0.5
9 0 1 0 0 0 1 0 0 0 1 51 68 1 0.5 1.5 0.5
