9 0 1 0 0 0 1 0 0 0 1 -7.725 -13.904 112.5 1 4 25
9 0 1 0 0 0 1 0 0 0 1 7.775 -15.904 106.5 0.5 8 18
9 0 1 0 0 0 1 0 0 0 1 11.275 -0.4039993 120 1 8.5 4.5
9 0 1 0 0 0 1 0 0 0 1 10.775 -0.4039993 100.5 0.5 8.5 8
9 0 1 0 0 0 1 0 0 0 1 -8.225 -22.404 100.5 0.5 4.5 15
9 0 1 0 0 0 1 0 0 0 1 -9.725 -7.403999 111.5 1 1.5 21
9 0 1 0 0 0 1 0 0 0 1 -11.225 -0.4039993 120 0.5 8.5 6.5
9 0 1 0 0 0 1 0 0 0 1 5.275 -10.404 114.5 2 0.5 26
9 0 1 0 0 0 1 0 0 0 1 -4.725 -10.404 114.5 2 0.5 26
9 0 1 0 0 0 1 0 0 0 1 9.275 -7.903999 114 1 1 25.5
9 0 1 0 0 0 1 0 0 0 1 -11.725 -5.403999 98 1 3.5 6.5
9 0 1 0 0 0 1 0 0 0 1 7.775 -11.904 133.5 0.5 4 9
9 0 1 0 0 0 1 0 0 0 1 7.775 -27.404 93 0.5 3.5 9.5
9 0 1 0 0 0 1 0 0 0 1 -7.725 -9.403999 121 1 0.5 32.5
9 0 1 0 0 0 1 0 0 0 1 -7.725 -5.403999 150.5 1 2.5 6
9 0 1 0 0 0 1 0 0 0 1 10.775 -0.4039993 135 0.5 8.5 3.5
9 0 1 0 0 0 1 0 0 0 1 9.775 -5.903999 114.5 0.5 1 25
9 0 1 0 0 0 1 0 0 0 1 12.275 3.096001 4 5 5 0.5
9 0 1 0 0 0 1 0 0 0 1 11.775 -5.403999 97.5 0.5 3.5 7
9 0 1 0 0 0 1 0 0 0 1 -10.225 -4.903999 115 0.5 1 24.5
9 0 1 0 0 0 1 0 0 0 1 7.775 -4.903999 149.5 0.5 4 6
9 0 1 0 0 0 1 0 0 0 1 -0.2250004 -36.404 70 9.5 0.5 2.5
9 0 1 0 0 0 1 0 0 0 1 -12.225 3.096001 4 4.5 5 0.5
9 0 1 0 0 0 1 0 0 0 1 -11.225 -0.4039993 136 0.5 8.5 2.5
9 0 1 0 0 0 1 0 0 0 1 -8.225 -28.904 92.5 0.5 2 10
9 0 1 0 0 0 1 0 0 0 1 -0.2250004 -37.404 58.5 9.5 0.5 2
9 0 1 0 0 0 1 0 0 0 1 10.775 -0.4039993 113.5 0.5 8.5 2
9 0 1 0 0 0 1 0 0 0 1 10.775 -0.4039993 126.5 0.5 8.5 2
9 0 1 0 0 0 1 0 0 0 1 -8.225 -8.403999 122 0.5 0.5 33.5
9 0 1 0 0 0 1 0 0 0 1 -7.725 -11.904 141.5 1 2 4
9 0 1 0 0 0 1 0 0 0 1 16.275 -2.403999 96 4 0.5 3.5
9 0 1 0 0 0 1 0 0 0 1 -16.725 -2.403999 96 4 0.5 3.5
9 0 1 0 0 0 1 0 0 0 1 -8.225 -20.404 121 0.5 2.5 5.5
9 0 1 0 0 0 1 0 0 0 1 6.775 -9.403999 115 0.5 0.5 25.5
9 0 1 0 0 0 1 0 0 0 1 7.775 -25.904 107.5 0.5 2 5
9 0 1 0 0 0 1 0 0 0 1 -11.225 4.096001 105 0.5 4 2.5
9 0 1 0 0 0 1 0 0 0 1 2.775 -10.404 122 0.5 0.5 18.5
9 0 1 0 0 0 1 0 0 0 1 7.775 -0.4039993 10.5 0.5 1.5 6
9 0 1 0 0 0 1 0 0 0 1 7.775 -17.904 129 0.5 2 4.5
9 0 1 0 0 0 1 0 0 0 1 12.275 -0.4039993 137 1 8.5 0.5
9 0 1 0 0 0 1 0 0 0 1 -0.2250004 -9.403999 17.5 8.5 0.5 1
9 0 1 0 0 0 1 0 0 0 1 -12.225 -0.4039993 136.5 0.5 8.5 1
9 0 1 0 0 0 1 0 0 0 1 7.775 -18.904 87 0.5 5 1.5
9 0 1 0 0 0 1 0 0 0 1 7.775 -31.404 81.5 0.5 3.5 2
9 0 1 0 0 0 1 0 0 0 1 -8.225 -31.904 86.5 0.5 1 7
9 0 1 0 0 0 1 0 0 0 1 -9.725 -7.903999 136 1 1 3.5
9 0 1 0 0 0 1 0 0 0 1 -8.225 -1.903999 150 0.5 1 6.5
9 0 1 0 0 0 1 0 0 0 1 -7.725 -4.403999 14.5 1 1.5 2
9 0 1 0 0 0 1 0 0 0 1 -8.225 -7.403999 100 0.5 0.5 11.5
9 0 1 0 0 0 1 0 0 0 1 18.775 4.596001 4 1.5 3.5 0.5
9 0 1 0 0 0 1 0 0 0 1 7.775 -10.404 146 0.5 1.5 3.5
9 0 1 0 0 0 1 0 0 0 1 -18.225 4.596001 4 1.5 3.5 0.5
9 0 1 0 0 0 1 0 0 0 1 12.275 3.096001 103 1 5 0.5
9 0 1 0 0 0 1 0 0 0 1 9.775 -3.903999 4 2.5 2 0.5
9 0 1 0 0 0 1 0 0 0 1 7.775 -31.904 88.5 0.5 1 5
9 0 1 0 0 0 1 0 0 0 1 -7.725 -14.904 140 1 1 2.5
9 0 1 0 0 0 1 0 0 0 1 -9.725 -4.403999 4 2 2.5 0.5
9 0 1 0 0 0 1 0 0 0 1 -12.225 3.096001 103.5 0.5 5 1
9 0 1 0 0 0 1 0 0 0 1 25.275 -0.4039993 74 1 1.5 1.5
9 0 1 0 0 0 1 0 0 0 1 -6.225 -9.403999 120.5 0.5 0.5 9
9 0 1 0 0 0 1 0 0 0 1 -7.225 -7.903999 17 1.5 1 1.5
9 0 1 0 0 0 1 0 0 0 1 -8.225 -23.904 84 0.5 3 1.5
9 0 1 0 0 0 1 0 0 0 1 -11.225 -4.403999 105.5 0.5 4.5 1
9 0 1 0 0 0 1 0 0 0 1 -24.225 -0.4039993 74.5 1.5 1.5 1
9 0 1 0 0 0 1 0 0 0 1 11.775 -0.4039993 136 0.5 8.5 0.5
9 0 1 0 0 0 1 0 0 0 1 -6.225 -9.403999 97 0.5 0.5 8.5
9 0 1 0 0 0 1 0 0 0 1 -12.225 -0.4039993 116 0.5 8.5 0.5
9 0 1 0 0 0 1 0 0 0 1 -12.225 -0.4039993 124 0.5 8.5 0.5
9 0 1 0 0 0 1 0 0 0 1 -13.225 -0.4039993 103 0.5 8.5 0.5
9 0 1 0 0 0 1 0 0 0 1 -13.225 -0.4039993 137 0.5 8.5 0.5
9 0 1 0 0 0 1 0 0 0 1 24.275 0.09600067 87.5 1 1 2
9 0 1 0 0 0 1 0 0 0 1 7.775 -3.903999 14.5 0.5 2 2
9 0 1 0 0 0 1 0 0 0 1 3.275 -7.403999 7.5 1 0.5 4
9 0 1 0 0 0 1 0 0 0 1 -8.225 -1.903999 12.5 0.5 1 4
9 0 1 0 0 0 1 0 0 0 1 -7.725 -10.904 147.5 1 1 2
9 0 1 0 0 0 1 0 0 0 1 -7.725 -15.904 86.5 1 2 1
9 0 1 0 0 0 1 0 0 0 1 -11.725 -6.903999 90.5 1 2 1
9 0 1 0 0 0 1 0 0 0 1 -24.725 0.09600067 87.5 1 1 2
9 0 1 0 0 0 1 0 0 0 1 11.775 0.5960007 115 0.5 7.5 0.5
9 0 1 0 0 0 1 0 0 0 1 -8.225 -19.404 129 0.5 1.5 2.5
9 0 1 0 0 0 1 0 0 0 1 26.775 4.596001 63.5 0.5 3.5 1
9 0 1 0 0 0 1 0 0 0 1 13.775 -0.9039993 92 3.5 1 0.5
9 0 1 0 0 0 1 0 0 0 1 10.775 -5.403999 91.5 0.5 3.5 1
9 0 1 0 0 0 1 0 0 0 1 1.275 -8.403999 16 7 0.5 0.5
9 0 1 0 0 0 1 0 0 0 1 -7.225 -8.403999 148.5 0.5 0.5 7
9 0 1 0 0 0 1 0 0 0 1 -26.225 4.596001 51.5 0.5 3.5 1
9 0 1 0 0 0 1 0 0 0 1 6.775 -5.403999 150 0.5 0.5 6.5
9 0 1 0 0 0 1 0 0 0 1 -3.225 -7.403999 10 0.5 0.5 6.5
9 0 1 0 0 0 1 0 0 0 1 -6.225 -5.403999 150 0.5 0.5 6.5
9 0 1 0 0 0 1 0 0 0 1 7.775 -24.904 115.5 0.5 1 3
9 0 1 0 0 0 1 0 0 0 1 6.775 -6.903999 15.5 1.5 1 1
9 0 1 0 0 0 1 0 0 0 1 7.275 -7.403999 4 2 1.5 0.5
9 0 1 0 0 0 1 0 0 0 1 2.775 -10.404 94.5 0.5 0.5 6
9 0 1 0 0 0 1 0 0 0 1 -5.225 -8.903999 4 1.5 2 0.5
9 0 1 0 0 0 1 0 0 0 1 -6.725 -6.403999 15 2 0.5 1.5
9 0 1 0 0 0 1 0 0 0 1 -8.225 -23.904 118.5 0.5 1 3
9 0 1 0 0 0 1 0 0 0 1 -8.225 -27.904 105.5 0.5 1 3
9 0 1 0 0 0 1 0 0 0 1 -7.725 -29.404 80.5 1 1.5 1
9 0 1 0 0 0 1 0 0 0 1 -13.725 -0.9039993 92 3 1 0.5
9 0 1 0 0 0 1 0 0 0 1 14.775 -2.403999 100.5 2.5 0.5 1
9 0 1 0 0 0 1 0 0 0 1 11.775 3.096001 104 0.5 5 0.5
9 0 1 0 0 0 1 0 0 0 1 7.775 -21.404 84.5 0.5 2.5 1
9 0 1 0 0 0 1 0 0 0 1 -8.225 -33.404 83.5 0.5 0.5 5
9 0 1 0 0 0 1 0 0 0 1 -15.225 -2.403999 100.5 2.5 0.5 1
9 0 1 0 0 0 1 0 0 0 1 -11.225 -4.403999 133 0.5 4.5 0.5
9 0 1 0 0 0 1 0 0 0 1 -25.225 -0.4039993 73 1.5 1.5 0.5
9 0 1 0 0 0 1 0 0 0 1 23.275 0.09600067 74.5 1 1 1
9 0 1 0 0 0 1 0 0 0 1 11.275 -6.903999 90 1 2 0.5
9 0 1 0 0 0 1 0 0 0 1 7.775 -3.903999 156 0.5 4 0.5
9 0 1 0 0 0 1 0 0 0 1 7.775 -16.904 135.5 0.5 1 2
9 0 1 0 0 0 1 0 0 0 1 7.775 -20.904 126.5 0.5 1 2
9 0 1 0 0 0 1 0 0 0 1 7.775 -25.904 82.5 0.5 2 1
9 0 1 0 0 0 1 0 0 0 1 7.275 -7.903999 17.5 1 1 1
9 0 1 0 0 0 1 0 0 0 1 5.275 -37.404 61 4 0.5 0.5
9 0 1 0 0 0 1 0 0 0 1 -7.225 -32.904 79.5 0.5 2 1
9 0 1 0 0 0 1 0 0 0 1 -7.725 -5.903999 144 1 2 0.5
9 0 1 0 0 0 1 0 0 0 1 -9.725 -7.903999 89.5 1 1 1
9 0 1 0 0 0 1 0 0 0 1 -11.225 4.096001 127 0.5 4 0.5
9 0 1 0 0 0 1 0 0 0 1 25.775 4.596001 45 0.5 3.5 0.5
9 0 1 0 0 0 1 0 0 0 1 12.775 -5.403999 103 0.5 3.5 0.5
9 0 1 0 0 0 1 0 0 0 1 7.775 -0.4039993 147 0.5 0.5 3.5
9 0 1 0 0 0 1 0 0 0 1 7.775 -28.404 106 0.5 0.5 3.5
9 0 1 0 0 0 1 0 0 0 1 -8.225 -27.404 82 0.5 3.5 0.5
9 0 1 0 0 0 1 0 0 0 1 -10.225 -6.403999 136 0.5 0.5 3.5
9 0 1 0 0 0 1 0 0 0 1 7.775 -12.904 144 0.5 1 1.5
9 0 1 0 0 0 1 0 0 0 1 7.775 -34.404 78.5 0.5 1.5 1
9 0 1 0 0 0 1 0 0 0 1 5.775 -9.903999 4 1.5 1 0.5
9 0 1 0 0 0 1 0 0 0 1 -4.725 7.596001 4 3 0.5 0.5
9 0 1 0 0 0 1 0 0 0 1 -8.225 -7.403999 140.5 0.5 0.5 3
9 0 1 0 0 0 1 0 0 0 1 -7.725 -16.404 139 1 0.5 1.5
9 0 1 0 0 0 1 0 0 0 1 -8.225 -34.404 80.5 0.5 0.5 3
9 0 1 0 0 0 1 0 0 0 1 -8.225 -7.903999 4 1.5 1 0.5
9 0 1 0 0 0 1 0 0 0 1 -12.725 -3.403999 4 1 1.5 0.5
9 0 1 0 0 0 1 0 0 0 1 20.775 -0.4039993 93 0.5 2.5 0.5
9 0 1 0 0 0 1 0 0 0 1 7.775 -31.404 96 0.5 0.5 2.5
9 0 1 0 0 0 1 0 0 0 1 7.775 -33.404 86 0.5 0.5 2.5
9 0 1 0 0 0 1 0 0 0 1 3.775 -7.403999 14 0.5 0.5 2.5
9 0 1 0 0 0 1 0 0 0 1 5.775 -10.404 18 2.5 0.5 0.5
9 0 1 0 0 0 1 0 0 0 1 4.775 7.596001 4 2.5 0.5 0.5
9 0 1 0 0 0 1 0 0 0 1 -6.225 -7.403999 15 2.5 0.5 0.5
9 0 1 0 0 0 1 0 0 0 1 -8.225 -31.404 96 0.5 0.5 2.5
9 0 1 0 0 0 1 0 0 0 1 14.275 -2.403999 92 2 0.5 0.5
9 0 1 0 0 0 1 0 0 0 1 13.275 -2.903999 4 1 1 0.5
9 0 1 0 0 0 1 0 0 0 1 11.275 -7.903999 89 1 1 0.5
9 0 1 0 0 0 1 0 0 0 1 7.775 -2.403999 10.5 0.5 0.5 2
9 0 1 0 0 0 1 0 0 0 1 7.775 -6.903999 142.5 0.5 1 1
9 0 1 0 0 0 1 0 0 0 1 7.775 -9.403999 151.5 0.5 0.5 2
9 0 1 0 0 0 1 0 0 0 1 7.775 -11.904 88 0.5 2 0.5
9 0 1 0 0 0 1 0 0 0 1 6.775 -5.403999 14.5 0.5 0.5 2
9 0 1 0 0 0 1 0 0 0 1 5.275 -8.403999 17.5 1 0.5 1
9 0 1 0 0 0 1 0 0 0 1 -6.225 -5.403999 14.5 0.5 0.5 2
9 0 1 0 0 0 1 0 0 0 1 -6.725 6.096001 4 1 1 0.5
9 0 1 0 0 0 1 0 0 0 1 -6.725 -5.903999 4 1 1 0.5
9 0 1 0 0 0 1 0 0 0 1 -7.225 -6.903999 142.5 0.5 1 1
9 0 1 0 0 0 1 0 0 0 1 -7.225 -8.403999 133.5 0.5 0.5 2
9 0 1 0 0 0 1 0 0 0 1 -8.225 -1.403999 6.5 0.5 0.5 2
9 0 1 0 0 0 1 0 0 0 1 -7.725 -3.403999 11.5 1 0.5 1
9 0 1 0 0 0 1 0 0 0 1 -7.725 -6.403999 17.5 1 0.5 1
9 0 1 0 0 0 1 0 0 0 1 -8.225 -5.903999 142.5 0.5 1 1
9 0 1 0 0 0 1 0 0 0 1 -8.225 -7.403999 132.5 0.5 0.5 2
9 0 1 0 0 0 1 0 0 0 1 -7.725 -10.404 150.5 1 0.5 1
9 0 1 0 0 0 1 0 0 0 1 -7.725 -12.404 146.5 1 0.5 1
9 0 1 0 0 0 1 0 0 0 1 -7.725 -12.904 87 1 1 0.5
9 0 1 0 0 0 1 0 0 0 1 -8.225 -18.404 133.5 0.5 0.5 2
9 0 1 0 0 0 1 0 0 0 1 -8.225 -18.904 85 0.5 2 0.5
9 0 1 0 0 0 1 0 0 0 1 -7.725 -26.904 81 1 1 0.5
9 0 1 0 0 0 1 0 0 0 1 -8.225 -27.404 110.5 0.5 0.5 2
9 0 1 0 0 0 1 0 0 0 1 -7.725 -35.404 77.5 1 0.5 1
9 0 1 0 0 0 1 0 0 0 1 -9.225 -6.403999 138.5 0.5 0.5 2
9 0 1 0 0 0 1 0 0 0 1 -11.225 6.096001 113 0.5 2 0.5
9 0 1 0 0 0 1 0 0 0 1 -11.225 -0.9039993 103.5 0.5 1 1
9 0 1 0 0 0 1 0 0 0 1 -11.725 -3.903999 91 1 1 0.5
9 0 1 0 0 0 1 0 0 0 1 -11.725 -7.903999 89 1 1 0.5
9 0 1 0 0 0 1 0 0 0 1 -14.725 -2.403999 92 2 0.5 0.5
9 0 1 0 0 0 1 0 0 0 1 -23.225 -0.4039993 87.5 0.5 0.5 2
9 0 1 0 0 0 1 0 0 0 1 -25.725 0.09600067 72 1 1 0.5
9 0 1 0 0 0 1 0 0 0 1 25.775 -0.4039993 72 0.5 1.5 0.5
9 0 1 0 0 0 1 0 0 0 1 7.775 -16.404 139 0.5 0.5 1.5
9 0 1 0 0 0 1 0 0 0 1 7.775 -20.404 130 0.5 0.5 1.5
9 0 1 0 0 0 1 0 0 0 1 7.775 -22.404 83 0.5 1.5 0.5
9 0 1 0 0 0 1 0 0 0 1 7.775 -24.404 120 0.5 0.5 1.5
9 0 1 0 0 0 1 0 0 0 1 7.775 -26.404 114 0.5 0.5 1.5
9 0 1 0 0 0 1 0 0 0 1 7.775 -29.404 104 0.5 0.5 1.5
9 0 1 0 0 0 1 0 0 0 1 6.775 -6.403999 14 1.5 0.5 0.5
9 0 1 0 0 0 1 0 0 0 1 -7.225 -8.403999 127 0.5 0.5 1.5
9 0 1 0 0 0 1 0 0 0 1 -7.225 -8.403999 140 0.5 0.5 1.5
9 0 1 0 0 0 1 0 0 0 1 -8.225 -23.404 123 0.5 0.5 1.5
9 0 1 0 0 0 1 0 0 0 1 -8.225 -25.404 117 0.5 0.5 1.5
9 0 1 0 0 0 1 0 0 0 1 -8.225 -29.404 104 0.5 0.5 1.5
9 0 1 0 0 0 1 0 0 0 1 -10.225 -3.403999 92 0.5 0.5 1.5
9 0 1 0 0 0 1 0 0 0 1 -10.225 -3.403999 108 0.5 0.5 1.5
9 0 1 0 0 0 1 0 0 0 1 -22.225 -0.4039993 75 0.5 1.5 0.5
9 0 1 0 0 0 1 0 0 0 1 -24.225 -0.4039993 76 0.5 1.5 0.5
9 0 1 0 0 0 1 0 0 0 1 -24.225 -1.403999 88 0.5 0.5 1.5
9 0 1 0 0 0 1 0 0 0 1 -26.225 -0.4039993 74 0.5 1.5 0.5
