9 0 1 0 0 0 1 0 0 0 1 -1.907349E-06 92.1225 -88 2.5 21.5 1.5
9 0 1 0 0 0 1 0 0 0 1 -1.907349E-06 94.1225 -84 0.5 44.5 2.5
9 0 1 0 0 0 1 0 0 0 1 -1.907349E-06 -40.3775 -8.5 2.5 11 1
9 0 1 0 0 0 1 0 0 0 1 1.999998 29.6225 -74.5 0.5 7 7
9 0 1 0 0 0 1 0 0 0 1 -1.907349E-06 93.6225 -91.5 0.5 22 2
9 0 1 0 0 0 1 0 0 0 1 -1.907349E-06 5.622498 -84.5 2.5 2 4
9 0 1 0 0 0 1 0 0 0 1 -1.907349E-06 0.1224976 20 4.5 0.5 8.5
9 0 1 0 0 0 1 0 0 0 1 0.9999981 71.1225 -85.5 0.5 21.5 1
9 0 1 0 0 0 1 0 0 0 1 -1.000002 71.1225 -85.5 0.5 21.5 1
9 0 1 0 0 0 1 0 0 0 1 -1.907349E-06 -42.8775 -11 0.5 13.5 1.5
9 0 1 0 0 0 1 0 0 0 1 -1.907349E-06 64.1225 -87.5 1.5 6.5 1
9 0 1 0 0 0 1 0 0 0 1 -1.907349E-06 0.1224976 -10 0.5 7.5 2.5
9 0 1 0 0 0 1 0 0 0 1 0.9999981 94.6225 -90.5 0.5 17 1
9 0 1 0 0 0 1 0 0 0 1 -1.907349E-06 2.622498 20 0.5 2 8.5
9 0 1 0 0 0 1 0 0 0 1 -1.907349E-06 -2.377502 20 0.5 2 8.5
9 0 1 0 0 0 1 0 0 0 1 -1.000002 94.6225 -90.5 0.5 17 1
9 0 1 0 0 0 1 0 0 0 1 -1.907349E-06 148.1225 -78 0.5 6.5 2.5
9 0 1 0 0 0 1 0 0 0 1 -1.907349E-06 30.1225 -65 6.5 2.5 0.5
9 0 1 0 0 0 1 0 0 0 1 -1.907349E-06 123.6225 -88.5 0.5 8 2
9 0 1 0 0 0 1 0 0 0 1 -1.000002 123.6225 -85.5 0.5 8 2
9 0 1 0 0 0 1 0 0 0 1 -1.907349E-06 52.1225 -80 0.5 10.5 1.5
9 0 1 0 0 0 1 0 0 0 1 -1.907349E-06 46.1225 -83 1.5 3.5 1.5
9 0 1 0 0 0 1 0 0 0 1 0.9999981 112.1225 -85.5 0.5 15.5 1
9 0 1 0 0 0 1 0 0 0 1 -1.907349E-06 -17.8775 -12.5 1.5 2.5 2
9 0 1 0 0 0 1 0 0 0 1 -1.907349E-06 -40.8775 -7 2.5 5.5 0.5
9 0 1 0 0 0 1 0 0 0 1 -1.907349E-06 141.6225 -82 1.5 3 1.5
9 0 1 0 0 0 1 0 0 0 1 -1.907349E-06 41.6225 -59 0.5 5 2.5
9 0 1 0 0 0 1 0 0 0 1 0.9999981 133.6225 -83.5 0.5 5 2
9 0 1 0 0 0 1 0 0 0 1 -1.907349E-06 5.122498 -53 6.5 1.5 0.5
9 0 1 0 0 0 1 0 0 0 1 0.9999981 59.1225 -83.5 0.5 9.5 1
9 0 1 0 0 0 1 0 0 0 1 -1.000002 106.1225 -85.5 0.5 9.5 1
9 0 1 0 0 0 1 0 0 0 1 -1.000002 59.1225 -83.5 0.5 9.5 1
9 0 1 0 0 0 1 0 0 0 1 -1.907349E-06 158.6225 -75 1.5 2 1.5
9 0 1 0 0 0 1 0 0 0 1 -1.907349E-06 18.6225 -25 8.5 1 0.5
9 0 1 0 0 0 1 0 0 0 1 1.999998 65.1225 -86 0.5 5.5 1.5
9 0 1 0 0 0 1 0 0 0 1 -2.000002 65.1225 -86 0.5 5.5 1.5
9 0 1 0 0 0 1 0 0 0 1 -1.907349E-06 130.6225 -80.5 0.5 8 1
9 0 1 0 0 0 1 0 0 0 1 -1.907349E-06 62.6225 -89.5 0.5 8 1
9 0 1 0 0 0 1 0 0 0 1 -1.907349E-06 -3.377502 -44.5 0.5 2 4
9 0 1 0 0 0 1 0 0 0 1 -1.000002 135.6225 -83 0.5 3 2.5
9 0 1 0 0 0 1 0 0 0 1 -1.907349E-06 -5.877502 -44.5 2.5 0.5 3
9 0 1 0 0 0 1 0 0 0 1 0.9999981 120.6225 -87.5 0.5 7 1
9 0 1 0 0 0 1 0 0 0 1 1.999998 93.1225 -90 0.5 13.5 0.5
9 0 1 0 0 0 1 0 0 0 1 0.9999981 -42.8775 -10 0.5 13.5 0.5
9 0 1 0 0 0 1 0 0 0 1 -1.907349E-06 -21.8775 -11 1.5 1.5 1.5
9 0 1 0 0 0 1 0 0 0 1 -1.000002 -42.8775 -10 0.5 13.5 0.5
9 0 1 0 0 0 1 0 0 0 1 -2.000002 93.1225 -90 0.5 13.5 0.5
9 0 1 0 0 0 1 0 0 0 1 -1.907349E-06 10.1225 -48.5 6.5 0.5 1
9 0 1 0 0 0 1 0 0 0 1 -1.907349E-06 8.122498 -84 2.5 0.5 2.5
9 0 1 0 0 0 1 0 0 0 1 1.499998 42.1225 -57.5 1 1.5 2
9 0 1 0 0 0 1 0 0 0 1 -1.907349E-06 94.6225 -94 0.5 12 0.5
9 0 1 0 0 0 1 0 0 0 1 -1.907349E-06 51.6225 -87.5 0.5 6 1
9 0 1 0 0 0 1 0 0 0 1 -1.907349E-06 6.622498 -36.5 0.5 3 2
9 0 1 0 0 0 1 0 0 0 1 -1.907349E-06 -50.3775 -13 0.5 11 0.5
9 0 1 0 0 0 1 0 0 0 1 0.9999981 45.1225 -80 0.5 3.5 1.5
9 0 1 0 0 0 1 0 0 0 1 -1.000002 45.1225 -80 0.5 3.5 1.5
9 0 1 0 0 0 1 0 0 0 1 1.999998 118.6225 -86.5 0.5 5 1
9 0 1 0 0 0 1 0 0 0 1 1.999998 51.6225 -83.5 0.5 5 1
9 0 1 0 0 0 1 0 0 0 1 -1.907349E-06 44.6225 -85.5 0.5 5 1
9 0 1 0 0 0 1 0 0 0 1 -1.907349E-06 39.1225 -54.5 0.5 2.5 2
9 0 1 0 0 0 1 0 0 0 1 -1.907349E-06 31.1225 -46.5 0.5 2.5 2
9 0 1 0 0 0 1 0 0 0 1 -1.907349E-06 27.1225 -42.5 0.5 2.5 2
9 0 1 0 0 0 1 0 0 0 1 -1.907349E-06 23.1225 -38.5 0.5 2.5 2
9 0 1 0 0 0 1 0 0 0 1 -2.000002 118.6225 -86.5 0.5 5 1
9 0 1 0 0 0 1 0 0 0 1 -2.000002 51.6225 -83.5 0.5 5 1
9 0 1 0 0 0 1 0 0 0 1 -1.500002 43.1225 -57.5 1 2.5 1
9 0 1 0 0 0 1 0 0 0 1 -1.907349E-06 -7.377502 -43.5 2.5 1 1
9 0 1 0 0 0 1 0 0 0 1 -4.000002 29.6225 -84 2.5 2 0.5
9 0 1 0 0 0 1 0 0 0 1 -1.907349E-06 72.1225 -81 0.5 9.5 0.5
9 0 1 0 0 0 1 0 0 0 1 0.9999981 148.6225 -79 0.5 3 1.5
9 0 1 0 0 0 1 0 0 0 1 -1.907349E-06 161.6225 -72 0.5 3 1.5
9 0 1 0 0 0 1 0 0 0 1 -1.907349E-06 47.1225 -77.5 0.5 4.5 1
9 0 1 0 0 0 1 0 0 0 1 -1.907349E-06 19.6225 -35 0.5 3 1.5
9 0 1 0 0 0 1 0 0 0 1 -1.907349E-06 -59.3775 -15 0.5 3 1.5
9 0 1 0 0 0 1 0 0 0 1 -1.907349E-06 155.6225 -76 1.5 1 1.5
9 0 1 0 0 0 1 0 0 0 1 -1.000002 148.6225 -79 0.5 3 1.5
9 0 1 0 0 0 1 0 0 0 1 -1.000002 118.1225 -88.5 0.5 4.5 1
9 0 1 0 0 0 1 0 0 0 1 -1.907349E-06 4.122498 -90.5 1.5 1.5 1
9 0 1 0 0 0 1 0 0 0 1 -1.907349E-06 -16.3775 -25 1.5 1 1.5
9 0 1 0 0 0 1 0 0 0 1 -1.907349E-06 18.1225 -26 8.5 0.5 0.5
9 0 1 0 0 0 1 0 0 0 1 1.999998 37.6225 -74.5 0.5 1 4
9 0 1 0 0 0 1 0 0 0 1 1.999998 29.6225 -82.5 0.5 4 1
9 0 1 0 0 0 1 0 0 0 1 1.999998 29.6225 -66.5 0.5 4 1
9 0 1 0 0 0 1 0 0 0 1 1.999998 21.6225 -74.5 0.5 1 4
9 0 1 0 0 0 1 0 0 0 1 -1.907349E-06 137.6225 -78.5 0.5 4 1
9 0 1 0 0 0 1 0 0 0 1 -1.907349E-06 35.6225 -50.5 0.5 2 2
9 0 1 0 0 0 1 0 0 0 1 -1.907349E-06 10.6225 -85.5 0.5 2 2
9 0 1 0 0 0 1 0 0 0 1 -1.907349E-06 141.1225 -85 0.5 2.5 1.5
9 0 1 0 0 0 1 0 0 0 1 -1.907349E-06 40.1225 -63 0.5 2.5 1.5
9 0 1 0 0 0 1 0 0 0 1 -1.907349E-06 27.1225 -20 0.5 2.5 1.5
9 0 1 0 0 0 1 0 0 0 1 -1.907349E-06 -18.8775 -10 2.5 1.5 0.5
9 0 1 0 0 0 1 0 0 0 1 -1.907349E-06 -52.8775 -9 2.5 1.5 0.5
9 0 1 0 0 0 1 0 0 0 1 -1.907349E-06 135.1225 -87.5 0.5 3.5 1
9 0 1 0 0 0 1 0 0 0 1 -1.907349E-06 69.1225 -66.5 3.5 0.5 1
9 0 1 0 0 0 1 0 0 0 1 0.9999981 122.1225 -84 0.5 6.5 0.5
9 0 1 0 0 0 1 0 0 0 1 0.9999981 -51.8775 -11 0.5 6.5 0.5
9 0 1 0 0 0 1 0 0 0 1 -1.000002 -51.8775 -11 0.5 6.5 0.5
9 0 1 0 0 0 1 0 0 0 1 -1.907349E-06 39.1225 -74 6.5 0.5 0.5
9 0 1 0 0 0 1 0 0 0 1 -1.907349E-06 31.1225 -64 6.5 0.5 0.5
9 0 1 0 0 0 1 0 0 0 1 -1.907349E-06 19.1225 -75 6.5 0.5 0.5
9 0 1 0 0 0 1 0 0 0 1 -1.907349E-06 8.122498 -2 6.5 0.5 0.5
9 0 1 0 0 0 1 0 0 0 1 -1.907349E-06 7.122498 -16 6.5 0.5 0.5
9 0 1 0 0 0 1 0 0 0 1 -1.907349E-06 7.122498 -4 6.5 0.5 0.5
9 0 1 0 0 0 1 0 0 0 1 -1.907349E-06 6.122498 -45 6.5 0.5 0.5
9 0 1 0 0 0 1 0 0 0 1 -1.907349E-06 -7.877502 -23 6.5 0.5 0.5
9 0 1 0 0 0 1 0 0 0 1 6.999998 8.622498 -31 1.5 2 0.5
9 0 1 0 0 0 1 0 0 0 1 1.999998 129.6225 -84.5 0.5 3 1
9 0 1 0 0 0 1 0 0 0 1 1.999998 44.6225 -81.5 0.5 3 1
9 0 1 0 0 0 1 0 0 0 1 1.999998 -16.8775 -12.5 0.5 1.5 2
9 0 1 0 0 0 1 0 0 0 1 0.9999981 55.6225 -82 0.5 6 0.5
9 0 1 0 0 0 1 0 0 0 1 -1.907349E-06 151.6225 -74.5 0.5 3 1
9 0 1 0 0 0 1 0 0 0 1 -1.907349E-06 147.6225 -81.5 0.5 3 1
9 0 1 0 0 0 1 0 0 0 1 -1.907349E-06 118.6225 -91.5 0.5 3 1
9 0 1 0 0 0 1 0 0 0 1 -1.907349E-06 68.6225 -91.5 0.5 3 1
9 0 1 0 0 0 1 0 0 0 1 -1.907349E-06 48.6225 -58 0.5 2 1.5
9 0 1 0 0 0 1 0 0 0 1 -1.907349E-06 3.622498 -39.5 0.5 3 1
9 0 1 0 0 0 1 0 0 0 1 -1.907349E-06 2.122498 -37.5 1.5 1.5 1
9 0 1 0 0 0 1 0 0 0 1 -1.000002 55.6225 -82 0.5 6 0.5
9 0 1 0 0 0 1 0 0 0 1 -1.907349E-06 41.6225 -82.5 1.5 1 1
9 0 1 0 0 0 1 0 0 0 1 -1.907349E-06 34.6225 -47.5 1.5 1 1
9 0 1 0 0 0 1 0 0 0 1 -1.907349E-06 33.6225 -26.5 1.5 1 1
9 0 1 0 0 0 1 0 0 0 1 -1.907349E-06 30.6225 -43.5 1.5 1 1
9 0 1 0 0 0 1 0 0 0 1 -1.907349E-06 26.6225 -39.5 1.5 1 1
9 0 1 0 0 0 1 0 0 0 1 -1.907349E-06 5.622498 -89 1.5 2 0.5
9 0 1 0 0 0 1 0 0 0 1 -2.000002 129.6225 -84.5 0.5 3 1
9 0 1 0 0 0 1 0 0 0 1 -2.000002 44.6225 -81.5 0.5 3 1
9 0 1 0 0 0 1 0 0 0 1 -2.000002 -16.8775 -12.5 0.5 1.5 2
9 0 1 0 0 0 1 0 0 0 1 -7.000002 8.622498 -31 1.5 2 0.5
9 0 1 0 0 0 1 0 0 0 1 5.999998 -25.3775 -16 2.5 1 0.5
9 0 1 0 0 0 1 0 0 0 1 1.999998 139.1225 -81.5 0.5 2.5 1
9 0 1 0 0 0 1 0 0 0 1 1.999998 57.1225 -85.5 0.5 2.5 1
9 0 1 0 0 0 1 0 0 0 1 0.9999981 143.1225 -79.5 0.5 2.5 1
9 0 1 0 0 0 1 0 0 0 1 0.9999981 116.1225 -89.5 0.5 2.5 1
9 0 1 0 0 0 1 0 0 0 1 -1.000002 143.1225 -79.5 0.5 2.5 1
9 0 1 0 0 0 1 0 0 0 1 -1.000002 42.1225 -59.5 0.5 2.5 1
9 0 1 0 0 0 1 0 0 0 1 -2.000002 139.1225 -81.5 0.5 2.5 1
9 0 1 0 0 0 1 0 0 0 1 -2.000002 57.1225 -85.5 0.5 2.5 1
9 0 1 0 0 0 1 0 0 0 1 -1.907349E-06 38.6225 -51 2.5 1 0.5
9 0 1 0 0 0 1 0 0 0 1 -1.907349E-06 23.6225 -36 2.5 1 0.5
9 0 1 0 0 0 1 0 0 0 1 -1.907349E-06 18.6225 -32 2.5 1 0.5
9 0 1 0 0 0 1 0 0 0 1 -1.907349E-06 15.1225 -78.5 2.5 0.5 1
9 0 1 0 0 0 1 0 0 0 1 -1.907349E-06 -9.377502 -44 2.5 1 0.5
9 0 1 0 0 0 1 0 0 0 1 -1.907349E-06 -16.3775 -15 2.5 1 0.5
9 0 1 0 0 0 1 0 0 0 1 -6.000002 -25.3775 -16 2.5 1 0.5
9 0 1 0 0 0 1 0 0 0 1 0.9999981 153.1225 -77 0.5 1.5 1.5
9 0 1 0 0 0 1 0 0 0 1 0.9999981 73.1225 -84 0.5 4.5 0.5
9 0 1 0 0 0 1 0 0 0 1 -1.907349E-06 166.1225 -70 0.5 1.5 1.5
9 0 1 0 0 0 1 0 0 0 1 -1.907349E-06 118.1225 -81 0.5 4.5 0.5
9 0 1 0 0 0 1 0 0 0 1 -1.907349E-06 38.1225 -31 0.5 1.5 1.5
9 0 1 0 0 0 1 0 0 0 1 -1.907349E-06 16.1225 -81 0.5 1.5 1.5
9 0 1 0 0 0 1 0 0 0 1 -1.907349E-06 3.122498 -93 0.5 1.5 1.5
9 0 1 0 0 0 1 0 0 0 1 -1.907349E-06 -0.8775024 -97 0.5 1.5 1.5
9 0 1 0 0 0 1 0 0 0 1 -1.907349E-06 -63.8775 -18 0.5 1.5 1.5
9 0 1 0 0 0 1 0 0 0 1 -1.907349E-06 162.1225 -74 1.5 1.5 0.5
9 0 1 0 0 0 1 0 0 0 1 -1.000002 153.1225 -77 0.5 1.5 1.5
9 0 1 0 0 0 1 0 0 0 1 -1.000002 128.1225 -83 0.5 4.5 0.5
9 0 1 0 0 0 1 0 0 0 1 -1.000002 73.1225 -84 0.5 4.5 0.5
9 0 1 0 0 0 1 0 0 0 1 -1.907349E-06 32.1225 -25 1.5 1.5 0.5
9 0 1 0 0 0 1 0 0 0 1 -1.907349E-06 -57.8775 -12 1.5 1.5 0.5
9 0 1 0 0 0 1 0 0 0 1 1.999998 -52.3775 -10 0.5 4 0.5
9 0 1 0 0 0 1 0 0 0 1 0.9999981 129.6225 -86.5 0.5 2 1
9 0 1 0 0 0 1 0 0 0 1 0.9999981 73.6225 -90 0.5 4 0.5
9 0 1 0 0 0 1 0 0 0 1 1.499998 44.6225 -57.5 1 1 1
9 0 1 0 0 0 1 0 0 0 1 1.499998 4.622498 -35.5 1 1 1
9 0 1 0 0 0 1 0 0 0 1 0.9999981 -4.877502 -44.5 0.5 0.5 4
9 0 1 0 0 0 1 0 0 0 1 -1.907349E-06 156.6225 -72.5 0.5 2 1
9 0 1 0 0 0 1 0 0 0 1 -1.907349E-06 0.6224976 -41.5 0.5 2 1
9 0 1 0 0 0 1 0 0 0 1 -1.000002 73.6225 -90 0.5 4 0.5
9 0 1 0 0 0 1 0 0 0 1 2.499998 31.1225 -84 4 0.5 0.5
9 0 1 0 0 0 1 0 0 0 1 -1.000002 -4.877502 -44.5 0.5 0.5 4
9 0 1 0 0 0 1 0 0 0 1 -1.500002 41.6225 -55.5 1 1 1
9 0 1 0 0 0 1 0 0 0 1 -1.500002 4.622498 -35.5 1 1 1
9 0 1 0 0 0 1 0 0 0 1 -2.000002 -52.3775 -10 0.5 4 0.5
9 0 1 0 0 0 1 0 0 0 1 1.999998 135.1225 -83 0.5 3.5 0.5
9 0 1 0 0 0 1 0 0 0 1 1.999998 123.1225 -85 0.5 3.5 0.5
9 0 1 0 0 0 1 0 0 0 1 1.999998 74.1225 -86 0.5 3.5 0.5
9 0 1 0 0 0 1 0 0 0 1 1.999998 60.1225 -84 0.5 3.5 0.5
9 0 1 0 0 0 1 0 0 0 1 0.9999981 67.1225 -89 0.5 3.5 0.5
9 0 1 0 0 0 1 0 0 0 1 0.9999981 52.1225 -81 0.5 3.5 0.5
9 0 1 0 0 0 1 0 0 0 1 -1.907349E-06 66.1225 -80 0.5 3.5 0.5
9 0 1 0 0 0 1 0 0 0 1 -1.907349E-06 13.1225 -35 0.5 3.5 0.5
9 0 1 0 0 0 1 0 0 0 1 -1.907349E-06 -52.8775 -14 0.5 3.5 0.5
9 0 1 0 0 0 1 0 0 0 1 -1.000002 115.1225 -90 0.5 3.5 0.5
9 0 1 0 0 0 1 0 0 0 1 -1.000002 67.1225 -89 0.5 3.5 0.5
9 0 1 0 0 0 1 0 0 0 1 -1.000002 52.1225 -81 0.5 3.5 0.5
9 0 1 0 0 0 1 0 0 0 1 -2.000002 135.1225 -83 0.5 3.5 0.5
9 0 1 0 0 0 1 0 0 0 1 -2.000002 123.1225 -85 0.5 3.5 0.5
9 0 1 0 0 0 1 0 0 0 1 -2.000002 74.1225 -86 0.5 3.5 0.5
9 0 1 0 0 0 1 0 0 0 1 -2.000002 60.1225 -84 0.5 3.5 0.5
9 0 1 0 0 0 1 0 0 0 1 -1.907349E-06 67.1225 -68 3.5 0.5 0.5
9 0 1 0 0 0 1 0 0 0 1 1.999998 116.6225 -88 0.5 3 0.5
9 0 1 0 0 0 1 0 0 0 1 1.999998 67.6225 -88 0.5 3 0.5
9 0 1 0 0 0 1 0 0 0 1 0.9999981 163.1225 -72.5 0.5 1.5 1
9 0 1 0 0 0 1 0 0 0 1 0.9999981 135.6225 -81 0.5 3 0.5
9 0 1 0 0 0 1 0 0 0 1 1.499998 41.1225 -54 1 0.5 1.5
9 0 1 0 0 0 1 0 0 0 1 0.9999981 40.6225 -61 0.5 1 1.5
9 0 1 0 0 0 1 0 0 0 1 0.9999981 38.1225 -62.5 0.5 1.5 1
9 0 1 0 0 0 1 0 0 0 1 1.499998 10.1225 -84 1 1.5 0.5
9 0 1 0 0 0 1 0 0 0 1 1.499998 -3.877502 -41 1 0.5 1.5
9 0 1 0 0 0 1 0 0 0 1 0.9999981 -58.3775 -13 0.5 3 0.5
9 0 1 0 0 0 1 0 0 0 1 -1.907349E-06 146.1225 -83.5 0.5 1.5 1
9 0 1 0 0 0 1 0 0 0 1 -1.907349E-06 114.6225 -88 0.5 1 1.5
9 0 1 0 0 0 1 0 0 0 1 -1.907349E-06 14.1225 -83.5 0.5 1.5 1
9 0 1 0 0 0 1 0 0 0 1 -1.907349E-06 9.122498 -88.5 0.5 1.5 1
9 0 1 0 0 0 1 0 0 0 1 -1.907349E-06 6.622498 -14 0.5 1 1.5
9 0 1 0 0 0 1 0 0 0 1 -1.907349E-06 6.622498 -6 0.5 1 1.5
9 0 1 0 0 0 1 0 0 0 1 -1.907349E-06 -18.3775 -24 0.5 1 1.5
9 0 1 0 0 0 1 0 0 0 1 -1.907349E-06 -65.8775 -20.5 0.5 1.5 1
9 0 1 0 0 0 1 0 0 0 1 -1.000002 163.1225 -72.5 0.5 1.5 1
9 0 1 0 0 0 1 0 0 0 1 -1.907349E-06 157.6225 -77 1.5 1 0.5
9 0 1 0 0 0 1 0 0 0 1 -1.907349E-06 155.6225 -78 1.5 1 0.5
9 0 1 0 0 0 1 0 0 0 1 -1.907349E-06 139.6225 -80 1.5 1 0.5
9 0 1 0 0 0 1 0 0 0 1 -1.907349E-06 65.6225 -50 1.5 1 0.5
9 0 1 0 0 0 1 0 0 0 1 -1.907349E-06 49.6225 -56 1.5 1 0.5
9 0 1 0 0 0 1 0 0 0 1 -1.000002 40.1225 -61.5 0.5 1.5 1
9 0 1 0 0 0 1 0 0 0 1 -1.907349E-06 39.6225 -52 1.5 1 0.5
9 0 1 0 0 0 1 0 0 0 1 -1.907349E-06 36.1225 -29.5 1.5 0.5 1
9 0 1 0 0 0 1 0 0 0 1 -1.907349E-06 35.1225 -28.5 1.5 0.5 1
9 0 1 0 0 0 1 0 0 0 1 -1.907349E-06 19.6225 -33 1.5 1 0.5
9 0 1 0 0 0 1 0 0 0 1 -1.000002 10.1225 -84.5 0.5 1.5 1
9 0 1 0 0 0 1 0 0 0 1 -1.000002 -58.3775 -13 0.5 3 0.5
9 0 1 0 0 0 1 0 0 0 1 -1.907349E-06 -62.8775 -15.5 1.5 0.5 1
9 0 1 0 0 0 1 0 0 0 1 -1.907349E-06 -65.8775 -18.5 1.5 0.5 1
9 0 1 0 0 0 1 0 0 0 1 -2.000002 116.6225 -88 0.5 3 0.5
9 0 1 0 0 0 1 0 0 0 1 -2.000002 67.6225 -88 0.5 3 0.5
9 0 1 0 0 0 1 0 0 0 1 -1.500002 -3.877502 -41 1 0.5 1.5
9 0 1 0 0 0 1 0 0 0 1 1.999998 126.1225 -86 0.5 2.5 0.5
9 0 1 0 0 0 1 0 0 0 1 1.999998 20.1225 -75 0.5 0.5 2.5
9 0 1 0 0 0 1 0 0 0 1 0.9999981 147.1225 -81 0.5 2.5 0.5
9 0 1 0 0 0 1 0 0 0 1 0.9999981 126.1225 -83 0.5 2.5 0.5
9 0 1 0 0 0 1 0 0 0 1 -1.907349E-06 124.1225 -91 0.5 2.5 0.5
9 0 1 0 0 0 1 0 0 0 1 -1.907349E-06 63.1225 -91 0.5 2.5 0.5
9 0 1 0 0 0 1 0 0 0 1 -1.907349E-06 54.1225 -78 0.5 2.5 0.5
9 0 1 0 0 0 1 0 0 0 1 -1.000002 147.1225 -81 0.5 2.5 0.5
9 0 1 0 0 0 1 0 0 0 1 -1.000002 125.1225 -88 0.5 2.5 0.5
9 0 1 0 0 0 1 0 0 0 1 -2.000002 126.1225 -86 0.5 2.5 0.5
9 0 1 0 0 0 1 0 0 0 1 -1.907349E-06 38.1225 -50 2.5 0.5 0.5
9 0 1 0 0 0 1 0 0 0 1 -1.907349E-06 34.1225 -46 2.5 0.5 0.5
9 0 1 0 0 0 1 0 0 0 1 -1.907349E-06 32.1225 -44 2.5 0.5 0.5
9 0 1 0 0 0 1 0 0 0 1 -1.907349E-06 30.1225 -42 2.5 0.5 0.5
9 0 1 0 0 0 1 0 0 0 1 -1.907349E-06 28.1225 -40 2.5 0.5 0.5
9 0 1 0 0 0 1 0 0 0 1 -1.907349E-06 26.1225 -38 2.5 0.5 0.5
9 0 1 0 0 0 1 0 0 0 1 -1.907349E-06 23.1225 -35 2.5 0.5 0.5
9 0 1 0 0 0 1 0 0 0 1 -1.907349E-06 16.1225 -79 2.5 0.5 0.5
9 0 1 0 0 0 1 0 0 0 1 -1.907349E-06 14.1225 -76 2.5 0.5 0.5
9 0 1 0 0 0 1 0 0 0 1 -1.907349E-06 13.1225 -75 2.5 0.5 0.5
9 0 1 0 0 0 1 0 0 0 1 -1.907349E-06 12.1225 -83 2.5 0.5 0.5
9 0 1 0 0 0 1 0 0 0 1 -1.907349E-06 6.122498 -80 2.5 0.5 0.5
9 0 1 0 0 0 1 0 0 0 1 -1.907349E-06 3.122498 -36 2.5 0.5 0.5
9 0 1 0 0 0 1 0 0 0 1 -1.907349E-06 -6.877502 -45 2.5 0.5 0.5
9 0 1 0 0 0 1 0 0 0 1 -1.907349E-06 -14.8775 -26 2.5 0.5 0.5
9 0 1 0 0 0 1 0 0 0 1 -3.000002 -6.877502 -4 2.5 0.5 0.5
9 0 1 0 0 0 1 0 0 0 1 1.999998 148.6225 -79 0.5 2 0.5
9 0 1 0 0 0 1 0 0 0 1 1.999998 52.6225 -85 0.5 2 0.5
9 0 1 0 0 0 1 0 0 0 1 1.999998 49.6225 -82 0.5 2 0.5
9 0 1 0 0 0 1 0 0 0 1 3.499998 -6.877502 -16 2 0.5 0.5
9 0 1 0 0 0 1 0 0 0 1 1.999998 -20.3775 -11 0.5 2 0.5
9 0 1 0 0 0 1 0 0 0 1 1.999998 -56.3775 -11 0.5 2 0.5
9 0 1 0 0 0 1 0 0 0 1 0.9999981 165.6225 -71 0.5 2 0.5
9 0 1 0 0 0 1 0 0 0 1 0.9999981 120.6225 -89 0.5 2 0.5
9 0 1 0 0 0 1 0 0 0 1 0.9999981 94.6225 -86 0.5 2 0.5
9 0 1 0 0 0 1 0 0 0 1 0.9999981 55.6225 -87 0.5 2 0.5
9 0 1 0 0 0 1 0 0 0 1 0.9999981 47.6225 -57 0.5 2 0.5
9 0 1 0 0 0 1 0 0 0 1 1.499998 37.1225 -49.5 1 0.5 1
9 0 1 0 0 0 1 0 0 0 1 1.499998 33.1225 -45.5 1 0.5 1
9 0 1 0 0 0 1 0 0 0 1 1.499998 29.1225 -41.5 1 0.5 1
9 0 1 0 0 0 1 0 0 0 1 1.499998 25.1225 -37.5 1 0.5 1
9 0 1 0 0 0 1 0 0 0 1 1.499998 22.1225 -34.5 1 0.5 1
9 0 1 0 0 0 1 0 0 0 1 1.499998 9.122498 -85.5 1 0.5 1
9 0 1 0 0 0 1 0 0 0 1 0.9999981 -54.3775 -12 0.5 2 0.5
9 0 1 0 0 0 1 0 0 0 1 0.9999981 -60.3775 -14 0.5 2 0.5
9 0 1 0 0 0 1 0 0 0 1 -1.907349E-06 146.6225 -75 0.5 2 0.5
9 0 1 0 0 0 1 0 0 0 1 -1.907349E-06 131.6225 -79 0.5 2 0.5
9 0 1 0 0 0 1 0 0 0 1 -1.907349E-06 66.6225 -51.5 0.5 1 1
9 0 1 0 0 0 1 0 0 0 1 -1.907349E-06 54.6225 -47.5 0.5 1 1
9 0 1 0 0 0 1 0 0 0 1 -1.907349E-06 52.6225 -89 0.5 2 0.5
9 0 1 0 0 0 1 0 0 0 1 -1.907349E-06 44.6225 -76 0.5 2 0.5
9 0 1 0 0 0 1 0 0 0 1 -1.907349E-06 36.1225 -60.5 0.5 0.5 2
9 0 1 0 0 0 1 0 0 0 1 -1.907349E-06 32.6225 -49.5 0.5 1 1
9 0 1 0 0 0 1 0 0 0 1 -1.907349E-06 27.6225 -45.5 0.5 1 1
9 0 1 0 0 0 1 0 0 0 1 -1.907349E-06 23.6225 -41.5 0.5 1 1
9 0 1 0 0 0 1 0 0 0 1 -1.907349E-06 19.6225 -37.5 0.5 1 1
9 0 1 0 0 0 1 0 0 0 1 -1.907349E-06 10.6225 -36.5 0.5 1 1
9 0 1 0 0 0 1 0 0 0 1 -1.907349E-06 7.622498 -90 0.5 2 0.5
9 0 1 0 0 0 1 0 0 0 1 -1.907349E-06 1.622498 -95.5 0.5 1 1
9 0 1 0 0 0 1 0 0 0 1 -1.907349E-06 -2.377502 -99 0.5 2 0.5
9 0 1 0 0 0 1 0 0 0 1 -1.907349E-06 -5.377502 -13 0.5 2 0.5
9 0 1 0 0 0 1 0 0 0 1 -1.907349E-06 -5.377502 -7 0.5 2 0.5
9 0 1 0 0 0 1 0 0 0 1 -1.907349E-06 -60.3775 -17 0.5 2 0.5
9 0 1 0 0 0 1 0 0 0 1 -1.000002 165.6225 -71 0.5 2 0.5
9 0 1 0 0 0 1 0 0 0 1 -1.000002 130.6225 -82 0.5 2 0.5
9 0 1 0 0 0 1 0 0 0 1 -1.000002 94.6225 -86 0.5 2 0.5
9 0 1 0 0 0 1 0 0 0 1 -1.000002 55.6225 -87 0.5 2 0.5
9 0 1 0 0 0 1 0 0 0 1 -1.000002 47.6225 -57 0.5 2 0.5
9 0 1 0 0 0 1 0 0 0 1 -1.000002 40.6225 -53.5 0.5 1 1
9 0 1 0 0 0 1 0 0 0 1 -0.5000019 37.1225 -62.5 1 0.5 1
9 0 1 0 0 0 1 0 0 0 1 -1.000002 36.6225 -49.5 0.5 1 1
9 0 1 0 0 0 1 0 0 0 1 -1.000002 32.6225 -45.5 0.5 1 1
9 0 1 0 0 0 1 0 0 0 1 -1.000002 28.6225 -41.5 0.5 1 1
9 0 1 0 0 0 1 0 0 0 1 -1.000002 24.6225 -37.5 0.5 1 1
9 0 1 0 0 0 1 0 0 0 1 -1.000002 21.6225 -34.5 0.5 1 1
9 0 1 0 0 0 1 0 0 0 1 -1.000002 -54.3775 -12 0.5 2 0.5
9 0 1 0 0 0 1 0 0 0 1 -1.000002 -60.3775 -14 0.5 2 0.5
9 0 1 0 0 0 1 0 0 0 1 -2.000002 148.6225 -79 0.5 2 0.5
9 0 1 0 0 0 1 0 0 0 1 -2.000002 52.6225 -85 0.5 2 0.5
9 0 1 0 0 0 1 0 0 0 1 -2.000002 49.6225 -82 0.5 2 0.5
9 0 1 0 0 0 1 0 0 0 1 -0.5000019 36.1225 -48 2 0.5 0.5
9 0 1 0 0 0 1 0 0 0 1 -2.000002 -20.3775 -11 0.5 2 0.5
9 0 1 0 0 0 1 0 0 0 1 -2.000002 -56.3775 -11 0.5 2 0.5
9 0 1 0 0 0 1 0 0 0 1 5.999998 29.1225 -84 0.5 1.5 0.5
9 0 1 0 0 0 1 0 0 0 1 4.999998 5.122498 -45 1.5 0.5 0.5
9 0 1 0 0 0 1 0 0 0 1 1.999998 151.1225 -78 0.5 1.5 0.5
9 0 1 0 0 0 1 0 0 0 1 1.999998 145.1225 -80 0.5 1.5 0.5
9 0 1 0 0 0 1 0 0 0 1 1.999998 143.1225 -81 0.5 1.5 0.5
9 0 1 0 0 0 1 0 0 0 1 1.999998 134.1225 -84 0.5 1.5 0.5
9 0 1 0 0 0 1 0 0 0 1 1.999998 112.1225 -86 0.5 1.5 0.5
9 0 1 0 0 0 1 0 0 0 1 1.999998 45.1225 -83 0.5 1.5 0.5
9 0 1 0 0 0 1 0 0 0 1 1.999998 43.1225 -80 0.5 1.5 0.5
9 0 1 0 0 0 1 0 0 0 1 1.999998 29.1225 -84 0.5 1.5 0.5
9 0 1 0 0 0 1 0 0 0 1 1.999998 2.122498 -37 0.5 1.5 0.5
9 0 1 0 0 0 1 0 0 0 1 1.999998 -4.877502 -42 0.5 0.5 1.5
9 0 1 0 0 0 1 0 0 0 1 1.999998 -15.8775 -25 0.5 0.5 1.5
9 0 1 0 0 0 1 0 0 0 1 1.999998 -21.8775 -10 0.5 1.5 0.5
9 0 1 0 0 0 1 0 0 0 1 0.9999981 150.1225 -77 0.5 1.5 0.5
9 0 1 0 0 0 1 0 0 0 1 0.9999981 133.1225 -86 0.5 1.5 0.5
9 0 1 0 0 0 1 0 0 0 1 0.9999981 48.1225 -85 0.5 1.5 0.5
9 0 1 0 0 0 1 0 0 0 1 0.9999981 43.1225 -60 0.5 1.5 0.5
9 0 1 0 0 0 1 0 0 0 1 0.9999981 7.122498 -35 0.5 1.5 0.5
9 0 1 0 0 0 1 0 0 0 1 -1.907349E-06 163.1225 -70 0.5 1.5 0.5
9 0 1 0 0 0 1 0 0 0 1 -1.907349E-06 153.1225 -73 0.5 1.5 0.5
9 0 1 0 0 0 1 0 0 0 1 -1.907349E-06 140.1225 -87 0.5 1.5 0.5
9 0 1 0 0 0 1 0 0 0 1 -1.907349E-06 140.1225 -77 0.5 1.5 0.5
9 0 1 0 0 0 1 0 0 0 1 -1.907349E-06 133.1225 -89 0.5 1.5 0.5
9 0 1 0 0 0 1 0 0 0 1 0.9999981 42.1225 -55 1.5 0.5 0.5
9 0 1 0 0 0 1 0 0 0 1 -1.907349E-06 41.1225 -84 0.5 1.5 0.5
9 0 1 0 0 0 1 0 0 0 1 -1.907349E-06 26.1225 -22 0.5 1.5 0.5
9 0 1 0 0 0 1 0 0 0 1 -1.907349E-06 26.1225 -18 0.5 1.5 0.5
9 0 1 0 0 0 1 0 0 0 1 -1.907349E-06 17.1225 -33 0.5 1.5 0.5
9 0 1 0 0 0 1 0 0 0 1 -1.907349E-06 165.1225 -72 1.5 0.5 0.5
9 0 1 0 0 0 1 0 0 0 1 -1.907349E-06 161.1225 -75 1.5 0.5 0.5
9 0 1 0 0 0 1 0 0 0 1 -1.000002 150.1225 -77 0.5 1.5 0.5
9 0 1 0 0 0 1 0 0 0 1 -1.000002 133.1225 -86 0.5 1.5 0.5
9 0 1 0 0 0 1 0 0 0 1 -1.000002 48.1225 -85 0.5 1.5 0.5
9 0 1 0 0 0 1 0 0 0 1 -1.907349E-06 39.1225 -75 1.5 0.5 0.5
9 0 1 0 0 0 1 0 0 0 1 -1.907349E-06 34.1225 -28 1.5 0.5 0.5
9 0 1 0 0 0 1 0 0 0 1 -1.907349E-06 32.1225 -26 1.5 0.5 0.5
9 0 1 0 0 0 1 0 0 0 1 -1.907349E-06 17.1225 -32 1.5 0.5 0.5
9 0 1 0 0 0 1 0 0 0 1 -1.907349E-06 14.1225 -82 1.5 0.5 0.5
9 0 1 0 0 0 1 0 0 0 1 -1.907349E-06 8.122498 -87 1.5 0.5 0.5
9 0 1 0 0 0 1 0 0 0 1 -1.000002 7.122498 -35 0.5 1.5 0.5
9 0 1 0 0 0 1 0 0 0 1 -1.907349E-06 1.122498 -94 1.5 0.5 0.5
9 0 1 0 0 0 1 0 0 0 1 -1.907349E-06 0.1224976 -95 1.5 0.5 0.5
9 0 1 0 0 0 1 0 0 0 1 -1.907349E-06 -17.8775 -15 1.5 0.5 0.5
9 0 1 0 0 0 1 0 0 0 1 -1.907349E-06 -20.8775 -13 1.5 0.5 0.5
9 0 1 0 0 0 1 0 0 0 1 -1.907349E-06 -63.8775 -16 1.5 0.5 0.5
9 0 1 0 0 0 1 0 0 0 1 -2.000002 151.1225 -78 0.5 1.5 0.5
9 0 1 0 0 0 1 0 0 0 1 -2.000002 145.1225 -80 0.5 1.5 0.5
9 0 1 0 0 0 1 0 0 0 1 -2.000002 143.1225 -81 0.5 1.5 0.5
9 0 1 0 0 0 1 0 0 0 1 -2.000002 134.1225 -84 0.5 1.5 0.5
9 0 1 0 0 0 1 0 0 0 1 -2.000002 112.1225 -86 0.5 1.5 0.5
9 0 1 0 0 0 1 0 0 0 1 -2.000002 45.1225 -83 0.5 1.5 0.5
9 0 1 0 0 0 1 0 0 0 1 -1.000002 43.1225 -56 1.5 0.5 0.5
9 0 1 0 0 0 1 0 0 0 1 -2.000002 43.1225 -80 0.5 1.5 0.5
9 0 1 0 0 0 1 0 0 0 1 -2.000002 42.1225 -59 0.5 1.5 0.5
9 0 1 0 0 0 1 0 0 0 1 -2.000002 10.1225 -84 0.5 1.5 0.5
9 0 1 0 0 0 1 0 0 0 1 -2.000002 2.122498 -37 0.5 1.5 0.5
9 0 1 0 0 0 1 0 0 0 1 -2.000002 -4.877502 -42 0.5 0.5 1.5
9 0 1 0 0 0 1 0 0 0 1 -2.000002 -15.8775 -25 0.5 0.5 1.5
9 0 1 0 0 0 1 0 0 0 1 -2.000002 -21.8775 -10 0.5 1.5 0.5
9 0 1 0 0 0 1 0 0 0 1 -5.000002 5.122498 -45 1.5 0.5 0.5
