9 0 1 0 0 0 1 0 0 0 1 0 -8.225471 18 38.5 6.5 0.5
9 0 1 0 0 0 1 0 0 0 1 38 -5.725471 5.5 0.5 4 12
9 0 1 0 0 0 1 0 0 0 1 -38 -5.725471 5.5 0.5 4 12
9 0 1 0 0 0 1 0 0 0 1 0 -6.225471 -11.5 38.5 0.5 1
9 0 1 0 0 0 1 0 0 0 1 0 -14.22547 16.5 38.5 0.5 1
9 0 1 0 0 0 1 0 0 0 1 0 -9.225471 -5.5 37.5 0.5 1
9 0 1 0 0 0 1 0 0 0 1 0 -2.225471 -18 38.5 0.5 0.5
9 0 1 0 0 0 1 0 0 0 1 0 -7.225471 -10 38.5 0.5 0.5
9 0 1 0 0 0 1 0 0 0 1 0 -8.225471 -8 38.5 0.5 0.5
9 0 1 0 0 0 1 0 0 0 1 0 -10.22547 -3 38.5 0.5 0.5
9 0 1 0 0 0 1 0 0 0 1 38 -11.22547 10 0.5 1.5 7.5
9 0 1 0 0 0 1 0 0 0 1 -38 -11.22547 10.5 0.5 1.5 7
9 0 1 0 0 0 1 0 0 0 1 38 -3.725471 -10.5 0.5 2 4
9 0 1 0 0 0 1 0 0 0 1 -38 -3.725471 -10.5 0.5 2 4
9 0 1 0 0 0 1 0 0 0 1 32 -13.22547 8.5 6.5 0.5 1
9 0 1 0 0 0 1 0 0 0 1 -32 -13.22547 8.5 6.5 0.5 1
9 0 1 0 0 0 1 0 0 0 1 -23.5 -6.225471 -10 11 0.5 0.5
9 0 1 0 0 0 1 0 0 0 1 -29 -7.225471 -9 9.5 0.5 0.5
9 0 1 0 0 0 1 0 0 0 1 10 -13.22547 8.5 4.5 0.5 1
9 0 1 0 0 0 1 0 0 0 1 -10 -13.22547 8.5 4.5 0.5 1
9 0 1 0 0 0 1 0 0 0 1 12 -7.225471 -9 8.5 0.5 0.5
9 0 1 0 0 0 1 0 0 0 1 -8 -7.225471 -9 8.5 0.5 0.5
9 0 1 0 0 0 1 0 0 0 1 31 -7.225471 -9 7.5 0.5 0.5
9 0 1 0 0 0 1 0 0 0 1 9 -8.225471 -7 7.5 0.5 0.5
9 0 1 0 0 0 1 0 0 0 1 -11 -8.225471 -7 7.5 0.5 0.5
9 0 1 0 0 0 1 0 0 0 1 28 -8.225471 -7 6.5 0.5 0.5
9 0 1 0 0 0 1 0 0 0 1 20 -3.225471 -17 6.5 0.5 0.5
9 0 1 0 0 0 1 0 0 0 1 0 -3.225471 -17 6.5 0.5 0.5
9 0 1 0 0 0 1 0 0 0 1 -20 -3.225471 -17 6.5 0.5 0.5
9 0 1 0 0 0 1 0 0 0 1 21 -4.225471 -14.5 2.5 0.5 1
9 0 1 0 0 0 1 0 0 0 1 20 -5.225471 -13.5 2.5 0.5 1
9 0 1 0 0 0 1 0 0 0 1 1 -4.225471 -14.5 2.5 0.5 1
9 0 1 0 0 0 1 0 0 0 1 0 -5.225471 -13.5 2.5 0.5 1
9 0 1 0 0 0 1 0 0 0 1 -19 -4.225471 -14.5 2.5 0.5 1
9 0 1 0 0 0 1 0 0 0 1 -20 -5.225471 -13.5 2.5 0.5 1
9 0 1 0 0 0 1 0 0 0 1 34 -11.22547 0 4.5 0.5 0.5
9 0 1 0 0 0 1 0 0 0 1 33 -12.22547 3 4.5 0.5 0.5
9 0 1 0 0 0 1 0 0 0 1 -33 -12.22547 4 4.5 0.5 0.5
9 0 1 0 0 0 1 0 0 0 1 38 -13.22547 13.5 0.5 0.5 4
9 0 1 0 0 0 1 0 0 0 1 -38 -10.72547 1.5 0.5 1 2
9 0 1 0 0 0 1 0 0 0 1 -38 -13.22547 13.5 0.5 0.5 4
9 0 1 0 0 0 1 0 0 0 1 38 -2.725471 -16 0.5 1 1.5
9 0 1 0 0 0 1 0 0 0 1 10 -12.22547 3.5 1.5 0.5 1
9 0 1 0 0 0 1 0 0 0 1 -37 -3.225471 -16.5 1.5 0.5 1
9 0 1 0 0 0 1 0 0 0 1 38 -10.22547 0 0.5 0.5 2.5
9 0 1 0 0 0 1 0 0 0 1 20 -12.22547 3 2.5 0.5 0.5
9 0 1 0 0 0 1 0 0 0 1 18 -3.225471 -16 2.5 0.5 0.5
9 0 1 0 0 0 1 0 0 0 1 -2 -3.225471 -16 2.5 0.5 0.5
9 0 1 0 0 0 1 0 0 0 1 -22 -3.225471 -16 2.5 0.5 0.5
9 0 1 0 0 0 1 0 0 0 1 38 -6.225471 -8.5 0.5 0.5 2
9 0 1 0 0 0 1 0 0 0 1 36.5 -3.225471 -16.5 1 0.5 1
9 0 1 0 0 0 1 0 0 0 1 -38 -6.225471 -8.5 0.5 0.5 2
9 0 1 0 0 0 1 0 0 0 1 -10 -12.22547 4 1.5 0.5 0.5
9 0 1 0 0 0 1 0 0 0 1 -38 -2.225471 -16 0.5 0.5 1.5
