9 0 1 0 0 0 1 0 0 0 1 11 1.6 -18 0.5 2.5 2
9 0 1 0 0 0 1 0 0 0 1 -11 1.6 -18 0.5 2.5 2
9 0 1 0 0 0 1 0 0 0 1 1 -1.4 -20.5 8.5 0.5 0.5
9 0 1 0 0 0 1 0 0 0 1 12 0.6000004 -16.5 0.5 2.5 1.5
9 0 1 0 0 0 1 0 0 0 1 -12 1.6 -16 0.5 3.5 1
9 0 1 0 0 0 1 0 0 0 1 6 -1.4 -19.5 4.5 0.5 0.5
9 0 1 0 0 0 1 0 0 0 1 -6 -1.4 -19.5 4.5 0.5 0.5
9 0 1 0 0 0 1 0 0 0 1 13 0.1000004 -14 0.5 2 1
9 0 1 0 0 0 1 0 0 0 1 -9.5 -1.4 -18 2 0.5 1
9 0 1 0 0 0 1 0 0 0 1 -13 0.1000004 -14 0.5 2 1
9 0 1 0 0 0 1 0 0 0 1 10.5 -1.4 -17.5 1 0.5 1.5
9 0 1 0 0 0 1 0 0 0 1 17 -14.9 0 0.5 1 1
9 0 1 0 0 0 1 0 0 0 1 12 4.1 -16 0.5 1 1
9 0 1 0 0 0 1 0 0 0 1 11 1.1 -20.5 0.5 2 0.5
9 0 1 0 0 0 1 0 0 0 1 -11 1.1 -20.5 0.5 2 0.5
9 0 1 0 0 0 1 0 0 0 1 -12 1.1 -17.5 0.5 2 0.5
9 0 1 0 0 0 1 0 0 0 1 8 -1.4 -18.5 1.5 0.5 0.5
