9 0 1 0 0 0 1 0 0 0 1 0 -21.514 6.450001 4.5 10.5 0.5
9 0 1 0 0 0 1 0 0 0 1 0 -48.014 0.4500008 1.5 7 1.5
9 0 1 0 0 0 1 0 0 0 1 9.5 -33.014 -0.5499992 3 1 4.5
9 0 1 0 0 0 1 0 0 0 1 -9.5 -33.014 -0.5499992 3 1 4.5
9 0 1 0 0 0 1 0 0 0 1 0 -10.514 0.4500008 6.5 0.5 3.5
9 0 1 0 0 0 1 0 0 0 1 0 -14.514 5.450001 4.5 4.5 0.5
9 0 1 0 0 0 1 0 0 0 1 -6 -15.014 0.9500008 0.5 4 4
9 0 1 0 0 0 1 0 0 0 1 20 -30.014 -0.04999924 3.5 2 1
9 0 1 0 0 0 1 0 0 0 1 -20 -30.014 -0.04999924 3.5 2 1
9 0 1 0 0 0 1 0 0 0 1 6.5 -0.01399994 -0.04999924 1 3 2
9 0 1 0 0 0 1 0 0 0 1 -6 -4.014 -1.049999 0.5 6 2
9 0 1 0 0 0 1 0 0 0 1 0 -0.01399994 -0.04999924 2.5 2 1
9 0 1 0 0 0 1 0 0 0 1 6 -16.014 2.950001 0.5 3 3
9 0 1 0 0 0 1 0 0 0 1 8 -19.514 -0.5499992 1.5 0.5 5.5
9 0 1 0 0 0 1 0 0 0 1 -7 -19.514 -0.5499992 0.5 1.5 5.5
9 0 1 0 0 0 1 0 0 0 1 6 -6.514 -1.049999 0.5 3.5 2
9 0 1 0 0 0 1 0 0 0 1 -7 -0.01399994 -0.04999924 0.5 3 2
9 0 1 0 0 0 1 0 0 0 1 5.5 -20.514 6.450001 1 5.5 0.5
9 0 1 0 0 0 1 0 0 0 1 -5.5 -20.514 6.450001 1 5.5 0.5
9 0 1 0 0 0 1 0 0 0 1 -8.5 -19.514 -0.5499992 1 0.5 5.5
9 0 1 0 0 0 1 0 0 0 1 13 -32.014 -0.5499992 0.5 1 4.5
9 0 1 0 0 0 1 0 0 0 1 -12.5 -31.514 -0.5499992 1 0.5 4.5
9 0 1 0 0 0 1 0 0 0 1 6 -13.514 -1.549999 0.5 2.5 1.5
9 0 1 0 0 0 1 0 0 0 1 0 -33.514 6.450001 2.5 1.5 0.5
9 0 1 0 0 0 1 0 0 0 1 20 -30.014 -1.549999 3.5 1 0.5
9 0 1 0 0 0 1 0 0 0 1 20 -30.014 1.450001 3.5 1 0.5
9 0 1 0 0 0 1 0 0 0 1 0 -48.014 -1.549999 0.5 7 0.5
9 0 1 0 0 0 1 0 0 0 1 -20 -30.014 -1.549999 3.5 1 0.5
9 0 1 0 0 0 1 0 0 0 1 -20 -30.014 1.450001 3.5 1 0.5
9 0 1 0 0 0 1 0 0 0 1 -5.5 -16.014 5.450001 1 3 0.5
9 0 1 0 0 0 1 0 0 0 1 7 -18.514 -0.5499992 0.5 0.5 5.5
9 0 1 0 0 0 1 0 0 0 1 7 -20.514 -0.5499992 0.5 0.5 5.5
9 0 1 0 0 0 1 0 0 0 1 0 -10.514 4.450001 5.5 0.5 0.5
9 0 1 0 0 0 1 0 0 0 1 0 -0.01399994 -1.549999 2.5 1 0.5
9 0 1 0 0 0 1 0 0 0 1 0 -0.01399994 1.450001 2.5 1 0.5
9 0 1 0 0 0 1 0 0 0 1 -6 -16.514 -4.049999 0.5 2.5 1
9 0 1 0 0 0 1 0 0 0 1 12 -31.514 -0.5499992 0.5 0.5 4.5
9 0 1 0 0 0 1 0 0 0 1 -13 -32.514 -0.5499992 0.5 0.5 4.5
9 0 1 0 0 0 1 0 0 0 1 8.5 -33.014 4.450001 2 1 0.5
9 0 1 0 0 0 1 0 0 0 1 6.5 -0.01399994 -2.549999 1 2 0.5
9 0 1 0 0 0 1 0 0 0 1 6.5 -0.01399994 2.450001 1 2 0.5
9 0 1 0 0 0 1 0 0 0 1 6 -12.014 1.950001 0.5 1 2
9 0 1 0 0 0 1 0 0 0 1 5 -15.014 5.450001 0.5 4 0.5
9 0 1 0 0 0 1 0 0 0 1 -6 -0.01399994 1.950001 0.5 2 1
9 0 1 0 0 0 1 0 0 0 1 -8.5 -33.014 4.450001 2 1 0.5
9 0 1 0 0 0 1 0 0 0 1 0 -10.514 6.450001 3.5 0.5 0.5
9 0 1 0 0 0 1 0 0 0 1 8 -33.014 -5.549999 1.5 1 0.5
9 0 1 0 0 0 1 0 0 0 1 -8 -33.014 -5.549999 1.5 1 0.5
9 0 1 0 0 0 1 0 0 0 1 6 -8.014 1.450001 0.5 2 0.5
9 0 1 0 0 0 1 0 0 0 1 6 -15.014 -4.049999 0.5 1 1
9 0 1 0 0 0 1 0 0 0 1 -6 2.986 -0.04999924 0.5 1 1
9 0 1 0 0 0 1 0 0 0 1 -6 -8.014 1.450001 0.5 2 0.5
9 0 1 0 0 0 1 0 0 0 1 -7 -0.01399994 -2.549999 0.5 2 0.5
9 0 1 0 0 0 1 0 0 0 1 -7 -0.01399994 2.450001 0.5 2 0.5
9 0 1 0 0 0 1 0 0 0 1 6 -17.514 -5.549999 0.5 1.5 0.5
9 0 1 0 0 0 1 0 0 0 1 5 -27.514 6.450001 0.5 1.5 0.5
9 0 1 0 0 0 1 0 0 0 1 -5 -27.514 6.450001 0.5 1.5 0.5
9 0 1 0 0 0 1 0 0 0 1 -6 -17.514 -5.549999 0.5 1.5 0.5
