9 0 1 0 0 0 1 0 0 0 1 0 -8.213999 18 8.5 5.5 0.5
9 0 1 0 0 0 1 0 0 0 1 8 -5.213999 6 0.5 2.5 11.5
9 0 1 0 0 0 1 0 0 0 1 -8 -5.213999 6 0.5 2.5 11.5
9 0 1 0 0 0 1 0 0 0 1 8 -9.213999 11.5 0.5 1.5 6
9 0 1 0 0 0 1 0 0 0 1 -8 -9.213999 11.5 0.5 1.5 6
9 0 1 0 0 0 1 0 0 0 1 8 -3.713999 -11 0.5 1 5.5
9 0 1 0 0 0 1 0 0 0 1 -8 -3.713999 -11 0.5 1 5.5
9 0 1 0 0 0 1 0 0 0 1 0 -3.213999 -18 8.5 0.5 0.5
9 0 1 0 0 0 1 0 0 0 1 0 -13.214 17 8.5 0.5 0.5
9 0 1 0 0 0 1 0 0 0 1 8 -11.714 15 0.5 1 2.5
9 0 1 0 0 0 1 0 0 0 1 -8 -11.714 15 0.5 1 2.5
9 0 1 0 0 0 1 0 0 0 1 8 -8.713999 3.5 0.5 1 2
9 0 1 0 0 0 1 0 0 0 1 -8 -5.713999 -7.5 0.5 1 2
9 0 1 0 0 0 1 0 0 0 1 -8 -8.713999 3.5 0.5 1 2
9 0 1 0 0 0 1 0 0 0 1 8 -5.213999 -9 0.5 0.5 3.5
9 0 1 0 0 0 1 0 0 0 1 8 -11.214 10.5 0.5 0.5 2
9 0 1 0 0 0 1 0 0 0 1 -8 -11.214 10.5 0.5 0.5 2
9 0 1 0 0 0 1 0 0 0 1 8 -6.213999 -7 0.5 0.5 1.5
9 0 1 0 0 0 1 0 0 0 1 8 -8.213999 0 0.5 0.5 1.5
9 0 1 0 0 0 1 0 0 0 1 -8 -5.213999 -11 0.5 0.5 1.5
9 0 1 0 0 0 1 0 0 0 1 -8 -8.213999 0 0.5 0.5 1.5
