9 0 1 0 0 0 1 0 0 0 1 -0.004150391 -4.152939 0 10.5 1.5 1.5
9 0 1 0 0 0 1 0 0 0 1 17.49585 -2.652939 0 2 1 4.5
9 0 1 0 0 0 1 0 0 0 1 -17.00415 -2.652939 0 2.5 1 3.5
9 0 1 0 0 0 1 0 0 0 1 -0.004150391 -2.152939 0 10.5 0.5 0.5
9 0 1 0 0 0 1 0 0 0 1 -0.004150391 -4.152939 -2 10.5 0.5 0.5
9 0 1 0 0 0 1 0 0 0 1 -0.004150391 -4.152939 2 10.5 0.5 0.5
9 0 1 0 0 0 1 0 0 0 1 -0.004150391 -6.152939 0 10.5 0.5 0.5
9 0 1 0 0 0 1 0 0 0 1 -16.00415 -4.152939 0 1.5 0.5 3.5
9 0 1 0 0 0 1 0 0 0 1 20.49585 -2.152939 0 1 0.5 4.5
9 0 1 0 0 0 1 0 0 0 1 16.49585 -4.152939 0 1 0.5 4.5
9 0 1 0 0 0 1 0 0 0 1 14.99585 -3.652939 0 0.5 2 2.5
9 0 1 0 0 0 1 0 0 0 1 -20.50415 -2.152939 0 1 0.5 4.5
9 0 1 0 0 0 1 0 0 0 1 -18.00415 -2.652939 -4.5 1.5 1 1
9 0 1 0 0 0 1 0 0 0 1 -18.00415 -2.652939 4.5 1.5 1 1
9 0 1 0 0 0 1 0 0 0 1 13.99585 -4.152939 0 0.5 1.5 1.5
9 0 1 0 0 0 1 0 0 0 1 -14.00415 -4.152939 0 0.5 1.5 1.5
9 0 1 0 0 0 1 0 0 0 1 -15.00415 -5.152939 0 0.5 0.5 3.5
9 0 1 0 0 0 1 0 0 0 1 17.99585 -2.652939 -5 1.5 1 0.5
9 0 1 0 0 0 1 0 0 0 1 17.99585 -2.652939 5 1.5 1 0.5
9 0 1 0 0 0 1 0 0 0 1 -5.50415 -2.152939 -1 2 0.5 0.5
9 0 1 0 0 0 1 0 0 0 1 19.99585 -3.152939 0 0.5 0.5 1.5
9 0 1 0 0 0 1 0 0 0 1 5.99585 -2.152939 1 1.5 0.5 0.5
9 0 1 0 0 0 1 0 0 0 1 -16.00415 -3.152939 -4 0.5 1.5 0.5
9 0 1 0 0 0 1 0 0 0 1 -16.00415 -3.152939 4 0.5 1.5 0.5
9 0 1 0 0 0 1 0 0 0 1 -20.00415 -3.152939 0 0.5 0.5 1.5
