9 0 1 0 0 0 1 0 0 0 1 20.078 -21.5 0.07499981 1.5 10 1.5
9 0 1 0 0 0 1 0 0 0 1 -0.4219999 -22.5 -7.925 2 16 0.5
9 0 1 0 0 0 1 0 0 0 1 8.078 -22.5 0.07499981 0.5 16 1.5
9 0 1 0 0 0 1 0 0 0 1 0.07800007 -22.5 8.075 1.5 16 0.5
9 0 1 0 0 0 1 0 0 0 1 -7.922 -22.5 0.07499981 0.5 16 1.5
9 0 1 0 0 0 1 0 0 0 1 22.078 -21.5 0.07499981 0.5 10 0.5
9 0 1 0 0 0 1 0 0 0 1 20.078 -21.5 -1.925 0.5 10 0.5
9 0 1 0 0 0 1 0 0 0 1 20.078 -21.5 2.075 0.5 10 0.5
9 0 1 0 0 0 1 0 0 0 1 18.078 -21.5 0.07499981 0.5 10 0.5
9 0 1 0 0 0 1 0 0 0 1 5.078 -45 -0.4250002 0.5 0.5 3
9 0 1 0 0 0 1 0 0 0 1 0.07800007 -44.5 -5.925 1.5 1 0.5
9 0 1 0 0 0 1 0 0 0 1 -0.4219999 -45 5.075 3 0.5 0.5
9 0 1 0 0 0 1 0 0 0 1 -5.922 -44.5 0.07499981 0.5 1 1.5
9 0 1 0 0 0 1 0 0 0 1 0.07800007 -50.5 0.07499981 0.5 2 0.5
9 0 1 0 0 0 1 0 0 0 1 -0.4219999 -44.5 6.075 1 1 0.5
