9 0 1 0 0 0 1 0 0 0 1 -0.3269997 0.125 -12 5.5 5.5 0.5
9 0 1 0 0 0 1 0 0 0 1 5.173 -4.375 -6.5 1 1 5
9 0 1 0 0 0 1 0 0 0 1 -4.827 4.625 -6.5 1 1 5
9 0 1 0 0 0 1 0 0 0 1 -4.827 -4.375 -6.5 1 1 5
9 0 1 0 0 0 1 0 0 0 1 7.673 0.125 -7 0.5 1.5 5.5
9 0 1 0 0 0 1 0 0 0 1 5.673 4.125 -5.5 1.5 0.5 4
9 0 1 0 0 0 1 0 0 0 1 0.1730003 -7.875 -7 1 0.5 5.5
9 0 1 0 0 0 1 0 0 0 1 6.173 -0.375 -12 1 4 0.5
9 0 1 0 0 0 1 0 0 0 1 0.1730003 -6.375 -12 4 1 0.5
9 0 1 0 0 0 1 0 0 0 1 -0.3269997 6.625 -12 3.5 1 0.5
9 0 1 0 0 0 1 0 0 0 1 -6.827 -0.375 -12 1 3 0.5
9 0 1 0 0 0 1 0 0 0 1 4.673 -5.875 -7 0.5 0.5 5.5
9 0 1 0 0 0 1 0 0 0 1 -4.327 6.125 -7 0.5 0.5 5.5
9 0 1 0 0 0 1 0 0 0 1 -4.327 -5.875 -7 0.5 0.5 5.5
9 0 1 0 0 0 1 0 0 0 1 -6.327 4.125 -7 0.5 0.5 5.5
9 0 1 0 0 0 1 0 0 0 1 -6.327 -3.875 -7 0.5 0.5 5.5
9 0 1 0 0 0 1 0 0 0 1 6.673 -3.875 -6.5 0.5 0.5 5
9 0 1 0 0 0 1 0 0 0 1 5.173 5.125 -4 1 0.5 2.5
9 0 1 0 0 0 1 0 0 0 1 7.673 -1.875 -4.5 0.5 0.5 3
9 0 1 0 0 0 1 0 0 0 1 4.673 5.125 -9 0.5 0.5 2.5
9 0 1 0 0 0 1 0 0 0 1 5.173 4.125 -10.5 1 0.5 1
