9 0 1 0 0 0 1 0 0 0 1 41.2 -52.75 0.125 6.5 4 1.5
9 0 1 0 0 0 1 0 0 0 1 -34.3 -53.25 0.125 14 0.5 3.5
9 0 1 0 0 0 1 0 0 0 1 7.700001 -13.75 -0.375 2 2 5
9 0 1 0 0 0 1 0 0 0 1 0.2000008 -2.25 -0.375 2.5 0.5 11
9 0 1 0 0 0 1 0 0 0 1 -0.2999992 -7.75 0.625 1 5 2
9 0 1 0 0 0 1 0 0 0 1 28.2 -53.25 -0.375 6.5 1.5 1
9 0 1 0 0 0 1 0 0 0 1 44.2 -53.25 -1.875 3.5 4.5 0.5
9 0 1 0 0 0 1 0 0 0 1 16.7 -51.75 0.125 5 1 1.5
9 0 1 0 0 0 1 0 0 0 1 45.2 -53.75 2.125 3.5 4 0.5
9 0 1 0 0 0 1 0 0 0 1 44.7 -57.75 0.125 4 1 1.5
9 0 1 0 0 0 1 0 0 0 1 10.7 -12.75 -0.375 1 1 6
9 0 1 0 0 0 1 0 0 0 1 -0.7999992 -15.25 4.625 3.5 1.5 1
9 0 1 0 0 0 1 0 0 0 1 45.2 -47.75 -0.375 2.5 1 2
9 0 1 0 0 0 1 0 0 0 1 13.2 -48.75 0.125 1.5 2 1.5
9 0 1 0 0 0 1 0 0 0 1 1.700001 -14.75 -5.375 4 1 1
9 0 1 0 0 0 1 0 0 0 1 41.7 -61.25 0.125 1 2.5 1.5
9 0 1 0 0 0 1 0 0 0 1 9.200001 -16.75 0.125 2.5 1 1.5
9 0 1 0 0 0 1 0 0 0 1 48.2 -53.25 -0.375 0.5 3.5 2
9 0 1 0 0 0 1 0 0 0 1 28.2 -53.75 1.125 6.5 1 0.5
9 0 1 0 0 0 1 0 0 0 1 3.200001 -12.25 0.125 2.5 0.5 2.5
9 0 1 0 0 0 1 0 0 0 1 6.200001 -14.25 5.125 3.5 1.5 0.5
9 0 1 0 0 0 1 0 0 0 1 10.7 -14.75 0.125 1 1 2.5
9 0 1 0 0 0 1 0 0 0 1 34.7 -46.25 0.125 1 1.5 1.5
9 0 1 0 0 0 1 0 0 0 1 30.7 -41.25 0.125 1 1.5 1.5
9 0 1 0 0 0 1 0 0 0 1 31.7 -55.25 0.125 3 0.5 1.5
9 0 1 0 0 0 1 0 0 0 1 21.7 -29.25 0.125 1 1.5 1.5
9 0 1 0 0 0 1 0 0 0 1 18.7 -53.25 0.125 3 0.5 1.5
9 0 1 0 0 0 1 0 0 0 1 28.7 -38.75 -0.375 1 2 1
9 0 1 0 0 0 1 0 0 0 1 19.7 -26.75 -0.375 1 2 1
9 0 1 0 0 0 1 0 0 0 1 16.7 -22.75 -0.375 1 2 1
9 0 1 0 0 0 1 0 0 0 1 39.2 -53.25 -1.875 1.5 2.5 0.5
9 0 1 0 0 0 1 0 0 0 1 8.700001 -11.25 0.125 1 0.5 3.5
9 0 1 0 0 0 1 0 0 0 1 48.7 -30.75 -5.875 1 3 0.5
9 0 1 0 0 0 1 0 0 0 1 44.7 -48.25 2.125 2 1.5 0.5
9 0 1 0 0 0 1 0 0 0 1 40.7 -54.75 2.125 1 3 0.5
9 0 1 0 0 0 1 0 0 0 1 32.7 -44.25 -0.375 1 1.5 1
9 0 1 0 0 0 1 0 0 0 1 26.7 -36.75 0.125 1 1 1.5
9 0 1 0 0 0 1 0 0 0 1 25.7 -34.25 -0.375 1 1.5 1
9 0 1 0 0 0 1 0 0 0 1 23.7 -32.25 -0.375 1 1.5 1
9 0 1 0 0 0 1 0 0 0 1 14.7 -20.25 -0.375 1 1.5 1
9 0 1 0 0 0 1 0 0 0 1 12.7 -17.25 -0.375 1 1.5 1
9 0 1 0 0 0 1 0 0 0 1 8.700001 -13.75 6.125 3 1 0.5
9 0 1 0 0 0 1 0 0 0 1 7.700001 -14.25 -5.875 2 1.5 0.5
9 0 1 0 0 0 1 0 0 0 1 4.200001 -14.75 4.125 1.5 2 0.5
9 0 1 0 0 0 1 0 0 0 1 -21.3 -48.25 -4.375 1 1.5 1
9 0 1 0 0 0 1 0 0 0 1 -21.3 -48.25 4.625 1 1.5 1
9 0 1 0 0 0 1 0 0 0 1 43.7 -46.25 0.125 1 0.5 2.5
9 0 1 0 0 0 1 0 0 0 1 34.2 -68.75 0.125 0.5 1 2.5
9 0 1 0 0 0 1 0 0 0 1 37.7 -48.25 0.125 5 0.5 0.5
9 0 1 0 0 0 1 0 0 0 1 32.7 -54.25 -1.875 5 0.5 0.5
9 0 1 0 0 0 1 0 0 0 1 0.2000008 -7.75 -1.875 0.5 5 0.5
9 0 1 0 0 0 1 0 0 0 1 -1.799999 -16.25 -5.375 2.5 0.5 1
9 0 1 0 0 0 1 0 0 0 1 45.2 -44.25 5.125 1.5 1.5 0.5
9 0 1 0 0 0 1 0 0 0 1 25.2 -53.25 -1.875 4.5 0.5 0.5
9 0 1 0 0 0 1 0 0 0 1 18.2 -25.25 0.125 0.5 1.5 1.5
9 0 1 0 0 0 1 0 0 0 1 19.2 -52.25 -1.875 4.5 0.5 0.5
9 0 1 0 0 0 1 0 0 0 1 47.7 -35.75 -5.875 1 2 0.5
9 0 1 0 0 0 1 0 0 0 1 47.7 -54.75 -2.875 1 2 0.5
9 0 1 0 0 0 1 0 0 0 1 47.7 -54.75 3.125 1 2 0.5
9 0 1 0 0 0 1 0 0 0 1 46.7 -39.75 -5.875 1 2 0.5
9 0 1 0 0 0 1 0 0 0 1 45.7 -43.75 -5.875 1 2 0.5
9 0 1 0 0 0 1 0 0 0 1 39.7 -57.25 -0.375 1 0.5 2
9 0 1 0 0 0 1 0 0 0 1 13.7 -50.75 -1.875 2 1 0.5
9 0 1 0 0 0 1 0 0 0 1 11.2 -50.75 -0.375 0.5 2 1
9 0 1 0 0 0 1 0 0 0 1 -26.3 -20.25 6.125 4 0.5 0.5
9 0 1 0 0 0 1 0 0 0 1 -40.3 -53.25 -4.375 2 0.5 1
9 0 1 0 0 0 1 0 0 0 1 25.2 -52.25 1.125 3.5 0.5 0.5
9 0 1 0 0 0 1 0 0 0 1 6.200001 -16.25 1.125 0.5 0.5 3.5
9 0 1 0 0 0 1 0 0 0 1 -0.7999992 -15.25 6.125 3.5 0.5 0.5
9 0 1 0 0 0 1 0 0 0 1 -5.799999 -16.25 6.125 3.5 0.5 0.5
9 0 1 0 0 0 1 0 0 0 1 -10.8 -17.25 6.125 3.5 0.5 0.5
9 0 1 0 0 0 1 0 0 0 1 -15.8 -18.25 6.125 3.5 0.5 0.5
9 0 1 0 0 0 1 0 0 0 1 -20.8 -19.25 6.125 3.5 0.5 0.5
9 0 1 0 0 0 1 0 0 0 1 47.2 -37.75 6.125 0.5 3 0.5
9 0 1 0 0 0 1 0 0 0 1 45.7 -59.25 0.125 3 0.5 0.5
9 0 1 0 0 0 1 0 0 0 1 40.2 -60.75 0.125 0.5 3 0.5
9 0 1 0 0 0 1 0 0 0 1 34.2 -50.25 -0.375 0.5 1.5 1
9 0 1 0 0 0 1 0 0 0 1 24.7 -33.25 1.125 1 1.5 0.5
9 0 1 0 0 0 1 0 0 0 1 15.7 -21.25 1.125 1 1.5 0.5
9 0 1 0 0 0 1 0 0 0 1 13.2 -45.25 -0.375 0.5 1.5 1
9 0 1 0 0 0 1 0 0 0 1 10.7 -14.25 4.125 1 0.5 1.5
9 0 1 0 0 0 1 0 0 0 1 2.700001 -13.25 -4.875 3 0.5 0.5
9 0 1 0 0 0 1 0 0 0 1 0.2000008 -2.25 11.625 1.5 0.5 1
9 0 1 0 0 0 1 0 0 0 1 -3.799999 -14.75 -4.875 1.5 1 0.5
9 0 1 0 0 0 1 0 0 0 1 -39.8 -53.25 4.625 1.5 0.5 1
9 0 1 0 0 0 1 0 0 0 1 49.2 -28.25 6.125 0.5 2.5 0.5
9 0 1 0 0 0 1 0 0 0 1 48.2 -33.25 6.125 0.5 2.5 0.5
9 0 1 0 0 0 1 0 0 0 1 17.2 -50.25 0.125 2.5 0.5 0.5
9 0 1 0 0 0 1 0 0 0 1 9.200001 -16.25 -1.875 2.5 0.5 0.5
9 0 1 0 0 0 1 0 0 0 1 3.200001 -14.25 6.125 2.5 0.5 0.5
9 0 1 0 0 0 1 0 0 0 1 46.2 -41.75 6.125 0.5 2 0.5
9 0 1 0 0 0 1 0 0 0 1 44.7 -44.75 -4.875 1 1 0.5
9 0 1 0 0 0 1 0 0 0 1 43.2 -61.75 0.125 0.5 2 0.5
9 0 1 0 0 0 1 0 0 0 1 39.2 -53.75 2.125 0.5 2 0.5
9 0 1 0 0 0 1 0 0 0 1 35.7 -48.25 -0.875 2 0.5 0.5
9 0 1 0 0 0 1 0 0 0 1 32.7 -43.75 1.125 1 1 0.5
9 0 1 0 0 0 1 0 0 0 1 31.2 -43.75 -0.375 0.5 1 1
9 0 1 0 0 0 1 0 0 0 1 30.7 -54.25 2.125 2 0.5 0.5
9 0 1 0 0 0 1 0 0 0 1 28.2 -37.75 1.125 0.5 2 0.5
9 0 1 0 0 0 1 0 0 0 1 26.7 -55.25 0.125 2 0.5 0.5
9 0 1 0 0 0 1 0 0 0 1 22.2 -31.75 -0.375 0.5 1 1
9 0 1 0 0 0 1 0 0 0 1 23.7 -51.25 0.125 2 0.5 0.5
9 0 1 0 0 0 1 0 0 0 1 19.2 -25.75 1.125 0.5 2 0.5
9 0 1 0 0 0 1 0 0 0 1 19.7 -54.25 0.125 2 0.5 0.5
9 0 1 0 0 0 1 0 0 0 1 13.7 -18.75 1.125 1 1 0.5
9 0 1 0 0 0 1 0 0 0 1 13.2 -19.75 -0.375 0.5 1 1
9 0 1 0 0 0 1 0 0 0 1 12.2 -16.75 1.125 0.5 2 0.5
9 0 1 0 0 0 1 0 0 0 1 10.2 -14.25 -4.375 0.5 0.5 2
9 0 1 0 0 0 1 0 0 0 1 9.200001 -11.75 5.625 0.5 1 1
9 0 1 0 0 0 1 0 0 0 1 9.700001 -18.25 0.125 2 0.5 0.5
9 0 1 0 0 0 1 0 0 0 1 7.200001 -16.25 3.625 0.5 0.5 2
9 0 1 0 0 0 1 0 0 0 1 6.700001 -16.25 -3.375 1 0.5 1
9 0 1 0 0 0 1 0 0 0 1 4.700001 -12.25 -3.375 1 0.5 1
9 0 1 0 0 0 1 0 0 0 1 4.700001 -12.25 3.625 1 0.5 1
9 0 1 0 0 0 1 0 0 0 1 1.700001 -13.25 4.625 1 0.5 1
9 0 1 0 0 0 1 0 0 0 1 -0.2999992 -2.25 -12.375 1 0.5 1
9 0 1 0 0 0 1 0 0 0 1 -2.299999 -17.25 4.125 2 0.5 0.5
9 0 1 0 0 0 1 0 0 0 1 -4.299999 -15.25 -5.875 2 0.5 0.5
9 0 1 0 0 0 1 0 0 0 1 -30.3 -21.25 6.125 2 0.5 0.5
9 0 1 0 0 0 1 0 0 0 1 48.2 -55.25 -3.875 0.5 1.5 0.5
9 0 1 0 0 0 1 0 0 0 1 43.2 -58.25 -1.875 1.5 0.5 0.5
9 0 1 0 0 0 1 0 0 0 1 37.2 -55.25 2.125 1.5 0.5 0.5
9 0 1 0 0 0 1 0 0 0 1 36.2 -48.25 1.125 1.5 0.5 0.5
9 0 1 0 0 0 1 0 0 0 1 33.2 -46.25 0.125 0.5 0.5 1.5
9 0 1 0 0 0 1 0 0 0 1 33.2 -50.25 0.125 0.5 1.5 0.5
9 0 1 0 0 0 1 0 0 0 1 33.2 -56.25 0.125 1.5 0.5 0.5
9 0 1 0 0 0 1 0 0 0 1 27.2 -38.25 0.125 0.5 0.5 1.5
9 0 1 0 0 0 1 0 0 0 1 26.2 -35.25 1.125 1.5 0.5 0.5
9 0 1 0 0 0 1 0 0 0 1 23.2 -32.25 1.125 0.5 1.5 0.5
9 0 1 0 0 0 1 0 0 0 1 20.2 -28.25 1.125 0.5 1.5 0.5
9 0 1 0 0 0 1 0 0 0 1 19.2 -52.25 2.125 1.5 0.5 0.5
9 0 1 0 0 0 1 0 0 0 1 17.2 -24.25 1.125 0.5 1.5 0.5
9 0 1 0 0 0 1 0 0 0 1 14.2 -51.25 2.125 1.5 0.5 0.5
9 0 1 0 0 0 1 0 0 0 1 14.2 -53.25 0.125 1.5 0.5 0.5
9 0 1 0 0 0 1 0 0 0 1 12.2 -45.25 0.125 0.5 1.5 0.5
9 0 1 0 0 0 1 0 0 0 1 9.200001 -11.25 -4.875 0.5 0.5 1.5
9 0 1 0 0 0 1 0 0 0 1 8.200001 -15.25 6.125 1.5 0.5 0.5
9 0 1 0 0 0 1 0 0 0 1 2.200001 -16.25 -4.875 1.5 0.5 0.5
9 0 1 0 0 0 1 0 0 0 1 -2.799999 -17.25 -4.875 1.5 0.5 0.5
9 0 1 0 0 0 1 0 0 0 1 -4.799999 -15.25 5.125 0.5 1.5 0.5
9 0 1 0 0 0 1 0 0 0 1 -24.8 -43.25 6.125 0.5 1.5 0.5
9 0 1 0 0 0 1 0 0 0 1 -30.8 -31.25 6.125 0.5 1.5 0.5
