9 0 1 0 0 0 1 0 0 0 1 7.5 -1.028999 0 2 4 1.5
9 0 1 0 0 0 1 0 0 0 1 7.5 -7.528999 0 1 2.5 1.5
9 0 1 0 0 0 1 0 0 0 1 7 8.471001 0 1.5 2.5 0.5
9 0 1 0 0 0 1 0 0 0 1 5 0.4710007 0 0.5 1.5 1.5
9 0 1 0 0 0 1 0 0 0 1 9 -6.028999 0 0.5 1 1.5
9 0 1 0 0 0 1 0 0 0 1 7 8.971001 1 0.5 3 0.5
9 0 1 0 0 0 1 0 0 0 1 7.5 -11.529 0 1 1.5 0.5
9 0 1 0 0 0 1 0 0 0 1 7 8.471001 -1 0.5 2.5 0.5
9 0 1 0 0 0 1 0 0 0 1 6 -7.528999 0 0.5 2.5 0.5
9 0 1 0 0 0 1 0 0 0 1 8 0.9710007 -2 0.5 2 0.5
9 0 1 0 0 0 1 0 0 0 1 9 -8.528999 0 0.5 1.5 0.5
9 0 1 0 0 0 1 0 0 0 1 7 1.471001 2 0.5 1.5 0.5
9 0 1 0 0 0 1 0 0 0 1 6 -0.5289993 -2 1.5 0.5 0.5
