9 0 1 0 0 0 1 0 0 0 1 -0.2189999 -25 -5.274998 16.5 1.5 2
9 0 1 0 0 0 1 0 0 0 1 -0.2189999 -25 5.725002 16.5 1.5 2
9 0 1 0 0 0 1 0 0 0 1 -0.2189999 -15.5 -5.274998 18.5 1 2
9 0 1 0 0 0 1 0 0 0 1 -0.2189999 -15.5 5.725002 18.5 1 2
9 0 1 0 0 0 1 0 0 0 1 0.2810001 -35.5 16.225 13 1 1.5
9 0 1 0 0 0 1 0 0 0 1 4.281 -36 -5.274998 1 9.5 2
9 0 1 0 0 0 1 0 0 0 1 4.281 -32 5.725002 1 5.5 2
9 0 1 0 0 0 1 0 0 0 1 -4.219 -36.5 -5.274998 0.5 10 2
9 0 1 0 0 0 1 0 0 0 1 0.2810001 -38.5 17.225 9 2 0.5
9 0 1 0 0 0 1 0 0 0 1 -0.7189999 -27.5 5.725002 4 1 2
9 0 1 0 0 0 1 0 0 0 1 -0.2189999 -36 13.725 14.5 0.5 1
9 0 1 0 0 0 1 0 0 0 1 -0.2189999 -27.5 -5.274998 3.5 1 2
9 0 1 0 0 0 1 0 0 0 1 -0.2189999 -38.5 -15.275 0.5 4 3
9 0 1 0 0 0 1 0 0 0 1 3.781 -41.5 6.225002 0.5 4 2.5
9 0 1 0 0 0 1 0 0 0 1 -4.219 -38.5 4.725002 0.5 10 1
9 0 1 0 0 0 1 0 0 0 1 0.2810001 -13.5 -6.274998 4 1 1
9 0 1 0 0 0 1 0 0 0 1 -0.2189999 -14 -3.774998 18.5 0.5 0.5
9 0 1 0 0 0 1 0 0 0 1 0.2810001 -13.5 6.725002 4 1 1
9 0 1 0 0 0 1 0 0 0 1 -5.219 -41.5 -5.274998 0.5 4 2
9 0 1 0 0 0 1 0 0 0 1 -0.2189999 -40 14.725 0.5 3.5 2
9 0 1 0 0 0 1 0 0 0 1 15.781 -26.5 8.225002 0.5 11 0.5
9 0 1 0 0 0 1 0 0 0 1 5.781 -37.5 -3.774998 0.5 11 0.5
9 0 1 0 0 0 1 0 0 0 1 -5.219 -37.5 4.225002 0.5 11 0.5
9 0 1 0 0 0 1 0 0 0 1 -16.219 -26 8.225002 0.5 10.5 0.5
9 0 1 0 0 0 1 0 0 0 1 3.281 -41.5 -7.774998 1 5 0.5
9 0 1 0 0 0 1 0 0 0 1 -4.219 -33 6.725002 0.5 4.5 1
9 0 1 0 0 0 1 0 0 0 1 -0.2189999 -41.5 17.225 4.5 1 0.5
9 0 1 0 0 0 1 0 0 0 1 -3.719 -41 -7.774998 1 4.5 0.5
9 0 1 0 0 0 1 0 0 0 1 0.2810001 -14 4.725002 4 0.5 1
9 0 1 0 0 0 1 0 0 0 1 -5.219 -30.5 -4.274998 0.5 4 1
9 0 1 0 0 0 1 0 0 0 1 8.781 -37 8.225002 6.5 0.5 0.5
9 0 1 0 0 0 1 0 0 0 1 6.781 -37 16.225 6.5 0.5 0.5
9 0 1 0 0 0 1 0 0 0 1 -9.219 -37 8.225002 6.5 0.5 0.5
9 0 1 0 0 0 1 0 0 0 1 4.281 -47 -4.274998 1 1.5 1
9 0 1 0 0 0 1 0 0 0 1 -6.719 -37 16.225 6 0.5 0.5
9 0 1 0 0 0 1 0 0 0 1 4.781 -43 4.225002 0.5 5.5 0.5
9 0 1 0 0 0 1 0 0 0 1 8.781 -32 -24.275 2.5 0.5 1
9 0 1 0 0 0 1 0 0 0 1 15.781 -19 10.225 0.5 1.5 1.5
9 0 1 0 0 0 1 0 0 0 1 15.781 -35 -9.774998 0.5 1.5 1.5
9 0 1 0 0 0 1 0 0 0 1 2.781 -42 8.225002 0.5 4.5 0.5
9 0 1 0 0 0 1 0 0 0 1 -3.219 -42 8.225002 0.5 4.5 0.5
9 0 1 0 0 0 1 0 0 0 1 -16.219 -19 10.225 0.5 1.5 1.5
9 0 1 0 0 0 1 0 0 0 1 17.281 -24.5 -4.274998 1 1 1
9 0 1 0 0 0 1 0 0 0 1 0.2810001 -14 -4.774998 4 0.5 0.5
9 0 1 0 0 0 1 0 0 0 1 -15.219 -14.5 -24.275 0.5 2 1
9 0 1 0 0 0 1 0 0 0 1 -17.719 -24.5 -4.274998 1 1 1
9 0 1 0 0 0 1 0 0 0 1 15.781 -35.5 10.225 0.5 1 1.5
9 0 1 0 0 0 1 0 0 0 1 3.781 -47 4.725002 0.5 1.5 1
9 0 1 0 0 0 1 0 0 0 1 0.7810001 -40.5 16.225 0.5 3 0.5
9 0 1 0 0 0 1 0 0 0 1 -0.2189999 -43.5 -13.775 0.5 1 1.5
9 0 1 0 0 0 1 0 0 0 1 -0.2189999 -35 13.725 1.5 0.5 1
9 0 1 0 0 0 1 0 0 0 1 -1.219 -40.5 16.225 0.5 3 0.5
9 0 1 0 0 0 1 0 0 0 1 -7.719 -33 -24.775 1 1.5 0.5
9 0 1 0 0 0 1 0 0 0 1 -9.719 -38 17.225 1 1.5 0.5
9 0 1 0 0 0 1 0 0 0 1 -16.219 -34.5 -9.774998 0.5 1 1.5
9 0 1 0 0 0 1 0 0 0 1 7.781 -12 0.2250023 0.5 0.5 2.5
9 0 1 0 0 0 1 0 0 0 1 -8.219 -12 0.2250023 0.5 0.5 2.5
9 0 1 0 0 0 1 0 0 0 1 17.281 -24 4.725002 1 0.5 1
9 0 1 0 0 0 1 0 0 0 1 15.781 -33.5 -13.275 0.5 1 1
9 0 1 0 0 0 1 0 0 0 1 14.781 -13.5 -25.775 0.5 2 0.5
9 0 1 0 0 0 1 0 0 0 1 14.781 -24.5 14.225 0.5 2 0.5
9 0 1 0 0 0 1 0 0 0 1 10.281 -37.5 17.225 1 1 0.5
9 0 1 0 0 0 1 0 0 0 1 7.281 -32 -26.275 1 0.5 1
9 0 1 0 0 0 1 0 0 0 1 7.281 -33 -25.275 1 0.5 1
9 0 1 0 0 0 1 0 0 0 1 4.781 -43.5 -7.774998 0.5 2 0.5
9 0 1 0 0 0 1 0 0 0 1 1.281 -33 -17.775 2 0.5 0.5
9 0 1 0 0 0 1 0 0 0 1 -4.219 -47.5 -4.274998 0.5 1 1
9 0 1 0 0 0 1 0 0 0 1 -5.219 -46.5 -4.274998 0.5 1 1
9 0 1 0 0 0 1 0 0 0 1 -13.219 -35.5 15.725 0.5 1 1
9 0 1 0 0 0 1 0 0 0 1 -15.219 -22.5 13.225 0.5 2 0.5
9 0 1 0 0 0 1 0 0 0 1 -17.719 -24 4.725002 1 0.5 1
9 0 1 0 0 0 1 0 0 0 1 15.781 -25 -7.774998 0.5 1.5 0.5
9 0 1 0 0 0 1 0 0 0 1 13.781 7 -3.774998 1.5 0.5 0.5
9 0 1 0 0 0 1 0 0 0 1 8.781 -37 9.225002 1.5 0.5 0.5
9 0 1 0 0 0 1 0 0 0 1 5.781 -41 17.225 1.5 0.5 0.5
9 0 1 0 0 0 1 0 0 0 1 3.781 -47 -5.774998 0.5 1.5 0.5
9 0 1 0 0 0 1 0 0 0 1 2.781 -13 5.225002 1.5 0.5 0.5
9 0 1 0 0 0 1 0 0 0 1 -5.219 -27 6.225002 0.5 0.5 1.5
9 0 1 0 0 0 1 0 0 0 1 -5.219 -36 -3.774998 0.5 1.5 0.5
9 0 1 0 0 0 1 0 0 0 1 -8.219 -32 -25.775 1.5 0.5 0.5
9 0 1 0 0 0 1 0 0 0 1 -9.219 -37 9.225002 1.5 0.5 0.5
9 0 1 0 0 0 1 0 0 0 1 -16.219 -25 -7.774998 0.5 1.5 0.5
9 0 1 0 0 0 1 0 0 0 1 -16.219 -33 -13.775 0.5 0.5 1.5
9 0 1 0 0 0 1 0 0 0 1 -16.219 -35 10.225 0.5 0.5 1.5
