9 0 1 0 0 0 1 0 0 0 1 -0.2130051 -10.175 -0.1759987 0.5 8.5 4.5
9 0 1 0 0 0 1 0 0 0 1 13.78699 3.824997 -0.1759987 2.5 2.5 1.5
9 0 1 0 0 0 1 0 0 0 1 -13.71301 3.824997 -0.1759987 2 2.5 1.5
9 0 1 0 0 0 1 0 0 0 1 -0.2130051 -80.175 -0.1759987 3.5 3.5 0.5
9 0 1 0 0 0 1 0 0 0 1 -13.21301 -22.175 -1.175999 1.5 6.5 0.5
9 0 1 0 0 0 1 0 0 0 1 13.28699 -22.175 -1.175999 1 6.5 0.5
9 0 1 0 0 0 1 0 0 0 1 15.28699 -30.675 -2.175999 1 2 1.5
9 0 1 0 0 0 1 0 0 0 1 3.786995 -10.175 -0.1759987 0.5 8.5 0.5
9 0 1 0 0 0 1 0 0 0 1 -4.213005 -10.175 -0.1759987 0.5 8.5 0.5
9 0 1 0 0 0 1 0 0 0 1 -14.71301 -30.675 -2.675999 1 2 1
9 0 1 0 0 0 1 0 0 0 1 -15.71301 -30.675 -1.175999 1 4 0.5
9 0 1 0 0 0 1 0 0 0 1 13.78699 3.824997 -2.175999 2.5 1.5 0.5
9 0 1 0 0 0 1 0 0 0 1 -13.71301 3.824997 -2.175999 2 1.5 0.5
9 0 1 0 0 0 1 0 0 0 1 -16.21301 4.324997 -0.1759987 0.5 2 1.5
9 0 1 0 0 0 1 0 0 0 1 13.78699 -7.675003 -0.1759987 0.5 5 0.5
9 0 1 0 0 0 1 0 0 0 1 13.78699 6.824997 0.3240013 2.5 0.5 1
9 0 1 0 0 0 1 0 0 0 1 -13.21301 -7.675003 -0.1759987 0.5 5 0.5
9 0 1 0 0 0 1 0 0 0 1 -14.21301 6.824997 0.3240013 2.5 0.5 1
9 0 1 0 0 0 1 0 0 0 1 13.78699 -30.675 -2.675999 0.5 2 1
9 0 1 0 0 0 1 0 0 0 1 -7.213005 -36.175 -2.675999 0.5 0.5 4
9 0 1 0 0 0 1 0 0 0 1 -8.213005 -41.175 -5.175999 0.5 3.5 0.5
9 0 1 0 0 0 1 0 0 0 1 6.786995 -22.675 -0.1759987 0.5 1 1.5
9 0 1 0 0 0 1 0 0 0 1 5.786995 -22.175 -0.1759987 0.5 0.5 3.5
9 0 1 0 0 0 1 0 0 0 1 3.786995 -40.175 5.324001 0.5 0.5 3
9 0 1 0 0 0 1 0 0 0 1 -6.213005 -22.175 0.3240013 0.5 0.5 3
9 0 1 0 0 0 1 0 0 0 1 12.78699 -10.175 -0.1759987 0.5 2.5 0.5
9 0 1 0 0 0 1 0 0 0 1 13.78699 0.8249969 0.8240013 2.5 0.5 0.5
9 0 1 0 0 0 1 0 0 0 1 13.78699 -28.175 -2.175999 2.5 0.5 0.5
9 0 1 0 0 0 1 0 0 0 1 -13.21301 -28.175 -2.175999 2.5 0.5 0.5
9 0 1 0 0 0 1 0 0 0 1 -14.21301 0.8249969 0.8240013 2.5 0.5 0.5
9 0 1 0 0 0 1 0 0 0 1 15.28699 -27.675 -1.175999 1 1 0.5
9 0 1 0 0 0 1 0 0 0 1 15.28699 -33.175 -1.675999 1 0.5 1
9 0 1 0 0 0 1 0 0 0 1 8.786995 -39.675 -5.175999 0.5 2 0.5
9 0 1 0 0 0 1 0 0 0 1 4.286995 -79.675 -0.1759987 1 1 0.5
9 0 1 0 0 0 1 0 0 0 1 0.2869949 -75.675 -0.1759987 1 1 0.5
9 0 1 0 0 0 1 0 0 0 1 0.2869949 -84.175 -0.1759987 2 0.5 0.5
9 0 1 0 0 0 1 0 0 0 1 -4.213005 -79.675 -0.1759987 0.5 2 0.5
9 0 1 0 0 0 1 0 0 0 1 -13.21301 -30.675 -3.175999 0.5 2 0.5
9 0 1 0 0 0 1 0 0 0 1 14.78699 -17.175 -1.175999 0.5 1.5 0.5
9 0 1 0 0 0 1 0 0 0 1 12.78699 -30.175 -3.175999 0.5 1.5 0.5
9 0 1 0 0 0 1 0 0 0 1 11.78699 -22.175 -1.175999 0.5 1.5 0.5
9 0 1 0 0 0 1 0 0 0 1 -13.21301 6.824997 -1.175999 1.5 0.5 0.5
