9 0 1 0 0 0 1 0 0 0 1 -15.606 -80.46301 0 12.5 5.5 1.5
9 0 1 0 0 0 1 0 0 0 1 -11.106 -161.963 0 5 9 1.5
9 0 1 0 0 0 1 0 0 0 1 2.893997 -112.463 0 9 4.5 1.5
9 0 1 0 0 0 1 0 0 0 1 0.3939972 -73.96301 -0.5 3.5 8 2
9 0 1 0 0 0 1 0 0 0 1 -0.6060028 -191.963 0 7.5 4 1.5
9 0 1 0 0 0 1 0 0 0 1 -9.106003 -93.46301 1.5 6 7.5 1
9 0 1 0 0 0 1 0 0 0 1 23.894 -190.463 0 3 9.5 1.5
9 0 1 0 0 0 1 0 0 0 1 -0.1060028 -10.46301 0 1 8.5 4.5
9 0 1 0 0 0 1 0 0 0 1 -20.106 -218.963 0 2 12 1.5
9 0 1 0 0 0 1 0 0 0 1 23.394 -146.963 0 1.5 15 1.5
9 0 1 0 0 0 1 0 0 0 1 9.893997 -155.463 0 5 4.5 1.5
9 0 1 0 0 0 1 0 0 0 1 -7.606003 -70.96301 0 4.5 4 1.5
9 0 1 0 0 0 1 0 0 0 1 -23.106 -130.963 0 3 6 1.5
9 0 1 0 0 0 1 0 0 0 1 -11.606 -102.963 0 3.5 2 3.5
9 0 1 0 0 0 1 0 0 0 1 -5.106003 -132.463 0 1 15.5 1.5
9 0 1 0 0 0 1 0 0 0 1 16.894 -163.463 0 2 7.5 1.5
9 0 1 0 0 0 1 0 0 0 1 1.893997 -167.963 0 3 3 2.5
9 0 1 0 0 0 1 0 0 0 1 25.894 -78.96301 0 2 7 1.5
9 0 1 0 0 0 1 0 0 0 1 -4.106003 -241.463 0 2 6.5 1.5
9 0 1 0 0 0 1 0 0 0 1 -3.106003 -76.46301 2 7 5.5 0.5
9 0 1 0 0 0 1 0 0 0 1 -2.106003 -140.463 0 2 3.5 2.5
9 0 1 0 0 0 1 0 0 0 1 0.3939972 -203.463 0 1.5 7.5 1.5
9 0 1 0 0 0 1 0 0 0 1 17.894 -208.463 0 2 5.5 1.5
9 0 1 0 0 0 1 0 0 0 1 28.394 -203.963 0 1.5 7 1.5
9 0 1 0 0 0 1 0 0 0 1 -8.606003 -80.46301 -2 5.5 5.5 0.5
9 0 1 0 0 0 1 0 0 0 1 -26.106 -186.463 0 4 2.5 1.5
9 0 1 0 0 0 1 0 0 0 1 7.393997 -90.46301 -4.5 2.5 5.5 1
9 0 1 0 0 0 1 0 0 0 1 5.893997 -147.963 0 3 3 1.5
9 0 1 0 0 0 1 0 0 0 1 29.394 -90.46301 0 2.5 3.5 1.5
9 0 1 0 0 0 1 0 0 0 1 20.394 -73.46301 0 3.5 2.5 1.5
9 0 1 0 0 0 1 0 0 0 1 14.394 -199.463 0 2.5 3.5 1.5
9 0 1 0 0 0 1 0 0 0 1 -1.606003 -175.463 0 1.5 3.5 2.5
9 0 1 0 0 0 1 0 0 0 1 -21.606 -234.463 0 1.5 3.5 2.5
9 0 1 0 0 0 1 0 0 0 1 -9.106003 -99.96301 -1.5 6 1 2
9 0 1 0 0 0 1 0 0 0 1 21.394 -137.963 0 0.5 15 1.5
9 0 1 0 0 0 1 0 0 0 1 21.394 -174.963 0 1.5 5 1.5
9 0 1 0 0 0 1 0 0 0 1 -1.106003 -64.46301 0 5 1.5 1.5
9 0 1 0 0 0 1 0 0 0 1 -18.106 -87.46301 0 3 1.5 2.5
9 0 1 0 0 0 1 0 0 0 1 9.893997 -123.963 0 1 7 1.5
9 0 1 0 0 0 1 0 0 0 1 -13.606 -148.463 0 4.5 4.5 0.5
9 0 1 0 0 0 1 0 0 0 1 -23.606 -56.96301 0 2.5 8 0.5
9 0 1 0 0 0 1 0 0 0 1 15.394 -68.46301 0 2.5 2.5 1.5
9 0 1 0 0 0 1 0 0 0 1 9.393997 -195.463 0 2.5 2.5 1.5
9 0 1 0 0 0 1 0 0 0 1 34.894 -135.463 0 2 8.5 0.5
9 0 1 0 0 0 1 0 0 0 1 -25.106 -164.463 0 2 8.5 0.5
9 0 1 0 0 0 1 0 0 0 1 27.394 -123.963 0 5.5 3 0.5
9 0 1 0 0 0 1 0 0 0 1 14.894 -135.963 0.5 2 2 2
9 0 1 0 0 0 1 0 0 0 1 -14.106 -81.96301 2 4 4 0.5
9 0 1 0 0 0 1 0 0 0 1 -20.606 -121.463 0 1.5 3.5 1.5
9 0 1 0 0 0 1 0 0 0 1 -19.606 -170.463 0 3.5 1.5 1.5
9 0 1 0 0 0 1 0 0 0 1 -26.606 -192.463 0 1.5 3.5 1.5
9 0 1 0 0 0 1 0 0 0 1 3.893997 -162.463 0 2 2.5 1.5
9 0 1 0 0 0 1 0 0 0 1 4.393997 -185.963 0 2.5 2 1.5
9 0 1 0 0 0 1 0 0 0 1 -14.106 -72.46301 0 2 2.5 1.5
9 0 1 0 0 0 1 0 0 0 1 -26.106 -69.96301 0 3 5 0.5
9 0 1 0 0 0 1 0 0 0 1 14.894 -188.963 0 2 7 0.5
9 0 1 0 0 0 1 0 0 0 1 -17.106 -224.463 0.5 1 3.5 2
9 0 1 0 0 0 1 0 0 0 1 -19.106 -46.96301 0 2 7 0.5
9 0 1 0 0 0 1 0 0 0 1 -30.106 -124.463 0 4 3.5 0.5
9 0 1 0 0 0 1 0 0 0 1 4.393997 -76.46301 0 0.5 5.5 2.5
9 0 1 0 0 0 1 0 0 0 1 9.893997 -60.46301 0 1 4.5 1.5
9 0 1 0 0 0 1 0 0 0 1 -25.606 -86.96301 0 4.5 1 1.5
9 0 1 0 0 0 1 0 0 0 1 -0.1060028 -213.463 0 1 2.5 2.5
9 0 1 0 0 0 1 0 0 0 1 -19.106 -241.463 0 1 2.5 2.5
9 0 1 0 0 0 1 0 0 0 1 15.394 -111.463 0 3.5 3.5 0.5
9 0 1 0 0 0 1 0 0 0 1 23.394 -153.963 -2 1.5 8 0.5
9 0 1 0 0 0 1 0 0 0 1 -7.106003 -97.96301 3 4 3 0.5
9 0 1 0 0 0 1 0 0 0 1 -5.106003 -136.463 2 1 11.5 0.5
9 0 1 0 0 0 1 0 0 0 1 23.394 -154.463 2 1.5 7.5 0.5
9 0 1 0 0 0 1 0 0 0 1 19.394 -217.463 0 1.5 2.5 1.5
9 0 1 0 0 0 1 0 0 0 1 12.394 -129.463 0 1.5 2.5 1.5
9 0 1 0 0 0 1 0 0 0 1 1.393997 -138.463 0 1.5 1.5 2.5
9 0 1 0 0 0 1 0 0 0 1 -3.606003 -132.463 0 0.5 4.5 2.5
9 0 1 0 0 0 1 0 0 0 1 -5.106003 -136.463 -2 1 11.5 0.5
9 0 1 0 0 0 1 0 0 0 1 -7.606003 -125.463 0 1.5 2.5 1.5
9 0 1 0 0 0 1 0 0 0 1 -15.606 -93.46301 0 0.5 4.5 2.5
9 0 1 0 0 0 1 0 0 0 1 -24.606 -139.463 0 1.5 2.5 1.5
9 0 1 0 0 0 1 0 0 0 1 19.894 -140.463 0 1 3.5 1.5
9 0 1 0 0 0 1 0 0 0 1 12.394 -147.963 0 3.5 3 0.5
9 0 1 0 0 0 1 0 0 0 1 -6.606003 -101.963 0 1.5 1 3.5
9 0 1 0 0 0 1 0 0 0 1 -19.106 -128.463 0 1 3.5 1.5
9 0 1 0 0 0 1 0 0 0 1 -34.606 -134.963 0 1.5 7 0.5
9 0 1 0 0 0 1 0 0 0 1 28.894 -212.963 0 1 2 2.5
9 0 1 0 0 0 1 0 0 0 1 23.394 -195.963 -2 2.5 4 0.5
9 0 1 0 0 0 1 0 0 0 1 23.394 -195.963 2 2.5 4 0.5
9 0 1 0 0 0 1 0 0 0 1 14.894 -40.46301 0 4 2.5 0.5
9 0 1 0 0 0 1 0 0 0 1 3.893997 -93.96301 -4.5 1 5 1
9 0 1 0 0 0 1 0 0 0 1 5.393997 -179.963 0 2.5 4 0.5
9 0 1 0 0 0 1 0 0 0 1 -14.606 -40.96301 0 2.5 4 0.5
9 0 1 0 0 0 1 0 0 0 1 33.894 -147.963 0 1 3 1.5
9 0 1 0 0 0 1 0 0 0 1 30.394 -206.963 0 0.5 6 1.5
9 0 1 0 0 0 1 0 0 0 1 27.394 -190.963 0 0.5 6 1.5
9 0 1 0 0 0 1 0 0 0 1 10.894 -103.463 0 2 4.5 0.5
9 0 1 0 0 0 1 0 0 0 1 9.893997 -241.463 0 2 1.5 1.5
9 0 1 0 0 0 1 0 0 0 1 3.393997 -197.963 0 1.5 2 1.5
9 0 1 0 0 0 1 0 0 0 1 0.3939972 -105.963 0 1.5 2 1.5
9 0 1 0 0 0 1 0 0 0 1 -1.106003 -117.963 0 3 1 1.5
9 0 1 0 0 0 1 0 0 0 1 -6.106003 -71.96301 -2 3 3 0.5
9 0 1 0 0 0 1 0 0 0 1 -17.106 -209.963 0 1 3 1.5
9 0 1 0 0 0 1 0 0 0 1 25.394 -160.463 0 0.5 3.5 2.5
9 0 1 0 0 0 1 0 0 0 1 -12.606 -105.463 0 2.5 0.5 3.5
9 0 1 0 0 0 1 0 0 0 1 -19.106 -109.463 0 1 8.5 0.5
9 0 1 0 0 0 1 0 0 0 1 25.394 -146.463 0 0.5 5.5 1.5
9 0 1 0 0 0 1 0 0 0 1 -22.606 -212.463 0 0.5 5.5 1.5
9 0 1 0 0 0 1 0 0 0 1 10.894 -87.96301 -4.5 1 4 1
9 0 1 0 0 0 1 0 0 0 1 7.893997 -128.963 0.5 1 2 2
9 0 1 0 0 0 1 0 0 0 1 3.893997 -134.963 -0.5 1 2 2
9 0 1 0 0 0 1 0 0 0 1 28.894 -84.46301 0 1 2.5 1.5
9 0 1 0 0 0 1 0 0 0 1 27.394 -65.96301 0 1.5 5 0.5
9 0 1 0 0 0 1 0 0 0 1 26.894 -218.463 0 1 1.5 2.5
9 0 1 0 0 0 1 0 0 0 1 23.894 -163.463 0 1 1.5 2.5
9 0 1 0 0 0 1 0 0 0 1 23.894 -178.463 0 1 2.5 1.5
9 0 1 0 0 0 1 0 0 0 1 22.894 -78.46301 0 1 2.5 1.5
9 0 1 0 0 0 1 0 0 0 1 22.894 -129.463 0 1 2.5 1.5
9 0 1 0 0 0 1 0 0 0 1 14.894 -205.463 0 1 2.5 1.5
9 0 1 0 0 0 1 0 0 0 1 5.893997 -132.463 0 1 1.5 2.5
9 0 1 0 0 0 1 0 0 0 1 5.393997 -167.963 0 0.5 3 2.5
9 0 1 0 0 0 1 0 0 0 1 1.893997 -149.463 0 1 2.5 1.5
9 0 1 0 0 0 1 0 0 0 1 1.393997 -61.96301 0 2.5 1 1.5
9 0 1 0 0 0 1 0 0 0 1 0.8939972 -171.463 0 3 0.5 2.5
9 0 1 0 0 0 1 0 0 0 1 -2.606003 -94.96301 2 0.5 5 1.5
9 0 1 0 0 0 1 0 0 0 1 -4.106003 -175.463 0 1 1.5 2.5
9 0 1 0 0 0 1 0 0 0 1 -7.606003 -252.963 0 0.5 5 1.5
9 0 1 0 0 0 1 0 0 0 1 -16.106 -174.463 0 1 2.5 1.5
9 0 1 0 0 0 1 0 0 0 1 -17.106 -245.463 0 1 1.5 2.5
9 0 1 0 0 0 1 0 0 0 1 -21.106 -239.463 0 1 1.5 2.5
9 0 1 0 0 0 1 0 0 0 1 -6.606003 -83.96301 2 3.5 2 0.5
9 0 1 0 0 0 1 0 0 0 1 -16.106 -82.46301 -2 2 3.5 0.5
9 0 1 0 0 0 1 0 0 0 1 -24.106 -121.463 0 2 3.5 0.5
9 0 1 0 0 0 1 0 0 0 1 29.394 -116.463 0 1.5 4.5 0.5
9 0 1 0 0 0 1 0 0 0 1 28.394 -206.463 -2 1.5 4.5 0.5
9 0 1 0 0 0 1 0 0 0 1 19.394 -169.463 0 0.5 4.5 1.5
9 0 1 0 0 0 1 0 0 0 1 19.394 -69.46301 0 1.5 1.5 1.5
9 0 1 0 0 0 1 0 0 0 1 -7.606003 -65.46301 0 1.5 1.5 1.5
9 0 1 0 0 0 1 0 0 0 1 -7.606003 -110.463 0 1.5 1.5 1.5
9 0 1 0 0 0 1 0 0 0 1 -9.606003 -197.463 0 1.5 1.5 1.5
9 0 1 0 0 0 1 0 0 0 1 -34.606 -98.46301 0 0.5 4.5 1.5
9 0 1 0 0 0 1 0 0 0 1 26.394 -202.463 0 0.5 2.5 2.5
9 0 1 0 0 0 1 0 0 0 1 -15.606 -222.463 0 0.5 2.5 2.5
9 0 1 0 0 0 1 0 0 0 1 28.894 -207.963 2 2 3 0.5
9 0 1 0 0 0 1 0 0 0 1 25.394 -53.96301 0 1.5 4 0.5
9 0 1 0 0 0 1 0 0 0 1 20.894 -117.963 0 2 3 0.5
9 0 1 0 0 0 1 0 0 0 1 17.894 -116.963 0 1 2 1.5
9 0 1 0 0 0 1 0 0 0 1 13.894 -132.963 0 2 1 1.5
9 0 1 0 0 0 1 0 0 0 1 12.894 -64.96301 0 2 1 1.5
9 0 1 0 0 0 1 0 0 0 1 10.394 -184.963 -5 1.5 4 0.5
9 0 1 0 0 0 1 0 0 0 1 -7.106003 -215.963 0 2 3 0.5
9 0 1 0 0 0 1 0 0 0 1 -26.606 -131.963 0 0.5 4 1.5
9 0 1 0 0 0 1 0 0 0 1 -31.106 -149.963 0 1 2 1.5
9 0 1 0 0 0 1 0 0 0 1 31.394 -130.463 0 1.5 3.5 0.5
9 0 1 0 0 0 1 0 0 0 1 11.394 -53.46301 0 0.5 3.5 1.5
9 0 1 0 0 0 1 0 0 0 1 5.393997 -107.463 0 3.5 0.5 1.5
9 0 1 0 0 0 1 0 0 0 1 -5.606003 -156.463 0 0.5 3.5 1.5
9 0 1 0 0 0 1 0 0 0 1 -20.606 -203.463 0 1.5 3.5 0.5
9 0 1 0 0 0 1 0 0 0 1 -23.606 -232.463 0 0.5 3.5 1.5
9 0 1 0 0 0 1 0 0 0 1 -29.606 -180.463 0 1.5 3.5 0.5
9 0 1 0 0 0 1 0 0 0 1 -28.606 -88.46301 0 3.5 0.5 1.5
9 0 1 0 0 0 1 0 0 0 1 27.894 -215.963 0 1 1 2.5
9 0 1 0 0 0 1 0 0 0 1 20.394 -145.963 0 0.5 2 2.5
9 0 1 0 0 0 1 0 0 0 1 18.394 -138.963 0 0.5 2 2.5
9 0 1 0 0 0 1 0 0 0 1 14.394 -112.963 1 2.5 2 0.5
9 0 1 0 0 0 1 0 0 0 1 -1.606003 -180.963 0 0.5 2 2.5
9 0 1 0 0 0 1 0 0 0 1 -2.106003 -229.963 0 1 5 0.5
9 0 1 0 0 0 1 0 0 0 1 -3.106003 -144.963 0 1 1 2.5
9 0 1 0 0 0 1 0 0 0 1 -8.106003 -168.463 -2 2 2.5 0.5
9 0 1 0 0 0 1 0 0 0 1 -8.106003 -168.463 2 2 2.5 0.5
9 0 1 0 0 0 1 0 0 0 1 -10.106 -138.963 0 1 5 0.5
9 0 1 0 0 0 1 0 0 0 1 -11.106 -150.463 -1 2 2.5 0.5
9 0 1 0 0 0 1 0 0 0 1 -11.106 -150.463 1 2 2.5 0.5
9 0 1 0 0 0 1 0 0 0 1 -16.606 -90.96301 0 0.5 2 2.5
9 0 1 0 0 0 1 0 0 0 1 29.894 -95.46301 0 1 1.5 1.5
9 0 1 0 0 0 1 0 0 0 1 25.894 -87.46301 0 1 1.5 1.5
9 0 1 0 0 0 1 0 0 0 1 13.894 -161.463 0 1 1.5 1.5
9 0 1 0 0 0 1 0 0 0 1 13.394 -111.963 -1 1.5 3 0.5
9 0 1 0 0 0 1 0 0 0 1 12.394 -45.96301 0 1.5 3 0.5
9 0 1 0 0 0 1 0 0 0 1 7.893997 -59.46301 0 1 1.5 1.5
9 0 1 0 0 0 1 0 0 0 1 7.893997 -191.463 0 1 1.5 1.5
9 0 1 0 0 0 1 0 0 0 1 6.393997 -97.46301 -4.5 1.5 1.5 1
9 0 1 0 0 0 1 0 0 0 1 2.393997 -103.963 0 0.5 3 1.5
9 0 1 0 0 0 1 0 0 0 1 2.393997 -202.963 0 0.5 3 1.5
9 0 1 0 0 0 1 0 0 0 1 1.393997 -94.96301 0 0.5 9 0.5
9 0 1 0 0 0 1 0 0 0 1 0.8939972 -163.463 0 1 1.5 1.5
9 0 1 0 0 0 1 0 0 0 1 -2.606003 -106.963 0 1.5 1 1.5
9 0 1 0 0 0 1 0 0 0 1 -10.106 -225.463 0 1 4.5 0.5
9 0 1 0 0 0 1 0 0 0 1 -13.606 -171.963 0 1.5 1 1.5
9 0 1 0 0 0 1 0 0 0 1 -14.106 -204.463 0 1 1.5 1.5
9 0 1 0 0 0 1 0 0 0 1 -17.106 -73.46301 0 1 1.5 1.5
9 0 1 0 0 0 1 0 0 0 1 -17.106 -114.463 0 1 1.5 1.5
9 0 1 0 0 0 1 0 0 0 1 -18.106 -178.463 0 1 1.5 1.5
9 0 1 0 0 0 1 0 0 0 1 -20.106 -181.463 0 1 1.5 1.5
9 0 1 0 0 0 1 0 0 0 1 -24.606 -71.96301 -1 1.5 3 0.5
9 0 1 0 0 0 1 0 0 0 1 -27.606 -54.96301 0 1.5 3 0.5
9 0 1 0 0 0 1 0 0 0 1 -32.106 -146.463 0 1 1.5 1.5
9 0 1 0 0 0 1 0 0 0 1 7.393997 -36.46301 0 0.5 0.5 8.5
9 0 1 0 0 0 1 0 0 0 1 4.393997 -10.46301 0 0.5 8.5 0.5
9 0 1 0 0 0 1 0 0 0 1 -4.606003 -10.46301 0 0.5 8.5 0.5
9 0 1 0 0 0 1 0 0 0 1 -7.606003 -36.46301 0 0.5 0.5 8.5
9 0 1 0 0 0 1 0 0 0 1 -7.606003 -43.46301 0 0.5 0.5 8.5
9 0 1 0 0 0 1 0 0 0 1 15.894 -90.96301 0 2 2 0.5
9 0 1 0 0 0 1 0 0 0 1 7.893997 -142.963 0 2 2 0.5
9 0 1 0 0 0 1 0 0 0 1 -2.606003 -97.96301 -1.5 0.5 2 2
9 0 1 0 0 0 1 0 0 0 1 -13.106 -136.963 4 1 4 0.5
9 0 1 0 0 0 1 0 0 0 1 -19.106 -227.963 -2 2 2 0.5
9 0 1 0 0 0 1 0 0 0 1 -22.106 -166.963 0.5 1 2 1
9 0 1 0 0 0 1 0 0 0 1 26.394 -149.463 0 0.5 2.5 1.5
9 0 1 0 0 0 1 0 0 0 1 20.394 -123.463 0 0.5 2.5 1.5
9 0 1 0 0 0 1 0 0 0 1 16.394 -153.463 0 1.5 2.5 0.5
9 0 1 0 0 0 1 0 0 0 1 13.394 -238.463 0 1.5 2.5 0.5
9 0 1 0 0 0 1 0 0 0 1 9.393997 -238.963 0 1.5 1 1.5
9 0 1 0 0 0 1 0 0 0 1 0.3939972 -208.463 -2 1.5 2.5 0.5
9 0 1 0 0 0 1 0 0 0 1 0.3939972 -208.463 2 1.5 2.5 0.5
9 0 1 0 0 0 1 0 0 0 1 -0.6060028 -217.463 0 0.5 1.5 2.5
9 0 1 0 0 0 1 0 0 0 1 -1.606003 -198.463 0 0.5 2.5 1.5
9 0 1 0 0 0 1 0 0 0 1 -1.606003 -82.46301 0 1.5 0.5 2.5
9 0 1 0 0 0 1 0 0 0 1 -2.606003 -135.463 0 0.5 1.5 2.5
9 0 1 0 0 0 1 0 0 0 1 -6.606003 -129.463 0 0.5 1.5 2.5
9 0 1 0 0 0 1 0 0 0 1 -8.606003 -193.463 0 0.5 2.5 1.5
9 0 1 0 0 0 1 0 0 0 1 -12.606 -76.46301 2 2.5 1.5 0.5
9 0 1 0 0 0 1 0 0 0 1 -14.606 -220.463 0 0.5 1.5 2.5
9 0 1 0 0 0 1 0 0 0 1 -19.606 -228.463 2 1.5 2.5 0.5
9 0 1 0 0 0 1 0 0 0 1 -20.606 -98.46301 0 1.5 2.5 0.5
9 0 1 0 0 0 1 0 0 0 1 -22.606 -228.463 0 0.5 2.5 1.5
9 0 1 0 0 0 1 0 0 0 1 25.894 -220.463 0 1 0.5 3.5
9 0 1 0 0 0 1 0 0 0 1 -13.106 -106.463 0 1 0.5 3.5
9 0 1 0 0 0 1 0 0 0 1 -15.606 -247.963 0 0.5 1 3.5
9 0 1 0 0 0 1 0 0 0 1 -25.106 -71.46301 1 1 3.5 0.5
9 0 1 0 0 0 1 0 0 0 1 33.394 -104.963 0 0.5 2 1.5
9 0 1 0 0 0 1 0 0 0 1 32.894 -92.96301 0 1 1 1.5
9 0 1 0 0 0 1 0 0 0 1 28.394 -194.963 0 0.5 2 1.5
9 0 1 0 0 0 1 0 0 0 1 23.394 -124.963 -1 1.5 2 0.5
9 0 1 0 0 0 1 0 0 0 1 23.394 -124.963 1 1.5 2 0.5
9 0 1 0 0 0 1 0 0 0 1 21.894 -188.963 2 1 3 0.5
9 0 1 0 0 0 1 0 0 0 1 19.894 -220.963 0 1 1 1.5
9 0 1 0 0 0 1 0 0 0 1 17.394 -137.463 0.5 0.5 1.5 2
9 0 1 0 0 0 1 0 0 0 1 15.894 -71.96301 0 1 1 1.5
9 0 1 0 0 0 1 0 0 0 1 15.894 -178.963 0 1 3 0.5
9 0 1 0 0 0 1 0 0 0 1 14.894 -136.463 -2 2 1.5 0.5
9 0 1 0 0 0 1 0 0 0 1 12.894 -36.46301 0 2 1.5 0.5
9 0 1 0 0 0 1 0 0 0 1 11.894 -66.96301 0 1 1 1.5
9 0 1 0 0 0 1 0 0 0 1 11.894 -219.963 0 1 3 0.5
9 0 1 0 0 0 1 0 0 0 1 10.894 -198.963 0 1 1 1.5
9 0 1 0 0 0 1 0 0 0 1 10.894 -149.463 -1 2 1.5 0.5
9 0 1 0 0 0 1 0 0 0 1 10.894 -149.463 1 2 1.5 0.5
9 0 1 0 0 0 1 0 0 0 1 7.893997 -105.963 0 1 1 1.5
9 0 1 0 0 0 1 0 0 0 1 5.893997 -196.963 0 1 1 1.5
9 0 1 0 0 0 1 0 0 0 1 5.393997 -100.963 -5 1.5 2 0.5
9 0 1 0 0 0 1 0 0 0 1 4.893997 -60.46301 0 2 0.5 1.5
9 0 1 0 0 0 1 0 0 0 1 3.893997 -151.963 0 1 1 1.5
9 0 1 0 0 0 1 0 0 0 1 2.393997 -68.96301 2 1.5 2 0.5
9 0 1 0 0 0 1 0 0 0 1 0.3939972 -141.463 -0.5 0.5 1.5 2
9 0 1 0 0 0 1 0 0 0 1 -0.1060028 -150.963 0 1 1 1.5
9 0 1 0 0 0 1 0 0 0 1 -2.106003 -119.463 0 2 0.5 1.5
9 0 1 0 0 0 1 0 0 0 1 -5.106003 -186.963 0 1 1 1.5
9 0 1 0 0 0 1 0 0 0 1 -7.606003 -204.963 4 1.5 2 0.5
9 0 1 0 0 0 1 0 0 0 1 -9.106003 -257.963 0 1 1 1.5
9 0 1 0 0 0 1 0 0 0 1 -12.606 -200.963 0 0.5 2 1.5
9 0 1 0 0 0 1 0 0 0 1 -12.606 -98.96301 3 1.5 2 0.5
9 0 1 0 0 0 1 0 0 0 1 -15.106 -111.963 0 1 1 1.5
9 0 1 0 0 0 1 0 0 0 1 -15.106 -206.963 0 1 1 1.5
9 0 1 0 0 0 1 0 0 0 1 -16.106 -140.963 0 1 3 0.5
9 0 1 0 0 0 1 0 0 0 1 -16.606 -154.963 0 0.5 2 1.5
9 0 1 0 0 0 1 0 0 0 1 -17.606 -129.963 0 0.5 2 1.5
9 0 1 0 0 0 1 0 0 0 1 -19.106 -132.963 0 1 1 1.5
9 0 1 0 0 0 1 0 0 0 1 -19.606 -83.96301 2 1.5 2 0.5
9 0 1 0 0 0 1 0 0 0 1 -21.106 -183.963 0 1 1 1.5
9 0 1 0 0 0 1 0 0 0 1 -22.606 -66.96301 0 0.5 2 1.5
9 0 1 0 0 0 1 0 0 0 1 -24.106 -189.963 0 1 1 1.5
9 0 1 0 0 0 1 0 0 0 1 -27.106 -182.963 0 1 1 1.5
9 0 1 0 0 0 1 0 0 0 1 -27.106 -196.963 0 1 1 1.5
9 0 1 0 0 0 1 0 0 0 1 -30.106 -70.96301 0 1 3 0.5
9 0 1 0 0 0 1 0 0 0 1 -32.106 -152.963 0 1 1 1.5
9 0 1 0 0 0 1 0 0 0 1 -33.606 -93.96301 0 0.5 2 1.5
9 0 1 0 0 0 1 0 0 0 1 -33.106 -143.963 0 1 1 1.5
9 0 1 0 0 0 1 0 0 0 1 17.394 -188.463 0 0.5 5.5 0.5
9 0 1 0 0 0 1 0 0 0 1 33.894 -124.463 0 1 2.5 0.5
9 0 1 0 0 0 1 0 0 0 1 27.894 -202.463 2 1 2.5 0.5
9 0 1 0 0 0 1 0 0 0 1 25.394 -200.963 0 0.5 1 2.5
9 0 1 0 0 0 1 0 0 0 1 21.394 -147.963 -2 0.5 5 0.5
9 0 1 0 0 0 1 0 0 0 1 21.894 -189.463 -2 1 2.5 0.5
9 0 1 0 0 0 1 0 0 0 1 20.394 -197.963 0 0.5 1 2.5
9 0 1 0 0 0 1 0 0 0 1 13.894 -105.463 0 1 2.5 0.5
9 0 1 0 0 0 1 0 0 0 1 12.894 -84.46301 -4 1 2.5 0.5
9 0 1 0 0 0 1 0 0 0 1 7.393997 -43.46301 3.5 0.5 0.5 5
9 0 1 0 0 0 1 0 0 0 1 6.393997 -129.963 0 0.5 1 2.5
9 0 1 0 0 0 1 0 0 0 1 2.393997 -135.963 0 0.5 1 2.5
9 0 1 0 0 0 1 0 0 0 1 -1.606003 -169.963 0 0.5 1 2.5
9 0 1 0 0 0 1 0 0 0 1 -2.606003 -83.96301 0 0.5 1 2.5
9 0 1 0 0 0 1 0 0 0 1 -2.606003 -179.963 0 0.5 1 2.5
9 0 1 0 0 0 1 0 0 0 1 -5.606003 -93.96301 3 2.5 1 0.5
9 0 1 0 0 0 1 0 0 0 1 -7.606003 -171.963 0 0.5 1 2.5
9 0 1 0 0 0 1 0 0 0 1 -11.606 -37.96301 0 0.5 5 0.5
9 0 1 0 0 0 1 0 0 0 1 -17.606 -89.96301 0 0.5 1 2.5
9 0 1 0 0 0 1 0 0 0 1 -17.606 -242.963 0 0.5 1 2.5
9 0 1 0 0 0 1 0 0 0 1 -18.606 -244.963 0 0.5 1 2.5
9 0 1 0 0 0 1 0 0 0 1 -19.606 -231.963 0 0.5 1 2.5
9 0 1 0 0 0 1 0 0 0 1 -19.606 -237.963 0 0.5 1 2.5
9 0 1 0 0 0 1 0 0 0 1 -20.106 -56.46301 0 1 2.5 0.5
9 0 1 0 0 0 1 0 0 0 1 -21.606 -185.963 0 0.5 1 2.5
9 0 1 0 0 0 1 0 0 0 1 32.394 -102.463 0 0.5 1.5 1.5
9 0 1 0 0 0 1 0 0 0 1 31.394 -99.46301 0 0.5 1.5 1.5
9 0 1 0 0 0 1 0 0 0 1 28.394 -80.46301 0 0.5 1.5 1.5
9 0 1 0 0 0 1 0 0 0 1 26.394 -59.46301 0 1.5 1.5 0.5
9 0 1 0 0 0 1 0 0 0 1 25.394 -179.463 0 0.5 1.5 1.5
9 0 1 0 0 0 1 0 0 0 1 25.394 -71.46301 0 1.5 0.5 1.5
9 0 1 0 0 0 1 0 0 0 1 23.394 -174.463 0 0.5 1.5 1.5
9 0 1 0 0 0 1 0 0 0 1 23.394 -48.46301 0 1.5 1.5 0.5
9 0 1 0 0 0 1 0 0 0 1 22.394 -145.463 2 1.5 1.5 0.5
9 0 1 0 0 0 1 0 0 0 1 20.394 -76.46301 0 1.5 0.5 1.5
9 0 1 0 0 0 1 0 0 0 1 20.394 -142.463 2 1.5 1.5 0.5
9 0 1 0 0 0 1 0 0 0 1 18.394 -214.463 0 1.5 0.5 1.5
9 0 1 0 0 0 1 0 0 0 1 15.394 -209.463 0 0.5 1.5 1.5
9 0 1 0 0 0 1 0 0 0 1 14.394 -130.463 0 0.5 1.5 1.5
9 0 1 0 0 0 1 0 0 0 1 13.394 -95.46301 0 1.5 1.5 0.5
9 0 1 0 0 0 1 0 0 0 1 13.394 -194.463 -1 1.5 1.5 0.5
9 0 1 0 0 0 1 0 0 0 1 10.394 -54.46301 0 0.5 1.5 1.5
9 0 1 0 0 0 1 0 0 0 1 8.393997 -129.463 -2 1.5 1.5 0.5
9 0 1 0 0 0 1 0 0 0 1 -4.606003 -66.46301 0 1.5 0.5 1.5
9 0 1 0 0 0 1 0 0 0 1 -7.606003 -197.463 0 0.5 1.5 1.5
9 0 1 0 0 0 1 0 0 0 1 -9.606003 -125.463 0 0.5 1.5 1.5
9 0 1 0 0 0 1 0 0 0 1 -10.606 -110.463 0 1.5 0.5 1.5
9 0 1 0 0 0 1 0 0 0 1 -16.606 -167.463 0 0.5 1.5 1.5
9 0 1 0 0 0 1 0 0 0 1 -17.606 -117.463 0 0.5 1.5 1.5
9 0 1 0 0 0 1 0 0 0 1 -17.606 -214.463 0 0.5 1.5 1.5
9 0 1 0 0 0 1 0 0 0 1 -18.606 -119.463 0 0.5 1.5 1.5
9 0 1 0 0 0 1 0 0 0 1 -17.606 -224.463 -2 1.5 1.5 0.5
9 0 1 0 0 0 1 0 0 0 1 -20.606 -60.46301 0 0.5 1.5 1.5
9 0 1 0 0 0 1 0 0 0 1 -19.606 -145.463 0 1.5 1.5 0.5
9 0 1 0 0 0 1 0 0 0 1 -21.606 -116.463 0 1.5 1.5 0.5
9 0 1 0 0 0 1 0 0 0 1 -22.606 -138.463 0 0.5 1.5 1.5
9 0 1 0 0 0 1 0 0 0 1 -22.606 -47.46301 0 1.5 1.5 0.5
9 0 1 0 0 0 1 0 0 0 1 -28.606 -84.46301 0 0.5 1.5 1.5
9 0 1 0 0 0 1 0 0 0 1 -30.606 -185.463 0 0.5 1.5 1.5
9 0 1 0 0 0 1 0 0 0 1 -30.606 -89.46301 0 1.5 0.5 1.5
9 0 1 0 0 0 1 0 0 0 1 -32.606 -91.46301 0 0.5 1.5 1.5
9 0 1 0 0 0 1 0 0 0 1 31.894 -118.963 0 1 2 0.5
9 0 1 0 0 0 1 0 0 0 1 30.394 -208.963 -2 0.5 4 0.5
9 0 1 0 0 0 1 0 0 0 1 19.894 -112.963 0 1 2 0.5
9 0 1 0 0 0 1 0 0 0 1 19.894 -118.963 1 1 2 0.5
9 0 1 0 0 0 1 0 0 0 1 12.894 -241.963 -0.5 1 1 1
9 0 1 0 0 0 1 0 0 0 1 10.894 -129.963 2 2 1 0.5
9 0 1 0 0 0 1 0 0 0 1 9.893997 -83.46301 -4.5 2 0.5 1
9 0 1 0 0 0 1 0 0 0 1 -4.106003 -98.46301 -1.5 1 0.5 2
9 0 1 0 0 0 1 0 0 0 1 -4.106003 -232.963 0 1 2 0.5
9 0 1 0 0 0 1 0 0 0 1 -14.106 -98.46301 -1.5 1 0.5 2
9 0 1 0 0 0 1 0 0 0 1 -14.106 -173.463 -0.5 1 0.5 2
9 0 1 0 0 0 1 0 0 0 1 -16.106 -46.96301 0 1 2 0.5
9 0 1 0 0 0 1 0 0 0 1 -17.606 -228.963 0.5 0.5 1 2
9 0 1 0 0 0 1 0 0 0 1 -19.106 -83.96301 -2 1 2 0.5
9 0 1 0 0 0 1 0 0 0 1 -20.106 -204.963 -1 1 2 0.5
9 0 1 0 0 0 1 0 0 0 1 -20.106 -204.963 1 1 2 0.5
9 0 1 0 0 0 1 0 0 0 1 -22.106 -85.96301 2 1 2 0.5
9 0 1 0 0 0 1 0 0 0 1 -22.106 -166.963 -1 1 2 0.5
9 0 1 0 0 0 1 0 0 0 1 -23.606 -67.96301 1 0.5 4 0.5
9 0 1 0 0 0 1 0 0 0 1 -24.106 -170.963 1 1 2 0.5
9 0 1 0 0 0 1 0 0 0 1 -25.106 -153.963 0 1 2 0.5
9 0 1 0 0 0 1 0 0 0 1 -27.606 -170.963 0 0.5 4 0.5
9 0 1 0 0 0 1 0 0 0 1 -32.106 -118.963 0 1 2 0.5
9 0 1 0 0 0 1 0 0 0 1 25.394 -221.463 0 0.5 0.5 3.5
9 0 1 0 0 0 1 0 0 0 1 -4.606003 -101.463 0 0.5 0.5 3.5
9 0 1 0 0 0 1 0 0 0 1 -5.606003 -148.463 0 0.5 0.5 3.5
9 0 1 0 0 0 1 0 0 0 1 -7.606003 -103.463 0 0.5 0.5 3.5
9 0 1 0 0 0 1 0 0 0 1 -14.606 -249.463 0 0.5 0.5 3.5
9 0 1 0 0 0 1 0 0 0 1 -16.606 -247.463 0 0.5 0.5 3.5
9 0 1 0 0 0 1 0 0 0 1 -17.606 -191.463 0 0.5 3.5 0.5
9 0 1 0 0 0 1 0 0 0 1 -36.606 -135.463 0 0.5 3.5 0.5
9 0 1 0 0 0 1 0 0 0 1 33.394 -151.963 0 0.5 1 1.5
9 0 1 0 0 0 1 0 0 0 1 32.394 -90.96301 0 0.5 1 1.5
9 0 1 0 0 0 1 0 0 0 1 32.394 -136.963 0 0.5 3 0.5
9 0 1 0 0 0 1 0 0 0 1 30.394 -85.96301 0 0.5 1 1.5
9 0 1 0 0 0 1 0 0 0 1 30.394 -97.96301 0 0.5 1 1.5
9 0 1 0 0 0 1 0 0 0 1 29.894 -68.46301 0 1 1.5 0.5
9 0 1 0 0 0 1 0 0 0 1 28.394 -94.96301 0 0.5 1 1.5
9 0 1 0 0 0 1 0 0 0 1 28.894 -128.463 0 1 1.5 0.5
9 0 1 0 0 0 1 0 0 0 1 26.394 -89.96301 0 0.5 1 1.5
9 0 1 0 0 0 1 0 0 0 1 26.894 -198.463 -2 1 1.5 0.5
9 0 1 0 0 0 1 0 0 0 1 26.894 -198.463 2 1 1.5 0.5
9 0 1 0 0 0 1 0 0 0 1 23.394 -81.96301 0 0.5 1 1.5
9 0 1 0 0 0 1 0 0 0 1 21.894 -70.46301 0 1 0.5 1.5
9 0 1 0 0 0 1 0 0 0 1 21.894 -121.463 -1 1 1.5 0.5
9 0 1 0 0 0 1 0 0 0 1 21.894 -121.463 1 1 1.5 0.5
9 0 1 0 0 0 1 0 0 0 1 21.394 -149.963 2 0.5 3 0.5
9 0 1 0 0 0 1 0 0 0 1 21.894 -180.463 0 1 0.5 1.5
9 0 1 0 0 0 1 0 0 0 1 21.394 -45.96301 0 1.5 1 0.5
9 0 1 0 0 0 1 0 0 0 1 20.394 -168.963 0 0.5 1 1.5
9 0 1 0 0 0 1 0 0 0 1 19.394 -41.96301 0 0.5 3 0.5
9 0 1 0 0 0 1 0 0 0 1 19.894 -119.463 -1 1 1.5 0.5
9 0 1 0 0 0 1 0 0 0 1 20.394 -141.963 -2 1.5 1 0.5
9 0 1 0 0 0 1 0 0 0 1 17.894 -171.463 0 1 0.5 1.5
9 0 1 0 0 0 1 0 0 0 1 17.394 -215.963 0 0.5 1 1.5
9 0 1 0 0 0 1 0 0 0 1 16.394 -115.963 0 0.5 1 1.5
9 0 1 0 0 0 1 0 0 0 1 15.894 -113.463 -1 1 1.5 0.5
9 0 1 0 0 0 1 0 0 0 1 15.894 -154.463 -1 1 1.5 0.5
9 0 1 0 0 0 1 0 0 0 1 15.894 -154.463 1 1 1.5 0.5
9 0 1 0 0 0 1 0 0 0 1 14.394 -163.963 0 0.5 1 1.5
9 0 1 0 0 0 1 0 0 0 1 13.394 -203.963 0 0.5 1 1.5
9 0 1 0 0 0 1 0 0 0 1 12.394 -50.46301 -0.5 0.5 1.5 1
9 0 1 0 0 0 1 0 0 0 1 13.394 -132.963 2 1.5 1 0.5
9 0 1 0 0 0 1 0 0 0 1 12.894 -133.463 -2 1 1.5 0.5
9 0 1 0 0 0 1 0 0 0 1 12.394 -160.963 0 0.5 1 1.5
9 0 1 0 0 0 1 0 0 0 1 13.394 -194.963 1 1.5 1 0.5
9 0 1 0 0 0 1 0 0 0 1 12.394 -232.963 0 0.5 3 0.5
9 0 1 0 0 0 1 0 0 0 1 11.894 -63.46301 0 1 0.5 1.5
9 0 1 0 0 0 1 0 0 0 1 11.894 -126.463 0 1 0.5 1.5
9 0 1 0 0 0 1 0 0 0 1 10.394 -106.963 -1 1.5 1 0.5
9 0 1 0 0 0 1 0 0 0 1 8.393997 -125.963 0 0.5 1 1.5
9 0 1 0 0 0 1 0 0 0 1 8.893997 -139.463 0 1 1.5 0.5
9 0 1 0 0 0 1 0 0 0 1 8.393997 -84.46301 -4.5 1.5 0.5 1
9 0 1 0 0 0 1 0 0 0 1 7.893997 -237.463 0 1 0.5 1.5
9 0 1 0 0 0 1 0 0 0 1 6.393997 -160.963 0 0.5 1 1.5
9 0 1 0 0 0 1 0 0 0 1 5.393997 -104.463 -5.5 0.5 1.5 1
9 0 1 0 0 0 1 0 0 0 1 5.393997 -134.963 -1 0.5 1 1.5
9 0 1 0 0 0 1 0 0 0 1 6.393997 -143.963 1 1.5 1 0.5
9 0 1 0 0 0 1 0 0 0 1 4.393997 -158.963 0 0.5 1 1.5
9 0 1 0 0 0 1 0 0 0 1 3.893997 -135.463 2 1 1.5 0.5
9 0 1 0 0 0 1 0 0 0 1 3.393997 -200.963 0 0.5 1 1.5
9 0 1 0 0 0 1 0 0 0 1 2.893997 -117.463 0 1 0.5 1.5
9 0 1 0 0 0 1 0 0 0 1 4.893997 -183.463 -1 3 0.5 0.5
9 0 1 0 0 0 1 0 0 0 1 1.393997 -163.963 -2 1.5 1 0.5
9 0 1 0 0 0 1 0 0 0 1 1.393997 -163.963 2 1.5 1 0.5
9 0 1 0 0 0 1 0 0 0 1 -2.106003 -62.46301 0 1 0.5 1.5
9 0 1 0 0 0 1 0 0 0 1 -2.606003 -196.963 0 0.5 1 1.5
9 0 1 0 0 0 1 0 0 0 1 -3.606003 -86.96301 -1 0.5 1 1.5
9 0 1 0 0 0 1 0 0 0 1 -3.106003 -120.463 0 1 0.5 1.5
9 0 1 0 0 0 1 0 0 0 1 -3.106003 -152.463 0 1 0.5 1.5
9 0 1 0 0 0 1 0 0 0 1 -4.606003 -212.963 0 0.5 3 0.5
9 0 1 0 0 0 1 0 0 0 1 -6.606003 -112.963 0 0.5 1 1.5
9 0 1 0 0 0 1 0 0 0 1 -6.606003 -121.963 0 0.5 1 1.5
9 0 1 0 0 0 1 0 0 0 1 -6.106003 -184.463 0 1 1.5 0.5
9 0 1 0 0 0 1 0 0 0 1 -6.606003 -246.963 0 0.5 1 1.5
9 0 1 0 0 0 1 0 0 0 1 -7.606003 -126.963 -2 1.5 1 0.5
9 0 1 0 0 0 1 0 0 0 1 -7.606003 -126.963 2 1.5 1 0.5
9 0 1 0 0 0 1 0 0 0 1 -9.606003 -65.96301 0 0.5 1 1.5
9 0 1 0 0 0 1 0 0 0 1 -10.106 -73.46301 -2 1 1.5 0.5
9 0 1 0 0 0 1 0 0 0 1 -11.606 -198.963 0 0.5 1 1.5
9 0 1 0 0 0 1 0 0 0 1 -11.606 -227.963 0 0.5 3 0.5
9 0 1 0 0 0 1 0 0 0 1 -12.606 -68.96301 0 0.5 1 1.5
9 0 1 0 0 0 1 0 0 0 1 -13.106 -35.46301 0 1 1.5 0.5
9 0 1 0 0 0 1 0 0 0 1 -13.606 -201.963 0 0.5 1 1.5
9 0 1 0 0 0 1 0 0 0 1 -14.106 -86.46301 -1 1 0.5 1.5
9 0 1 0 0 0 1 0 0 0 1 -14.106 -151.463 -1 1 1.5 0.5
9 0 1 0 0 0 1 0 0 0 1 -14.106 -151.463 1 1 1.5 0.5
9 0 1 0 0 0 1 0 0 0 1 -15.606 -208.963 0 0.5 1 1.5
9 0 1 0 0 0 1 0 0 0 1 -16.106 -187.463 0 1 1.5 0.5
9 0 1 0 0 0 1 0 0 0 1 -17.106 -220.463 0 1 0.5 1.5
9 0 1 0 0 0 1 0 0 0 1 -18.606 -73.96301 0 0.5 1 1.5
9 0 1 0 0 0 1 0 0 0 1 -18.106 -142.463 0 1 1.5 0.5
9 0 1 0 0 0 1 0 0 0 1 -19.106 -116.463 -1 1 1.5 0.5
9 0 1 0 0 0 1 0 0 0 1 -20.606 -241.963 1 0.5 1 1.5
9 0 1 0 0 0 1 0 0 0 1 -23.106 -123.463 -1 1 1.5 0.5
9 0 1 0 0 0 1 0 0 0 1 -23.106 -123.463 1 1 1.5 0.5
9 0 1 0 0 0 1 0 0 0 1 -23.606 -169.963 -1 0.5 3 0.5
9 0 1 0 0 0 1 0 0 0 1 -24.606 -191.963 0 0.5 1 1.5
9 0 1 0 0 0 1 0 0 0 1 -25.106 -142.463 0 1 0.5 1.5
9 0 1 0 0 0 1 0 0 0 1 -28.606 -173.963 0 0.5 3 0.5
9 0 1 0 0 0 1 0 0 0 1 -28.606 -180.963 1 0.5 3 0.5
9 0 1 0 0 0 1 0 0 0 1 -29.106 -148.463 0 1 0.5 1.5
9 0 1 0 0 0 1 0 0 0 1 -29.106 -182.463 -1 1 1.5 0.5
9 0 1 0 0 0 1 0 0 0 1 27.394 -214.463 0 0.5 0.5 2.5
9 0 1 0 0 0 1 0 0 0 1 24.394 -200.463 0 0.5 0.5 2.5
9 0 1 0 0 0 1 0 0 0 1 23.394 -52.46301 0 0.5 2.5 0.5
9 0 1 0 0 0 1 0 0 0 1 13.394 -138.463 0 0.5 0.5 2.5
9 0 1 0 0 0 1 0 0 0 1 11.394 -225.463 0 0.5 2.5 0.5
9 0 1 0 0 0 1 0 0 0 1 7.393997 -131.463 0 0.5 0.5 2.5
9 0 1 0 0 0 1 0 0 0 1 6.393997 -170.463 0 0.5 0.5 2.5
9 0 1 0 0 0 1 0 0 0 1 4.393997 -132.463 0 0.5 0.5 2.5
9 0 1 0 0 0 1 0 0 0 1 3.393997 -137.463 0 0.5 0.5 2.5
9 0 1 0 0 0 1 0 0 0 1 1.393997 -136.463 0 0.5 0.5 2.5
9 0 1 0 0 0 1 0 0 0 1 1.393997 -140.463 0 0.5 0.5 2.5
9 0 1 0 0 0 1 0 0 0 1 0.3939972 -172.463 0 0.5 0.5 2.5
9 0 1 0 0 0 1 0 0 0 1 -1.606003 -144.463 0 0.5 0.5 2.5
9 0 1 0 0 0 1 0 0 0 1 -3.606003 -146.463 0 0.5 0.5 2.5
9 0 1 0 0 0 1 0 0 0 1 -3.606003 -177.463 0 0.5 0.5 2.5
9 0 1 0 0 0 1 0 0 0 1 -5.606003 -174.463 0 0.5 0.5 2.5
9 0 1 0 0 0 1 0 0 0 1 -7.606003 -128.463 0 0.5 0.5 2.5
9 0 1 0 0 0 1 0 0 0 1 -14.606 -174.463 0 0.5 0.5 2.5
9 0 1 0 0 0 1 0 0 0 1 -16.606 -177.463 0 0.5 0.5 2.5
9 0 1 0 0 0 1 0 0 0 1 -18.606 -89.46301 0 0.5 0.5 2.5
9 0 1 0 0 0 1 0 0 0 1 -18.606 -180.463 0 0.5 0.5 2.5
9 0 1 0 0 0 1 0 0 0 1 -18.606 -198.463 0 0.5 2.5 0.5
9 0 1 0 0 0 1 0 0 0 1 -20.606 -103.463 0 0.5 2.5 0.5
9 0 1 0 0 0 1 0 0 0 1 -22.606 -162.463 0 0.5 2.5 0.5
9 0 1 0 0 0 1 0 0 0 1 -20.606 -230.463 -2 2.5 0.5 0.5
9 0 1 0 0 0 1 0 0 0 1 -23.606 -66.46301 -1 0.5 2.5 0.5
9 0 1 0 0 0 1 0 0 0 1 -31.606 -181.463 0 0.5 2.5 0.5
9 0 1 0 0 0 1 0 0 0 1 -34.606 -125.463 0 0.5 2.5 0.5
9 0 1 0 0 0 1 0 0 0 1 35.394 -145.963 0 0.5 2 0.5
9 0 1 0 0 0 1 0 0 0 1 28.894 -110.963 0 1 1 0.5
9 0 1 0 0 0 1 0 0 0 1 27.894 -52.96301 0 1 1 0.5
9 0 1 0 0 0 1 0 0 0 1 27.894 -200.963 -2 1 1 0.5
9 0 1 0 0 0 1 0 0 0 1 25.894 -150.963 -2 1 1 0.5
9 0 1 0 0 0 1 0 0 0 1 25.894 -150.963 2 1 1 0.5
9 0 1 0 0 0 1 0 0 0 1 23.894 -190.963 -2 1 1 0.5
9 0 1 0 0 0 1 0 0 0 1 23.894 -190.963 2 1 1 0.5
9 0 1 0 0 0 1 0 0 0 1 16.394 -148.963 0 0.5 2 0.5
9 0 1 0 0 0 1 0 0 0 1 15.894 -87.96301 0 1 1 0.5
9 0 1 0 0 0 1 0 0 0 1 15.894 -106.963 0 1 1 0.5
9 0 1 0 0 0 1 0 0 0 1 15.394 -130.963 -0.5 0.5 1 1
9 0 1 0 0 0 1 0 0 0 1 14.894 -43.96301 0 1 1 0.5
9 0 1 0 0 0 1 0 0 0 1 14.894 -93.46301 0 2 0.5 0.5
9 0 1 0 0 0 1 0 0 0 1 12.894 -85.96301 -5 1 1 0.5
9 0 1 0 0 0 1 0 0 0 1 12.394 -87.96301 -4.5 0.5 1 1
9 0 1 0 0 0 1 0 0 0 1 12.894 -109.963 1 1 1 0.5
9 0 1 0 0 0 1 0 0 0 1 12.394 -134.463 0.5 0.5 0.5 2
9 0 1 0 0 0 1 0 0 0 1 11.894 -97.96301 0 1 1 0.5
9 0 1 0 0 0 1 0 0 0 1 10.394 -92.96301 -4.5 0.5 1 1
9 0 1 0 0 0 1 0 0 0 1 9.893997 -146.963 1 1 1 0.5
9 0 1 0 0 0 1 0 0 0 1 8.393997 -96.96301 -4.5 0.5 1 1
9 0 1 0 0 0 1 0 0 0 1 7.393997 -184.963 0.5 0.5 1 1
9 0 1 0 0 0 1 0 0 0 1 5.393997 -143.963 -0.5 0.5 1 1
9 0 1 0 0 0 1 0 0 0 1 4.393997 -87.96301 -4.5 0.5 1 1
9 0 1 0 0 0 1 0 0 0 1 5.893997 -175.463 0 2 0.5 0.5
9 0 1 0 0 0 1 0 0 0 1 2.893997 -223.963 0 1 1 0.5
9 0 1 0 0 0 1 0 0 0 1 1.393997 -101.963 -1 0.5 2 0.5
9 0 1 0 0 0 1 0 0 0 1 -0.6060028 -226.963 0 0.5 2 0.5
9 0 1 0 0 0 1 0 0 0 1 -5.106003 -68.46301 -2 2 0.5 0.5
9 0 1 0 0 0 1 0 0 0 1 -9.106003 -219.963 0 1 1 0.5
9 0 1 0 0 0 1 0 0 0 1 -10.106 -146.963 -1 1 1 0.5
9 0 1 0 0 0 1 0 0 0 1 -10.106 -146.963 1 1 1 0.5
9 0 1 0 0 0 1 0 0 0 1 -11.106 -73.96301 2 1 1 0.5
9 0 1 0 0 0 1 0 0 0 1 -14.606 -97.46301 -1.5 0.5 0.5 2
9 0 1 0 0 0 1 0 0 0 1 -14.606 -136.963 4 0.5 2 0.5
9 0 1 0 0 0 1 0 0 0 1 -15.106 -184.963 0 1 1 0.5
9 0 1 0 0 0 1 0 0 0 1 -16.606 -111.963 -0.5 0.5 1 1
9 0 1 0 0 0 1 0 0 0 1 -17.606 -110.963 0 0.5 2 0.5
9 0 1 0 0 0 1 0 0 0 1 -17.106 -245.963 -3 1 1 0.5
9 0 1 0 0 0 1 0 0 0 1 -17.106 -245.963 3 1 1 0.5
9 0 1 0 0 0 1 0 0 0 1 -18.106 -38.96301 0 1 1 0.5
9 0 1 0 0 0 1 0 0 0 1 -18.606 -115.963 1 0.5 2 0.5
9 0 1 0 0 0 1 0 0 0 1 -21.606 -62.96301 -1 0.5 2 0.5
9 0 1 0 0 0 1 0 0 0 1 -21.606 -62.96301 1 0.5 2 0.5
9 0 1 0 0 0 1 0 0 0 1 -21.106 -94.96301 0 1 1 0.5
9 0 1 0 0 0 1 0 0 0 1 -21.606 -137.963 0.5 0.5 1 1
9 0 1 0 0 0 1 0 0 0 1 -23.606 -233.963 2 0.5 2 0.5
9 0 1 0 0 0 1 0 0 0 1 -25.106 -171.963 -1 1 1 0.5
9 0 1 0 0 0 1 0 0 0 1 -26.606 -72.96301 -1 0.5 2 0.5
9 0 1 0 0 0 1 0 0 0 1 -26.606 -72.96301 1 0.5 2 0.5
9 0 1 0 0 0 1 0 0 0 1 -27.606 -129.963 0 0.5 2 0.5
9 0 1 0 0 0 1 0 0 0 1 -27.606 -180.963 -0.5 0.5 1 1
9 0 1 0 0 0 1 0 0 0 1 -29.606 -55.96301 0 0.5 2 0.5
9 0 1 0 0 0 1 0 0 0 1 -29.606 -149.963 0.5 0.5 1 1
9 0 1 0 0 0 1 0 0 0 1 -31.606 -71.96301 0 0.5 2 0.5
9 0 1 0 0 0 1 0 0 0 1 35.394 -125.463 0 0.5 1.5 0.5
9 0 1 0 0 0 1 0 0 0 1 32.394 -154.463 0 0.5 0.5 1.5
9 0 1 0 0 0 1 0 0 0 1 27.394 -86.46301 0 0.5 0.5 1.5
9 0 1 0 0 0 1 0 0 0 1 22.394 -144.463 -2 0.5 1.5 0.5
9 0 1 0 0 0 1 0 0 0 1 21.394 -69.46301 0 0.5 0.5 1.5
9 0 1 0 0 0 1 0 0 0 1 21.394 -77.46301 0 0.5 0.5 1.5
9 0 1 0 0 0 1 0 0 0 1 19.394 -121.463 0 0.5 0.5 1.5
9 0 1 0 0 0 1 0 0 0 1 19.394 -139.463 -2 0.5 1.5 0.5
9 0 1 0 0 0 1 0 0 0 1 19.394 -139.463 2 0.5 1.5 0.5
9 0 1 0 0 0 1 0 0 0 1 18.394 -67.46301 0 0.5 0.5 1.5
9 0 1 0 0 0 1 0 0 0 1 18.394 -119.463 0 0.5 0.5 1.5
9 0 1 0 0 0 1 0 0 0 1 17.394 -202.463 0 0.5 0.5 1.5
9 0 1 0 0 0 1 0 0 0 1 16.394 -73.46301 0 0.5 0.5 1.5
9 0 1 0 0 0 1 0 0 0 1 16.394 -133.463 0 0.5 0.5 1.5
9 0 1 0 0 0 1 0 0 0 1 15.394 -65.46301 0 0.5 0.5 1.5
9 0 1 0 0 0 1 0 0 0 1 14.394 -71.46301 0 0.5 0.5 1.5
9 0 1 0 0 0 1 0 0 0 1 14.394 -82.46301 -4 0.5 1.5 0.5
9 0 1 0 0 0 1 0 0 0 1 14.394 -180.463 0 0.5 1.5 0.5
9 0 1 0 0 0 1 0 0 0 1 12.394 -68.46301 0 0.5 0.5 1.5
9 0 1 0 0 0 1 0 0 0 1 12.394 -194.463 0 0.5 1.5 0.5
9 0 1 0 0 0 1 0 0 0 1 12.394 -241.463 1 0.5 1.5 0.5
9 0 1 0 0 0 1 0 0 0 1 12.394 -34.46301 0 1.5 0.5 0.5
9 0 1 0 0 0 1 0 0 0 1 11.394 -49.46301 0 0.5 0.5 1.5
9 0 1 0 0 0 1 0 0 0 1 11.394 -125.463 0 0.5 0.5 1.5
9 0 1 0 0 0 1 0 0 0 1 12.394 -131.463 2 1.5 0.5 0.5
9 0 1 0 0 0 1 0 0 0 1 11.394 -160.463 0 0.5 0.5 1.5
9 0 1 0 0 0 1 0 0 0 1 11.394 -190.463 -5 0.5 1.5 0.5
9 0 1 0 0 0 1 0 0 0 1 11.394 -200.463 0 0.5 0.5 1.5
9 0 1 0 0 0 1 0 0 0 1 10.394 -65.46301 0 0.5 0.5 1.5
9 0 1 0 0 0 1 0 0 0 1 9.393997 -106.463 1 0.5 1.5 0.5
9 0 1 0 0 0 1 0 0 0 1 10.394 -147.463 -1 1.5 0.5 0.5
9 0 1 0 0 0 1 0 0 0 1 9.393997 -192.463 0 0.5 0.5 1.5
9 0 1 0 0 0 1 0 0 0 1 9.393997 -198.463 0 0.5 0.5 1.5
9 0 1 0 0 0 1 0 0 0 1 8.393997 -57.46301 0 0.5 0.5 1.5
9 0 1 0 0 0 1 0 0 0 1 8.393997 -61.46301 0 0.5 0.5 1.5
9 0 1 0 0 0 1 0 0 0 1 8.393997 -103.463 0 0.5 1.5 0.5
9 0 1 0 0 0 1 0 0 0 1 8.393997 -243.463 0 0.5 0.5 1.5
9 0 1 0 0 0 1 0 0 0 1 7.393997 -43.46301 -7 0.5 0.5 1.5
9 0 1 0 0 0 1 0 0 0 1 7.393997 -189.463 0 0.5 0.5 1.5
9 0 1 0 0 0 1 0 0 0 1 7.393997 -235.463 0 0.5 1.5 0.5
9 0 1 0 0 0 1 0 0 0 1 7.393997 -238.463 0 0.5 0.5 1.5
9 0 1 0 0 0 1 0 0 0 1 6.393997 -59.46301 0 0.5 0.5 1.5
9 0 1 0 0 0 1 0 0 0 1 4.393997 -61.46301 0 0.5 0.5 1.5
9 0 1 0 0 0 1 0 0 0 1 4.393997 -144.463 0 0.5 0.5 1.5
9 0 1 0 0 0 1 0 0 0 1 3.393997 -159.463 0 0.5 0.5 1.5
9 0 1 0 0 0 1 0 0 0 1 2.393997 -146.463 0 0.5 0.5 1.5
9 0 1 0 0 0 1 0 0 0 1 1.393997 -102.463 1 0.5 1.5 0.5
9 0 1 0 0 0 1 0 0 0 1 1.393997 -161.463 0 0.5 0.5 1.5
9 0 1 0 0 0 1 0 0 0 1 1.393997 -187.463 0 0.5 0.5 1.5
9 0 1 0 0 0 1 0 0 0 1 0.3939972 -69.46301 2 0.5 1.5 0.5
9 0 1 0 0 0 1 0 0 0 1 0.3939972 -103.463 0 0.5 0.5 1.5
9 0 1 0 0 0 1 0 0 0 1 -1.606003 -105.463 0 0.5 0.5 1.5
9 0 1 0 0 0 1 0 0 0 1 -1.606003 -151.463 0 0.5 0.5 1.5
9 0 1 0 0 0 1 0 0 0 1 -3.606003 -121.463 0 0.5 0.5 1.5
9 0 1 0 0 0 1 0 0 0 1 -4.606003 -86.46301 -1 0.5 0.5 1.5
9 0 1 0 0 0 1 0 0 0 1 -4.606003 -107.463 0 0.5 0.5 1.5
9 0 1 0 0 0 1 0 0 0 1 -4.606003 -153.463 0 0.5 0.5 1.5
9 0 1 0 0 0 1 0 0 0 1 -4.606003 -92.46301 3 1.5 0.5 0.5
9 0 1 0 0 0 1 0 0 0 1 -6.606003 -108.463 0 0.5 0.5 1.5
9 0 1 0 0 0 1 0 0 0 1 -6.606003 -196.463 0 0.5 0.5 1.5
9 0 1 0 0 0 1 0 0 0 1 -7.606003 -112.463 0 0.5 0.5 1.5
9 0 1 0 0 0 1 0 0 0 1 -7.606003 -122.463 0 0.5 0.5 1.5
9 0 1 0 0 0 1 0 0 0 1 -6.606003 -212.463 0 1.5 0.5 0.5
9 0 1 0 0 0 1 0 0 0 1 -7.606003 -70.46301 2 1.5 0.5 0.5
9 0 1 0 0 0 1 0 0 0 1 -8.606003 -251.463 0 0.5 0.5 1.5
9 0 1 0 0 0 1 0 0 0 1 -8.606003 -256.463 0 0.5 0.5 1.5
9 0 1 0 0 0 1 0 0 0 1 -9.606003 -195.463 0 0.5 0.5 1.5
9 0 1 0 0 0 1 0 0 0 1 -8.606003 -207.463 4 1.5 0.5 0.5
9 0 1 0 0 0 1 0 0 0 1 -9.606003 -259.463 0 0.5 0.5 1.5
9 0 1 0 0 0 1 0 0 0 1 -10.606 -169.463 -2 0.5 1.5 0.5
9 0 1 0 0 0 1 0 0 0 1 -10.606 -169.463 2 0.5 1.5 0.5
9 0 1 0 0 0 1 0 0 0 1 -10.606 -257.463 0 0.5 0.5 1.5
9 0 1 0 0 0 1 0 0 0 1 -11.606 -179.463 0 0.5 1.5 0.5
9 0 1 0 0 0 1 0 0 0 1 -13.606 -69.46301 0 0.5 0.5 1.5
9 0 1 0 0 0 1 0 0 0 1 -13.606 -111.463 0 0.5 0.5 1.5
9 0 1 0 0 0 1 0 0 0 1 -13.606 -142.463 4 0.5 1.5 0.5
9 0 1 0 0 0 1 0 0 0 1 -13.606 -145.463 5 0.5 1.5 0.5
9 0 1 0 0 0 1 0 0 0 1 -13.606 -182.463 0 0.5 1.5 0.5
9 0 1 0 0 0 1 0 0 0 1 -14.606 -87.46301 -1 0.5 0.5 1.5
9 0 1 0 0 0 1 0 0 0 1 -14.606 -99.46301 3 0.5 1.5 0.5
9 0 1 0 0 0 1 0 0 0 1 -15.606 -113.463 0 0.5 0.5 1.5
9 0 1 0 0 0 1 0 0 0 1 -15.606 -171.463 0 0.5 0.5 1.5
9 0 1 0 0 0 1 0 0 0 1 -15.606 -246.463 1 0.5 0.5 1.5
9 0 1 0 0 0 1 0 0 0 1 -16.606 -71.46301 0 0.5 0.5 1.5
9 0 1 0 0 0 1 0 0 0 1 -16.606 -221.463 -2 0.5 1.5 0.5
9 0 1 0 0 0 1 0 0 0 1 -17.606 -168.463 0 0.5 0.5 1.5
9 0 1 0 0 0 1 0 0 0 1 -17.606 -176.463 0 0.5 0.5 1.5
9 0 1 0 0 0 1 0 0 0 1 -18.606 -124.463 0 0.5 0.5 1.5
9 0 1 0 0 0 1 0 0 0 1 -18.606 -224.463 2 0.5 1.5 0.5
9 0 1 0 0 0 1 0 0 0 1 -19.606 -74.46301 0 0.5 0.5 1.5
9 0 1 0 0 0 1 0 0 0 1 -19.606 -134.463 0 0.5 0.5 1.5
9 0 1 0 0 0 1 0 0 0 1 -19.606 -179.463 0 0.5 0.5 1.5
9 0 1 0 0 0 1 0 0 0 1 -21.606 -164.463 0 0.5 0.5 1.5
9 0 1 0 0 0 1 0 0 0 1 -21.606 -182.463 0 0.5 0.5 1.5
9 0 1 0 0 0 1 0 0 0 1 -21.606 -229.463 2 0.5 1.5 0.5
9 0 1 0 0 0 1 0 0 0 1 -22.606 -97.46301 0 0.5 1.5 0.5
9 0 1 0 0 0 1 0 0 0 1 -22.606 -205.463 0 0.5 1.5 0.5
9 0 1 0 0 0 1 0 0 0 1 -22.606 -87.46301 -2 1.5 0.5 0.5
9 0 1 0 0 0 1 0 0 0 1 -23.606 -233.463 -2 0.5 1.5 0.5
9 0 1 0 0 0 1 0 0 0 1 -24.606 -232.463 0 0.5 0.5 1.5
9 0 1 0 0 0 1 0 0 0 1 -25.606 -143.463 0 0.5 0.5 1.5
9 0 1 0 0 0 1 0 0 0 1 -25.606 -173.463 0 0.5 0.5 1.5
9 0 1 0 0 0 1 0 0 0 1 -25.606 -194.463 -2 0.5 1.5 0.5
9 0 1 0 0 0 1 0 0 0 1 -26.606 -50.46301 0 0.5 1.5 0.5
9 0 1 0 0 0 1 0 0 0 1 -26.606 -63.46301 0 0.5 1.5 0.5
9 0 1 0 0 0 1 0 0 0 1 -26.606 -196.463 2 0.5 1.5 0.5
9 0 1 0 0 0 1 0 0 0 1 -28.606 -179.463 -1 0.5 1.5 0.5
9 0 1 0 0 0 1 0 0 0 1 -28.606 -189.463 0 0.5 0.5 1.5
9 0 1 0 0 0 1 0 0 0 1 -29.606 -85.46301 0 0.5 0.5 1.5
9 0 1 0 0 0 1 0 0 0 1 -30.606 -87.46301 0 0.5 0.5 1.5
9 0 1 0 0 0 1 0 0 0 1 -30.606 -147.463 0 0.5 0.5 1.5
9 0 1 0 0 0 1 0 0 0 1 -31.606 -90.46301 0 0.5 0.5 1.5
9 0 1 0 0 0 1 0 0 0 1 -32.606 -129.463 0 0.5 1.5 0.5
9 0 1 0 0 0 1 0 0 0 1 -32.606 -142.463 0 0.5 0.5 1.5
9 0 1 0 0 0 1 0 0 0 1 -33.606 -145.463 0 0.5 0.5 1.5
