9 0 1 0 0 0 1 0 0 0 1 3.037994 -127 19 21.5 0.5 9.5
9 0 1 0 0 0 1 0 0 0 1 -21.96201 -160 21.5 12.5 0.5 7
9 0 1 0 0 0 1 0 0 0 1 18.53799 -160 20 9 0.5 8.5
9 0 1 0 0 0 1 0 0 0 1 0.03799438 -212 27 2.5 8.5 1.5
9 0 1 0 0 0 1 0 0 0 1 5.537994 -5 10 2 1.5 8.5
9 0 1 0 0 0 1 0 0 0 1 -5.462006 -5 10 2 1.5 8.5
9 0 1 0 0 0 1 0 0 0 1 41.03799 -135 27 6.5 2.5 1.5
9 0 1 0 0 0 1 0 0 0 1 -40.96201 -135 27 6.5 2.5 1.5
9 0 1 0 0 0 1 0 0 0 1 -24.46201 -127 21.5 6 0.5 7
9 0 1 0 0 0 1 0 0 0 1 36.53799 -107.5 27 6 2 1.5
9 0 1 0 0 0 1 0 0 0 1 0.03799438 -179.5 -20 2.5 2 3.5
9 0 1 0 0 0 1 0 0 0 1 -35.96201 -107.5 27 5.5 2 1.5
9 0 1 0 0 0 1 0 0 0 1 -40.96201 -164.5 27 5.5 2 1.5
9 0 1 0 0 0 1 0 0 0 1 43.53799 -164.5 27.5 8 2 1
9 0 1 0 0 0 1 0 0 0 1 0.03799438 -85.5 -12.5 2.5 2 3
9 0 1 0 0 0 1 0 0 0 1 0.03799438 -112.5 -19.5 2.5 2 3
9 0 1 0 0 0 1 0 0 0 1 0.03799438 -139.5 -21.5 2.5 2 3
9 0 1 0 0 0 1 0 0 0 1 5.037994 -127 7.5 12.5 0.5 2
9 0 1 0 0 0 1 0 0 0 1 17.03799 -160 6.5 4.5 0.5 5
9 0 1 0 0 0 1 0 0 0 1 -17.96201 -160 6 2.5 0.5 8.5
9 0 1 0 0 0 1 0 0 0 1 36.03799 -193 27 3.5 1.5 1.5
9 0 1 0 0 0 1 0 0 0 1 -37.96201 -194 27 3.5 1.5 1.5
9 0 1 0 0 0 1 0 0 0 1 37.53799 -80 27.5 5 1.5 1
9 0 1 0 0 0 1 0 0 0 1 -24.46201 -21.5 27 1 5 1.5
9 0 1 0 0 0 1 0 0 0 1 -37.46201 -80 27.5 5 1.5 1
9 0 1 0 0 0 1 0 0 0 1 51.03799 -134.5 27.5 3.5 2 1
9 0 1 0 0 0 1 0 0 0 1 -18.46201 -161.5 1 2 1 3.5
9 0 1 0 0 0 1 0 0 0 1 -22.96201 -24 21.5 0.5 3.5 4
9 0 1 0 0 0 1 0 0 0 1 -50.96201 -134.5 27.5 3.5 2 1
9 0 1 0 0 0 1 0 0 0 1 27.03799 -127 23 2.5 0.5 5.5
9 0 1 0 0 0 1 0 0 0 1 23.03799 -25 20.5 0.5 2.5 5
9 0 1 0 0 0 1 0 0 0 1 22.03799 -14.5 19.5 0.5 4 3
9 0 1 0 0 0 1 0 0 0 1 16.53799 17 24.5 1 1.5 4
9 0 1 0 0 0 1 0 0 0 1 -16.46201 17 24.5 1 1.5 4
9 0 1 0 0 0 1 0 0 0 1 -19.96201 -159 5.5 1.5 0.5 8
9 0 1 0 0 0 1 0 0 0 1 -45.46201 -106 27.5 4 1.5 1
9 0 1 0 0 0 1 0 0 0 1 40.03799 -164 26 4.5 2.5 0.5
9 0 1 0 0 0 1 0 0 0 1 25.03799 -23 27 1.5 2.5 1.5
9 0 1 0 0 0 1 0 0 0 1 0.03799438 -72 21 1.5 0.5 7.5
9 0 1 0 0 0 1 0 0 0 1 0.03799438 -9 10 7.5 1.5 0.5
9 0 1 0 0 0 1 0 0 0 1 -21.96201 -14 19 0.5 4.5 2.5
9 0 1 0 0 0 1 0 0 0 1 32.53799 -139 21 2 5.5 0.5
9 0 1 0 0 0 1 0 0 0 1 46.03799 -106 27.5 3.5 1.5 1
9 0 1 0 0 0 1 0 0 0 1 0.03799438 -224 27.5 1.5 3.5 1
9 0 1 0 0 0 1 0 0 0 1 -49.96201 -165 27.5 3.5 1.5 1
9 0 1 0 0 0 1 0 0 0 1 42.53799 -196 27.5 3 1.5 1
9 0 1 0 0 0 1 0 0 0 1 13.53799 -159 7 2 0.5 4.5
9 0 1 0 0 0 1 0 0 0 1 31.03799 -160 26 3.5 0.5 2.5
9 0 1 0 0 0 1 0 0 0 1 4.537994 4 10 1 0.5 8.5
9 0 1 0 0 0 1 0 0 0 1 -3.962006 4.5 10 0.5 1 8.5
9 0 1 0 0 0 1 0 0 0 1 23.53799 -18 27 1 2.5 1.5
9 0 1 0 0 0 1 0 0 0 1 -26.96201 -23 27.5 1.5 2.5 1
9 0 1 0 0 0 1 0 0 0 1 -44.96201 -197 27.5 2.5 1.5 1
9 0 1 0 0 0 1 0 0 0 1 8.037994 -127 3.5 3.5 0.5 2
9 0 1 0 0 0 1 0 0 0 1 -17.46201 -161 8 2 0.5 3.5
9 0 1 0 0 0 1 0 0 0 1 15.03799 -161 15 0.5 0.5 13.5
9 0 1 0 0 0 1 0 0 0 1 -21.96201 -8.5 23.5 0.5 3 2
9 0 1 0 0 0 1 0 0 0 1 -35.46201 -191.5 27 2 1 1.5
9 0 1 0 0 0 1 0 0 0 1 -39.46201 -162 27 4 0.5 1.5
9 0 1 0 0 0 1 0 0 0 1 38.03799 -138 27 3.5 0.5 1.5
9 0 1 0 0 0 1 0 0 0 1 34.03799 -110 27 3.5 0.5 1.5
9 0 1 0 0 0 1 0 0 0 1 22.03799 -24 17 0.5 3.5 1.5
9 0 1 0 0 0 1 0 0 0 1 21.03799 -127 8 3.5 0.5 1.5
9 0 1 0 0 0 1 0 0 0 1 0.03799438 -183 -4 3.5 0.5 1.5
9 0 1 0 0 0 1 0 0 0 1 -21.96201 -24 17 0.5 3.5 1.5
9 0 1 0 0 0 1 0 0 0 1 -22.96201 -19 24 0.5 1.5 3.5
9 0 1 0 0 0 1 0 0 0 1 -33.96201 -110 27 3.5 0.5 1.5
9 0 1 0 0 0 1 0 0 0 1 -37.96201 -138 27 3.5 0.5 1.5
9 0 1 0 0 0 1 0 0 0 1 40.53799 -162 27.5 5 0.5 1
9 0 1 0 0 0 1 0 0 0 1 28.53799 -58.5 25 1 5 0.5
9 0 1 0 0 0 1 0 0 0 1 22.03799 -7.5 25 0.5 2 2.5
9 0 1 0 0 0 1 0 0 0 1 20.03799 -70 22.5 0.5 2.5 2
9 0 1 0 0 0 1 0 0 0 1 15.03799 17.5 18.5 0.5 1 5
9 0 1 0 0 0 1 0 0 0 1 -14.96201 17.5 18.5 0.5 1 5
9 0 1 0 0 0 1 0 0 0 1 -0.4620056 -205 25 3 1.5 0.5
9 0 1 0 0 0 1 0 0 0 1 -2.962006 -205.5 27 0.5 3 1.5
9 0 1 0 0 0 1 0 0 0 1 -12.46201 -160 13 3 0.5 1.5
9 0 1 0 0 0 1 0 0 0 1 -21.96201 -86.5 18 0.5 1 4.5
9 0 1 0 0 0 1 0 0 0 1 -28.46201 -59 25 1 4.5 0.5
9 0 1 0 0 0 1 0 0 0 1 15.03799 -159 20 0.5 0.5 8.5
9 0 1 0 0 0 1 0 0 0 1 4.037994 5 10 0.5 0.5 8.5
9 0 1 0 0 0 1 0 0 0 1 -4.962006 4 10 0.5 0.5 8.5
9 0 1 0 0 0 1 0 0 0 1 -18.96201 -161 20 0.5 0.5 8.5
9 0 1 0 0 0 1 0 0 0 1 23.03799 -20.5 23.5 0.5 2 2
9 0 1 0 0 0 1 0 0 0 1 23.53799 -160 9.5 2 0.5 2
9 0 1 0 0 0 1 0 0 0 1 18.03799 -19.5 11 0.5 8 0.5
9 0 1 0 0 0 1 0 0 0 1 1.537994 -53 11.5 4 0.5 1
9 0 1 0 0 0 1 0 0 0 1 -15.96201 16.5 18.5 0.5 2 2
9 0 1 0 0 0 1 0 0 0 1 21.03799 -9 18 0.5 2.5 1.5
9 0 1 0 0 0 1 0 0 0 1 0.03799438 -73 21 0.5 0.5 7.5
9 0 1 0 0 0 1 0 0 0 1 0.03799438 -83 -11 2.5 0.5 1.5
9 0 1 0 0 0 1 0 0 0 1 0.03799438 -88 -11 2.5 0.5 1.5
9 0 1 0 0 0 1 0 0 0 1 0.03799438 -137 -20 2.5 0.5 1.5
9 0 1 0 0 0 1 0 0 0 1 0.03799438 -142 -20 2.5 0.5 1.5
9 0 1 0 0 0 1 0 0 0 1 0.03799438 -177 -18 2.5 0.5 1.5
9 0 1 0 0 0 1 0 0 0 1 0.03799438 -182 -18 2.5 0.5 1.5
9 0 1 0 0 0 1 0 0 0 1 -18.96201 -159 21 0.5 0.5 7.5
9 0 1 0 0 0 1 0 0 0 1 12.03799 -27 10.5 3.5 0.5 1
9 0 1 0 0 0 1 0 0 0 1 3.037994 -206 27.5 0.5 3.5 1
9 0 1 0 0 0 1 0 0 0 1 0.03799438 -82 2.5 3.5 0.5 1
9 0 1 0 0 0 1 0 0 0 1 -11.96201 -27 10.5 3.5 0.5 1
9 0 1 0 0 0 1 0 0 0 1 -20.96201 -160 8 0.5 0.5 6.5
9 0 1 0 0 0 1 0 0 0 1 52.53799 -165 27.5 1 1.5 1
9 0 1 0 0 0 1 0 0 0 1 47.03799 -197.5 27.5 1.5 1 1
9 0 1 0 0 0 1 0 0 0 1 38.53799 -195.5 27 1 1 1.5
9 0 1 0 0 0 1 0 0 0 1 39.53799 -78 27.5 3 0.5 1
9 0 1 0 0 0 1 0 0 0 1 34.03799 -80.5 26 1.5 2 0.5
9 0 1 0 0 0 1 0 0 0 1 28.03799 -160 17.5 0.5 0.5 6
9 0 1 0 0 0 1 0 0 0 1 28.03799 -23.5 27.5 1.5 1 1
9 0 1 0 0 0 1 0 0 0 1 22.03799 -86.5 19.5 0.5 1 3
9 0 1 0 0 0 1 0 0 0 1 21.03799 -80 22.5 0.5 0.5 6
9 0 1 0 0 0 1 0 0 0 1 17.03799 -2.5 12 0.5 6 0.5
9 0 1 0 0 0 1 0 0 0 1 16.03799 16.5 19 0.5 2 1.5
9 0 1 0 0 0 1 0 0 0 1 13.53799 -161 4.5 1 0.5 3
9 0 1 0 0 0 1 0 0 0 1 14.53799 -127 4.5 3 0.5 1
9 0 1 0 0 0 1 0 0 0 1 3.037994 -179.5 -11.5 0.5 3 1
9 0 1 0 0 0 1 0 0 0 1 -17.96201 -15.5 11 0.5 6 0.5
9 0 1 0 0 0 1 0 0 0 1 -17.46201 -163 0.5 1 0.5 3
9 0 1 0 0 0 1 0 0 0 1 -20.96201 -9.5 17.5 0.5 3 1
9 0 1 0 0 0 1 0 0 0 1 -20.96201 -79 22.5 0.5 0.5 6
9 0 1 0 0 0 1 0 0 0 1 -33.46201 -193.5 27 1 1 1.5
9 0 1 0 0 0 1 0 0 0 1 -33.96201 -80.5 26 1.5 2 0.5
9 0 1 0 0 0 1 0 0 0 1 -39.46201 -196 27 2 0.5 1.5
9 0 1 0 0 0 1 0 0 0 1 -39.46201 -78 27.5 3 0.5 1
9 0 1 0 0 0 1 0 0 0 1 7.037994 -59 11 0.5 5.5 0.5
9 0 1 0 0 0 1 0 0 0 1 -26.96201 -51 25 0.5 5.5 0.5
9 0 1 0 0 0 1 0 0 0 1 -30.96201 -127 23 0.5 0.5 5.5
9 0 1 0 0 0 1 0 0 0 1 45.03799 -108 27.5 2.5 0.5 1
9 0 1 0 0 0 1 0 0 0 1 35.03799 -82 27.5 2.5 0.5 1
9 0 1 0 0 0 1 0 0 0 1 22.03799 -12 23.5 0.5 2.5 1
9 0 1 0 0 0 1 0 0 0 1 3.037994 -136 -1.5 0.5 0.5 5
9 0 1 0 0 0 1 0 0 0 1 3.037994 -143 -1.5 0.5 0.5 5
9 0 1 0 0 0 1 0 0 0 1 2.537994 -116 -2 1 0.5 2.5
9 0 1 0 0 0 1 0 0 0 1 0.03799438 23 13.5 0.5 2.5 1
9 0 1 0 0 0 1 0 0 0 1 0.03799438 -110 -17.5 2.5 0.5 1
9 0 1 0 0 0 1 0 0 0 1 0.03799438 -115 -17.5 2.5 0.5 1
9 0 1 0 0 0 1 0 0 0 1 -2.962006 -136 -1.5 0.5 0.5 5
9 0 1 0 0 0 1 0 0 0 1 -9.962006 -127 8.5 2.5 0.5 1
9 0 1 0 0 0 1 0 0 0 1 -16.96201 -2.5 12 0.5 5 0.5
9 0 1 0 0 0 1 0 0 0 1 -17.46201 15 26 1 0.5 2.5
9 0 1 0 0 0 1 0 0 0 1 -22.96201 -16.5 26 0.5 1 2.5
9 0 1 0 0 0 1 0 0 0 1 -22.96201 -25 16.5 0.5 2.5 1
9 0 1 0 0 0 1 0 0 0 1 -31.96201 -160 13.5 2.5 0.5 1
9 0 1 0 0 0 1 0 0 0 1 -34.96201 -82 27.5 2.5 0.5 1
9 0 1 0 0 0 1 0 0 0 1 -43.96201 -108 27.5 2.5 0.5 1
9 0 1 0 0 0 1 0 0 0 1 -48.96201 -163 27.5 2.5 0.5 1
9 0 1 0 0 0 1 0 0 0 1 41.03799 -105 27 1.5 0.5 1.5
9 0 1 0 0 0 1 0 0 0 1 41.03799 -194 27 1.5 0.5 1.5
9 0 1 0 0 0 1 0 0 0 1 32.03799 -111 27 1.5 0.5 1.5
9 0 1 0 0 0 1 0 0 0 1 25.03799 -19 27 0.5 1.5 1.5
9 0 1 0 0 0 1 0 0 0 1 17.03799 15 24 0.5 0.5 4.5
9 0 1 0 0 0 1 0 0 0 1 -2.962006 -109 0 0.5 0.5 4.5
9 0 1 0 0 0 1 0 0 0 1 -2.962006 -116 0 0.5 0.5 4.5
9 0 1 0 0 0 1 0 0 0 1 -16.96201 -159 -1 1.5 0.5 1.5
9 0 1 0 0 0 1 0 0 0 1 -19.96201 -127 13 1.5 0.5 1.5
9 0 1 0 0 0 1 0 0 0 1 -31.96201 -111 27 1.5 0.5 1.5
9 0 1 0 0 0 1 0 0 0 1 -36.96201 -161 27 1.5 0.5 1.5
9 0 1 0 0 0 1 0 0 0 1 45.53799 -164.5 26 1 2 0.5
9 0 1 0 0 0 1 0 0 0 1 35.53799 -191 27.5 2 0.5 1
9 0 1 0 0 0 1 0 0 0 1 27.53799 -51.5 25 1 2 0.5
9 0 1 0 0 0 1 0 0 0 1 22.03799 -19.5 18.5 0.5 1 2
9 0 1 0 0 0 1 0 0 0 1 18.03799 16.5 27.5 0.5 2 1
9 0 1 0 0 0 1 0 0 0 1 3.037994 -83 -0.5 0.5 0.5 4
9 0 1 0 0 0 1 0 0 0 1 3.037994 -89 5.5 0.5 0.5 4
9 0 1 0 0 0 1 0 0 0 1 -1.962006 -222.5 27.5 0.5 2 1
9 0 1 0 0 0 1 0 0 0 1 -2.462006 -89 3.5 1 0.5 2
9 0 1 0 0 0 1 0 0 0 1 -2.962006 -143 -2.5 0.5 0.5 4
9 0 1 0 0 0 1 0 0 0 1 -2.962006 -182 -9.5 0.5 0.5 4
9 0 1 0 0 0 1 0 0 0 1 -3.962006 -85.5 9 0.5 4 0.5
9 0 1 0 0 0 1 0 0 0 1 -3.962006 -139.5 0 0.5 4 0.5
9 0 1 0 0 0 1 0 0 0 1 -21.96201 -4.5 26.5 0.5 1 2
9 0 1 0 0 0 1 0 0 0 1 -21.96201 -19.5 18.5 0.5 1 2
9 0 1 0 0 0 1 0 0 0 1 -21.96201 -84.5 15.5 0.5 1 2
9 0 1 0 0 0 1 0 0 0 1 -41.96201 -195.5 27.5 0.5 2 1
9 0 1 0 0 0 1 0 0 0 1 29.03799 -123 21 0.5 3.5 0.5
9 0 1 0 0 0 1 0 0 0 1 12.03799 -160 8 0.5 0.5 3.5
9 0 1 0 0 0 1 0 0 0 1 3.037994 -82 7 0.5 0.5 3.5
9 0 1 0 0 0 1 0 0 0 1 3.037994 -109 -1 0.5 0.5 3.5
9 0 1 0 0 0 1 0 0 0 1 3.037994 -115 -8 0.5 0.5 3.5
9 0 1 0 0 0 1 0 0 0 1 3.037994 -142 -10 0.5 0.5 3.5
9 0 1 0 0 0 1 0 0 0 1 0.03799438 18 11 3.5 0.5 0.5
9 0 1 0 0 0 1 0 0 0 1 -2.962006 -82 7 0.5 0.5 3.5
9 0 1 0 0 0 1 0 0 0 1 37.03799 -161 27.5 1.5 0.5 1
9 0 1 0 0 0 1 0 0 0 1 36.53799 -195 27 1 0.5 1.5
9 0 1 0 0 0 1 0 0 0 1 32.03799 -193.5 27 0.5 1 1.5
9 0 1 0 0 0 1 0 0 0 1 30.03799 -127 25.5 0.5 0.5 3
9 0 1 0 0 0 1 0 0 0 1 27.03799 -21 27.5 0.5 1.5 1
9 0 1 0 0 0 1 0 0 0 1 24.53799 -26 27 1 0.5 1.5
9 0 1 0 0 0 1 0 0 0 1 23.03799 -21.5 20 0.5 1 1.5
9 0 1 0 0 0 1 0 0 0 1 22.03799 -4.5 27 0.5 1 1.5
9 0 1 0 0 0 1 0 0 0 1 22.03799 -9 21.5 0.5 1.5 1
9 0 1 0 0 0 1 0 0 0 1 23.03799 -87 23.5 1.5 0.5 1
9 0 1 0 0 0 1 0 0 0 1 22.53799 -160 6 1 0.5 1.5
9 0 1 0 0 0 1 0 0 0 1 20.03799 -71 19.5 0.5 1.5 1
9 0 1 0 0 0 1 0 0 0 1 19.03799 -23.5 11 0.5 3 0.5
9 0 1 0 0 0 1 0 0 0 1 16.03799 5 12.5 0.5 1.5 1
9 0 1 0 0 0 1 0 0 0 1 4.037994 -136.5 2 0.5 1 1.5
9 0 1 0 0 0 1 0 0 0 1 4.037994 -142.5 2 0.5 1 1.5
9 0 1 0 0 0 1 0 0 0 1 3.037994 -88 -2.5 0.5 0.5 3
9 0 1 0 0 0 1 0 0 0 1 3.037994 -182 -7.5 0.5 0.5 3
9 0 1 0 0 0 1 0 0 0 1 2.537994 -176 -4 1 0.5 1.5
9 0 1 0 0 0 1 0 0 0 1 2.037994 -222 27.5 0.5 1.5 1
9 0 1 0 0 0 1 0 0 0 1 -2.962006 -83 -2.5 0.5 0.5 3
9 0 1 0 0 0 1 0 0 0 1 -2.962006 -110 -9.5 0.5 0.5 3
9 0 1 0 0 0 1 0 0 0 1 -2.962006 -115 -9.5 0.5 0.5 3
9 0 1 0 0 0 1 0 0 0 1 -2.962006 -137 -11.5 0.5 0.5 3
9 0 1 0 0 0 1 0 0 0 1 -2.962006 -210 27.5 0.5 1.5 1
9 0 1 0 0 0 1 0 0 0 1 -3.962006 -142.5 2 0.5 1 1.5
9 0 1 0 0 0 1 0 0 0 1 -15.96201 19 25.5 0.5 0.5 3
9 0 1 0 0 0 1 0 0 0 1 -16.46201 15 22 1 0.5 1.5
9 0 1 0 0 0 1 0 0 0 1 -17.96201 17 27.5 0.5 1.5 1
9 0 1 0 0 0 1 0 0 0 1 -18.96201 -23.5 11 0.5 3 0.5
9 0 1 0 0 0 1 0 0 0 1 -21.96201 -12.5 23 0.5 1 1.5
9 0 1 0 0 0 1 0 0 0 1 -25.96201 -22.5 26 0.5 3 0.5
9 0 1 0 0 0 1 0 0 0 1 -29.96201 -59.5 25 0.5 3 0.5
9 0 1 0 0 0 1 0 0 0 1 -39.96201 -105 27.5 1.5 0.5 1
9 0 1 0 0 0 1 0 0 0 1 -43.96201 -195 27.5 1.5 0.5 1
9 0 1 0 0 0 1 0 0 0 1 30.03799 -60 25 0.5 2.5 0.5
9 0 1 0 0 0 1 0 0 0 1 21.03799 -14 17 0.5 2.5 0.5
9 0 1 0 0 0 1 0 0 0 1 21.03799 -79 19 0.5 0.5 2.5
9 0 1 0 0 0 1 0 0 0 1 20.03799 -127 6 2.5 0.5 0.5
9 0 1 0 0 0 1 0 0 0 1 15.03799 17 26 0.5 0.5 2.5
9 0 1 0 0 0 1 0 0 0 1 5.037994 -11 10 2.5 0.5 0.5
9 0 1 0 0 0 1 0 0 0 1 3.037994 -137 -11 0.5 0.5 2.5
9 0 1 0 0 0 1 0 0 0 1 2.037994 -143 -4 0.5 0.5 2.5
9 0 1 0 0 0 1 0 0 0 1 0.03799438 -109 -4 2.5 0.5 0.5
9 0 1 0 0 0 1 0 0 0 1 0.03799438 -136 -6 2.5 0.5 0.5
9 0 1 0 0 0 1 0 0 0 1 -2.962006 -88 -3 0.5 0.5 2.5
9 0 1 0 0 0 1 0 0 0 1 -2.962006 -142 -12 0.5 0.5 2.5
9 0 1 0 0 0 1 0 0 0 1 -2.962006 -177 -11 0.5 0.5 2.5
9 0 1 0 0 0 1 0 0 0 1 -4.962006 -11 10 2.5 0.5 0.5
9 0 1 0 0 0 1 0 0 0 1 -14.96201 17 26 0.5 0.5 2.5
9 0 1 0 0 0 1 0 0 0 1 -17.96201 -9 12 0.5 2.5 0.5
9 0 1 0 0 0 1 0 0 0 1 -19.96201 -68 24 0.5 0.5 2.5
9 0 1 0 0 0 1 0 0 0 1 -20.96201 -80 19 0.5 0.5 2.5
9 0 1 0 0 0 1 0 0 0 1 -22.96201 -86 20 0.5 0.5 2.5
9 0 1 0 0 0 1 0 0 0 1 -27.96201 -52 25 0.5 2.5 0.5
9 0 1 0 0 0 1 0 0 0 1 -34.96201 -160 26 0.5 0.5 2.5
9 0 1 0 0 0 1 0 0 0 1 55.03799 -135.5 27.5 0.5 1 1
9 0 1 0 0 0 1 0 0 0 1 46.53799 -196 27.5 1 0.5 1
9 0 1 0 0 0 1 0 0 0 1 46.53799 -199 27.5 1 0.5 1
9 0 1 0 0 0 1 0 0 0 1 44.53799 -198 27.5 1 0.5 1
9 0 1 0 0 0 1 0 0 0 1 40.53799 -193 27.5 1 0.5 1
9 0 1 0 0 0 1 0 0 0 1 40.53799 -195.5 26 1 1 0.5
9 0 1 0 0 0 1 0 0 0 1 35.53799 -139 27.5 1 0.5 1
9 0 1 0 0 0 1 0 0 0 1 35.03799 -160 26.5 0.5 0.5 2
9 0 1 0 0 0 1 0 0 0 1 34.53799 -190.5 26 1 1 0.5
9 0 1 0 0 0 1 0 0 0 1 33.53799 -148.5 22 1 1 0.5
9 0 1 0 0 0 1 0 0 0 1 31.53799 -132.5 21 1 1 0.5
9 0 1 0 0 0 1 0 0 0 1 30.53799 -145.5 21 1 1 0.5
9 0 1 0 0 0 1 0 0 0 1 27.03799 -47.5 25 0.5 2 0.5
9 0 1 0 0 0 1 0 0 0 1 27.03799 -55.5 25 0.5 2 0.5
9 0 1 0 0 0 1 0 0 0 1 27.53799 -120.5 21 1 1 0.5
9 0 1 0 0 0 1 0 0 0 1 26.03799 -19.5 27.5 0.5 1 1
9 0 1 0 0 0 1 0 0 0 1 26.03799 -43.5 25 0.5 2 0.5
9 0 1 0 0 0 1 0 0 0 1 26.53799 -160 10.5 1 0.5 1
9 0 1 0 0 0 1 0 0 0 1 23.03799 -17.5 24.5 0.5 1 1
9 0 1 0 0 0 1 0 0 0 1 23.03799 -21.5 26.5 0.5 1 1
9 0 1 0 0 0 1 0 0 0 1 23.03799 -86.5 21.5 0.5 1 1
9 0 1 0 0 0 1 0 0 0 1 22.03799 -87 26.5 0.5 0.5 2
9 0 1 0 0 0 1 0 0 0 1 21.03799 -6 19.5 0.5 0.5 2
9 0 1 0 0 0 1 0 0 0 1 16.03799 19 26.5 0.5 0.5 2
9 0 1 0 0 0 1 0 0 0 1 16.03799 15.5 16.5 0.5 1 1
9 0 1 0 0 0 1 0 0 0 1 16.03799 15 22.5 0.5 0.5 2
9 0 1 0 0 0 1 0 0 0 1 15.03799 19 21.5 0.5 0.5 2
9 0 1 0 0 0 1 0 0 0 1 5.537994 -7 10 2 0.5 0.5
9 0 1 0 0 0 1 0 0 0 1 3.037994 -110 -8.5 0.5 0.5 2
9 0 1 0 0 0 1 0 0 0 1 3.537994 -127 4.5 1 0.5 1
9 0 1 0 0 0 1 0 0 0 1 3.037994 -177 -8.5 0.5 0.5 2
9 0 1 0 0 0 1 0 0 0 1 3.037994 -203.5 25.5 0.5 1 1
9 0 1 0 0 0 1 0 0 0 1 2.037994 -89 3.5 0.5 0.5 2
9 0 1 0 0 0 1 0 0 0 1 2.037994 -177 -14.5 0.5 0.5 2
9 0 1 0 0 0 1 0 0 0 1 -0.4620056 -52 11.5 1 0.5 1
9 0 1 0 0 0 1 0 0 0 1 -1.962006 -116 -2.5 0.5 0.5 2
9 0 1 0 0 0 1 0 0 0 1 -2.962006 -89 7.5 0.5 0.5 2
9 0 1 0 0 0 1 0 0 0 1 -2.462006 -176 -4.5 1 0.5 1
9 0 1 0 0 0 1 0 0 0 1 -2.962006 -179.5 -13 0.5 2 0.5
9 0 1 0 0 0 1 0 0 0 1 -3.962006 -109.5 3.5 0.5 1 1
9 0 1 0 0 0 1 0 0 0 1 -3.962006 -115.5 3.5 0.5 1 1
9 0 1 0 0 0 1 0 0 0 1 -5.462006 -7 10 2 0.5 0.5
9 0 1 0 0 0 1 0 0 0 1 -14.96201 19 21.5 0.5 0.5 2
9 0 1 0 0 0 1 0 0 0 1 -15.96201 5.5 12.5 0.5 1 1
9 0 1 0 0 0 1 0 0 0 1 -20.96201 -6.5 19.5 0.5 1 1
9 0 1 0 0 0 1 0 0 0 1 -21.96201 -6.5 26.5 0.5 1 1
9 0 1 0 0 0 1 0 0 0 1 -21.96201 -8.5 20.5 0.5 1 1
9 0 1 0 0 0 1 0 0 0 1 -22.96201 -14.5 27.5 0.5 1 1
9 0 1 0 0 0 1 0 0 0 1 -25.96201 -19.5 27.5 0.5 1 1
9 0 1 0 0 0 1 0 0 0 1 -25.96201 -43.5 25 0.5 2 0.5
9 0 1 0 0 0 1 0 0 0 1 -28.96201 -23.5 27.5 0.5 1 1
9 0 1 0 0 0 1 0 0 0 1 -35.46201 -139 27.5 1 0.5 1
9 0 1 0 0 0 1 0 0 0 1 -38.46201 -192 27.5 1 0.5 1
9 0 1 0 0 0 1 0 0 0 1 -41.96201 -106.5 26 0.5 2 0.5
9 0 1 0 0 0 1 0 0 0 1 -44.46201 -162 27.5 1 0.5 1
9 0 1 0 0 0 1 0 0 0 1 -47.96201 -197.5 27.5 0.5 1 1
9 0 1 0 0 0 1 0 0 0 1 -54.96201 -134.5 27.5 0.5 1 1
9 0 1 0 0 0 1 0 0 0 1 43.03799 -138 28 1.5 0.5 0.5
9 0 1 0 0 0 1 0 0 0 1 38.03799 -105 28 1.5 0.5 0.5
9 0 1 0 0 0 1 0 0 0 1 28.03799 -100 23 0.5 0.5 1.5
9 0 1 0 0 0 1 0 0 0 1 27.03799 -25 27 0.5 0.5 1.5
9 0 1 0 0 0 1 0 0 0 1 23.03799 -15 27 0.5 0.5 1.5
9 0 1 0 0 0 1 0 0 0 1 22.03799 -10 19 0.5 0.5 1.5
9 0 1 0 0 0 1 0 0 0 1 22.03799 -11 25 0.5 1.5 0.5
9 0 1 0 0 0 1 0 0 0 1 22.03799 -22 19 0.5 1.5 0.5
9 0 1 0 0 0 1 0 0 0 1 18.03799 -10 12 0.5 1.5 0.5
9 0 1 0 0 0 1 0 0 0 1 18.03799 -20 10 0.5 1.5 0.5
9 0 1 0 0 0 1 0 0 0 1 17.03799 -6 11 0.5 1.5 0.5
9 0 1 0 0 0 1 0 0 0 1 14.03799 -159 2 1.5 0.5 0.5
9 0 1 0 0 0 1 0 0 0 1 6.037994 -55 11 0.5 1.5 0.5
9 0 1 0 0 0 1 0 0 0 1 7.037994 -127 1 1.5 0.5 0.5
9 0 1 0 0 0 1 0 0 0 1 2.037994 -83 -8 0.5 0.5 1.5
9 0 1 0 0 0 1 0 0 0 1 2.037994 -225 28 0.5 1.5 0.5
9 0 1 0 0 0 1 0 0 0 1 -0.9620056 -117 4 1.5 0.5 0.5
9 0 1 0 0 0 1 0 0 0 1 -1.962006 -143 -5 0.5 0.5 1.5
9 0 1 0 0 0 1 0 0 0 1 -3.962006 -136 2 0.5 0.5 1.5
9 0 1 0 0 0 1 0 0 0 1 -8.962006 -127 7 1.5 0.5 0.5
9 0 1 0 0 0 1 0 0 0 1 -9.962006 -27 9 1.5 0.5 0.5
9 0 1 0 0 0 1 0 0 0 1 -13.96201 -127 9 1.5 0.5 0.5
9 0 1 0 0 0 1 0 0 0 1 -15.96201 16 16 0.5 1.5 0.5
9 0 1 0 0 0 1 0 0 0 1 -16.96201 16 20 0.5 1.5 0.5
9 0 1 0 0 0 1 0 0 0 1 -16.96201 -27 11 1.5 0.5 0.5
9 0 1 0 0 0 1 0 0 0 1 -20.96201 -14 17 0.5 1.5 0.5
9 0 1 0 0 0 1 0 0 0 1 -20.96201 -78 18 0.5 0.5 1.5
9 0 1 0 0 0 1 0 0 0 1 -21.96201 -15 22 0.5 1.5 0.5
9 0 1 0 0 0 1 0 0 0 1 -22.96201 -22 26 0.5 1.5 0.5
9 0 1 0 0 0 1 0 0 0 1 -22.96201 -87 22 0.5 0.5 1.5
9 0 1 0 0 0 1 0 0 0 1 -23.96201 -16 27 0.5 0.5 1.5
9 0 1 0 0 0 1 0 0 0 1 -27.96201 -160 14 1.5 0.5 0.5
9 0 1 0 0 0 1 0 0 0 1 -31.96201 -194 27 0.5 0.5 1.5
9 0 1 0 0 0 1 0 0 0 1 -32.96201 -83 27 0.5 0.5 1.5
9 0 1 0 0 0 1 0 0 0 1 -32.96201 -192 27 0.5 0.5 1.5
9 0 1 0 0 0 1 0 0 0 1 -34.96201 -166 27 0.5 0.5 1.5
9 0 1 0 0 0 1 0 0 0 1 -34.96201 -190 27 0.5 0.5 1.5
9 0 1 0 0 0 1 0 0 0 1 -40.96201 -197 27 0.5 0.5 1.5
9 0 1 0 0 0 1 0 0 0 1 -42.96201 -138 28 1.5 0.5 0.5
9 0 1 0 0 0 1 0 0 0 1 -47.96201 -136 26 0.5 1.5 0.5
9 0 1 0 0 0 1 0 0 0 1 -48.96201 -137 28 1.5 0.5 0.5
9 0 1 0 0 0 1 0 0 0 1 -51.96201 -167 28 1.5 0.5 0.5
