9 0 1 0 0 0 1 0 0 0 1 27.26 7.327999 0.25 1 4.5 6
9 0 1 0 0 0 1 0 0 0 1 -27.24 9.827999 0.25 0.5 7 6
9 0 1 0 0 0 1 0 0 0 1 -0.2399998 -9.672001 -0.25 0.5 8.5 4.5
9 0 1 0 0 0 1 0 0 0 1 -26.24 5.327999 0.25 0.5 2.5 6
9 0 1 0 0 0 1 0 0 0 1 -0.2399998 -9.172001 -30.25 2.5 1 2.5
9 0 1 0 0 0 1 0 0 0 1 26.76 13.328 -0.25 0.5 1.5 7.5
9 0 1 0 0 0 1 0 0 0 1 -0.2399998 -42.172 43.75 0.5 3 3.5
9 0 1 0 0 0 1 0 0 0 1 -0.2399998 -24.172 4.75 3.5 3 0.5
9 0 1 0 0 0 1 0 0 0 1 -25.74 10.328 -7.75 2 2.5 1
9 0 1 0 0 0 1 0 0 0 1 3.76 -9.672001 0.25 0.5 8.5 1
9 0 1 0 0 0 1 0 0 0 1 -4.24 -9.672001 0.25 0.5 8.5 1
9 0 1 0 0 0 1 0 0 0 1 26.26 9.827999 -7.75 2 2 1
9 0 1 0 0 0 1 0 0 0 1 21.76 -37.172 40.25 0.5 2 4
9 0 1 0 0 0 1 0 0 0 1 -0.2399998 -26.172 5.75 2.5 3 0.5
9 0 1 0 0 0 1 0 0 0 1 -22.24 -38.172 41.75 0.5 3 2.5
9 0 1 0 0 0 1 0 0 0 1 -27.24 1.827999 -0.25 1.5 1 2.5
9 0 1 0 0 0 1 0 0 0 1 27.26 9.827999 7.75 1 2 1.5
9 0 1 0 0 0 1 0 0 0 1 0.2600002 -39.172 35.25 1 1 3
9 0 1 0 0 0 1 0 0 0 1 -28.24 3.827999 0.25 0.5 1 6
9 0 1 0 0 0 1 0 0 0 1 -0.2399998 -21.672 -4.75 5.5 0.5 1
9 0 1 0 0 0 1 0 0 0 1 27.26 2.327999 0.25 1 0.5 5
9 0 1 0 0 0 1 0 0 0 1 -21.74 -34.172 34.75 1 1 2.5
9 0 1 0 0 0 1 0 0 0 1 5.76 -21.672 -0.75 1.5 0.5 3
9 0 1 0 0 0 1 0 0 0 1 -5.24 -21.672 -0.75 1.5 0.5 3
9 0 1 0 0 0 1 0 0 0 1 27.26 7.827999 -6.25 1 4 0.5
9 0 1 0 0 0 1 0 0 0 1 21.26 -33.172 33.25 2 1 1
9 0 1 0 0 0 1 0 0 0 1 -0.2399998 -45.172 49.25 0.5 2 2
9 0 1 0 0 0 1 0 0 0 1 -27.24 9.827999 7.25 0.5 4 1
9 0 1 0 0 0 1 0 0 0 1 -0.2399998 -23.672 -5.25 2.5 1.5 0.5
9 0 1 0 0 0 1 0 0 0 1 -0.2399998 -35.672 43.75 2.5 1.5 0.5
9 0 1 0 0 0 1 0 0 0 1 4.26 -24.672 4.25 1 1.5 1
9 0 1 0 0 0 1 0 0 0 1 3.26 -9.172001 -30.25 1 1 1.5
9 0 1 0 0 0 1 0 0 0 1 0.2600002 -9.672001 -34.25 2 0.5 1.5
9 0 1 0 0 0 1 0 0 0 1 -21.74 -35.672 38.25 1 1.5 1
9 0 1 0 0 0 1 0 0 0 1 -27.24 17.828 0.25 0.5 1 3
9 0 1 0 0 0 1 0 0 0 1 -26.24 9.827999 8.75 1.5 2 0.5
9 0 1 0 0 0 1 0 0 0 1 -27.24 9.327999 -6.25 0.5 5.5 0.5
9 0 1 0 0 0 1 0 0 0 1 27.26 1.327999 -0.25 1 0.5 2.5
9 0 1 0 0 0 1 0 0 0 1 23.76 10.328 -7.75 0.5 2.5 1
9 0 1 0 0 0 1 0 0 0 1 4.76 -23.172 0.75 0.5 1 2.5
9 0 1 0 0 0 1 0 0 0 1 -5.24 -23.172 1.75 0.5 1 2.5
9 0 1 0 0 0 1 0 0 0 1 -22.24 -39.672 45.25 0.5 2.5 1
9 0 1 0 0 0 1 0 0 0 1 0.7600002 -39.672 42.75 0.5 0.5 4.5
9 0 1 0 0 0 1 0 0 0 1 -0.2399998 -21.672 3.75 4.5 0.5 0.5
9 0 1 0 0 0 1 0 0 0 1 -21.24 -32.672 32.75 1.5 0.5 1.5
9 0 1 0 0 0 1 0 0 0 1 27.26 6.827999 7.25 1 1 1
9 0 1 0 0 0 1 0 0 0 1 25.26 9.827999 8.75 1 2 0.5
9 0 1 0 0 0 1 0 0 0 1 21.76 -40.172 40.25 0.5 1 2
9 0 1 0 0 0 1 0 0 0 1 0.2600002 -38.172 44.25 1 1 1
9 0 1 0 0 0 1 0 0 0 1 -3.24 -9.172001 -30.75 0.5 1 2
9 0 1 0 0 0 1 0 0 0 1 -25.74 13.828 -7.25 2 1 0.5
9 0 1 0 0 0 1 0 0 0 1 21.76 -34.672 37.75 0.5 0.5 3.5
9 0 1 0 0 0 1 0 0 0 1 27.26 6.327999 -7.25 1 1.5 0.5
9 0 1 0 0 0 1 0 0 0 1 25.26 13.328 -7.25 1 1.5 0.5
9 0 1 0 0 0 1 0 0 0 1 22.76 -37.672 44.25 0.5 1.5 1
9 0 1 0 0 0 1 0 0 0 1 22.76 -39.672 46.25 0.5 1.5 1
9 0 1 0 0 0 1 0 0 0 1 22.76 -41.672 48.25 0.5 1.5 1
9 0 1 0 0 0 1 0 0 0 1 -0.2399998 -41.172 38.75 0.5 1 1.5
9 0 1 0 0 0 1 0 0 0 1 -0.2399998 -9.172001 -27.25 1.5 1 0.5
9 0 1 0 0 0 1 0 0 0 1 -0.2399998 -22.172 5.75 1.5 1 0.5
9 0 1 0 0 0 1 0 0 0 1 -0.2399998 -25.672 -5.75 1.5 0.5 1
9 0 1 0 0 0 1 0 0 0 1 -4.24 -23.672 3.25 0.5 1.5 1
9 0 1 0 0 0 1 0 0 0 1 -22.24 -42.172 42.75 0.5 1 1.5
9 0 1 0 0 0 1 0 0 0 1 -26.24 6.327999 -6.75 0.5 1.5 1
9 0 1 0 0 0 1 0 0 0 1 -27.24 2.327999 -3.75 1.5 0.5 1
9 0 1 0 0 0 1 0 0 0 1 -27.24 2.327999 3.25 1.5 0.5 1
9 0 1 0 0 0 1 0 0 0 1 -0.2399998 -45.672 44.75 0.5 0.5 2.5
9 0 1 0 0 0 1 0 0 0 1 -0.2399998 -8.672001 -33.25 2.5 0.5 0.5
9 0 1 0 0 0 1 0 0 0 1 21.26 -33.672 35.25 1 0.5 1
9 0 1 0 0 0 1 0 0 0 1 21.26 -34.672 33.25 1 0.5 1
9 0 1 0 0 0 1 0 0 0 1 21.26 -32.672 31.75 2 0.5 0.5
9 0 1 0 0 0 1 0 0 0 1 4.26 -22.672 -3.75 1 0.5 1
9 0 1 0 0 0 1 0 0 0 1 2.76 -23.172 -4.75 0.5 1 1
9 0 1 0 0 0 1 0 0 0 1 1.76 -38.172 32.25 0.5 1 1
9 0 1 0 0 0 1 0 0 0 1 -0.2399998 -42.172 48.25 0.5 1 1
9 0 1 0 0 0 1 0 0 0 1 -3.24 -23.172 -4.75 0.5 1 1
9 0 1 0 0 0 1 0 0 0 1 -4.24 -9.672001 -29.75 0.5 0.5 2
9 0 1 0 0 0 1 0 0 0 1 -4.24 -22.672 -3.75 0.5 0.5 2
9 0 1 0 0 0 1 0 0 0 1 -4.24 -25.172 4.75 0.5 2 0.5
9 0 1 0 0 0 1 0 0 0 1 -21.24 -36.172 36.25 0.5 1 1
9 0 1 0 0 0 1 0 0 0 1 -21.24 -38.172 37.25 0.5 1 1
9 0 1 0 0 0 1 0 0 0 1 -21.74 -34.672 40.25 1 0.5 1
9 0 1 0 0 0 1 0 0 0 1 -26.24 6.827999 7.25 0.5 1 1
9 0 1 0 0 0 1 0 0 0 1 25.76 12.328 -8.25 1.5 0.5 0.5
9 0 1 0 0 0 1 0 0 0 1 24.76 7.327999 -7.25 1.5 0.5 0.5
9 0 1 0 0 0 1 0 0 0 1 22.76 -35.672 42.75 0.5 0.5 1.5
9 0 1 0 0 0 1 0 0 0 1 22.76 -42.672 49.75 0.5 1.5 0.5
9 0 1 0 0 0 1 0 0 0 1 19.76 -31.672 32.75 0.5 0.5 1.5
9 0 1 0 0 0 1 0 0 0 1 11.76 -19.672 -1.25 0.5 0.5 1.5
9 0 1 0 0 0 1 0 0 0 1 4.76 -9.672001 -29.25 0.5 0.5 1.5
9 0 1 0 0 0 1 0 0 0 1 4.76 -24.672 1.75 0.5 0.5 1.5
9 0 1 0 0 0 1 0 0 0 1 3.76 -26.672 4.75 0.5 0.5 1.5
9 0 1 0 0 0 1 0 0 0 1 -0.2399998 -23.672 -6.25 0.5 1.5 0.5
9 0 1 0 0 0 1 0 0 0 1 -0.2399998 -9.672001 -36.25 1.5 0.5 0.5
9 0 1 0 0 0 1 0 0 0 1 -0.2399998 -9.672001 -26.25 1.5 0.5 0.5
9 0 1 0 0 0 1 0 0 0 1 -0.2399998 -29.672 5.75 1.5 0.5 0.5
9 0 1 0 0 0 1 0 0 0 1 -0.2399998 -38.672 31.75 1.5 0.5 0.5
9 0 1 0 0 0 1 0 0 0 1 -4.24 -21.672 2.75 1.5 0.5 0.5
9 0 1 0 0 0 1 0 0 0 1 -7.24 -21.672 0.75 0.5 0.5 1.5
9 0 1 0 0 0 1 0 0 0 1 -22.24 -43.672 43.75 0.5 0.5 1.5
9 0 1 0 0 0 1 0 0 0 1 -27.24 6.327999 -7.25 0.5 1.5 0.5
