9 0 1 0 0 0 1 0 0 0 1 0.2589998 32.242 -4.837 3 2 2.5
9 0 1 0 0 0 1 0 0 0 1 0.7589998 25.242 -0.3369999 1.5 3 3
9 0 1 0 0 0 1 0 0 0 1 -0.2410002 47.242 -15.337 1.5 3 2
9 0 1 0 0 0 1 0 0 0 1 1.759 11.242 0.1630001 0.5 6 2.5
9 0 1 0 0 0 1 0 0 0 1 -0.2410002 41.742 -12.337 1.5 2.5 2
9 0 1 0 0 0 1 0 0 0 1 0.2589998 31.242 -9.337 1 3 2
9 0 1 0 0 0 1 0 0 0 1 -0.2410002 33.242 -0.3369999 2.5 1 2
9 0 1 0 0 0 1 0 0 0 1 -0.7410002 6.242001 0.1630001 2 1 2.5
9 0 1 0 0 0 1 0 0 0 1 -0.2410002 39.742 -9.337 1.5 2.5 1
9 0 1 0 0 0 1 0 0 0 1 1.259 34.742 -1.837 2 0.5 2.5
9 0 1 0 0 0 1 0 0 0 1 0.2589998 33.742 3.163 1 1.5 1.5
9 0 1 0 0 0 1 0 0 0 1 -0.2410002 57.242 -21.837 1.5 1 1.5
9 0 1 0 0 0 1 0 0 0 1 2.259 32.242 -8.337 1 2 1
9 0 1 0 0 0 1 0 0 0 1 -3.741 33.242 -5.337 1 1 2
9 0 1 0 0 0 1 0 0 0 1 0.7589998 24.742 3.163 1.5 2.5 0.5
9 0 1 0 0 0 1 0 0 0 1 0.7589998 21.742 0.1630001 1.5 0.5 2.5
9 0 1 0 0 0 1 0 0 0 1 1.259 36.242 0.1630001 1 1 1.5
9 0 1 0 0 0 1 0 0 0 1 0.2589998 48.742 -18.337 1 1.5 1
9 0 1 0 0 0 1 0 0 0 1 0.7589998 30.242 -1.837 1.5 2 0.5
9 0 1 0 0 0 1 0 0 0 1 0.7589998 27.242 -8.337 1.5 1 1
9 0 1 0 0 0 1 0 0 0 1 -0.2410002 51.242 -16.337 1.5 1 1
9 0 1 0 0 0 1 0 0 0 1 -0.2410002 46.242 -12.837 1.5 2 0.5
9 0 1 0 0 0 1 0 0 0 1 -0.2410002 38.242 -11.337 1.5 1 1
9 0 1 0 0 0 1 0 0 0 1 3.759 33.242 -5.837 0.5 1 2.5
9 0 1 0 0 0 1 0 0 0 1 -0.2410002 36.742 1.163 0.5 1.5 1.5
9 0 1 0 0 0 1 0 0 0 1 0.7589998 28.742 0.1630001 1.5 0.5 1.5
9 0 1 0 0 0 1 0 0 0 1 0.7589998 24.742 -3.837 1.5 1.5 0.5
9 0 1 0 0 0 1 0 0 0 1 -0.2410002 42.742 -14.837 1.5 1.5 0.5
9 0 1 0 0 0 1 0 0 0 1 -0.2410002 38.742 -7.837 1.5 1.5 0.5
9 0 1 0 0 0 1 0 0 0 1 0.2589998 32.242 -11.837 1 2 0.5
9 0 1 0 0 0 1 0 0 0 1 -2.741 34.742 -3.337 2 0.5 1
9 0 1 0 0 0 1 0 0 0 1 -0.2410002 29.742 -6.837 3.5 0.5 0.5
9 0 1 0 0 0 1 0 0 0 1 2.759 33.242 -0.8369999 0.5 1 1.5
9 0 1 0 0 0 1 0 0 0 1 2.759 11.242 0.1630001 0.5 1 1.5
9 0 1 0 0 0 1 0 0 0 1 1.759 32.742 -10.337 0.5 1.5 1
9 0 1 0 0 0 1 0 0 0 1 0.7589998 29.242 -2.837 1.5 1 0.5
9 0 1 0 0 0 1 0 0 0 1 -0.2410002 45.242 -11.837 1.5 1 0.5
9 0 1 0 0 0 1 0 0 0 1 -0.2410002 25.242 -7.837 1.5 1 0.5
9 0 1 0 0 0 1 0 0 0 1 -1.741 32.742 3.163 1 0.5 1.5
9 0 1 0 0 0 1 0 0 0 1 -3.741 33.742 -1.837 1 0.5 1.5
9 0 1 0 0 0 1 0 0 0 1 3.759 34.242 -2.337 0.5 1 1
9 0 1 0 0 0 1 0 0 0 1 1.759 33.242 2.663 0.5 1 1
9 0 1 0 0 0 1 0 0 0 1 2.259 29.242 -7.837 1 1 0.5
9 0 1 0 0 0 1 0 0 0 1 0.2589998 43.242 -15.837 1 1 0.5
9 0 1 0 0 0 1 0 0 0 1 1.259 35.742 -1.837 2 0.5 0.5
9 0 1 0 0 0 1 0 0 0 1 0.2589998 32.242 5.163 1 1 0.5
9 0 1 0 0 0 1 0 0 0 1 -1.241 49.242 -18.337 0.5 1 1
9 0 1 0 0 0 1 0 0 0 1 -1.741 31.242 -1.837 1 1 0.5
9 0 1 0 0 0 1 0 0 0 1 -1.741 27.242 -7.837 1 1 0.5
9 0 1 0 0 0 1 0 0 0 1 -3.241 31.742 -5.337 0.5 0.5 2
9 0 1 0 0 0 1 0 0 0 1 0.7589998 34.742 1.163 1.5 0.5 0.5
9 0 1 0 0 0 1 0 0 0 1 -0.2410002 32.742 -12.837 0.5 1.5 0.5
9 0 1 0 0 0 1 0 0 0 1 -0.2410002 31.742 6.163 0.5 1.5 0.5
9 0 1 0 0 0 1 0 0 0 1 0.7589998 24.742 4.163 1.5 0.5 0.5
9 0 1 0 0 0 1 0 0 0 1 0.7589998 20.742 0.1630001 1.5 0.5 0.5
9 0 1 0 0 0 1 0 0 0 1 -0.2410002 58.742 -21.837 1.5 0.5 0.5
9 0 1 0 0 0 1 0 0 0 1 -0.2410002 55.742 -22.837 1.5 0.5 0.5
9 0 1 0 0 0 1 0 0 0 1 -0.2410002 50.742 -17.837 1.5 0.5 0.5
9 0 1 0 0 0 1 0 0 0 1 -0.2410002 50.742 -14.837 1.5 0.5 0.5
9 0 1 0 0 0 1 0 0 0 1 -0.2410002 49.742 -19.837 1.5 0.5 0.5
9 0 1 0 0 0 1 0 0 0 1 -0.2410002 46.742 -17.837 1.5 0.5 0.5
9 0 1 0 0 0 1 0 0 0 1 -0.2410002 45.742 -5.837 1.5 0.5 0.5
9 0 1 0 0 0 1 0 0 0 1 -0.2410002 44.742 -10.837 1.5 0.5 0.5
9 0 1 0 0 0 1 0 0 0 1 -0.2410002 42.742 -9.837 1.5 0.5 0.5
9 0 1 0 0 0 1 0 0 0 1 -0.2410002 38.742 -12.837 1.5 0.5 0.5
