9 0 1 0 0 0 1 0 0 0 1 0 59.5 0.499999 2.5 19 1
9 0 1 0 0 0 1 0 0 0 1 0 59.5 -1.500001 1.5 19 1
9 0 1 0 0 0 1 0 0 0 1 0 31.5 -9.536743E-07 3.5 2 3.5
9 0 1 0 0 0 1 0 0 0 1 4 117.5 -9.536743E-07 0.5 28 1.5
9 0 1 0 0 0 1 0 0 0 1 0 117.5 3.999999 1.5 28 0.5
9 0 1 0 0 0 1 0 0 0 1 0 15 -3.000001 3.5 10.5 0.5
9 0 1 0 0 0 1 0 0 0 1 0 112.5 -4.000001 1.5 23 0.5
9 0 1 0 0 0 1 0 0 0 1 -4 112.5 -9.536743E-07 0.5 23 1.5
9 0 1 0 0 0 1 0 0 0 1 0 16.5 2.999999 3.5 9 0.5
9 0 1 0 0 0 1 0 0 0 1 0 59.5 1.999999 1.5 19 0.5
9 0 1 0 0 0 1 0 0 0 1 0 119 -9.536743E-07 0.5 40.5 0.5
9 0 1 0 0 0 1 0 0 0 1 2 61 -1.000001 0.5 23.5 0.5
9 0 1 0 0 0 1 0 0 0 1 -6 157.5 -9.536743E-07 0.5 3 3.5
9 0 1 0 0 0 1 0 0 0 1 -0.5 140.5 -4.000001 2 5 0.5
9 0 1 0 0 0 1 0 0 0 1 -4 140.5 0.499999 0.5 5 2
9 0 1 0 0 0 1 0 0 0 1 -2 59.5 -1.000001 0.5 19 0.5
9 0 1 0 0 0 1 0 0 0 1 6.5 157.5 -9.536743E-07 1 3 1.5
9 0 1 0 0 0 1 0 0 0 1 0 38.5 -9.536743E-07 1.5 2 1.5
9 0 1 0 0 0 1 0 0 0 1 4 119.5 1.999999 0.5 16 0.5
9 0 1 0 0 0 1 0 0 0 1 2 119.5 -4.000001 0.5 16 0.5
9 0 1 0 0 0 1 0 0 0 1 -2 119.5 3.999999 0.5 16 0.5
9 0 1 0 0 0 1 0 0 0 1 -4 119.5 -2.000001 0.5 16 0.5
9 0 1 0 0 0 1 0 0 0 1 4 105 -2.000001 0.5 15.5 0.5
9 0 1 0 0 0 1 0 0 0 1 2 105 3.999999 0.5 15.5 0.5
9 0 1 0 0 0 1 0 0 0 1 -2 105 -4.000001 0.5 15.5 0.5
9 0 1 0 0 0 1 0 0 0 1 -4 105 1.999999 0.5 15.5 0.5
9 0 1 0 0 0 1 0 0 0 1 0.5 81.5 1.499999 1 3 1
9 0 1 0 0 0 1 0 0 0 1 0 82.5 -1.000001 1.5 4 0.5
9 0 1 0 0 0 1 0 0 0 1 -1.5 81.5 0.499999 1 3 1
9 0 1 0 0 0 1 0 0 0 1 -7 158 -9.536743E-07 0.5 3.5 1.5
9 0 1 0 0 0 1 0 0 0 1 -4 31.5 -9.536743E-07 0.5 2 2.5
9 0 1 0 0 0 1 0 0 0 1 3 57 -9.536743E-07 0.5 9.5 0.5
9 0 1 0 0 0 1 0 0 0 1 0 57 -3.000001 0.5 9.5 0.5
9 0 1 0 0 0 1 0 0 0 1 0 57 2.999999 0.5 9.5 0.5
9 0 1 0 0 0 1 0 0 0 1 -3 57 -9.536743E-07 0.5 9.5 0.5
9 0 1 0 0 0 1 0 0 0 1 4 137.5 -2.000001 0.5 8 0.5
9 0 1 0 0 0 1 0 0 0 1 2 137.5 3.999999 0.5 8 0.5
9 0 1 0 0 0 1 0 0 0 1 1.5 82.5 -9.536743E-07 1 4 0.5
9 0 1 0 0 0 1 0 0 0 1 6 157.5 -2.500001 0.5 3 1
9 0 1 0 0 0 1 0 0 0 1 6 157.5 2.499999 0.5 3 1
9 0 1 0 0 0 1 0 0 0 1 6.5 151.5 -9.536743E-07 1 3 0.5
9 0 1 0 0 0 1 0 0 0 1 6 35.5 -9.536743E-07 0.5 6 0.5
9 0 1 0 0 0 1 0 0 0 1 4 31.5 -9.536743E-07 0.5 2 2.5
9 0 1 0 0 0 1 0 0 0 1 -0.5 81.5 -2.000001 1 3 0.5
9 0 1 0 0 0 1 0 0 0 1 0 31.5 -4.000001 1.5 2 0.5
9 0 1 0 0 0 1 0 0 0 1 0 31.5 3.999999 1.5 2 0.5
9 0 1 0 0 0 1 0 0 0 1 -6 35.5 -9.536743E-07 0.5 6 0.5
9 0 1 0 0 0 1 0 0 0 1 -6.5 151.5 -9.536743E-07 1 3 0.5
9 0 1 0 0 0 1 0 0 0 1 2 56 -2.000001 0.5 5.5 0.5
9 0 1 0 0 0 1 0 0 0 1 2 56 1.999999 0.5 5.5 0.5
9 0 1 0 0 0 1 0 0 0 1 -2 56 -2.000001 0.5 5.5 0.5
9 0 1 0 0 0 1 0 0 0 1 -2 56 1.999999 0.5 5.5 0.5
9 0 1 0 0 0 1 0 0 0 1 -12 30 -9.536743E-07 0.5 5.5 0.5
9 0 1 0 0 0 1 0 0 0 1 -1 55 -3.000001 0.5 3.5 0.5
9 0 1 0 0 0 1 0 0 0 1 -3 55 0.999999 0.5 3.5 0.5
9 0 1 0 0 0 1 0 0 0 1 4.5 6 -3.000001 1 1.5 0.5
9 0 1 0 0 0 1 0 0 0 1 3 151.5 -6.000001 0.5 3 0.5
9 0 1 0 0 0 1 0 0 0 1 3 151.5 5.999999 0.5 3 0.5
9 0 1 0 0 0 1 0 0 0 1 3 55 -1.500001 0.5 1.5 1
9 0 1 0 0 0 1 0 0 0 1 3 55 1.499999 0.5 1.5 1
9 0 1 0 0 0 1 0 0 0 1 1.5 55 -3.000001 1 1.5 0.5
9 0 1 0 0 0 1 0 0 0 1 1.5 55 2.999999 1 1.5 0.5
9 0 1 0 0 0 1 0 0 0 1 0.5 39 1.999999 1 1.5 0.5
9 0 1 0 0 0 1 0 0 0 1 0 85.5 0.999999 1.5 1 0.5
9 0 1 0 0 0 1 0 0 0 1 -0.5 39 -2.000001 1 1.5 0.5
9 0 1 0 0 0 1 0 0 0 1 0 5 -4.500001 1.5 0.5 1
9 0 1 0 0 0 1 0 0 0 1 0 5 4.499999 1.5 0.5 1
9 0 1 0 0 0 1 0 0 0 1 -2 132.5 -4.000001 0.5 3 0.5
9 0 1 0 0 0 1 0 0 0 1 -1.5 55 2.999999 1 1.5 0.5
9 0 1 0 0 0 1 0 0 0 1 -2 39 0.499999 0.5 1.5 1
9 0 1 0 0 0 1 0 0 0 1 -3 151.5 -6.000001 0.5 3 0.5
9 0 1 0 0 0 1 0 0 0 1 -3 151.5 5.999999 0.5 3 0.5
9 0 1 0 0 0 1 0 0 0 1 -3 55 -1.500001 0.5 1.5 1
9 0 1 0 0 0 1 0 0 0 1 -4 132.5 1.999999 0.5 3 0.5
9 0 1 0 0 0 1 0 0 0 1 -4.5 6 -3.000001 1 1.5 0.5
9 0 1 0 0 0 1 0 0 0 1 4 92 1.999999 0.5 2.5 0.5
9 0 1 0 0 0 1 0 0 0 1 2 92 -4.000001 0.5 2.5 0.5
9 0 1 0 0 0 1 0 0 0 1 -2 92 3.999999 0.5 2.5 0.5
9 0 1 0 0 0 1 0 0 0 1 -4 92 -2.000001 0.5 2.5 0.5
9 0 1 0 0 0 1 0 0 0 1 5 31.5 -9.536743E-07 0.5 2 0.5
9 0 1 0 0 0 1 0 0 0 1 2 38.5 -9.536743E-07 0.5 2 0.5
9 0 1 0 0 0 1 0 0 0 1 -1.5 85.5 -9.536743E-07 1 1 0.5
9 0 1 0 0 0 1 0 0 0 1 -5 31.5 -9.536743E-07 0.5 2 0.5
9 0 1 0 0 0 1 0 0 0 1 7 161 -9.536743E-07 0.5 0.5 1.5
9 0 1 0 0 0 1 0 0 0 1 -2 55 -3.000001 0.5 1.5 0.5
9 0 1 0 0 0 1 0 0 0 1 -3 55 1.999999 0.5 1.5 0.5
