9 0 1 0 0 0 1 0 0 0 1 -6.5 34 0 1.5 3.5 3.5
9 0 1 0 0 0 1 0 0 0 1 6.5 33.5 0 1.5 3 3.5
9 0 1 0 0 0 1 0 0 0 1 0 12 0 6 0.5 4.5
9 0 1 0 0 0 1 0 0 0 1 5.5 28 0 0.5 2.5 5.5
9 0 1 0 0 0 1 0 0 0 1 -5.5 28 0 0.5 2.5 5.5
9 0 1 0 0 0 1 0 0 0 1 0 0 0 3 1.5 1.5
9 0 1 0 0 0 1 0 0 0 1 0 38 5.5 4 1.5 1
9 0 1 0 0 0 1 0 0 0 1 0 26.5 -6 4 1 1.5
9 0 1 0 0 0 1 0 0 0 1 0 26.5 6 4 1 1.5
9 0 1 0 0 0 1 0 0 0 1 6 33.5 -5 1 3 1.5
9 0 1 0 0 0 1 0 0 0 1 6 33.5 5 1 3 1.5
9 0 1 0 0 0 1 0 0 0 1 1 38 -5.5 3 1.5 1
9 0 1 0 0 0 1 0 0 0 1 -6 33.5 -5 1 3 1.5
9 0 1 0 0 0 1 0 0 0 1 -6 33.5 5 1 3 1.5
9 0 1 0 0 0 1 0 0 0 1 0 13.5 -5.5 2 2 1
9 0 1 0 0 0 1 0 0 0 1 0 13.5 5.5 2 2 1
9 0 1 0 0 0 1 0 0 0 1 6 38 0 1 1.5 2.5
9 0 1 0 0 0 1 0 0 0 1 -6 38.5 0.5 1 1 3
9 0 1 0 0 0 1 0 0 0 1 7 27 0 1 0.5 4.5
9 0 1 0 0 0 1 0 0 0 1 5.5 14 -0.5 0.5 1.5 3
9 0 1 0 0 0 1 0 0 0 1 -5.5 14 0.5 0.5 1.5 3
9 0 1 0 0 0 1 0 0 0 1 -6.5 26.5 0 0.5 1 4.5
9 0 1 0 0 0 1 0 0 0 1 0 37.5 7 4 1 0.5
9 0 1 0 0 0 1 0 0 0 1 0 25 -5.5 4 0.5 1
9 0 1 0 0 0 1 0 0 0 1 0 25 5.5 4 0.5 1
9 0 1 0 0 0 1 0 0 0 1 8.5 35.5 0 0.5 1 3.5
9 0 1 0 0 0 1 0 0 0 1 -8.5 35.5 0 0.5 1 3.5
9 0 1 0 0 0 1 0 0 0 1 6.5 25.5 0.5 0.5 1 3
9 0 1 0 0 0 1 0 0 0 1 0.5 37.5 -7.5 1.5 1 1
9 0 1 0 0 0 1 0 0 0 1 -3 38 -5.5 1 1.5 1
9 0 1 0 0 0 1 0 0 0 1 -6 25 -0.5 1 0.5 3
9 0 1 0 0 0 1 0 0 0 1 6 32 -7 1 2.5 0.5
9 0 1 0 0 0 1 0 0 0 1 6 32 7 1 2.5 0.5
9 0 1 0 0 0 1 0 0 0 1 5.5 24.5 0 0.5 1 2.5
9 0 1 0 0 0 1 0 0 0 1 -5.5 32 -7.5 0.5 2.5 1
9 0 1 0 0 0 1 0 0 0 1 -5.5 32 7.5 0.5 2.5 1
9 0 1 0 0 0 1 0 0 0 1 17.5 16 0 0.5 1.5 1.5
9 0 1 0 0 0 1 0 0 0 1 6.5 13 0 0.5 1.5 1.5
9 0 1 0 0 0 1 0 0 0 1 -6.5 13 0 0.5 1.5 1.5
9 0 1 0 0 0 1 0 0 0 1 -7.5 27 0 0.5 0.5 4.5
9 0 1 0 0 0 1 0 0 0 1 -17.5 16 0 0.5 1.5 1.5
9 0 1 0 0 0 1 0 0 0 1 7.5 37.5 -0.5 0.5 1 2
9 0 1 0 0 0 1 0 0 0 1 6 37.5 3.5 1 1 1
9 0 1 0 0 0 1 0 0 0 1 3 13.5 -5 1 2 0.5
9 0 1 0 0 0 1 0 0 0 1 3 13.5 5 1 2 0.5
9 0 1 0 0 0 1 0 0 0 1 0 48 -5.5 2 0.5 1
9 0 1 0 0 0 1 0 0 0 1 0 48 5.5 2 0.5 1
9 0 1 0 0 0 1 0 0 0 1 -3 13.5 -5 1 2 0.5
9 0 1 0 0 0 1 0 0 0 1 -3 13.5 5 1 2 0.5
9 0 1 0 0 0 1 0 0 0 1 0 2 0 4 0.5 0.5
9 0 1 0 0 0 1 0 0 0 1 7.5 33.5 -5 0.5 1 1.5
9 0 1 0 0 0 1 0 0 0 1 7.5 34 4.5 0.5 1.5 1
9 0 1 0 0 0 1 0 0 0 1 5.5 48 -0.5 0.5 0.5 3
9 0 1 0 0 0 1 0 0 0 1 6.5 37 -3.5 1.5 0.5 1
9 0 1 0 0 0 1 0 0 0 1 4.5 36.5 6 0.5 1 1.5
9 0 1 0 0 0 1 0 0 0 1 4.5 27 -5.5 0.5 1.5 1
9 0 1 0 0 0 1 0 0 0 1 4.5 27 5.5 0.5 1.5 1
9 0 1 0 0 0 1 0 0 0 1 3.5 0.5 0 0.5 1 1.5
9 0 1 0 0 0 1 0 0 0 1 0.5 26.5 8 1.5 1 0.5
9 0 1 0 0 0 1 0 0 0 1 -0.5 37.5 8 1.5 1 0.5
9 0 1 0 0 0 1 0 0 0 1 -0.5 26.5 -8 1.5 1 0.5
9 0 1 0 0 0 1 0 0 0 1 0 40 -5 3 0.5 0.5
9 0 1 0 0 0 1 0 0 0 1 0 40 5 3 0.5 0.5
9 0 1 0 0 0 1 0 0 0 1 0 24 -5 3 0.5 0.5
9 0 1 0 0 0 1 0 0 0 1 0 24 5 3 0.5 0.5
9 0 1 0 0 0 1 0 0 0 1 0 0 -2 3 0.5 0.5
9 0 1 0 0 0 1 0 0 0 1 0 0 2 3 0.5 0.5
9 0 1 0 0 0 1 0 0 0 1 0 -2 0 3 0.5 0.5
9 0 1 0 0 0 1 0 0 0 1 -2.5 37.5 -7 1.5 1 0.5
9 0 1 0 0 0 1 0 0 0 1 -3.5 0.5 0 0.5 1 1.5
9 0 1 0 0 0 1 0 0 0 1 -4.5 37 -5.5 0.5 1.5 1
9 0 1 0 0 0 1 0 0 0 1 -4.5 37 5.5 0.5 1.5 1
9 0 1 0 0 0 1 0 0 0 1 -4.5 27.5 -6 0.5 1 1.5
9 0 1 0 0 0 1 0 0 0 1 -4.5 27.5 6 0.5 1 1.5
9 0 1 0 0 0 1 0 0 0 1 -5.5 48 0.5 0.5 0.5 3
9 0 1 0 0 0 1 0 0 0 1 -7.5 33.5 -5 0.5 1 1.5
9 0 1 0 0 0 1 0 0 0 1 -7.5 34 4.5 0.5 1.5 1
9 0 1 0 0 0 1 0 0 0 1 5.5 40 0 0.5 0.5 2.5
9 0 1 0 0 0 1 0 0 0 1 5.5 32 -8 0.5 2.5 0.5
9 0 1 0 0 0 1 0 0 0 1 5.5 32 8 0.5 2.5 0.5
9 0 1 0 0 0 1 0 0 0 1 -5.5 40 0 0.5 0.5 2.5
9 0 1 0 0 0 1 0 0 0 1 -5.5 24 0 0.5 0.5 2.5
9 0 1 0 0 0 1 0 0 0 1 -6.5 32 -7 0.5 2.5 0.5
9 0 1 0 0 0 1 0 0 0 1 -6.5 32 7 0.5 2.5 0.5
9 0 1 0 0 0 1 0 0 0 1 9.5 35 -0.5 0.5 0.5 2
9 0 1 0 0 0 1 0 0 0 1 7.5 26 0.5 0.5 0.5 2
9 0 1 0 0 0 1 0 0 0 1 6 38.5 -3 1 1 0.5
9 0 1 0 0 0 1 0 0 0 1 5.5 28.5 -6.5 0.5 1 1
9 0 1 0 0 0 1 0 0 0 1 5.5 28.5 6.5 0.5 1 1
9 0 1 0 0 0 1 0 0 0 1 5 37.5 -5 1 1 0.5
9 0 1 0 0 0 1 0 0 0 1 3 37.5 -7 1 1 0.5
9 0 1 0 0 0 1 0 0 0 1 0 12.5 -7 1 1 0.5
9 0 1 0 0 0 1 0 0 0 1 0 12.5 7 1 1 0.5
9 0 1 0 0 0 1 0 0 0 1 0 39 -7 2 0.5 0.5
9 0 1 0 0 0 1 0 0 0 1 0 39 7 2 0.5 0.5
9 0 1 0 0 0 1 0 0 0 1 0 25 -7 2 0.5 0.5
9 0 1 0 0 0 1 0 0 0 1 0 25 7 2 0.5 0.5
9 0 1 0 0 0 1 0 0 0 1 -5.5 38.5 -3.5 0.5 1 1
9 0 1 0 0 0 1 0 0 0 1 -5.5 37.5 4.5 0.5 1 1
9 0 1 0 0 0 1 0 0 0 1 -5.5 28.5 -6.5 0.5 1 1
9 0 1 0 0 0 1 0 0 0 1 -5.5 28.5 6.5 0.5 1 1
9 0 1 0 0 0 1 0 0 0 1 -6 37 -4.5 1 0.5 1
9 0 1 0 0 0 1 0 0 0 1 -7.5 38 0.5 0.5 0.5 2
9 0 1 0 0 0 1 0 0 0 1 -7.5 26 -0.5 0.5 0.5 2
9 0 1 0 0 0 1 0 0 0 1 -9.5 35 0.5 0.5 0.5 2
9 0 1 0 0 0 1 0 0 0 1 8.5 37 0 0.5 0.5 1.5
9 0 1 0 0 0 1 0 0 0 1 8.5 31 0 0.5 0.5 1.5
9 0 1 0 0 0 1 0 0 0 1 7.5 37 3 0.5 0.5 1.5
9 0 1 0 0 0 1 0 0 0 1 2.5 13 6 0.5 1.5 0.5
9 0 1 0 0 0 1 0 0 0 1 -2.5 13 -6 0.5 1.5 0.5
9 0 1 0 0 0 1 0 0 0 1 -4.5 0 0 0.5 0.5 1.5
9 0 1 0 0 0 1 0 0 0 1 -7.5 36 -4 0.5 1.5 0.5
9 0 1 0 0 0 1 0 0 0 1 -8.5 37 0 0.5 0.5 1.5
9 0 1 0 0 0 1 0 0 0 1 -8.5 31 0 0.5 0.5 1.5
