9 0 -1.192093E-07 0 1 0 1 0 -1 0 -1.192093E-07 50 -2 0 3.35 0.5 3.35
9 0 -1.192093E-07 0 1 0 1 0 -1 0 -1.192093E-07 50 -2 20 3.35 0.5 3.35
9 0 -1.192093E-07 0 1 0 1 0 -1 0 -1.192093E-07 -50 -2 0 3.35 0.5 3.35
9 0 -1.192093E-07 0 1 0 1 0 -1 0 -1.192093E-07 -50 -2 20 3.35 0.5 3.35
9 0 1 0 0 0 1 0 0 0 1 58 17 0 0.5 13.5 27.5
9 0 1 0 0 0 1 0 0 0 1 -58 17 0 0.5 13.5 27.5
9 0 1 0 0 0 1 0 0 0 1 0 -2 -12 52.5 4.5 0.5
9 0 1 0 0 0 1 0 0 0 1 51.5 2 5 7 0.5 16.5
9 0 1 0 0 0 1 0 0 0 1 -51.5 2 5 7 0.5 16.5
9 0 1 0 0 0 1 0 0 0 1 0 26 -72 18.5 4.5 0.5
9 0 1 0 0 0 1 0 0 0 1 58 23.5 -38.5 0.5 7 11
9 0 1 0 0 0 1 0 0 0 1 -58 23.5 -38.5 0.5 7 11
9 0 1 0 0 0 1 0 0 0 1 0.5 -6 -15.5 25 0.5 3
9 0 1 0 0 0 1 0 0 0 1 58 27 -55.5 0.5 3.5 6
9 0 1 0 0 0 1 0 0 0 1 -58 26.5 -54.5 0.5 4 5
9 0 1 0 0 0 1 0 0 0 1 58 13.5 -33.5 0.5 3 6
9 0 1 0 0 0 1 0 0 0 1 -58 13.5 -33 0.5 3 5.5
9 0 1 0 0 0 1 0 0 0 1 53 2 24 5.5 0.5 2.5
9 0 1 0 0 0 1 0 0 0 1 -53 2 24 5.5 0.5 2.5
9 0 1 0 0 0 1 0 0 0 1 58 3 1.5 0.5 0.5 27
9 0 1 0 0 0 1 0 0 0 1 -58 3 1.5 0.5 0.5 27
9 0 1 0 0 0 1 0 0 0 1 -33 -6 -14 8.5 0.5 1.5
9 0 1 0 0 0 1 0 0 0 1 33.5 -6 -14 8 0.5 1.5
9 0 1 0 0 0 1 0 0 0 1 18 28 -77 0.5 2.5 4.5
9 0 1 0 0 0 1 0 0 0 1 0 28 -80 1.5 2.5 1.5
9 0 1 0 0 0 1 0 0 0 1 55.5 -1 -12 3 3.5 0.5
9 0 1 0 0 0 1 0 0 0 1 -55.5 -1 -12 3 3.5 0.5
9 0 1 0 0 0 1 0 0 0 1 -18 28.5 -77.5 0.5 2 5
9 0 1 0 0 0 1 0 0 0 1 58 16.5 28 0.5 13 0.5
9 0 1 0 0 0 1 0 0 0 1 0 29.5 -88 6.5 1 0.5
9 0 1 0 0 0 1 0 0 0 1 0.5 21 -72 13 0.5 0.5
9 0 1 0 0 0 1 0 0 0 1 -0.5 -6 -19 13 0.5 0.5
9 0 1 0 0 0 1 0 0 0 1 -58 16.5 28 0.5 13 0.5
9 0 1 0 0 0 1 0 0 0 1 -58 28 -62 0.5 2.5 2.5
9 0 1 0 0 0 1 0 0 0 1 58 1 -16.5 0.5 1.5 4
9 0 1 0 0 0 1 0 0 0 1 -58 1 -16.5 0.5 1.5 4
9 0 1 0 0 0 1 0 0 0 1 58 9 -31 0.5 1.5 3.5
9 0 1 0 0 0 1 0 0 0 1 58 21.5 -52 0.5 2 2.5
9 0 1 0 0 0 1 0 0 0 1 -58 8.5 -30 0.5 2 2.5
9 0 1 0 0 0 1 0 0 0 1 58 29 -64.5 0.5 1.5 3
9 0 1 0 0 0 1 0 0 0 1 -58 14.5 -40.5 0.5 2 2
9 0 1 0 0 0 1 0 0 0 1 -18 25 -75 0.5 1.5 2.5
9 0 1 0 0 0 1 0 0 0 1 55 2 27.5 3.5 0.5 1
9 0 1 0 0 0 1 0 0 0 1 9 22 -73.5 3.5 0.5 1
9 0 1 0 0 0 1 0 0 0 1 -28 -6 -16.5 3.5 0.5 1
9 0 1 0 0 0 1 0 0 0 1 -55 2 27.5 3.5 0.5 1
9 0 1 0 0 0 1 0 0 0 1 -12 22 -73 6.5 0.5 0.5
9 0 1 0 0 0 1 0 0 0 1 58 15.5 -42.5 0.5 1 3
9 0 1 0 0 0 1 0 0 0 1 -58 21.5 -52.5 0.5 1 3
9 0 1 0 0 0 1 0 0 0 1 31 -6 -16 5.5 0.5 0.5
9 0 1 0 0 0 1 0 0 0 1 18 29.5 -84 0.5 1 2.5
9 0 1 0 0 0 1 0 0 0 1 18 24.5 -75 0.5 1 2.5
9 0 1 0 0 0 1 0 0 0 1 58 -2 -14 0.5 1.5 1.5
9 0 1 0 0 0 1 0 0 0 1 -58 29 -66 0.5 1.5 1.5
9 0 1 0 0 0 1 0 0 0 1 -58 -2 -14 0.5 1.5 1.5
9 0 1 0 0 0 1 0 0 0 1 45.5 -6 -13 4 0.5 0.5
9 0 1 0 0 0 1 0 0 0 1 -18 29.5 -84.5 0.5 1 2
9 0 1 0 0 0 1 0 0 0 1 0 27 -78 0.5 3.5 0.5
9 0 1 0 0 0 1 0 0 0 1 -45 -6 -13 3.5 0.5 0.5
9 0 1 0 0 0 1 0 0 0 1 58 26.5 -63 0.5 1 1.5
9 0 1 0 0 0 1 0 0 0 1 58 22.5 -56 0.5 1 1.5
9 0 1 0 0 0 1 0 0 0 1 58 13.5 -41 0.5 1 1.5
9 0 1 0 0 0 1 0 0 0 1 58 6.5 -29 0.5 1 1.5
9 0 1 0 0 0 1 0 0 0 1 15.5 22 -73 3 0.5 0.5
9 0 1 0 0 0 1 0 0 0 1 2 27.5 -80 0.5 3 0.5
9 0 1 0 0 0 1 0 0 0 1 0 25 -79.5 1.5 0.5 1
9 0 1 0 0 0 1 0 0 0 1 -2 27.5 -80 0.5 3 0.5
9 0 1 0 0 0 1 0 0 0 1 -8.5 22 -74 3 0.5 0.5
9 0 1 0 0 0 1 0 0 0 1 -58 19.5 -51 0.5 1 1.5
9 0 1 0 0 0 1 0 0 0 1 -58 15.5 -44 0.5 1 1.5
9 0 1 0 0 0 1 0 0 0 1 -58 9.5 -34 0.5 1 1.5
9 0 1 0 0 0 1 0 0 0 1 55 -5 -12 2.5 0.5 0.5
9 0 1 0 0 0 1 0 0 0 1 28 -6 -17 2.5 0.5 0.5
9 0 1 0 0 0 1 0 0 0 1 0 28 -82 0.5 2.5 0.5
9 0 1 0 0 0 1 0 0 0 1 -34 -6 -16 2.5 0.5 0.5
9 0 1 0 0 0 1 0 0 0 1 -55 -5 -12 2.5 0.5 0.5
9 0 1 0 0 0 1 0 0 0 1 47 2 23.5 0.5 0.5 2
9 0 1 0 0 0 1 0 0 0 1 43.5 -6 -14 2 0.5 0.5
9 0 1 0 0 0 1 0 0 0 1 19.5 29.5 -86 1 1 0.5
9 0 1 0 0 0 1 0 0 0 1 -19.5 29.5 -86 1 1 0.5
9 0 1 0 0 0 1 0 0 0 1 -46.5 2 22.5 1 0.5 1
9 0 1 0 0 0 1 0 0 0 1 58 19 -51 0.5 0.5 1.5
9 0 1 0 0 0 1 0 0 0 1 58 10 -36 0.5 0.5 1.5
9 0 1 0 0 0 1 0 0 0 1 58 2 -22 0.5 0.5 1.5
9 0 1 0 0 0 1 0 0 0 1 58 -1 -17 0.5 0.5 1.5
9 0 1 0 0 0 1 0 0 0 1 53 -5 -13 1.5 0.5 0.5
9 0 1 0 0 0 1 0 0 0 1 18 28 -83 0.5 0.5 1.5
9 0 1 0 0 0 1 0 0 0 1 18 23 -74 0.5 0.5 1.5
9 0 1 0 0 0 1 0 0 0 1 -18 26 -79 0.5 0.5 1.5
9 0 1 0 0 0 1 0 0 0 1 -18 23 -74 0.5 0.5 1.5
9 0 1 0 0 0 1 0 0 0 1 -43 -6 -14 1.5 0.5 0.5
9 0 1 0 0 0 1 0 0 0 1 -58 25 -61 0.5 0.5 1.5
9 0 1 0 0 0 1 0 0 0 1 -58 6 -29 0.5 0.5 1.5
9 0 1 0 0 0 1 0 0 0 1 -58 2 -22 0.5 0.5 1.5
9 0 1 0 0 0 1 0 0 0 1 -58 -1 -17 0.5 0.5 1.5
