9 0 1 0 0 0 1 0 0 0 1 0.75 -25.5 2.5 1.5 5.5 3
9 0 1 0 0 0 1 0 0 0 1 -19.75 -25.5 -23 3 5.5 1.5
9 0 1 0 0 0 1 0 0 0 1 -9.75 -15 4 6 8 0.5
9 0 1 0 0 0 1 0 0 0 1 -9.75 -14.5 -24 6 7.5 0.5
9 0 1 0 0 0 1 0 0 0 1 1.25 -25.5 -22.5 1 5.5 4
9 0 1 0 0 0 1 0 0 0 1 -20.75 -25.5 3.5 2 5.5 2
9 0 1 0 0 0 1 0 0 0 1 7.75 -8.5 -22 0.5 5.5 6.5
9 0 1 0 0 0 1 0 0 0 1 7.75 -9 1.5 0.5 5 7
9 0 1 0 0 0 1 0 0 0 1 -28.25 -9 -21 0.5 6 5.5
9 0 1 0 0 0 1 0 0 0 1 -28.25 -9.5 0.5 0.5 5.5 6
9 0 1 0 0 0 1 0 0 0 1 5.25 -30.5 -9.5 2 0.5 16
9 0 1 0 0 0 1 0 0 0 1 -10.75 -5.5 -28 18 1.5 0.5
9 0 1 0 0 0 1 0 0 0 1 -10.75 -5.5 8 18 1.5 0.5
9 0 1 0 0 0 1 0 0 0 1 -1.25 -25.5 -23 1.5 5.5 1.5
9 0 1 0 0 0 1 0 0 0 1 -25.25 -30.5 -10 1.5 0.5 16.5
9 0 1 0 0 0 1 0 0 0 1 -4.75 -29 -23 1 22 0.5
9 0 1 0 0 0 1 0 0 0 1 -14.75 -29 -23 1 22 0.5
9 0 1 0 0 0 1 0 0 0 1 -14.75 -29 3 1 22 0.5
9 0 1 0 0 0 1 0 0 0 1 -21.75 -25.5 -19.5 1 5.5 2
9 0 1 0 0 0 1 0 0 0 1 -10.25 -45.5 4 3.5 5.5 0.5
9 0 1 0 0 0 1 0 0 0 1 -9.75 -44.5 -25 4 1.5 1.5
9 0 1 0 0 0 1 0 0 0 1 -23.25 -35 -15 0.5 7 2.5
9 0 1 0 0 0 1 0 0 0 1 -23.25 -35 -5 0.5 7 2.5
9 0 1 0 0 0 1 0 0 0 1 -4.25 -31.5 3 1.5 11.5 0.5
9 0 1 0 0 0 1 0 0 0 1 4.25 -43.5 -10 1 1.5 5.5
9 0 1 0 0 0 1 0 0 0 1 -1.75 -25.5 3 1 5.5 1.5
9 0 1 0 0 0 1 0 0 0 1 -21.25 -25.5 0.5 1.5 5.5 1
9 0 1 0 0 0 1 0 0 0 1 3.75 -11.5 -10 0.5 4.5 3.5
9 0 1 0 0 0 1 0 0 0 1 2.75 -10.5 -28 4.5 3.5 0.5
9 0 1 0 0 0 1 0 0 0 1 2.75 -10.5 8 4.5 3.5 0.5
9 0 1 0 0 0 1 0 0 0 1 -24.25 -11.5 -10 0.5 4.5 3.5
9 0 1 0 0 0 1 0 0 0 1 -23.25 -10.5 -28 4.5 3.5 0.5
9 0 1 0 0 0 1 0 0 0 1 -23.25 -10.5 8 4.5 3.5 0.5
9 0 1 0 0 0 1 0 0 0 1 -24.25 -46 -10 0.5 5 2.5
9 0 1 0 0 0 1 0 0 0 1 -9.75 -44.5 5.5 4 1.5 1
9 0 1 0 0 0 1 0 0 0 1 4.25 -29.5 -21 2 0.5 5.5
9 0 1 0 0 0 1 0 0 0 1 3.25 -28.5 -0.5 1 1.5 4
9 0 1 0 0 0 1 0 0 0 1 3.25 -36.5 -3.5 1 5.5 1
9 0 1 0 0 0 1 0 0 0 1 -16.75 -31 3 1 11 0.5
9 0 1 0 0 0 1 0 0 0 1 -20.75 -25.5 -25 2 5.5 0.5
9 0 1 0 0 0 1 0 0 0 1 3.75 -48 -10 0.5 3 3.5
9 0 1 0 0 0 1 0 0 0 1 -9.75 -41.5 -24 7 1.5 0.5
9 0 1 0 0 0 1 0 0 0 1 -23.25 -29 -22 0.5 2 4.5
9 0 1 0 0 0 1 0 0 0 1 -23.25 -29 2 0.5 2 4.5
9 0 1 0 0 0 1 0 0 0 1 -10.25 -48.5 -24 3.5 2.5 0.5
9 0 1 0 0 0 1 0 0 0 1 2.75 -27.5 -21 0.5 1.5 5.5
9 0 1 0 0 0 1 0 0 0 1 -18.25 -25.5 3 0.5 5.5 1.5
9 0 1 0 0 0 1 0 0 0 1 -22.25 -25.5 -2 0.5 5.5 1.5
9 0 1 0 0 0 1 0 0 0 1 -22.25 -34.5 -17 0.5 16.5 0.5
9 0 1 0 0 0 1 0 0 0 1 -24.25 -29.5 -10 0.5 0.5 16.5
9 0 1 0 0 0 1 0 0 0 1 0.75 -35.5 -1 0.5 15.5 0.5
9 0 1 0 0 0 1 0 0 0 1 -17.25 -35.5 2 0.5 15.5 0.5
9 0 1 0 0 0 1 0 0 0 1 7.75 -5.5 -10.5 0.5 1.5 5
9 0 1 0 0 0 1 0 0 0 1 -1.25 -35 1 0.5 15 0.5
9 0 1 0 0 0 1 0 0 0 1 -4.75 -14.5 -25 1 7.5 0.5
9 0 1 0 0 0 1 0 0 0 1 -4.75 -14.5 5 1 7.5 0.5
9 0 1 0 0 0 1 0 0 0 1 -28.25 -5.5 -10.5 0.5 1.5 5
9 0 1 0 0 0 1 0 0 0 1 -25.75 -45 -10 1 1 3.5
9 0 1 0 0 0 1 0 0 0 1 -23.25 -46.5 -14 0.5 4.5 1.5
9 0 1 0 0 0 1 0 0 0 1 -23.25 -46.5 -6 0.5 4.5 1.5
9 0 1 0 0 0 1 0 0 0 1 5.25 -29.5 0 1 0.5 6.5
9 0 1 0 0 0 1 0 0 0 1 3.75 -41 -11 0.5 1 6.5
9 0 1 0 0 0 1 0 0 0 1 -4.75 -13.5 3 1 6.5 0.5
9 0 1 0 0 0 1 0 0 0 1 7.75 -2.5 4.5 0.5 1.5 4
9 0 1 0 0 0 1 0 0 0 1 -16.25 -32 -23 0.5 12 0.5
9 0 1 0 0 0 1 0 0 0 1 -17.25 -36.5 -23 0.5 5.5 1.5
9 0 1 0 0 0 1 0 0 0 1 -24.75 -2.5 -28 4 1.5 0.5
9 0 1 0 0 0 1 0 0 0 1 -24.75 -2.5 8 4 1.5 0.5
9 0 1 0 0 0 1 0 0 0 1 -3.25 -31.5 -23 0.5 11.5 0.5
9 0 1 0 0 0 1 0 0 0 1 2.75 -36.5 -16.5 0.5 5.5 1
9 0 1 0 0 0 1 0 0 0 1 1.75 -25.5 -1.5 0.5 5.5 1
9 0 1 0 0 0 1 0 0 0 1 1.25 -25.5 6 1 5.5 0.5
9 0 1 0 0 0 1 0 0 0 1 -0.75 -25.5 -21 1 5.5 0.5
9 0 1 0 0 0 1 0 0 0 1 -6.25 -40 -23 0.5 11 0.5
9 0 1 0 0 0 1 0 0 0 1 -19.75 -25.5 -21 1 5.5 0.5
9 0 1 0 0 0 1 0 0 0 1 -21.75 -25.5 -26 1 5.5 0.5
9 0 1 0 0 0 1 0 0 0 1 -21.75 -25.5 6 1 5.5 0.5
9 0 1 0 0 0 1 0 0 0 1 5.75 -45.5 -10 1.5 0.5 3.5
9 0 1 0 0 0 1 0 0 0 1 3.75 -2.5 8 3.5 1.5 0.5
9 0 1 0 0 0 1 0 0 0 1 0.75 -41 -19 0.5 10 0.5
9 0 1 0 0 0 1 0 0 0 1 -10.75 -7.5 -25.5 5 0.5 1
9 0 1 0 0 0 1 0 0 0 1 -10.75 -7.5 5.5 5 0.5 1
9 0 1 0 0 0 1 0 0 0 1 -21.25 -41 -18 0.5 10 0.5
9 0 1 0 0 0 1 0 0 0 1 -21.25 -41 -2 0.5 10 0.5
9 0 1 0 0 0 1 0 0 0 1 -22.25 -41 -3 0.5 10 0.5
9 0 1 0 0 0 1 0 0 0 1 -23.25 -12 -13.5 0.5 5 1
9 0 1 0 0 0 1 0 0 0 1 -23.25 -12 -6.5 0.5 5 1
9 0 1 0 0 0 1 0 0 0 1 -0.25 -40.5 0 0.5 9.5 0.5
9 0 1 0 0 0 1 0 0 0 1 4.25 -2.5 -28 3 1.5 0.5
9 0 1 0 0 0 1 0 0 0 1 -28.25 -2.5 4.5 0.5 1.5 3
9 0 1 0 0 0 1 0 0 0 1 -18.25 -42.5 -21 0.5 8.5 0.5
9 0 1 0 0 0 1 0 0 0 1 0.25 -16 -28 2 2 0.5
9 0 1 0 0 0 1 0 0 0 1 0.25 -16 8 2 2 0.5
9 0 1 0 0 0 1 0 0 0 1 -14.75 -18 5 1 4 0.5
9 0 1 0 0 0 1 0 0 0 1 -17.25 -34 4 0.5 8 0.5
9 0 1 0 0 0 1 0 0 0 1 -18.25 -43 1 0.5 8 0.5
9 0 1 0 0 0 1 0 0 0 1 7.75 -2 -25 0.5 1 3.5
9 0 1 0 0 0 1 0 0 0 1 -4.75 -46.5 3 1 3.5 0.5
9 0 1 0 0 0 1 0 0 0 1 -14.75 -18.5 -25 1 3.5 0.5
9 0 1 0 0 0 1 0 0 0 1 -9.75 -42.5 -25 7 0.5 0.5
9 0 1 0 0 0 1 0 0 0 1 -9.75 -42.5 5 7 0.5 0.5
9 0 1 0 0 0 1 0 0 0 1 -28.25 -2 -24 0.5 1 3.5
9 0 1 0 0 0 1 0 0 0 1 3.75 -28.5 -20 0.5 0.5 6.5
9 0 1 0 0 0 1 0 0 0 1 -24.25 -28.5 -20 0.5 0.5 6.5
9 0 1 0 0 0 1 0 0 0 1 -24.25 -28.5 0 0.5 0.5 6.5
9 0 1 0 0 0 1 0 0 0 1 -25.25 -29.5 -20 0.5 0.5 6.5
9 0 1 0 0 0 1 0 0 0 1 -25.25 -29.5 0 0.5 0.5 6.5
9 0 1 0 0 0 1 0 0 0 1 -25.25 -43.5 -10 0.5 0.5 6.5
9 0 1 0 0 0 1 0 0 0 1 7.75 -14.5 -20.5 0.5 0.5 6
9 0 1 0 0 0 1 0 0 0 1 7.75 -14.5 0.5 0.5 0.5 6
9 0 1 0 0 0 1 0 0 0 1 3.25 -29 5 1 1 1.5
9 0 1 0 0 0 1 0 0 0 1 2.75 -30.5 1.5 0.5 0.5 6
9 0 1 0 0 0 1 0 0 0 1 1.75 -25 -18 0.5 6 0.5
9 0 1 0 0 0 1 0 0 0 1 -4.75 -41.5 4 2 1.5 0.5
9 0 1 0 0 0 1 0 0 0 1 -15.25 -42 4 1.5 2 0.5
9 0 1 0 0 0 1 0 0 0 1 -20.25 -16 -28 1.5 2 0.5
9 0 1 0 0 0 1 0 0 0 1 -20.25 -16 8 1.5 2 0.5
9 0 1 0 0 0 1 0 0 0 1 -24.25 -42.5 -14.5 0.5 1.5 2
9 0 1 0 0 0 1 0 0 0 1 -24.25 -42.5 -5.5 0.5 1.5 2
9 0 1 0 0 0 1 0 0 0 1 -28.25 -10 -27.5 0.5 3 1
9 0 1 0 0 0 1 0 0 0 1 -28.25 -10 7.5 0.5 3 1
9 0 1 0 0 0 1 0 0 0 1 5.75 -44.5 -10 0.5 0.5 5.5
9 0 1 0 0 0 1 0 0 0 1 3.75 -29.5 -10 0.5 0.5 5.5
9 0 1 0 0 0 1 0 0 0 1 2.75 -26.5 1 0.5 0.5 5.5
9 0 1 0 0 0 1 0 0 0 1 2.75 -30.5 -21 0.5 0.5 5.5
9 0 1 0 0 0 1 0 0 0 1 -0.25 -25.5 -25 0.5 5.5 0.5
9 0 1 0 0 0 1 0 0 0 1 -19.25 -25.5 1 0.5 5.5 0.5
9 0 1 0 0 0 1 0 0 0 1 -20.25 -25.5 -20 0.5 5.5 0.5
9 0 1 0 0 0 1 0 0 0 1 -21.25 -25.5 -1 0.5 5.5 0.5
9 0 1 0 0 0 1 0 0 0 1 3.75 -35.5 -17 0.5 4.5 0.5
9 0 1 0 0 0 1 0 0 0 1 2.75 -46.5 -16 0.5 4.5 0.5
9 0 1 0 0 0 1 0 0 0 1 2.75 -46.5 -4 0.5 4.5 0.5
9 0 1 0 0 0 1 0 0 0 1 -1.25 -43.5 -21 0.5 4.5 0.5
9 0 1 0 0 0 1 0 0 0 1 -15.25 -43.5 -25 1.5 0.5 1.5
9 0 1 0 0 0 1 0 0 0 1 -17.25 -46.5 -22 0.5 4.5 0.5
9 0 1 0 0 0 1 0 0 0 1 -9.75 -45.5 -27 4 0.5 0.5
9 0 1 0 0 0 1 0 0 0 1 -9.75 -45.5 7 4 0.5 0.5
9 0 1 0 0 0 1 0 0 0 1 -16.75 -21 4.5 1 1 1
9 0 1 0 0 0 1 0 0 0 1 -28.25 -11 -15 0.5 4 0.5
9 0 1 0 0 0 1 0 0 0 1 7.75 -10.5 -15 0.5 3.5 0.5
9 0 1 0 0 0 1 0 0 0 1 2.75 -10.5 -5 0.5 3.5 0.5
9 0 1 0 0 0 1 0 0 0 1 -3.25 -10.5 2 0.5 3.5 0.5
9 0 1 0 0 0 1 0 0 0 1 -15.25 -11.5 -25 0.5 3.5 0.5
9 0 1 0 0 0 1 0 0 0 1 -27.25 -45.5 -10 0.5 0.5 3.5
9 0 1 0 0 0 1 0 0 0 1 -2.25 -37 2 0.5 3 0.5
9 0 1 0 0 0 1 0 0 0 1 -2.25 -20.5 -25.5 1.5 0.5 1
9 0 1 0 0 0 1 0 0 0 1 -2.25 -20.5 5.5 1.5 0.5 1
9 0 1 0 0 0 1 0 0 0 1 -3.25 -37 -24 0.5 3 0.5
9 0 1 0 0 0 1 0 0 0 1 -3.25 -37 4 0.5 3 0.5
9 0 1 0 0 0 1 0 0 0 1 -4.75 -43.5 -25 1 0.5 1.5
9 0 1 0 0 0 1 0 0 0 1 -4.75 -43.5 5 1 0.5 1.5
9 0 1 0 0 0 1 0 0 0 1 -15.25 -11 5 0.5 3 0.5
9 0 1 0 0 0 1 0 0 0 1 -13.75 -22.5 -24 3 0.5 0.5
9 0 1 0 0 0 1 0 0 0 1 -15.25 -43.5 5.5 1.5 0.5 1
9 0 1 0 0 0 1 0 0 0 1 -17.25 -21 -25 1.5 1 0.5
9 0 1 0 0 0 1 0 0 0 1 -25.25 -44.5 -14.5 1.5 0.5 1
9 0 1 0 0 0 1 0 0 0 1 -25.25 -44.5 -5.5 1.5 0.5 1
9 0 1 0 0 0 1 0 0 0 1 -28.25 -3 0 0.5 1 1.5
9 0 1 0 0 0 1 0 0 0 1 7.75 -3.5 -2 0.5 0.5 2.5
9 0 1 0 0 0 1 0 0 0 1 -1.25 -33.5 -21 0.5 2.5 0.5
9 0 1 0 0 0 1 0 0 0 1 -1.25 -3.5 -28 2.5 0.5 0.5
9 0 1 0 0 0 1 0 0 0 1 -13.25 -44.5 7 2.5 0.5 0.5
9 0 1 0 0 0 1 0 0 0 1 5.25 -29.5 -14.5 1 0.5 1
9 0 1 0 0 0 1 0 0 0 1 3.75 -28 -5.5 0.5 1 1
9 0 1 0 0 0 1 0 0 0 1 5.25 -30.5 -26 2 0.5 0.5
9 0 1 0 0 0 1 0 0 0 1 4.25 -43 -16 1 1 0.5
9 0 1 0 0 0 1 0 0 0 1 4.25 -43 -4 1 1 0.5
9 0 1 0 0 0 1 0 0 0 1 3.75 -47 -14 0.5 2 0.5
9 0 1 0 0 0 1 0 0 0 1 -18.75 -3.5 -28 2 0.5 0.5
9 0 1 0 0 0 1 0 0 0 1 -18.75 -3.5 8 2 0.5 0.5
9 0 1 0 0 0 1 0 0 0 1 -18.75 -20.5 -26 2 0.5 0.5
9 0 1 0 0 0 1 0 0 0 1 -18.75 -20.5 6 2 0.5 0.5
9 0 1 0 0 0 1 0 0 0 1 -22.75 -15 -28 1 1 0.5
9 0 1 0 0 0 1 0 0 0 1 -22.75 -15 8 1 1 0.5
9 0 1 0 0 0 1 0 0 0 1 -23.25 -27.5 -15.5 0.5 0.5 2
9 0 1 0 0 0 1 0 0 0 1 -23.25 -27.5 -4.5 0.5 0.5 2
9 0 1 0 0 0 1 0 0 0 1 -22.75 -30 -27 1 1 0.5
9 0 1 0 0 0 1 0 0 0 1 -22.75 -30 7 1 1 0.5
9 0 1 0 0 0 1 0 0 0 1 -27.25 -30.5 -23.5 0.5 0.5 2
9 0 1 0 0 0 1 0 0 0 1 -27.25 -30.5 3.5 0.5 0.5 2
9 0 1 0 0 0 1 0 0 0 1 -28.25 -5 -27 0.5 2 0.5
9 0 1 0 0 0 1 0 0 0 1 7.75 -2.5 -20 0.5 0.5 1.5
9 0 1 0 0 0 1 0 0 0 1 7.75 -30.5 -24 0.5 0.5 1.5
9 0 1 0 0 0 1 0 0 0 1 7.75 -30.5 4 0.5 0.5 1.5
9 0 1 0 0 0 1 0 0 0 1 3.75 -46.5 -6 0.5 1.5 0.5
9 0 1 0 0 0 1 0 0 0 1 2.75 -27.5 5 0.5 0.5 1.5
9 0 1 0 0 0 1 0 0 0 1 1.75 -28.5 -27 0.5 1.5 0.5
9 0 1 0 0 0 1 0 0 0 1 -1.25 -3.5 8 1.5 0.5 0.5
9 0 1 0 0 0 1 0 0 0 1 -2.25 -21.5 -25 1.5 0.5 0.5
9 0 1 0 0 0 1 0 0 0 1 -2.25 -21.5 5 1.5 0.5 0.5
9 0 1 0 0 0 1 0 0 0 1 -3.25 -21.5 -24 0.5 1.5 0.5
9 0 1 0 0 0 1 0 0 0 1 -3.25 -21.5 4 0.5 1.5 0.5
9 0 1 0 0 0 1 0 0 0 1 -5.25 -44.5 -25 0.5 0.5 1.5
9 0 1 0 0 0 1 0 0 0 1 -5.25 -44.5 5 0.5 0.5 1.5
9 0 1 0 0 0 1 0 0 0 1 -6.25 -44.5 4 0.5 1.5 0.5
9 0 1 0 0 0 1 0 0 0 1 -14.25 -44.5 -25 0.5 0.5 1.5
9 0 1 0 0 0 1 0 0 0 1 -14.25 -44.5 5 0.5 0.5 1.5
9 0 1 0 0 0 1 0 0 0 1 -23.25 -17.5 -15 0.5 0.5 1.5
9 0 1 0 0 0 1 0 0 0 1 -23.25 -17.5 -5 0.5 0.5 1.5
9 0 1 0 0 0 1 0 0 0 1 -28.25 -3.5 -3 0.5 0.5 1.5
9 0 1 0 0 0 1 0 0 0 1 -28.25 -5.5 7 0.5 1.5 0.5
