9 0 1 0 0 0 1 0 0 0 1 -10.1351 0.25 -9.9999 2.5 8 6.5
9 0 1 0 0 0 1 0 0 0 1 -10.1351 -39.75 -9.9999 2.5 8 6.5
9 0 1 0 0 0 1 0 0 0 1 -30.1351 0.25 -9.9999 2.5 8 6.5
9 0 1 0 0 0 1 0 0 0 1 -30.1351 -39.75 -9.9999 2.5 8 6.5
9 0 1 0 0 0 1 0 0 0 1 -42.1351 -30.75 -9.9999 3.5 2 6.5
9 0 1 0 0 0 1 0 0 0 1 9.864899 -34.25 -9.9999 2.5 2.5 6.5
9 0 1 0 0 0 1 0 0 0 1 1.864899 -30.25 -9.9999 2.5 2.5 6.5
9 0 1 0 0 0 1 0 0 0 1 -49.1351 -34.25 -9.9999 2.5 2.5 6.5
9 0 1 0 0 0 1 0 0 0 1 -20.1351 7.75 -9.9999 7.5 0.5 6.5
9 0 1 0 0 0 1 0 0 0 1 -20.1351 -32.25 -9.9999 7.5 0.5 6.5
9 0 1 0 0 0 1 0 0 0 1 -43.1351 -26.75 -9.9999 1.5 2 6.5
9 0 1 0 0 0 1 0 0 0 1 5.864899 -32.25 -9.9999 1.5 1.5 6.5
9 0 1 0 0 0 1 0 0 0 1 8.364899 -38.75 -9.9999 1 2 6.5
9 0 1 0 0 0 1 0 0 0 1 3.364899 -25.75 -9.9999 1 2 6.5
9 0 1 0 0 0 1 0 0 0 1 -4.135101 7.75 -9.9999 3.5 0.5 6.5
9 0 1 0 0 0 1 0 0 0 1 -4.135101 -32.25 -9.9999 3.5 0.5 6.5
9 0 1 0 0 0 1 0 0 0 1 -33.6351 6.75 -9.9999 1 1.5 6.5
9 0 1 0 0 0 1 0 0 0 1 -33.6351 -33.25 -9.9999 1 1.5 6.5
9 0 1 0 0 0 1 0 0 0 1 -48.6351 -38.25 -9.9999 1 1.5 6.5
9 0 1 0 0 0 1 0 0 0 1 -52.6351 -33.25 -9.9999 1 1.5 6.5
9 0 1 0 0 0 1 0 0 0 1 25.3649 -15.25 -9.9999 2 0.5 8.5
9 0 1 0 0 0 1 0 0 0 1 -65.6351 -15.25 -9.9999 2 0.5 8.5
9 0 1 0 0 0 1 0 0 0 1 -46.1351 -32.25 -9.9999 0.5 2.5 6.5
9 0 1 0 0 0 1 0 0 0 1 20.3649 -23.75 -9.9999 1 1 6.5
9 0 1 0 0 0 1 0 0 0 1 13.3649 -32.75 -9.9999 1 1 6.5
9 0 1 0 0 0 1 0 0 0 1 -6.635101 6.25 -9.9999 1 1 6.5
9 0 1 0 0 0 1 0 0 0 1 -7.135101 -5.75 -9.9999 0.5 2 6.5
9 0 1 0 0 0 1 0 0 0 1 -6.635101 -33.75 -9.9999 1 1 6.5
9 0 1 0 0 0 1 0 0 0 1 -7.135101 -45.75 -9.9999 0.5 2 6.5
9 0 1 0 0 0 1 0 0 0 1 -13.6351 6.25 -9.9999 1 1 6.5
9 0 1 0 0 0 1 0 0 0 1 -13.6351 -6.75 -9.9999 1 1 6.5
9 0 1 0 0 0 1 0 0 0 1 -13.6351 -33.75 -9.9999 1 1 6.5
9 0 1 0 0 0 1 0 0 0 1 -13.6351 -46.75 -9.9999 1 1 6.5
9 0 1 0 0 0 1 0 0 0 1 -26.6351 6.25 -9.9999 1 1 6.5
9 0 1 0 0 0 1 0 0 0 1 -25.6351 -7.25 -9.9999 2 0.5 6.5
9 0 1 0 0 0 1 0 0 0 1 -26.6351 -33.75 -9.9999 1 1 6.5
9 0 1 0 0 0 1 0 0 0 1 -25.6351 -47.25 -9.9999 2 0.5 6.5
9 0 1 0 0 0 1 0 0 0 1 -33.6351 -6.75 -9.9999 1 1 6.5
9 0 1 0 0 0 1 0 0 0 1 -33.6351 -46.75 -9.9999 1 1 6.5
9 0 1 0 0 0 1 0 0 0 1 -36.6351 7.75 -9.9999 2 0.5 6.5
9 0 1 0 0 0 1 0 0 0 1 -36.6351 -32.25 -9.9999 2 0.5 6.5
9 0 1 0 0 0 1 0 0 0 1 15.8649 -8.25 -9.9999 1.5 0.5 8.5
9 0 1 0 0 0 1 0 0 0 1 -5.635101 -6.75 -8.4999 1 1 5
9 0 1 0 0 0 1 0 0 0 1 -5.635101 -46.75 -8.4999 1 1 5
9 0 1 0 0 0 1 0 0 0 1 9.864899 -16.25 -9.9999 1.5 0.5 6.5
9 0 1 0 0 0 1 0 0 0 1 4.864899 -29.25 -9.9999 0.5 1.5 6.5
9 0 1 0 0 0 1 0 0 0 1 -27.1351 -5.25 -9.9999 0.5 1.5 6.5
9 0 1 0 0 0 1 0 0 0 1 -27.1351 -45.25 -9.9999 0.5 1.5 6.5
9 0 1 0 0 0 1 0 0 0 1 -10.1351 5.25 -17.4999 1.5 3 1
9 0 1 0 0 0 1 0 0 0 1 -10.1351 5.25 -2.4999 1.5 3 1
9 0 1 0 0 0 1 0 0 0 1 -10.1351 -34.75 -17.4999 1.5 3 1
9 0 1 0 0 0 1 0 0 0 1 -10.1351 -34.75 -2.4999 1.5 3 1
9 0 1 0 0 0 1 0 0 0 1 -30.1351 5.25 -17.4999 1.5 3 1
9 0 1 0 0 0 1 0 0 0 1 -30.1351 5.25 -2.4999 1.5 3 1
9 0 1 0 0 0 1 0 0 0 1 -30.1351 -34.75 -17.4999 1.5 3 1
9 0 1 0 0 0 1 0 0 0 1 -30.1351 -34.75 -2.4999 1.5 3 1
9 0 1 0 0 0 1 0 0 0 1 30.8649 -6.75 -9.9999 0.5 1 8.5
9 0 1 0 0 0 1 0 0 0 1 25.8649 -16.75 -9.9999 0.5 1 8.5
9 0 1 0 0 0 1 0 0 0 1 17.3649 -9.25 -9.9999 1 0.5 8.5
9 0 1 0 0 0 1 0 0 0 1 10.3649 -37.25 -9.9999 1 0.5 8.5
9 0 1 0 0 0 1 0 0 0 1 1.864899 -26.75 -9.9999 0.5 1 8.5
9 0 1 0 0 0 1 0 0 0 1 -40.6351 -28.25 -9.9999 1 0.5 8.5
9 0 1 0 0 0 1 0 0 0 1 -50.1351 -37.75 -9.9999 0.5 1 8.5
9 0 1 0 0 0 1 0 0 0 1 -55.6351 -8.25 -9.9999 1 0.5 8.5
9 0 1 0 0 0 1 0 0 0 1 10.3649 -34.75 -17.4999 2 2 1
9 0 1 0 0 0 1 0 0 0 1 10.3649 -34.75 -2.4999 2 2 1
9 0 1 0 0 0 1 0 0 0 1 -10.1351 -5.25 -17.4999 1.5 2.5 1
9 0 1 0 0 0 1 0 0 0 1 -10.1351 -5.25 -2.4999 1.5 2.5 1
9 0 1 0 0 0 1 0 0 0 1 -10.1351 -45.25 -17.4999 1.5 2.5 1
9 0 1 0 0 0 1 0 0 0 1 -10.1351 -45.25 -2.4999 1.5 2.5 1
9 0 1 0 0 0 1 0 0 0 1 -30.1351 -5.25 -17.4999 1.5 2.5 1
9 0 1 0 0 0 1 0 0 0 1 -30.1351 -5.25 -2.4999 1.5 2.5 1
9 0 1 0 0 0 1 0 0 0 1 -30.1351 -45.25 -17.4999 1.5 2.5 1
9 0 1 0 0 0 1 0 0 0 1 -30.1351 -45.25 -2.4999 1.5 2.5 1
9 0 1 0 0 0 1 0 0 0 1 6.864899 -34.75 -9.9999 0.5 1 6.5
9 0 1 0 0 0 1 0 0 0 1 -1.135101 -30.75 -9.9999 0.5 1 6.5
9 0 1 0 0 0 1 0 0 0 1 -7.135101 4.25 -9.9999 0.5 1 6.5
9 0 1 0 0 0 1 0 0 0 1 -7.135101 -35.75 -9.9999 0.5 1 6.5
9 0 1 0 0 0 1 0 0 0 1 -15.6351 -7.25 -9.9999 1 0.5 6.5
9 0 1 0 0 0 1 0 0 0 1 -15.6351 -47.25 -9.9999 1 0.5 6.5
9 0 1 0 0 0 1 0 0 0 1 -27.1351 4.25 -9.9999 0.5 1 6.5
9 0 1 0 0 0 1 0 0 0 1 -27.1351 -35.75 -9.9999 0.5 1 6.5
9 0 1 0 0 0 1 0 0 0 1 -35.6351 -7.25 -9.9999 1 0.5 6.5
9 0 1 0 0 0 1 0 0 0 1 -35.6351 -47.25 -9.9999 1 0.5 6.5
9 0 1 0 0 0 1 0 0 0 1 -43.6351 -24.25 -9.9999 1 0.5 6.5
9 0 1 0 0 0 1 0 0 0 1 -47.6351 -31.25 -9.9999 1 0.5 6.5
9 0 1 0 0 0 1 0 0 0 1 -49.6351 -16.25 -9.9999 1 0.5 6.5
9 0 1 0 0 0 1 0 0 0 1 -60.1351 -23.75 -9.9999 0.5 1 6.5
9 0 1 0 0 0 1 0 0 0 1 1.364899 -29.25 -17.4999 2 1.5 1
9 0 1 0 0 0 1 0 0 0 1 1.364899 -29.25 -2.4999 2 1.5 1
9 0 1 0 0 0 1 0 0 0 1 -50.1351 -34.75 -17.4999 1.5 2 1
9 0 1 0 0 0 1 0 0 0 1 -50.1351 -34.75 -2.4999 1.5 2 1
9 0 1 0 0 0 1 0 0 0 1 -41.1351 -29.75 -17.4999 2.5 1 1
9 0 1 0 0 0 1 0 0 0 1 -41.1351 -29.75 -2.4999 2.5 1 1
9 0 1 0 0 0 1 0 0 0 1 24.8649 -14.25 -9.9999 0.5 0.5 8.5
9 0 1 0 0 0 1 0 0 0 1 22.8649 -1.25 -9.9999 0.5 0.5 8.5
9 0 1 0 0 0 1 0 0 0 1 15.8649 -7.25 -9.9999 0.5 0.5 8.5
9 0 1 0 0 0 1 0 0 0 1 12.8649 -34.25 -9.9999 0.5 0.5 8.5
9 0 1 0 0 0 1 0 0 0 1 9.864899 -38.25 -9.9999 0.5 0.5 8.5
9 0 1 0 0 0 1 0 0 0 1 0.8648987 -27.25 -9.9999 0.5 0.5 8.5
9 0 1 0 0 0 1 0 0 0 1 -41.1351 -27.25 -9.9999 0.5 0.5 8.5
9 0 1 0 0 0 1 0 0 0 1 -52.1351 -35.25 -9.9999 0.5 0.5 8.5
9 0 1 0 0 0 1 0 0 0 1 -56.1351 -7.25 -9.9999 0.5 0.5 8.5
9 0 1 0 0 0 1 0 0 0 1 -57.1351 -9.25 -9.9999 0.5 0.5 8.5
9 0 1 0 0 0 1 0 0 0 1 -61.1351 -23.25 -9.9999 0.5 0.5 8.5
9 0 1 0 0 0 1 0 0 0 1 -63.1351 -1.25 -9.9999 0.5 0.5 8.5
9 0 1 0 0 0 1 0 0 0 1 -66.1351 -16.25 -9.9999 0.5 0.5 8.5
9 0 1 0 0 0 1 0 0 0 1 -71.1351 -7.25 -9.9999 0.5 0.5 8.5
9 0 1 0 0 0 1 0 0 0 1 26.8649 -16.25 -10.4999 0.5 0.5 8
9 0 1 0 0 0 1 0 0 0 1 -25.6351 -6.25 -12.4999 1 0.5 4
9 0 1 0 0 0 1 0 0 0 1 -25.6351 -46.25 -12.4999 1 0.5 4
9 0 1 0 0 0 1 0 0 0 1 19.8649 -25.25 -9.9999 0.5 0.5 6.5
9 0 1 0 0 0 1 0 0 0 1 14.8649 -32.25 -9.9999 0.5 0.5 6.5
9 0 1 0 0 0 1 0 0 0 1 9.864899 -15.25 -9.9999 0.5 0.5 6.5
9 0 1 0 0 0 1 0 0 0 1 7.864899 -31.25 -9.9999 0.5 0.5 6.5
9 0 1 0 0 0 1 0 0 0 1 7.864899 -41.25 -9.9999 0.5 0.5 6.5
9 0 1 0 0 0 1 0 0 0 1 5.864899 -30.25 -9.9999 0.5 0.5 6.5
9 0 1 0 0 0 1 0 0 0 1 5.864899 -34.25 -9.9999 0.5 0.5 6.5
9 0 1 0 0 0 1 0 0 0 1 3.864899 -23.25 -9.9999 0.5 0.5 6.5
9 0 1 0 0 0 1 0 0 0 1 -2.135101 -31.25 -9.9999 0.5 0.5 6.5
9 0 1 0 0 0 1 0 0 0 1 -4.135101 -7.25 -9.9999 0.5 0.5 6.5
9 0 1 0 0 0 1 0 0 0 1 -4.135101 -47.25 -9.9999 0.5 0.5 6.5
9 0 1 0 0 0 1 0 0 0 1 -5.135101 6.75 -9.9999 0.5 0.5 6.5
9 0 1 0 0 0 1 0 0 0 1 -5.135101 -33.25 -9.9999 0.5 0.5 6.5
9 0 1 0 0 0 1 0 0 0 1 -13.1351 4.75 -9.9999 0.5 0.5 6.5
9 0 1 0 0 0 1 0 0 0 1 -13.1351 -5.25 -9.9999 0.5 0.5 6.5
9 0 1 0 0 0 1 0 0 0 1 -13.1351 -35.25 -9.9999 0.5 0.5 6.5
9 0 1 0 0 0 1 0 0 0 1 -13.1351 -45.25 -9.9999 0.5 0.5 6.5
9 0 1 0 0 0 1 0 0 0 1 -15.1351 6.75 -9.9999 0.5 0.5 6.5
9 0 1 0 0 0 1 0 0 0 1 -15.1351 -33.25 -9.9999 0.5 0.5 6.5
9 0 1 0 0 0 1 0 0 0 1 -25.1351 6.75 -9.9999 0.5 0.5 6.5
9 0 1 0 0 0 1 0 0 0 1 -25.1351 -33.25 -9.9999 0.5 0.5 6.5
9 0 1 0 0 0 1 0 0 0 1 -33.1351 4.75 -9.9999 0.5 0.5 6.5
9 0 1 0 0 0 1 0 0 0 1 -33.1351 -5.25 -9.9999 0.5 0.5 6.5
9 0 1 0 0 0 1 0 0 0 1 -33.1351 -35.25 -9.9999 0.5 0.5 6.5
9 0 1 0 0 0 1 0 0 0 1 -33.1351 -45.25 -9.9999 0.5 0.5 6.5
9 0 1 0 0 0 1 0 0 0 1 -35.1351 6.75 -9.9999 0.5 0.5 6.5
9 0 1 0 0 0 1 0 0 0 1 -35.1351 -33.25 -9.9999 0.5 0.5 6.5
9 0 1 0 0 0 1 0 0 0 1 -38.1351 -31.25 -9.9999 0.5 0.5 6.5
9 0 1 0 0 0 1 0 0 0 1 -44.1351 -23.25 -9.9999 0.5 0.5 6.5
9 0 1 0 0 0 1 0 0 0 1 -45.1351 -33.25 -9.9999 0.5 0.5 6.5
9 0 1 0 0 0 1 0 0 0 1 -48.1351 -40.25 -9.9999 0.5 0.5 6.5
9 0 1 0 0 0 1 0 0 0 1 -50.1351 -15.25 -9.9999 0.5 0.5 6.5
9 0 1 0 0 0 1 0 0 0 1 -54.1351 -32.25 -9.9999 0.5 0.5 6.5
9 0 1 0 0 0 1 0 0 0 1 -10.1351 -0.25 -17.4999 0.5 2.5 1
9 0 1 0 0 0 1 0 0 0 1 -10.1351 -0.25 -2.4999 0.5 2.5 1
9 0 1 0 0 0 1 0 0 0 1 -10.1351 -40.25 -17.4999 0.5 2.5 1
9 0 1 0 0 0 1 0 0 0 1 -10.1351 -40.25 -2.4999 0.5 2.5 1
9 0 1 0 0 0 1 0 0 0 1 -30.1351 -0.25 -17.4999 0.5 2.5 1
9 0 1 0 0 0 1 0 0 0 1 -30.1351 -0.25 -2.4999 0.5 2.5 1
9 0 1 0 0 0 1 0 0 0 1 -30.1351 -40.25 -17.4999 0.5 2.5 1
9 0 1 0 0 0 1 0 0 0 1 -30.1351 -40.25 -2.4999 0.5 2.5 1
9 0 1 0 0 0 1 0 0 0 1 4.364899 -30.75 -17.4999 1 1 1
9 0 1 0 0 0 1 0 0 0 1 4.364899 -30.75 -2.4999 1 1 1
9 0 1 0 0 0 1 0 0 0 1 -7.635101 7.25 -17.4999 1 1 1
9 0 1 0 0 0 1 0 0 0 1 -7.635101 7.25 -2.4999 1 1 1
9 0 1 0 0 0 1 0 0 0 1 -7.635101 -32.75 -17.4999 1 1 1
9 0 1 0 0 0 1 0 0 0 1 -7.635101 -32.75 -2.4999 1 1 1
9 0 1 0 0 0 1 0 0 0 1 -12.6351 7.25 -17.4999 1 1 1
9 0 1 0 0 0 1 0 0 0 1 -12.6351 7.25 -2.4999 1 1 1
9 0 1 0 0 0 1 0 0 0 1 -12.6351 -32.75 -17.4999 1 1 1
9 0 1 0 0 0 1 0 0 0 1 -12.6351 -32.75 -2.4999 1 1 1
9 0 1 0 0 0 1 0 0 0 1 -27.6351 7.25 -17.4999 1 1 1
9 0 1 0 0 0 1 0 0 0 1 -27.6351 7.25 -2.4999 1 1 1
9 0 1 0 0 0 1 0 0 0 1 -27.6351 -32.75 -17.4999 1 1 1
9 0 1 0 0 0 1 0 0 0 1 -27.6351 -32.75 -2.4999 1 1 1
9 0 1 0 0 0 1 0 0 0 1 -32.6351 7.25 -17.4999 1 1 1
9 0 1 0 0 0 1 0 0 0 1 -32.6351 7.25 -2.4999 1 1 1
9 0 1 0 0 0 1 0 0 0 1 -32.6351 -32.75 -17.4999 1 1 1
9 0 1 0 0 0 1 0 0 0 1 -32.6351 -32.75 -2.4999 1 1 1
9 0 1 0 0 0 1 0 0 0 1 -42.1351 -26.75 -17.4999 0.5 2 1
9 0 1 0 0 0 1 0 0 0 1 -42.1351 -26.75 -2.4999 0.5 2 1
9 0 1 0 0 0 1 0 0 0 1 -52.6351 -33.75 -17.4999 1 1 1
9 0 1 0 0 0 1 0 0 0 1 -52.6351 -33.75 -2.4999 1 1 1
9 0 1 0 0 0 1 0 0 0 1 3.864899 -7.25 -9.9999 0.5 0.5 3.5
9 0 1 0 0 0 1 0 0 0 1 -44.1351 -7.25 -9.9999 0.5 0.5 3.5
9 0 1 0 0 0 1 0 0 0 1 -57.1351 -8.25 -14.9999 0.5 0.5 3.5
9 0 1 0 0 0 1 0 0 0 1 2.864899 -26.25 -17.4999 0.5 1.5 1
9 0 1 0 0 0 1 0 0 0 1 2.864899 -26.25 -2.4999 0.5 1.5 1
9 0 1 0 0 0 1 0 0 0 1 -5.635101 -7.25 -14.9999 1 0.5 1.5
9 0 1 0 0 0 1 0 0 0 1 -5.635101 -47.25 -14.9999 1 0.5 1.5
9 0 1 0 0 0 1 0 0 0 1 -7.135101 -7.25 -17.4999 1.5 0.5 1
9 0 1 0 0 0 1 0 0 0 1 -7.135101 -7.25 -2.4999 1.5 0.5 1
9 0 1 0 0 0 1 0 0 0 1 -7.135101 -47.25 -17.4999 1.5 0.5 1
9 0 1 0 0 0 1 0 0 0 1 -7.135101 -47.25 -2.4999 1.5 0.5 1
9 0 1 0 0 0 1 0 0 0 1 -27.1351 -7.25 -17.4999 1.5 0.5 1
9 0 1 0 0 0 1 0 0 0 1 -27.1351 -7.25 -2.4999 1.5 0.5 1
9 0 1 0 0 0 1 0 0 0 1 -27.1351 -47.25 -17.4999 1.5 0.5 1
9 0 1 0 0 0 1 0 0 0 1 -27.1351 -47.25 -2.4999 1.5 0.5 1
9 0 1 0 0 0 1 0 0 0 1 -44.1351 -31.25 -17.4999 1.5 0.5 1
9 0 1 0 0 0 1 0 0 0 1 -44.1351 -31.25 -2.4999 1.5 0.5 1
9 0 1 0 0 0 1 0 0 0 1 -65.1351 -14.25 -15.4999 0.5 0.5 3
9 0 1 0 0 0 1 0 0 0 1 -3.135101 -7.25 -5.9999 0.5 0.5 2.5
9 0 1 0 0 0 1 0 0 0 1 -3.135101 -47.25 -5.9999 0.5 0.5 2.5
9 0 1 0 0 0 1 0 0 0 1 -26.1351 -6.25 -5.9999 0.5 0.5 2.5
9 0 1 0 0 0 1 0 0 0 1 -26.1351 -46.25 -5.9999 0.5 0.5 2.5
9 0 1 0 0 0 1 0 0 0 1 13.3649 -33.25 -17.4999 1 0.5 1
9 0 1 0 0 0 1 0 0 0 1 13.3649 -33.25 -2.4999 1 0.5 1
9 0 1 0 0 0 1 0 0 0 1 7.864899 -33.75 -17.4999 0.5 1 1
9 0 1 0 0 0 1 0 0 0 1 7.864899 -33.75 -2.4999 0.5 1 1
9 0 1 0 0 0 1 0 0 0 1 6.864899 -32.75 -17.4999 0.5 1 1
9 0 1 0 0 0 1 0 0 0 1 6.864899 -32.75 -2.4999 0.5 1 1
9 0 1 0 0 0 1 0 0 0 1 5.864899 -29.25 -14.4999 0.5 0.5 2
9 0 1 0 0 0 1 0 0 0 1 -12.1351 -6.75 -17.4999 0.5 1 1
9 0 1 0 0 0 1 0 0 0 1 -12.1351 -6.75 -2.4999 0.5 1 1
9 0 1 0 0 0 1 0 0 0 1 -12.1351 -46.75 -17.4999 0.5 1 1
9 0 1 0 0 0 1 0 0 0 1 -12.1351 -46.75 -2.4999 0.5 1 1
9 0 1 0 0 0 1 0 0 0 1 -32.1351 -6.75 -17.4999 0.5 1 1
9 0 1 0 0 0 1 0 0 0 1 -32.1351 -6.75 -2.4999 0.5 1 1
9 0 1 0 0 0 1 0 0 0 1 -32.1351 -46.75 -17.4999 0.5 1 1
9 0 1 0 0 0 1 0 0 0 1 -32.1351 -46.75 -2.4999 0.5 1 1
9 0 1 0 0 0 1 0 0 0 1 -43.1351 -27.75 -17.4999 0.5 1 1
9 0 1 0 0 0 1 0 0 0 1 -43.1351 -27.75 -2.4999 0.5 1 1
9 0 1 0 0 0 1 0 0 0 1 -46.6351 -32.25 -17.4999 1 0.5 1
9 0 1 0 0 0 1 0 0 0 1 -46.6351 -32.25 -2.4999 1 0.5 1
9 0 1 0 0 0 1 0 0 0 1 -47.6351 -33.25 -17.4999 1 0.5 1
9 0 1 0 0 0 1 0 0 0 1 -47.6351 -33.25 -2.4999 1 0.5 1
9 0 1 0 0 0 1 0 0 0 1 -49.1351 -37.75 -17.4999 0.5 1 1
9 0 1 0 0 0 1 0 0 0 1 -49.1351 -37.75 -2.4999 0.5 1 1
9 0 1 0 0 0 1 0 0 0 1 -6.135101 -6.25 -14.9999 0.5 0.5 1.5
9 0 1 0 0 0 1 0 0 0 1 -6.135101 -46.25 -14.9999 0.5 0.5 1.5
9 0 1 0 0 0 1 0 0 0 1 -23.1351 -7.25 -14.9999 0.5 0.5 1.5
9 0 1 0 0 0 1 0 0 0 1 -23.1351 -47.25 -14.9999 0.5 0.5 1.5
