9 0 1 0 0 0 1 0 0 0 1 30 -10.23676 -19.77903 2.5 7.5 6.5
9 0 1 0 0 0 1 0 0 0 1 30 -10.23676 20.22097 2.5 7.5 6.5
9 0 1 0 0 0 1 0 0 0 1 -30 -10.23676 -19.77903 2.5 7.5 6.5
9 0 1 0 0 0 1 0 0 0 1 -30 -10.23676 20.22097 2.5 7.5 6.5
9 0 1 0 0 0 1 0 0 0 1 -33.5 -16.23676 -18.27903 1 1.5 5
9 0 1 0 0 0 1 0 0 0 1 33.5 -16.23676 18.22097 1 1.5 4.5
9 0 1 0 0 0 1 0 0 0 1 33.5 -3.736765 -19.77903 1 1 6.5
9 0 1 0 0 0 1 0 0 0 1 33.5 -3.736765 20.22097 1 1 6.5
9 0 1 0 0 0 1 0 0 0 1 34.5 -17.23676 -19.77903 2 0.5 6.5
9 0 1 0 0 0 1 0 0 0 1 26.5 -3.736765 -19.77903 1 1 6.5
9 0 1 0 0 0 1 0 0 0 1 26.5 -3.736765 20.22097 1 1 6.5
9 0 1 0 0 0 1 0 0 0 1 26.5 -16.73676 -19.77903 1 1 6.5
9 0 1 0 0 0 1 0 0 0 1 26.5 -16.73676 20.22097 1 1 6.5
9 0 1 0 0 0 1 0 0 0 1 -26.5 -3.736765 -19.77903 1 1 6.5
9 0 1 0 0 0 1 0 0 0 1 -26.5 -3.736765 20.22097 1 1 6.5
9 0 1 0 0 0 1 0 0 0 1 -26.5 -16.73676 -19.77903 1 1 6.5
9 0 1 0 0 0 1 0 0 0 1 -33 -4.736765 -19.77903 0.5 2 6.5
9 0 1 0 0 0 1 0 0 0 1 -33 -4.736765 20.22097 0.5 2 6.5
9 0 1 0 0 0 1 0 0 0 1 -33 -15.73676 20.22097 0.5 2 6.5
9 0 1 0 0 0 1 0 0 0 1 -26.5 -16.73676 19.22097 1 1 5.5
9 0 1 0 0 0 1 0 0 0 1 33 -15.23676 -19.77903 0.5 1.5 6.5
9 0 1 0 0 0 1 0 0 0 1 15 -17.23676 -19.77903 1.5 0.5 6.5
9 0 1 0 0 0 1 0 0 0 1 15 -17.23676 20.22097 1.5 0.5 6.5
9 0 1 0 0 0 1 0 0 0 1 -15 -17.23676 -19.77903 1.5 0.5 6.5
9 0 1 0 0 0 1 0 0 0 1 -35 -17.23676 20.22097 1.5 0.5 6.5
9 0 1 0 0 0 1 0 0 0 1 30 -10.23676 -27.27903 0.5 7.5 1
9 0 1 0 0 0 1 0 0 0 1 30 -10.23676 27.72097 0.5 7.5 1
9 0 1 0 0 0 1 0 0 0 1 -30 -10.23676 -27.27903 0.5 7.5 1
9 0 1 0 0 0 1 0 0 0 1 -30 -10.23676 27.72097 0.5 7.5 1
9 0 1 0 0 0 1 0 0 0 1 35.5 -17.23676 20.22097 1 0.5 6.5
9 0 1 0 0 0 1 0 0 0 1 33 -5.736765 -19.77903 0.5 1 6.5
9 0 1 0 0 0 1 0 0 0 1 33 -5.736765 20.22097 0.5 1 6.5
9 0 1 0 0 0 1 0 0 0 1 14.5 -3.236765 -19.77903 1 0.5 6.5
9 0 1 0 0 0 1 0 0 0 1 14.5 -3.236765 20.22097 1 0.5 6.5
9 0 1 0 0 0 1 0 0 0 1 -14 -3.736765 -19.77903 0.5 1 6.5
9 0 1 0 0 0 1 0 0 0 1 -15.5 -17.23676 20.22097 1 0.5 6.5
9 0 1 0 0 0 1 0 0 0 1 -34 -3.736765 -19.77903 0.5 1 6.5
9 0 1 0 0 0 1 0 0 0 1 -34 -3.736765 20.22097 0.5 1 6.5
9 0 1 0 0 0 1 0 0 0 1 -35.5 -17.23676 -19.77903 1 0.5 6.5
9 0 1 0 0 0 1 0 0 0 1 -14.5 -3.236765 18.72097 1 0.5 5
9 0 1 0 0 0 1 0 0 0 1 34 -15.73676 -17.77903 0.5 1 4.5
9 0 1 0 0 0 1 0 0 0 1 24.5 -17.23676 -21.77903 1 0.5 4.5
9 0 1 0 0 0 1 0 0 0 1 24.5 -17.23676 22.22097 1 0.5 4.5
9 0 1 0 0 0 1 0 0 0 1 -24.5 -17.23676 -21.77903 1 0.5 4.5
9 0 1 0 0 0 1 0 0 0 1 -24.5 -17.23676 22.22097 1 0.5 4.5
9 0 1 0 0 0 1 0 0 0 1 33.5 -16.73676 24.72097 1 1 2
9 0 1 0 0 0 1 0 0 0 1 -34 -15.73676 17.72097 0.5 1 4
9 0 1 0 0 0 1 0 0 0 1 35 -3.236765 -19.77903 0.5 0.5 6.5
9 0 1 0 0 0 1 0 0 0 1 35 -3.236765 20.22097 0.5 0.5 6.5
9 0 1 0 0 0 1 0 0 0 1 33 -14.23676 20.22097 0.5 0.5 6.5
9 0 1 0 0 0 1 0 0 0 1 27 -5.236765 -19.77903 0.5 0.5 6.5
9 0 1 0 0 0 1 0 0 0 1 27 -5.236765 20.22097 0.5 0.5 6.5
9 0 1 0 0 0 1 0 0 0 1 27 -15.23676 -19.77903 0.5 0.5 6.5
9 0 1 0 0 0 1 0 0 0 1 27 -15.23676 20.22097 0.5 0.5 6.5
9 0 1 0 0 0 1 0 0 0 1 25 -3.236765 -19.77903 0.5 0.5 6.5
9 0 1 0 0 0 1 0 0 0 1 25 -3.236765 20.22097 0.5 0.5 6.5
9 0 1 0 0 0 1 0 0 0 1 14 -4.236765 -19.77903 0.5 0.5 6.5
9 0 1 0 0 0 1 0 0 0 1 14 -16.23676 -19.77903 0.5 0.5 6.5
9 0 1 0 0 0 1 0 0 0 1 -14 -16.23676 -19.77903 0.5 0.5 6.5
9 0 1 0 0 0 1 0 0 0 1 -15 -3.236765 -19.77903 0.5 0.5 6.5
9 0 1 0 0 0 1 0 0 0 1 -25 -3.236765 -19.77903 0.5 0.5 6.5
9 0 1 0 0 0 1 0 0 0 1 -25 -3.236765 20.22097 0.5 0.5 6.5
9 0 1 0 0 0 1 0 0 0 1 -27 -5.236765 -19.77903 0.5 0.5 6.5
9 0 1 0 0 0 1 0 0 0 1 -27 -5.236765 20.22097 0.5 0.5 6.5
9 0 1 0 0 0 1 0 0 0 1 -27 -15.23676 -19.77903 0.5 0.5 6.5
9 0 1 0 0 0 1 0 0 0 1 -27 -15.23676 20.22097 0.5 0.5 6.5
9 0 1 0 0 0 1 0 0 0 1 -33 -14.23676 -19.77903 0.5 0.5 6.5
9 0 1 0 0 0 1 0 0 0 1 -35 -3.236765 -19.77903 0.5 0.5 6.5
9 0 1 0 0 0 1 0 0 0 1 -35 -3.236765 20.22097 0.5 0.5 6.5
9 0 1 0 0 0 1 0 0 0 1 31 -5.736765 -27.27903 0.5 3 1
9 0 1 0 0 0 1 0 0 0 1 31 -5.736765 27.72097 0.5 3 1
9 0 1 0 0 0 1 0 0 0 1 31.5 -16.23676 -27.27903 1 1.5 1
9 0 1 0 0 0 1 0 0 0 1 31.5 -16.23676 27.72097 1 1.5 1
9 0 1 0 0 0 1 0 0 0 1 -31 -5.736765 -27.27903 0.5 3 1
9 0 1 0 0 0 1 0 0 0 1 -31 -5.736765 27.72097 0.5 3 1
9 0 1 0 0 0 1 0 0 0 1 -31 -14.73676 -27.27903 0.5 3 1
9 0 1 0 0 0 1 0 0 0 1 -31 -14.73676 27.72097 0.5 3 1
9 0 1 0 0 0 1 0 0 0 1 -33.5 -16.73676 -24.77903 1 1 1.5
9 0 1 0 0 0 1 0 0 0 1 29 -15.23676 -27.27903 0.5 2.5 1
9 0 1 0 0 0 1 0 0 0 1 29 -15.23676 27.72097 0.5 2.5 1
9 0 1 0 0 0 1 0 0 0 1 -29 -15.23676 -27.27903 0.5 2.5 1
9 0 1 0 0 0 1 0 0 0 1 -29 -15.23676 27.72097 0.5 2.5 1
9 0 1 0 0 0 1 0 0 0 1 29 -4.736765 -27.27903 0.5 2 1
9 0 1 0 0 0 1 0 0 0 1 29 -4.736765 27.72097 0.5 2 1
9 0 1 0 0 0 1 0 0 0 1 -26.5 -16.73676 25.72097 1 1 1
9 0 1 0 0 0 1 0 0 0 1 -28.5 -3.736765 -27.27903 1 1 1
9 0 1 0 0 0 1 0 0 0 1 -28.5 -3.736765 27.72097 1 1 1
9 0 1 0 0 0 1 0 0 0 1 31 -13.23676 -27.27903 0.5 1.5 1
9 0 1 0 0 0 1 0 0 0 1 31 -13.23676 27.72097 0.5 1.5 1
9 0 1 0 0 0 1 0 0 0 1 -32 -4.236765 -27.27903 0.5 1.5 1
9 0 1 0 0 0 1 0 0 0 1 -32 -16.23676 -27.27903 0.5 1.5 1
9 0 1 0 0 0 1 0 0 0 1 -32 -16.23676 27.72097 0.5 1.5 1
9 0 1 0 0 0 1 0 0 0 1 -34 -16.23676 24.22097 0.5 0.5 2.5
9 0 1 0 0 0 1 0 0 0 1 34 -16.23676 -24.27903 0.5 0.5 2
9 0 1 0 0 0 1 0 0 0 1 33 -15.23676 24.72097 0.5 0.5 2
9 0 1 0 0 0 1 0 0 0 1 32.5 -3.236765 -27.27903 1 0.5 1
9 0 1 0 0 0 1 0 0 0 1 32.5 -3.236765 27.72097 1 0.5 1
9 0 1 0 0 0 1 0 0 0 1 28 -3.736765 -27.27903 0.5 1 1
9 0 1 0 0 0 1 0 0 0 1 28 -3.736765 27.72097 0.5 1 1
9 0 1 0 0 0 1 0 0 0 1 28 -16.73676 -27.27903 0.5 1 1
9 0 1 0 0 0 1 0 0 0 1 28 -16.73676 27.72097 0.5 1 1
9 0 1 0 0 0 1 0 0 0 1 25 -17.23676 -15.27903 0.5 0.5 2
9 0 1 0 0 0 1 0 0 0 1 25 -17.23676 15.72097 0.5 0.5 2
9 0 1 0 0 0 1 0 0 0 1 -14 -17.23676 22.72097 0.5 0.5 2
9 0 1 0 0 0 1 0 0 0 1 -25 -17.23676 -15.27903 0.5 0.5 2
9 0 1 0 0 0 1 0 0 0 1 -25 -17.23676 15.72097 0.5 0.5 2
9 0 1 0 0 0 1 0 0 0 1 -27.5 -17.23676 -27.27903 1 0.5 1
9 0 1 0 0 0 1 0 0 0 1 -27.5 -17.23676 27.72097 1 0.5 1
9 0 1 0 0 0 1 0 0 0 1 -29 -5.736765 -27.27903 0.5 1 1
9 0 1 0 0 0 1 0 0 0 1 -29 -5.736765 27.72097 0.5 1 1
9 0 1 0 0 0 1 0 0 0 1 -32 -3.736765 27.72097 0.5 1 1
9 0 1 0 0 0 1 0 0 0 1 -14 -17.23676 15.22097 0.5 0.5 1.5
9 0 1 0 0 0 1 0 0 0 1 -15 -3.236765 25.22097 0.5 0.5 1.5
9 0 1 0 0 0 1 0 0 0 1 -33 -15.23676 -24.77903 0.5 0.5 1.5
