9 0 1 0 0 0 1 0 0 0 1 0 -16.5 -2 16.5 8.5 0.5
9 0 1 0 0 0 1 0 0 0 1 13 -0.5 -38 5.5 11.5 0.5
9 0 1 0 0 0 1 0 0 0 1 -13 0 -38 5.5 11 0.5
9 0 1 0 0 0 1 0 0 0 1 0 13 -2 9.5 5 0.5
9 0 1 0 0 0 1 0 0 0 1 12 0 -2 4.5 8 0.5
9 0 1 0 0 0 1 0 0 0 1 -12 0 -2 4.5 8 0.5
9 0 1 0 0 0 1 0 0 0 1 0 -36.5 13.5 7.5 0.5 4
9 0 1 0 0 0 1 0 0 0 1 0 -28 -1 16.5 1 0.5
9 0 1 0 0 0 1 0 0 0 1 0 -35.5 6.5 12.5 0.5 1
9 0 1 0 0 0 1 0 0 0 1 15.5 17 -37.5 3 2 1
9 0 1 0 0 0 1 0 0 0 1 -15.5 17 -37.5 3 2 1
9 0 1 0 0 0 1 0 0 0 1 0 9.5 -38 7.5 1.5 0.5
9 0 1 0 0 0 1 0 0 0 1 0 -9.5 -38 7.5 1.5 0.5
9 0 1 0 0 0 1 0 0 0 1 0 18.5 -3.5 5.5 0.5 2
9 0 1 0 0 0 1 0 0 0 1 -15.5 -14.5 -38 3 3.5 0.5
9 0 1 0 0 0 1 0 0 0 1 15.5 -15 -38 3 3 0.5
9 0 1 0 0 0 1 0 0 0 1 13 18.5 -30.5 1.5 0.5 5
9 0 1 0 0 0 1 0 0 0 1 13 -18.5 -30.5 1.5 0.5 5
9 0 1 0 0 0 1 0 0 0 1 12.5 10.5 -2 3 2.5 0.5
9 0 1 0 0 0 1 0 0 0 1 -13 18.5 -30.5 1.5 0.5 5
9 0 1 0 0 0 1 0 0 0 1 -12 11 -2 2.5 3 0.5
9 0 1 0 0 0 1 0 0 0 1 -13 -18.5 -30.5 1.5 0.5 5
9 0 1 0 0 0 1 0 0 0 1 15.5 13 -38 3 2 0.5
9 0 1 0 0 0 1 0 0 0 1 -15.5 13 -38 3 2 0.5
9 0 1 0 0 0 1 0 0 0 1 10.5 18.5 -24 1 0.5 5.5
9 0 1 0 0 0 1 0 0 0 1 10.5 -18.5 -24 1 0.5 5.5
9 0 1 0 0 0 1 0 0 0 1 5.5 -25.5 -2 11 0.5 0.5
9 0 1 0 0 0 1 0 0 0 1 -10.5 18.5 -24 1 0.5 5.5
9 0 1 0 0 0 1 0 0 0 1 -10.5 -18.5 -24 1 0.5 5.5
9 0 1 0 0 0 1 0 0 0 1 15 -17.5 -35.5 2.5 0.5 2
9 0 1 0 0 0 1 0 0 0 1 -16 -16 -37 2.5 2 0.5
9 0 1 0 0 0 1 0 0 0 1 8.5 18.5 -18 1 0.5 4.5
9 0 1 0 0 0 1 0 0 0 1 8.5 -18.5 -18 1 0.5 4.5
9 0 1 0 0 0 1 0 0 0 1 6.5 18.5 -12 1 0.5 4.5
9 0 1 0 0 0 1 0 0 0 1 -6 -18.5 -10.5 1.5 0.5 3
9 0 1 0 0 0 1 0 0 0 1 -7 18.5 -13.5 1.5 0.5 3
9 0 1 0 0 0 1 0 0 0 1 -8 -18.5 -16.5 1.5 0.5 3
9 0 1 0 0 0 1 0 0 0 1 6.5 -18.5 -12.5 1 0.5 4
9 0 1 0 0 0 1 0 0 0 1 -9 -36.5 12 1.5 0.5 2.5
9 0 1 0 0 0 1 0 0 0 1 15.5 18.5 -33.5 1 0.5 3
9 0 1 0 0 0 1 0 0 0 1 15.5 -16 -37 3 1 0.5
9 0 1 0 0 0 1 0 0 0 1 9 -36.5 11.5 1.5 0.5 2
9 0 1 0 0 0 1 0 0 0 1 6 6 -38 1.5 2 0.5
9 0 1 0 0 0 1 0 0 0 1 6 6 -2 1.5 2 0.5
9 0 1 0 0 0 1 0 0 0 1 6 -6 -38 1.5 2 0.5
9 0 1 0 0 0 1 0 0 0 1 6 -6 -2 1.5 2 0.5
9 0 1 0 0 0 1 0 0 0 1 -5 18.5 -7.5 1.5 0.5 2
9 0 1 0 0 0 1 0 0 0 1 -6 6 -38 1.5 2 0.5
9 0 1 0 0 0 1 0 0 0 1 -6 6 -2 1.5 2 0.5
9 0 1 0 0 0 1 0 0 0 1 -5.5 -6.5 -38 2 1.5 0.5
9 0 1 0 0 0 1 0 0 0 1 -5.5 -6.5 -2 2 1.5 0.5
9 0 1 0 0 0 1 0 0 0 1 -8.5 18.5 -19.5 1 0.5 3
9 0 1 0 0 0 1 0 0 0 1 -15.5 18.5 -33.5 1 0.5 3
9 0 1 0 0 0 1 0 0 0 1 -16 -18 -34.5 1.5 1 1
9 0 1 0 0 0 1 0 0 0 1 0 17.5 -3 5.5 0.5 0.5
9 0 1 0 0 0 1 0 0 0 1 0 -17.5 -3 5.5 0.5 0.5
9 0 1 0 0 0 1 0 0 0 1 0 -36.5 18 5.5 0.5 0.5
9 0 1 0 0 0 1 0 0 0 1 15.5 -18.5 -33 1 0.5 2.5
9 0 1 0 0 0 1 0 0 0 1 15 17.5 -35.5 2.5 0.5 1
9 0 1 0 0 0 1 0 0 0 1 4.5 18.5 -8 1 0.5 2.5
9 0 1 0 0 0 1 0 0 0 1 -15 17.5 -35.5 2.5 0.5 1
9 0 1 0 0 0 1 0 0 0 1 11 14.5 -2 1.5 1.5 0.5
9 0 1 0 0 0 1 0 0 0 1 5 -18.5 -10 0.5 0.5 3.5
9 0 1 0 0 0 1 0 0 0 1 -8.5 -18.5 -21 1 0.5 1.5
9 0 1 0 0 0 1 0 0 0 1 -10.5 15.5 -2 1 1.5 0.5
9 0 1 0 0 0 1 0 0 0 1 -14 -18 -36 1.5 1 0.5
9 0 1 0 0 0 1 0 0 0 1 -15.5 -18.5 -32 1 0.5 1.5
9 0 1 0 0 0 1 0 0 0 1 12 18.5 -23 0.5 0.5 2.5
9 0 1 0 0 0 1 0 0 0 1 14 -16.5 -36 2.5 0.5 0.5
9 0 1 0 0 0 1 0 0 0 1 12 -18.5 -23 0.5 0.5 2.5
9 0 1 0 0 0 1 0 0 0 1 -12 18.5 -23 0.5 0.5 2.5
9 0 1 0 0 0 1 0 0 0 1 -10 11.5 -38 2.5 0.5 0.5
9 0 1 0 0 0 1 0 0 0 1 -12 -18.5 -23 0.5 0.5 2.5
9 0 1 0 0 0 1 0 0 0 1 -15 10.5 -2 0.5 2.5 0.5
9 0 1 0 0 0 1 0 0 0 1 10.5 11.5 -38 2 0.5 0.5
9 0 1 0 0 0 1 0 0 0 1 8.5 -36.5 14.5 1 0.5 1
9 0 1 0 0 0 1 0 0 0 1 -5 18.5 -11.5 0.5 0.5 2
9 0 1 0 0 0 1 0 0 0 1 -10.5 -11.5 -38 2 0.5 0.5
9 0 1 0 0 0 1 0 0 0 1 -13 -17 -37 0.5 2 0.5
9 0 1 0 0 0 1 0 0 0 1 17 18.5 -35 0.5 0.5 1.5
9 0 1 0 0 0 1 0 0 0 1 16 9.5 -2 0.5 1.5 0.5
9 0 1 0 0 0 1 0 0 0 1 14 -18.5 -36 1.5 0.5 0.5
9 0 1 0 0 0 1 0 0 0 1 11 18.5 -31 0.5 0.5 1.5
9 0 1 0 0 0 1 0 0 0 1 11 -18.5 -31 0.5 0.5 1.5
9 0 1 0 0 0 1 0 0 0 1 10 18.5 -17 0.5 0.5 1.5
9 0 1 0 0 0 1 0 0 0 1 10 -18.5 -17 0.5 0.5 1.5
9 0 1 0 0 0 1 0 0 0 1 9 18.5 -24 0.5 0.5 1.5
9 0 1 0 0 0 1 0 0 0 1 9 -18.5 -24 0.5 0.5 1.5
9 0 1 0 0 0 1 0 0 0 1 8 18.5 -12 0.5 0.5 1.5
9 0 1 0 0 0 1 0 0 0 1 8 -18.5 -12 0.5 0.5 1.5
9 0 1 0 0 0 1 0 0 0 1 7 18.5 -18 0.5 0.5 1.5
9 0 1 0 0 0 1 0 0 0 1 7 -18.5 -18 0.5 0.5 1.5
9 0 1 0 0 0 1 0 0 0 1 5 18.5 -12 0.5 0.5 1.5
9 0 1 0 0 0 1 0 0 0 1 4 6.5 -38 0.5 1.5 0.5
9 0 1 0 0 0 1 0 0 0 1 4 6.5 -2 0.5 1.5 0.5
9 0 1 0 0 0 1 0 0 0 1 -4 -18.5 -9 0.5 0.5 1.5
9 0 1 0 0 0 1 0 0 0 1 -6 -18.5 -15 0.5 0.5 1.5
9 0 1 0 0 0 1 0 0 0 1 -7 18.5 -18 0.5 0.5 1.5
9 0 1 0 0 0 1 0 0 0 1 -6 -4.5 -38 1.5 0.5 0.5
9 0 1 0 0 0 1 0 0 0 1 -6 -4.5 -2 1.5 0.5 0.5
9 0 1 0 0 0 1 0 0 0 1 -8 -18.5 -12 0.5 0.5 1.5
9 0 1 0 0 0 1 0 0 0 1 -9 18.5 -24 0.5 0.5 1.5
9 0 1 0 0 0 1 0 0 0 1 -9 18.5 -15 0.5 0.5 1.5
9 0 1 0 0 0 1 0 0 0 1 -9 -18.5 -24 0.5 0.5 1.5
9 0 1 0 0 0 1 0 0 0 1 -10 18.5 -17 0.5 0.5 1.5
9 0 1 0 0 0 1 0 0 0 1 -10 -18.5 -17 0.5 0.5 1.5
9 0 1 0 0 0 1 0 0 0 1 -11 18.5 -31 0.5 0.5 1.5
9 0 1 0 0 0 1 0 0 0 1 -11 -18.5 -31 0.5 0.5 1.5
9 0 1 0 0 0 1 0 0 0 1 -13 -17.5 -35 1.5 0.5 0.5
9 0 1 0 0 0 1 0 0 0 1 -17 18.5 -35 0.5 0.5 1.5
9 0 1 0 0 0 1 0 0 0 1 -17 -17.5 -36 1.5 0.5 0.5
