9 0 1 0 0 0 1 0 0 0 1 10 -2 -150 3.35 0.5 3.35
9 0 1 0 0 0 1 0 0 0 1 30 -2 -150 3.35 0.5 3.35
9 0 1 0 0 0 1 0 0 0 1 10 -2 -130 3.35 0.5 3.35
9 0 1 0 0 0 1 0 0 0 1 30 -2 -130 3.35 0.5 3.35
9 0 1 0 0 0 1 0 0 0 1 10 -2 -110 3.35 0.5 3.35
9 0 1 0 0 0 1 0 0 0 1 30 -2 -110 3.35 0.5 3.35
9 0 1 0 0 0 1 0 0 0 1 10 -2 -90 3.35 0.5 3.35
9 0 1 0 0 0 1 0 0 0 1 30 -2 -90 3.35 0.5 3.35
9 0 1 0 0 0 1 0 0 0 1 50 -2 -110 3.35 0.5 3.35
9 0 1 0 0 0 1 0 0 0 1 70 -2 -110 3.35 0.5 3.35
9 0 1 0 0 0 1 0 0 0 1 50 -2 -90 3.35 0.5 3.35
9 0 1 0 0 0 1 0 0 0 1 70 -2 -90 3.35 0.5 3.35
9 0 1 0 0 0 1 0 0 0 1 50 -2 -150 3.35 0.5 3.35
9 0 1 0 0 0 1 0 0 0 1 70 -2 -150 3.35 0.5 3.35
9 0 1 0 0 0 1 0 0 0 1 50 -2 -130 3.35 0.5 3.35
9 0 1 0 0 0 1 0 0 0 1 70 -2 -130 3.35 0.5 3.35
9 0 1 0 0 0 1 0 0 0 1 10 -2 -70 3.35 0.5 3.35
9 0 1 0 0 0 1 0 0 0 1 30 -2 -70 3.35 0.5 3.35
9 0 1 0 0 0 1 0 0 0 1 10 -2 -50 3.35 0.5 3.35
9 0 1 0 0 0 1 0 0 0 1 30 -2 -50 3.35 0.5 3.35
9 0 1 0 0 0 1 0 0 0 1 10 -2 -30 3.35 0.5 3.35
9 0 1 0 0 0 1 0 0 0 1 30 -2 -30 3.35 0.5 3.35
9 0 1 0 0 0 1 0 0 0 1 10 -2 -10 3.35 0.5 3.35
9 0 1 0 0 0 1 0 0 0 1 30 -2 -10 3.35 0.5 3.35
9 0 1 0 0 0 1 0 0 0 1 50 -2 -30 3.35 0.5 3.35
9 0 1 0 0 0 1 0 0 0 1 70 -2 -30 3.35 0.5 3.35
9 0 1 0 0 0 1 0 0 0 1 50 -2 -10 3.35 0.5 3.35
9 0 1 0 0 0 1 0 0 0 1 70 -2 -10 3.35 0.5 3.35
9 0 1 0 0 0 1 0 0 0 1 50 -2 -70 3.35 0.5 3.35
9 0 1 0 0 0 1 0 0 0 1 70 -2 -70 3.35 0.5 3.35
9 0 1 0 0 0 1 0 0 0 1 50 -2 -50 3.35 0.5 3.35
9 0 1 0 0 0 1 0 0 0 1 70 -2 -50 3.35 0.5 3.35
9 0 1 0 0 0 1 0 0 0 1 90 -2 -150 3.35 0.5 3.35
9 0 1 0 0 0 1 0 0 0 1 110 -2 -150 3.35 0.5 3.35
9 0 1 0 0 0 1 0 0 0 1 90 -2 -130 3.35 0.5 3.35
9 0 1 0 0 0 1 0 0 0 1 110 -2 -130 3.35 0.5 3.35
9 0 1 0 0 0 1 0 0 0 1 90 -2 -110 3.35 0.5 3.35
9 0 1 0 0 0 1 0 0 0 1 110 -2 -110 3.35 0.5 3.35
9 0 1 0 0 0 1 0 0 0 1 90 -2 -90 3.35 0.5 3.35
9 0 1 0 0 0 1 0 0 0 1 110 -2 -90 3.35 0.5 3.35
9 0 1 0 0 0 1 0 0 0 1 130 -2 -110 3.35 0.5 3.35
9 0 1 0 0 0 1 0 0 0 1 150 -2 -110 3.35 0.5 3.35
9 0 1 0 0 0 1 0 0 0 1 130 -2 -90 3.35 0.5 3.35
9 0 1 0 0 0 1 0 0 0 1 150 -2 -90 3.35 0.5 3.35
9 0 1 0 0 0 1 0 0 0 1 130 -2 -150 3.35 0.5 3.35
9 0 1 0 0 0 1 0 0 0 1 150 -2 -150 3.35 0.5 3.35
9 0 1 0 0 0 1 0 0 0 1 130 -2 -130 3.35 0.5 3.35
9 0 1 0 0 0 1 0 0 0 1 150 -2 -130 3.35 0.5 3.35
9 0 1 0 0 0 1 0 0 0 1 90 -2 -70 3.35 0.5 3.35
9 0 1 0 0 0 1 0 0 0 1 110 -2 -70 3.35 0.5 3.35
9 0 1 0 0 0 1 0 0 0 1 90 -2 -50 3.35 0.5 3.35
9 0 1 0 0 0 1 0 0 0 1 110 -2 -50 3.35 0.5 3.35
9 0 1 0 0 0 1 0 0 0 1 90 -2 -30 3.35 0.5 3.35
9 0 1 0 0 0 1 0 0 0 1 110 -2 -30 3.35 0.5 3.35
9 0 1 0 0 0 1 0 0 0 1 90 -2 -10 3.35 0.5 3.35
9 0 1 0 0 0 1 0 0 0 1 110 -2 -10 3.35 0.5 3.35
9 0 1 0 0 0 1 0 0 0 1 130 -2 -30 3.35 0.5 3.35
9 0 1 0 0 0 1 0 0 0 1 150 -2 -30 3.35 0.5 3.35
9 0 1 0 0 0 1 0 0 0 1 130 -2 -10 3.35 0.5 3.35
9 0 1 0 0 0 1 0 0 0 1 150 -2 -10 3.35 0.5 3.35
9 0 1 0 0 0 1 0 0 0 1 130 -2 -70 3.35 0.5 3.35
9 0 1 0 0 0 1 0 0 0 1 150 -2 -70 3.35 0.5 3.35
9 0 1 0 0 0 1 0 0 0 1 130 -2 -50 3.35 0.5 3.35
9 0 1 0 0 0 1 0 0 0 1 150 -2 -50 3.35 0.5 3.35
9 0 1 0 0 0 1 0 0 0 1 10 -2 10 3.35 0.5 3.35
9 0 1 0 0 0 1 0 0 0 1 30 -2 10 3.35 0.5 3.35
9 0 1 0 0 0 1 0 0 0 1 10 -2 30 3.35 0.5 3.35
9 0 1 0 0 0 1 0 0 0 1 30 -2 30 3.35 0.5 3.35
9 0 1 0 0 0 1 0 0 0 1 10 -2 50 3.35 0.5 3.35
9 0 1 0 0 0 1 0 0 0 1 30 -2 50 3.35 0.5 3.35
9 0 1 0 0 0 1 0 0 0 1 10 -2 70 3.35 0.5 3.35
9 0 1 0 0 0 1 0 0 0 1 30 -2 70 3.35 0.5 3.35
9 0 1 0 0 0 1 0 0 0 1 50 -2 50 3.35 0.5 3.35
9 0 1 0 0 0 1 0 0 0 1 70 -2 50 3.35 0.5 3.35
9 0 1 0 0 0 1 0 0 0 1 50 -2 70 3.35 0.5 3.35
9 0 1 0 0 0 1 0 0 0 1 70 -2 70 3.35 0.5 3.35
9 0 1 0 0 0 1 0 0 0 1 50 -2 10 3.35 0.5 3.35
9 0 1 0 0 0 1 0 0 0 1 70 -2 10 3.35 0.5 3.35
9 0 1 0 0 0 1 0 0 0 1 50 -2 30 3.35 0.5 3.35
9 0 1 0 0 0 1 0 0 0 1 70 -2 30 3.35 0.5 3.35
9 0 1 0 0 0 1 0 0 0 1 10 -2 90 3.35 0.5 3.35
9 0 1 0 0 0 1 0 0 0 1 30 -2 90 3.35 0.5 3.35
9 0 1 0 0 0 1 0 0 0 1 10 -2 110 3.35 0.5 3.35
9 0 1 0 0 0 1 0 0 0 1 30 -2 110 3.35 0.5 3.35
9 0 1 0 0 0 1 0 0 0 1 10 -2 130 3.35 0.5 3.35
9 0 1 0 0 0 1 0 0 0 1 30 -2 130 3.35 0.5 3.35
9 0 1 0 0 0 1 0 0 0 1 10 -2 150 3.35 0.5 3.35
9 0 1 0 0 0 1 0 0 0 1 30 -2 150 3.35 0.5 3.35
9 0 1 0 0 0 1 0 0 0 1 50 -2 130 3.35 0.5 3.35
9 0 1 0 0 0 1 0 0 0 1 70 -2 130 3.35 0.5 3.35
9 0 1 0 0 0 1 0 0 0 1 50 -2 150 3.35 0.5 3.35
9 0 1 0 0 0 1 0 0 0 1 70 -2 150 3.35 0.5 3.35
9 0 1 0 0 0 1 0 0 0 1 50 -2 90 3.35 0.5 3.35
9 0 1 0 0 0 1 0 0 0 1 70 -2 90 3.35 0.5 3.35
9 0 1 0 0 0 1 0 0 0 1 50 -2 110 3.35 0.5 3.35
9 0 1 0 0 0 1 0 0 0 1 70 -2 110 3.35 0.5 3.35
9 0 1 0 0 0 1 0 0 0 1 90 -2 10 3.35 0.5 3.35
9 0 1 0 0 0 1 0 0 0 1 110 -2 10 3.35 0.5 3.35
9 0 1 0 0 0 1 0 0 0 1 90 -2 30 3.35 0.5 3.35
9 0 1 0 0 0 1 0 0 0 1 110 -2 30 3.35 0.5 3.35
9 0 1 0 0 0 1 0 0 0 1 90 -2 50 3.35 0.5 3.35
9 0 1 0 0 0 1 0 0 0 1 110 -2 50 3.35 0.5 3.35
9 0 1 0 0 0 1 0 0 0 1 90 -2 70 3.35 0.5 3.35
9 0 1 0 0 0 1 0 0 0 1 110 -2 70 3.35 0.5 3.35
9 0 1 0 0 0 1 0 0 0 1 130 -2 50 3.35 0.5 3.35
9 0 1 0 0 0 1 0 0 0 1 150 -2 50 3.35 0.5 3.35
9 0 1 0 0 0 1 0 0 0 1 130 -2 70 3.35 0.5 3.35
9 0 1 0 0 0 1 0 0 0 1 150 -2 70 3.35 0.5 3.35
9 0 1 0 0 0 1 0 0 0 1 130 -2 10 3.35 0.5 3.35
9 0 1 0 0 0 1 0 0 0 1 150 -2 10 3.35 0.5 3.35
9 0 1 0 0 0 1 0 0 0 1 130 -2 30 3.35 0.5 3.35
9 0 1 0 0 0 1 0 0 0 1 150 -2 30 3.35 0.5 3.35
9 0 1 0 0 0 1 0 0 0 1 90 -2 90 3.35 0.5 3.35
9 0 1 0 0 0 1 0 0 0 1 110 -2 90 3.35 0.5 3.35
9 0 1 0 0 0 1 0 0 0 1 90 -2 110 3.35 0.5 3.35
9 0 1 0 0 0 1 0 0 0 1 110 -2 110 3.35 0.5 3.35
9 0 1 0 0 0 1 0 0 0 1 90 -2 130 3.35 0.5 3.35
9 0 1 0 0 0 1 0 0 0 1 110 -2 130 3.35 0.5 3.35
9 0 1 0 0 0 1 0 0 0 1 90 -2 150 3.35 0.5 3.35
9 0 1 0 0 0 1 0 0 0 1 110 -2 150 3.35 0.5 3.35
9 0 1 0 0 0 1 0 0 0 1 130 -2 130 3.35 0.5 3.35
9 0 1 0 0 0 1 0 0 0 1 150 -2 130 3.35 0.5 3.35
9 0 1 0 0 0 1 0 0 0 1 130 -2 150 3.35 0.5 3.35
9 0 1 0 0 0 1 0 0 0 1 150 -2 150 3.35 0.5 3.35
9 0 1 0 0 0 1 0 0 0 1 130 -2 90 3.35 0.5 3.35
9 0 1 0 0 0 1 0 0 0 1 150 -2 90 3.35 0.5 3.35
9 0 1 0 0 0 1 0 0 0 1 130 -2 110 3.35 0.5 3.35
9 0 1 0 0 0 1 0 0 0 1 150 -2 110 3.35 0.5 3.35
9 0 1 0 0 0 1 0 0 0 1 -150 -2 -150 3.35 0.5 3.35
9 0 1 0 0 0 1 0 0 0 1 -130 -2 -150 3.35 0.5 3.35
9 0 1 0 0 0 1 0 0 0 1 -150 -2 -130 3.35 0.5 3.35
9 0 1 0 0 0 1 0 0 0 1 -130 -2 -130 3.35 0.5 3.35
9 0 1 0 0 0 1 0 0 0 1 -150 -2 -110 3.35 0.5 3.35
9 0 1 0 0 0 1 0 0 0 1 -130 -2 -110 3.35 0.5 3.35
9 0 1 0 0 0 1 0 0 0 1 -150 -2 -90 3.35 0.5 3.35
9 0 1 0 0 0 1 0 0 0 1 -130 -2 -90 3.35 0.5 3.35
9 0 1 0 0 0 1 0 0 0 1 -110 -2 -110 3.35 0.5 3.35
9 0 1 0 0 0 1 0 0 0 1 -90 -2 -110 3.35 0.5 3.35
9 0 1 0 0 0 1 0 0 0 1 -110 -2 -90 3.35 0.5 3.35
9 0 1 0 0 0 1 0 0 0 1 -90 -2 -90 3.35 0.5 3.35
9 0 1 0 0 0 1 0 0 0 1 -110 -2 -150 3.35 0.5 3.35
9 0 1 0 0 0 1 0 0 0 1 -90 -2 -150 3.35 0.5 3.35
9 0 1 0 0 0 1 0 0 0 1 -110 -2 -130 3.35 0.5 3.35
9 0 1 0 0 0 1 0 0 0 1 -90 -2 -130 3.35 0.5 3.35
9 0 1 0 0 0 1 0 0 0 1 -150 -2 -70 3.35 0.5 3.35
9 0 1 0 0 0 1 0 0 0 1 -130 -2 -70 3.35 0.5 3.35
9 0 1 0 0 0 1 0 0 0 1 -150 -2 -50 3.35 0.5 3.35
9 0 1 0 0 0 1 0 0 0 1 -130 -2 -50 3.35 0.5 3.35
9 0 1 0 0 0 1 0 0 0 1 -150 -2 -30 3.35 0.5 3.35
9 0 1 0 0 0 1 0 0 0 1 -130 -2 -30 3.35 0.5 3.35
9 0 1 0 0 0 1 0 0 0 1 -150 -2 -10 3.35 0.5 3.35
9 0 1 0 0 0 1 0 0 0 1 -130 -2 -10 3.35 0.5 3.35
9 0 1 0 0 0 1 0 0 0 1 -110 -2 -30 3.35 0.5 3.35
9 0 1 0 0 0 1 0 0 0 1 -90 -2 -30 3.35 0.5 3.35
9 0 1 0 0 0 1 0 0 0 1 -110 -2 -10 3.35 0.5 3.35
9 0 1 0 0 0 1 0 0 0 1 -90 -2 -10 3.35 0.5 3.35
9 0 1 0 0 0 1 0 0 0 1 -110 -2 -70 3.35 0.5 3.35
9 0 1 0 0 0 1 0 0 0 1 -90 -2 -70 3.35 0.5 3.35
9 0 1 0 0 0 1 0 0 0 1 -110 -2 -50 3.35 0.5 3.35
9 0 1 0 0 0 1 0 0 0 1 -90 -2 -50 3.35 0.5 3.35
9 0 1 0 0 0 1 0 0 0 1 -70 -2 -150 3.35 0.5 3.35
9 0 1 0 0 0 1 0 0 0 1 -50 -2 -150 3.35 0.5 3.35
9 0 1 0 0 0 1 0 0 0 1 -70 -2 -130 3.35 0.5 3.35
9 0 1 0 0 0 1 0 0 0 1 -50 -2 -130 3.35 0.5 3.35
9 0 1 0 0 0 1 0 0 0 1 -70 -2 -110 3.35 0.5 3.35
9 0 1 0 0 0 1 0 0 0 1 -50 -2 -110 3.35 0.5 3.35
9 0 1 0 0 0 1 0 0 0 1 -70 -2 -90 3.35 0.5 3.35
9 0 1 0 0 0 1 0 0 0 1 -50 -2 -90 3.35 0.5 3.35
9 0 1 0 0 0 1 0 0 0 1 -30 -2 -110 3.35 0.5 3.35
9 0 1 0 0 0 1 0 0 0 1 -10 -2 -110 3.35 0.5 3.35
9 0 1 0 0 0 1 0 0 0 1 -30 -2 -90 3.35 0.5 3.35
9 0 1 0 0 0 1 0 0 0 1 -10 -2 -90 3.35 0.5 3.35
9 0 1 0 0 0 1 0 0 0 1 -30 -2 -150 3.35 0.5 3.35
9 0 1 0 0 0 1 0 0 0 1 -10 -2 -150 3.35 0.5 3.35
9 0 1 0 0 0 1 0 0 0 1 -30 -2 -130 3.35 0.5 3.35
9 0 1 0 0 0 1 0 0 0 1 -10 -2 -130 3.35 0.5 3.35
9 0 1 0 0 0 1 0 0 0 1 -70 -2 -70 3.35 0.5 3.35
9 0 1 0 0 0 1 0 0 0 1 -50 -2 -70 3.35 0.5 3.35
9 0 1 0 0 0 1 0 0 0 1 -70 -2 -50 3.35 0.5 3.35
9 0 1 0 0 0 1 0 0 0 1 -50 -2 -50 3.35 0.5 3.35
9 0 1 0 0 0 1 0 0 0 1 -70 -2 -30 3.35 0.5 3.35
9 0 1 0 0 0 1 0 0 0 1 -50 -2 -30 3.35 0.5 3.35
9 0 1 0 0 0 1 0 0 0 1 -70 -2 -10 3.35 0.5 3.35
9 0 1 0 0 0 1 0 0 0 1 -50 -2 -10 3.35 0.5 3.35
9 0 1 0 0 0 1 0 0 0 1 -30 -2 -30 3.35 0.5 3.35
9 0 1 0 0 0 1 0 0 0 1 -10 -2 -30 3.35 0.5 3.35
9 0 1 0 0 0 1 0 0 0 1 -30 -2 -10 3.35 0.5 3.35
9 0 1 0 0 0 1 0 0 0 1 -10 -2 -10 3.35 0.5 3.35
9 0 1 0 0 0 1 0 0 0 1 -30 -2 -70 3.35 0.5 3.35
9 0 1 0 0 0 1 0 0 0 1 -10 -2 -70 3.35 0.5 3.35
9 0 1 0 0 0 1 0 0 0 1 -30 -2 -50 3.35 0.5 3.35
9 0 1 0 0 0 1 0 0 0 1 -10 -2 -50 3.35 0.5 3.35
9 0 1 0 0 0 1 0 0 0 1 -150 -2 10 3.35 0.5 3.35
9 0 1 0 0 0 1 0 0 0 1 -130 -2 10 3.35 0.5 3.35
9 0 1 0 0 0 1 0 0 0 1 -150 -2 30 3.35 0.5 3.35
9 0 1 0 0 0 1 0 0 0 1 -130 -2 30 3.35 0.5 3.35
9 0 1 0 0 0 1 0 0 0 1 -150 -2 50 3.35 0.5 3.35
9 0 1 0 0 0 1 0 0 0 1 -130 -2 50 3.35 0.5 3.35
9 0 1 0 0 0 1 0 0 0 1 -150 -2 70 3.35 0.5 3.35
9 0 1 0 0 0 1 0 0 0 1 -130 -2 70 3.35 0.5 3.35
9 0 1 0 0 0 1 0 0 0 1 -110 -2 50 3.35 0.5 3.35
9 0 1 0 0 0 1 0 0 0 1 -90 -2 50 3.35 0.5 3.35
9 0 1 0 0 0 1 0 0 0 1 -110 -2 70 3.35 0.5 3.35
9 0 1 0 0 0 1 0 0 0 1 -90 -2 70 3.35 0.5 3.35
9 0 1 0 0 0 1 0 0 0 1 -110 -2 10 3.35 0.5 3.35
9 0 1 0 0 0 1 0 0 0 1 -90 -2 10 3.35 0.5 3.35
9 0 1 0 0 0 1 0 0 0 1 -110 -2 30 3.35 0.5 3.35
9 0 1 0 0 0 1 0 0 0 1 -90 -2 30 3.35 0.5 3.35
9 0 1 0 0 0 1 0 0 0 1 -150 -2 90 3.35 0.5 3.35
9 0 1 0 0 0 1 0 0 0 1 -130 -2 90 3.35 0.5 3.35
9 0 1 0 0 0 1 0 0 0 1 -150 -2 110 3.35 0.5 3.35
9 0 1 0 0 0 1 0 0 0 1 -130 -2 110 3.35 0.5 3.35
9 0 1 0 0 0 1 0 0 0 1 -150 -2 130 3.35 0.5 3.35
9 0 1 0 0 0 1 0 0 0 1 -130 -2 130 3.35 0.5 3.35
9 0 1 0 0 0 1 0 0 0 1 -150 -2 150 3.35 0.5 3.35
9 0 1 0 0 0 1 0 0 0 1 -130 -2 150 3.35 0.5 3.35
9 0 1 0 0 0 1 0 0 0 1 -110 -2 130 3.35 0.5 3.35
9 0 1 0 0 0 1 0 0 0 1 -90 -2 130 3.35 0.5 3.35
9 0 1 0 0 0 1 0 0 0 1 -110 -2 150 3.35 0.5 3.35
9 0 1 0 0 0 1 0 0 0 1 -90 -2 150 3.35 0.5 3.35
9 0 1 0 0 0 1 0 0 0 1 -110 -2 90 3.35 0.5 3.35
9 0 1 0 0 0 1 0 0 0 1 -90 -2 90 3.35 0.5 3.35
9 0 1 0 0 0 1 0 0 0 1 -110 -2 110 3.35 0.5 3.35
9 0 1 0 0 0 1 0 0 0 1 -90 -2 110 3.35 0.5 3.35
9 0 1 0 0 0 1 0 0 0 1 -70 -2 10 3.35 0.5 3.35
9 0 1 0 0 0 1 0 0 0 1 -50 -2 10 3.35 0.5 3.35
9 0 1 0 0 0 1 0 0 0 1 -70 -2 30 3.35 0.5 3.35
9 0 1 0 0 0 1 0 0 0 1 -50 -2 30 3.35 0.5 3.35
9 0 1 0 0 0 1 0 0 0 1 -70 -2 50 3.35 0.5 3.35
9 0 1 0 0 0 1 0 0 0 1 -50 -2 50 3.35 0.5 3.35
9 0 1 0 0 0 1 0 0 0 1 -70 -2 70 3.35 0.5 3.35
9 0 1 0 0 0 1 0 0 0 1 -50 -2 70 3.35 0.5 3.35
9 0 1 0 0 0 1 0 0 0 1 -30 -2 50 3.35 0.5 3.35
9 0 1 0 0 0 1 0 0 0 1 -10 -2 50 3.35 0.5 3.35
9 0 1 0 0 0 1 0 0 0 1 -30 -2 70 3.35 0.5 3.35
9 0 1 0 0 0 1 0 0 0 1 -10 -2 70 3.35 0.5 3.35
9 0 1 0 0 0 1 0 0 0 1 -30 -2 10 3.35 0.5 3.35
9 0 1 0 0 0 1 0 0 0 1 -10 -2 10 3.35 0.5 3.35
9 0 1 0 0 0 1 0 0 0 1 -30 -2 30 3.35 0.5 3.35
9 0 1 0 0 0 1 0 0 0 1 -10 -2 30 3.35 0.5 3.35
9 0 1 0 0 0 1 0 0 0 1 -70 -2 90 3.35 0.5 3.35
9 0 1 0 0 0 1 0 0 0 1 -50 -2 90 3.35 0.5 3.35
9 0 1 0 0 0 1 0 0 0 1 -70 -2 110 3.35 0.5 3.35
9 0 1 0 0 0 1 0 0 0 1 -50 -2 110 3.35 0.5 3.35
9 0 1 0 0 0 1 0 0 0 1 -70 -2 130 3.35 0.5 3.35
9 0 1 0 0 0 1 0 0 0 1 -50 -2 130 3.35 0.5 3.35
9 0 1 0 0 0 1 0 0 0 1 -70 -2 150 3.35 0.5 3.35
9 0 1 0 0 0 1 0 0 0 1 -50 -2 150 3.35 0.5 3.35
9 0 1 0 0 0 1 0 0 0 1 -30 -2 130 3.35 0.5 3.35
9 0 1 0 0 0 1 0 0 0 1 -10 -2 130 3.35 0.5 3.35
9 0 1 0 0 0 1 0 0 0 1 -30 -2 150 3.35 0.5 3.35
9 0 1 0 0 0 1 0 0 0 1 -10 -2 150 3.35 0.5 3.35
9 0 1 0 0 0 1 0 0 0 1 -30 -2 90 3.35 0.5 3.35
9 0 1 0 0 0 1 0 0 0 1 -10 -2 90 3.35 0.5 3.35
9 0 1 0 0 0 1 0 0 0 1 -30 -2 110 3.35 0.5 3.35
9 0 1 0 0 0 1 0 0 0 1 -10 -2 110 3.35 0.5 3.35
9 0 1 0 0 0 1 0 0 0 1 170 -2 -10 3.35 0.5 3.35
9 0 1 0 0 0 1 0 0 0 1 170 -2 -30 3.35 0.5 3.35
9 0 1 0 0 0 1 0 0 0 1 170 -2 -50 3.35 0.5 3.35
9 0 1 0 0 0 1 0 0 0 1 170 -2 -70 3.35 0.5 3.35
9 0 1 0 0 0 1 0 0 0 1 170 -2 -90 3.35 0.5 3.35
9 0 1 0 0 0 1 0 0 0 1 170 -2 -110 3.35 0.5 3.35
9 0 1 0 0 0 1 0 0 0 1 170 -2 -130 3.35 0.5 3.35
9 0 1 0 0 0 1 0 0 0 1 170 -2 -150 3.35 0.5 3.35
9 0 1 0 0 0 1 0 0 0 1 170 -2 150 3.35 0.5 3.35
9 0 1 0 0 0 1 0 0 0 1 170 -2 130 3.35 0.5 3.35
9 0 1 0 0 0 1 0 0 0 1 170 -2 110 3.35 0.5 3.35
9 0 1 0 0 0 1 0 0 0 1 170 -2 90 3.35 0.5 3.35
9 0 1 0 0 0 1 0 0 0 1 170 -2 70 3.35 0.5 3.35
9 0 1 0 0 0 1 0 0 0 1 170 -2 50 3.35 0.5 3.35
9 0 1 0 0 0 1 0 0 0 1 170 -2 30 3.35 0.5 3.35
9 0 1 0 0 0 1 0 0 0 1 170 -2 10 3.35 0.5 3.35
9 0 1 0 0 0 1 0 0 0 1 -170 -2 -10 3.35 0.5 3.35
9 0 1 0 0 0 1 0 0 0 1 -170 -2 -30 3.35 0.5 3.35
9 0 1 0 0 0 1 0 0 0 1 -170 -2 -50 3.35 0.5 3.35
9 0 1 0 0 0 1 0 0 0 1 -170 -2 -70 3.35 0.5 3.35
9 0 1 0 0 0 1 0 0 0 1 -170 -2 -90 3.35 0.5 3.35
9 0 1 0 0 0 1 0 0 0 1 -170 -2 -110 3.35 0.5 3.35
9 0 1 0 0 0 1 0 0 0 1 -170 -2 -130 3.35 0.5 3.35
9 0 1 0 0 0 1 0 0 0 1 -170 -2 -150 3.35 0.5 3.35
9 0 1 0 0 0 1 0 0 0 1 -170 -2 150 3.35 0.5 3.35
9 0 1 0 0 0 1 0 0 0 1 -170 -2 130 3.35 0.5 3.35
9 0 1 0 0 0 1 0 0 0 1 -170 -2 110 3.35 0.5 3.35
9 0 1 0 0 0 1 0 0 0 1 -170 -2 90 3.35 0.5 3.35
9 0 1 0 0 0 1 0 0 0 1 -170 -2 70 3.35 0.5 3.35
9 0 1 0 0 0 1 0 0 0 1 -170 -2 50 3.35 0.5 3.35
9 0 1 0 0 0 1 0 0 0 1 -170 -2 30 3.35 0.5 3.35
9 0 1 0 0 0 1 0 0 0 1 -170 -2 10 3.35 0.5 3.35
9 0 1 0 0 0 1 0 0 0 1 0 2 0 176.5 0.5 158.5
9 0 1 0 0 0 1 0 0 0 1 177.5 2 0 1 0.5 156.5
9 0 1 0 0 0 1 0 0 0 1 -177.5 2 0 1 0.5 156.5
