9 0 -1.192093E-07 0 1 0 1 0 -1 0 -1.192093E-07 -10 -2 -50 3.35 0.5 3.35
9 0 -1.192093E-07 0 1 0 1 0 -1 0 -1.192093E-07 -10 -2 -30 3.35 0.5 3.35
9 0 -1.192093E-07 0 1 0 1 0 -1 0 -1.192093E-07 -10 -2 -10 3.35 0.5 3.35
9 0 -1.192093E-07 0 1 0 1 0 -1 0 -1.192093E-07 -10 -2 10 3.35 0.5 3.35
9 0 -1.192093E-07 0 1 0 1 0 -1 0 -1.192093E-07 -10 -2 30 3.35 0.5 3.35
9 0 -1.192093E-07 0 1 0 1 0 -1 0 -1.192093E-07 -10 -2 50 3.35 0.5 3.35
9 0 -1.192093E-07 0 1 0 1 0 -1 0 -1.192093E-07 10 -2 -50 3.35 0.5 3.35
9 0 -1.192093E-07 0 1 0 1 0 -1 0 -1.192093E-07 10 -2 -30 3.35 0.5 3.35
9 0 -1.192093E-07 0 1 0 1 0 -1 0 -1.192093E-07 10 -2 -10 3.35 0.5 3.35
9 0 -1.192093E-07 0 1 0 1 0 -1 0 -1.192093E-07 10 -2 10 3.35 0.5 3.35
9 0 -1.192093E-07 0 1 0 1 0 -1 0 -1.192093E-07 10 -2 30 3.35 0.5 3.35
9 0 -1.192093E-07 0 1 0 1 0 -1 0 -1.192093E-07 10 -2 50 3.35 0.5 3.35
9 0 1 0 0 0 1 0 0 0 1 18 12 -40 0.5 10.5 18.5
9 0 1 0 0 0 1 0 0 0 1 18 12 40 0.5 10.5 18.5
9 0 1 0 0 0 1 0 0 0 1 -18 12 -40 0.5 10.5 18.5
9 0 1 0 0 0 1 0 0 0 1 -18 12 40 0.5 10.5 18.5
9 0 1 0 0 0 1 0 0 0 1 0 12 -58 17.5 10.5 0.5
9 0 1 0 0 0 1 0 0 0 1 0 12 -22 17.5 10.5 0.5
9 0 1 0 0 0 1 0 0 0 1 0 12 22 17.5 10.5 0.5
9 0 1 0 0 0 1 0 0 0 1 0 12 58 17.5 10.5 0.5
9 0 1 0 0 0 1 0 0 0 1 18 4 0 0.5 2.5 18.5
9 0 1 0 0 0 1 0 0 0 1 -18 4 0 0.5 2.5 18.5
9 0 1 0 0 0 1 0 0 0 1 30 14.5 -45 8.5 1 1.5
9 0 1 0 0 0 1 0 0 0 1 30 14.5 -35 8.5 1 1.5
9 0 1 0 0 0 1 0 0 0 1 30 14.5 35 8.5 1 1.5
9 0 1 0 0 0 1 0 0 0 1 30 14.5 45 8.5 1 1.5
9 0 1 0 0 0 1 0 0 0 1 30 5.5 -45 8.5 1 1.5
9 0 1 0 0 0 1 0 0 0 1 30 5.5 -35 8.5 1 1.5
9 0 1 0 0 0 1 0 0 0 1 30 5.5 35 8.5 1 1.5
9 0 1 0 0 0 1 0 0 0 1 30 5.5 45 8.5 1 1.5
9 0 1 0 0 0 1 0 0 0 1 -30 14.5 -45 8.5 1 1.5
9 0 1 0 0 0 1 0 0 0 1 -30 14.5 -35 8.5 1 1.5
9 0 1 0 0 0 1 0 0 0 1 -30 14.5 35 8.5 1 1.5
9 0 1 0 0 0 1 0 0 0 1 -30 14.5 45 8.5 1 1.5
9 0 1 0 0 0 1 0 0 0 1 -30 5.5 -45 8.5 1 1.5
9 0 1 0 0 0 1 0 0 0 1 -30 5.5 -35 8.5 1 1.5
9 0 1 0 0 0 1 0 0 0 1 -30 5.5 35 8.5 1 1.5
9 0 1 0 0 0 1 0 0 0 1 -30 5.5 45 8.5 1 1.5
9 0 1 0 0 0 1 0 0 0 1 30 10 -48 8.5 1.5 0.5
9 0 1 0 0 0 1 0 0 0 1 30 10 -32 8.5 1.5 0.5
9 0 1 0 0 0 1 0 0 0 1 30 10 32 8.5 1.5 0.5
9 0 1 0 0 0 1 0 0 0 1 30 10 48 8.5 1.5 0.5
9 0 1 0 0 0 1 0 0 0 1 30 2 -40 8.5 0.5 1.5
9 0 1 0 0 0 1 0 0 0 1 30 2 40 8.5 0.5 1.5
9 0 1 0 0 0 1 0 0 0 1 -30 10 -48 8.5 1.5 0.5
9 0 1 0 0 0 1 0 0 0 1 -30 10 -32 8.5 1.5 0.5
9 0 1 0 0 0 1 0 0 0 1 -30 10 32 8.5 1.5 0.5
9 0 1 0 0 0 1 0 0 0 1 -30 10 48 8.5 1.5 0.5
9 0 1 0 0 0 1 0 0 0 1 -30 2 -40 8.5 0.5 1.5
9 0 1 0 0 0 1 0 0 0 1 -30 2 40 8.5 0.5 1.5
9 0 1 0 0 0 1 0 0 0 1 30 4 -44.5 8.5 0.5 1
9 0 1 0 0 0 1 0 0 0 1 30 4 -35.5 8.5 0.5 1
9 0 1 0 0 0 1 0 0 0 1 30 4 35.5 8.5 0.5 1
9 0 1 0 0 0 1 0 0 0 1 30 4 44.5 8.5 0.5 1
9 0 1 0 0 0 1 0 0 0 1 -30 4 -44.5 8.5 0.5 1
9 0 1 0 0 0 1 0 0 0 1 -30 4 -35.5 8.5 0.5 1
9 0 1 0 0 0 1 0 0 0 1 -30 4 35.5 8.5 0.5 1
9 0 1 0 0 0 1 0 0 0 1 -30 4 44.5 8.5 0.5 1
9 0 1 0 0 0 1 0 0 0 1 30 16 -44 8.5 0.5 0.5
9 0 1 0 0 0 1 0 0 0 1 30 16 -36 8.5 0.5 0.5
9 0 1 0 0 0 1 0 0 0 1 30 16 36 8.5 0.5 0.5
9 0 1 0 0 0 1 0 0 0 1 30 16 44 8.5 0.5 0.5
9 0 1 0 0 0 1 0 0 0 1 -30 16 -44 8.5 0.5 0.5
9 0 1 0 0 0 1 0 0 0 1 -30 16 -36 8.5 0.5 0.5
9 0 1 0 0 0 1 0 0 0 1 -30 16 36 8.5 0.5 0.5
9 0 1 0 0 0 1 0 0 0 1 -30 16 44 8.5 0.5 0.5
9 0 1 0 0 0 1 0 0 0 1 18 3.5 20 0.5 2 1.5
9 0 1 0 0 0 1 0 0 0 1 -18 3.5 -20 0.5 2 1.5
9 0 1 0 0 0 1 0 0 0 1 2 2 -20.5 2.5 0.5 1
9 0 1 0 0 0 1 0 0 0 1 2 2.5 21 2.5 1 0.5
9 0 1 0 0 0 1 0 0 0 1 18 3 -20 0.5 1.5 1.5
9 0 1 0 0 0 1 0 0 0 1 -18 3 20 0.5 1.5 1.5
9 0 1 0 0 0 1 0 0 0 1 -2.5 2.5 -21 2 1 0.5
9 0 1 0 0 0 1 0 0 0 1 -2.5 2 20.5 2 0.5 1
9 0 1 0 0 0 1 0 0 0 1 10.5 2 -20.5 1 0.5 1
9 0 1 0 0 0 1 0 0 0 1 10.5 2.5 21 1 1 0.5
9 0 1 0 0 0 1 0 0 0 1 -10.5 2.5 -21 1 1 0.5
9 0 1 0 0 0 1 0 0 0 1 -10.5 2 20.5 1 0.5 1
