9 0 -1.192093E-07 0 1 0 1 0 -1 0 -1.192093E-07 0 -2 10 3.35 0.5 3.35
9 0 1 0 0 0 1 0 0 0 1 0 -0.3014984 -3 8.5 2 1.5
9 0 1 0 0 0 1 0 0 0 1 8 4.198502 0 0.5 2.5 18.5
9 0 1 0 0 0 1 0 0 0 1 -8 4.198502 0 0.5 2.5 18.5
9 0 1 0 0 0 1 0 0 0 1 0 5.198502 -42 6.5 0.5 6.5
9 0 1 0 0 0 1 0 0 0 1 0 3.198502 -18 7.5 3.5 0.5
9 0 1 0 0 0 1 0 0 0 1 0 -18.3015 -46 6.5 1 1.5
9 0 1 0 0 0 1 0 0 0 1 0 4.198502 18 7.5 2.5 0.5
9 0 1 0 0 0 1 0 0 0 1 8 -0.3014984 -11.5 0.5 2 7
9 0 1 0 0 0 1 0 0 0 1 -8 -0.3014984 -11.5 0.5 2 7
9 0 1 0 0 0 1 0 0 0 1 7.5 -13.3015 -7.5 1 1 6
9 0 1 0 0 0 1 0 0 0 1 -7.5 -13.3015 -7.5 1 1 6
9 0 1 0 0 0 1 0 0 0 1 5.5 -1.301498 -19.5 2 1 2
9 0 1 0 0 0 1 0 0 0 1 -5.5 -1.301498 -19.5 2 1 2
9 0 1 0 0 0 1 0 0 0 1 0 -13.3015 -2 6.5 1 0.5
9 0 1 0 0 0 1 0 0 0 1 0 5.698502 0 1.5 1 1.5
9 0 1 0 0 0 1 0 0 0 1 7 -16.8015 -41 0.5 0.5 7.5
9 0 1 0 0 0 1 0 0 0 1 -7 -16.8015 -41 0.5 0.5 7.5
9 0 1 0 0 0 1 0 0 0 1 7 3.198502 -41.5 0.5 0.5 7
9 0 1 0 0 0 1 0 0 0 1 -7 3.198502 -41.5 0.5 0.5 7
9 0 1 0 0 0 1 0 0 0 1 0 -18.8015 -48 6.5 0.5 0.5
9 0 1 0 0 0 1 0 0 0 1 0 5.198502 -35 5.5 0.5 0.5
9 0 1 0 0 0 1 0 0 0 1 5 0.1985016 -20 1.5 0.5 1.5
9 0 1 0 0 0 1 0 0 0 1 -5 0.1985016 -20 1.5 0.5 1.5
9 0 1 0 0 0 1 0 0 0 1 5.5 -13.3015 -12.5 1 1 1
9 0 1 0 0 0 1 0 0 0 1 5.5 -17.3015 -16.5 1 1 1
9 0 1 0 0 0 1 0 0 0 1 -5.5 -13.3015 -12.5 1 1 1
9 0 1 0 0 0 1 0 0 0 1 -5.5 -17.3015 -16.5 1 1 1
9 0 1 0 0 0 1 0 0 0 1 5.5 -14.8015 -14 1 1.5 0.5
9 0 1 0 0 0 1 0 0 0 1 -5.5 -14.8015 -14 1 1.5 0.5
9 0 1 0 0 0 1 0 0 0 1 5.5 -16.3015 -15 1 1 0.5
9 0 1 0 0 0 1 0 0 0 1 -5.5 -16.3015 -15 1 1 0.5
9 0 1 0 0 0 1 0 0 0 1 2 0.1985016 -19 1.5 0.5 0.5
