9 0 1 0 0 0 1 0 0 0 1 -20 0.25 -13.349 6.5 7.5 0.5
9 0 1 0 0 0 1 0 0 0 1 -26 0.25 -6.849 0.5 7.5 6
9 0 1 0 0 0 1 0 0 0 1 -5 6.25 -10.349 1.5 1.5 8.5
9 0 1 0 0 0 1 0 0 0 1 -5 -5.75 -10.349 1.5 1.5 8.5
9 0 1 0 0 0 1 0 0 0 1 -26 0.25 -16.849 0.5 6.5 3
9 0 1 0 0 0 1 0 0 0 1 -5.5 4.25 -10.349 1 0.5 8.5
9 0 1 0 0 0 1 0 0 0 1 5.5 -3.75 -8.349 1 0.5 6.5
9 0 1 0 0 0 1 0 0 0 1 -14 6.75 -7.349 0.5 1 5.5
9 0 1 0 0 0 1 0 0 0 1 5 4.25 -10.349 0.5 0.5 8.5
9 0 1 0 0 0 1 0 0 0 1 4 5.25 -10.349 0.5 0.5 8.5
9 0 1 0 0 0 1 0 0 0 1 -22 -0.25 -12.349 3.5 1 0.5
9 0 1 0 0 0 1 0 0 0 1 -26 0.25 -0.349 0.5 6.5 0.5
9 0 1 0 0 0 1 0 0 0 1 -14 -6.75 -7.349 0.5 0.5 5.5
9 0 1 0 0 0 1 0 0 0 1 -15 7.25 -7.349 0.5 0.5 5.5
9 0 1 0 0 0 1 0 0 0 1 -10 -4.75 -13.849 0.5 0.5 5
9 0 1 0 0 0 1 0 0 0 1 -14 6.75 -16.349 0.5 1 2.5
9 0 1 0 0 0 1 0 0 0 1 -26 -0.25 -20.849 0.5 2 1
9 0 1 0 0 0 1 0 0 0 1 5 -4.75 -5.349 0.5 0.5 3.5
9 0 1 0 0 0 1 0 0 0 1 -20 -7.75 -13.349 3.5 0.5 0.5
9 0 1 0 0 0 1 0 0 0 1 -5 -3.75 -15.849 0.5 0.5 3
9 0 1 0 0 0 1 0 0 0 1 -14 -6.75 -16.349 0.5 0.5 2.5
9 0 1 0 0 0 1 0 0 0 1 -15 7.25 -16.349 0.5 0.5 2.5
9 0 1 0 0 0 1 0 0 0 1 -26 7.25 -16.349 0.5 0.5 2.5
9 0 1 0 0 0 1 0 0 0 1 -26 -6.75 -16.349 0.5 0.5 2.5
9 0 1 0 0 0 1 0 0 0 1 4 -4.75 -14.849 0.5 0.5 2
9 0 1 0 0 0 1 0 0 0 1 -13 0.25 -13.349 0.5 1.5 0.5
9 0 1 0 0 0 1 0 0 0 1 -26 3.25 -20.349 0.5 1.5 0.5
9 0 1 0 0 0 1 0 0 0 1 -26 -3.75 -20.349 0.5 1.5 0.5
