9 0 1 0 0 0 1 0 0 0 1 -0.0001726151 47 0.0001707077 1.5 5 1.5
9 0 1 0 0 0 1 0 0 0 1 -0.0001726151 -6 0.0001707077 1.5 5 1.5
9 0 1 0 0 0 1 0 0 0 1 -0.0001726151 38.5 -3.999829 2.5 0.5 1.5
9 0 1 0 0 0 1 0 0 0 1 -0.0001726151 2.5 -3.999829 2.5 0.5 1.5
9 0 1 0 0 0 1 0 0 0 1 -0.0001726151 38.5 4.500171 3.5 0.5 1
9 0 1 0 0 0 1 0 0 0 1 -0.0001726151 2.5 4.500171 3.5 0.5 1
9 0 1 0 0 0 1 0 0 0 1 1.999827 47 0.0001707077 0.5 5 0.5
9 0 1 0 0 0 1 0 0 0 1 1.999827 -6 0.0001707077 0.5 5 0.5
9 0 1 0 0 0 1 0 0 0 1 -0.0001726151 47 -1.999829 0.5 5 0.5
9 0 1 0 0 0 1 0 0 0 1 -0.0001726151 47 2.000171 0.5 5 0.5
9 0 1 0 0 0 1 0 0 0 1 -0.0001726151 -6 -1.999829 0.5 5 0.5
9 0 1 0 0 0 1 0 0 0 1 -0.0001726151 -6 2.000171 0.5 5 0.5
9 0 1 0 0 0 1 0 0 0 1 -2.000173 47 0.0001707077 0.5 5 0.5
9 0 1 0 0 0 1 0 0 0 1 -2.000173 -6 0.0001707077 0.5 5 0.5
9 0 1 0 0 0 1 0 0 0 1 -0.0001726151 38.5 0.5001707 0.5 0.5 3
9 0 1 0 0 0 1 0 0 0 1 -0.0001726151 2.5 0.5001707 0.5 0.5 3
9 0 1 0 0 0 1 0 0 0 1 -0.0001726151 38.5 -5.999829 1.5 0.5 0.5
9 0 1 0 0 0 1 0 0 0 1 -0.0001726151 38.5 6.000171 1.5 0.5 0.5
9 0 1 0 0 0 1 0 0 0 1 -0.0001726151 2.5 -5.999829 1.5 0.5 0.5
9 0 1 0 0 0 1 0 0 0 1 -0.0001726151 2.5 6.000171 1.5 0.5 0.5
