9 0 1 0 0 0 1 0 0 0 1 -52.23851 -77.5 -20.2902 2.5 2 5
9 0 1 0 0 0 1 0 0 0 1 -68.23851 -77.5 -19.7902 2.5 2 4.5
9 0 1 0 0 0 1 0 0 0 1 -3.73851 -27.5 -1.790199 2 4 2.5
9 0 1 0 0 0 1 0 0 0 1 -117.2385 -26 -1.290199 2.5 2.5 3
9 0 1 0 0 0 1 0 0 0 1 -0.2385101 -9.5 -39.7902 1.5 8 1.5
9 0 1 0 0 0 1 0 0 0 1 -59.73851 -26.5 -77.2902 3 3 2
9 0 1 0 0 0 1 0 0 0 1 -59.73851 -11.5 39.2098 1 10 1.5
9 0 1 0 0 0 1 0 0 0 1 -60.23851 -32.5 -73.7902 2.5 4 1.5
9 0 1 0 0 0 1 0 0 0 1 -120.2385 -7.5 -39.7902 1.5 6 1.5
9 0 1 0 0 0 1 0 0 0 1 -57.23851 -76 -11.7902 3.5 1.5 2.5
9 0 1 0 0 0 1 0 0 0 1 -114.2385 -31 -1.290199 2.5 2.5 2
9 0 1 0 0 0 1 0 0 0 1 -7.23851 -32.5 -1.790199 1.5 3 2.5
9 0 1 0 0 0 1 0 0 0 1 -111.7385 -35.5 -2.790199 2 2 2.5
9 0 1 0 0 0 1 0 0 0 1 -59.73851 -37.5 -71.2902 2 4 1
9 0 1 0 0 0 1 0 0 0 1 -59.73851 -78.5 -27.2902 2 2 2
9 0 1 0 0 0 1 0 0 0 1 -59.73851 -28.5 36.2098 4 4 0.5
9 0 1 0 0 0 1 0 0 0 1 -10.73851 -38 -2.790199 2 2.5 1.5
9 0 1 0 0 0 1 0 0 0 1 -60.23851 -18.5 -75.2902 1.5 5 1
9 0 1 0 0 0 1 0 0 0 1 -108.2385 -40 -4.290199 1.5 2.5 2
9 0 1 0 0 0 1 0 0 0 1 -118.7385 -18.5 -39.7902 1 5 1.5
9 0 1 0 0 0 1 0 0 0 1 -60.23851 -31.5 35.2098 6.5 2 0.5
9 0 1 0 0 0 1 0 0 0 1 -4.23851 -18.5 0.2098007 0.5 5 2.5
9 0 1 0 0 0 1 0 0 0 1 -13.73851 -42 -4.290199 2 1.5 2
9 0 1 0 0 0 1 0 0 0 1 -15.73851 -45 -5.290199 2 1.5 2
9 0 1 0 0 0 1 0 0 0 1 -19.73851 -49 -6.290199 2 1.5 2
9 0 1 0 0 0 1 0 0 0 1 -53.23851 -80.5 -20.2902 1.5 1 4
9 0 1 0 0 0 1 0 0 0 1 -59.73851 -41.5 -68.7902 2 2 1.5
9 0 1 0 0 0 1 0 0 0 1 -104.2385 -44.5 -5.290199 1.5 2 2
9 0 1 0 0 0 1 0 0 0 1 -48.73851 -76.5 -19.7902 1 1 5.5
9 0 1 0 0 0 1 0 0 0 1 -60.23851 -78.5 -12.7902 3.5 1 1.5
9 0 1 0 0 0 1 0 0 0 1 -67.23851 -80.5 -19.7902 1.5 1 3.5
9 0 1 0 0 0 1 0 0 0 1 -0.7385101 -25.5 -1.790199 1 2 2.5
9 0 1 0 0 0 1 0 0 0 1 -3.23851 -25.5 1.709801 2.5 2 1
9 0 1 0 0 0 1 0 0 0 1 -61.23851 -11 39.7098 0.5 9.5 1
9 0 1 0 0 0 1 0 0 0 1 -22.23851 -52 -7.290199 1.5 1.5 2
9 0 1 0 0 0 1 0 0 0 1 -49.23851 -75 -15.2902 4.5 0.5 2
9 0 1 0 0 0 1 0 0 0 1 -60.23851 -24.5 37.7098 1.5 3 1
9 0 1 0 0 0 1 0 0 0 1 -59.73851 -31 -76.7902 2 1.5 1.5
9 0 1 0 0 0 1 0 0 0 1 -59.73851 -47 -64.7902 2 1.5 1.5
9 0 1 0 0 0 1 0 0 0 1 -60.23851 -77 -31.2902 1.5 1.5 2
9 0 1 0 0 0 1 0 0 0 1 -101.2385 -48.5 -6.790199 1.5 2 1.5
9 0 1 0 0 0 1 0 0 0 1 -60.23851 -7 41.2098 1.5 5.5 0.5
9 0 1 0 0 0 1 0 0 0 1 -118.2385 -29 -18.7902 0.5 1.5 5.5
9 0 1 0 0 0 1 0 0 0 1 -59.73851 -26.5 -74.2902 2 2 1
9 0 1 0 0 0 1 0 0 0 1 -1.73851 -21 -39.7902 1 2.5 1.5
9 0 1 0 0 0 1 0 0 0 1 -53.23851 -74.5 -19.7902 1.5 1 2.5
9 0 1 0 0 0 1 0 0 0 1 -58.23851 -9 39.7098 0.5 7.5 1
9 0 1 0 0 0 1 0 0 0 1 -59.23851 -75.5 -6.790199 1.5 1 2.5
9 0 1 0 0 0 1 0 0 0 1 -60.23851 -25 -80.2902 2.5 1.5 1
9 0 1 0 0 0 1 0 0 0 1 -64.23851 -18.5 -78.7902 0.5 5 1.5
9 0 1 0 0 0 1 0 0 0 1 -71.23851 -77 -19.2902 0.5 1.5 5
9 0 1 0 0 0 1 0 0 0 1 -114.2385 -25.5 -0.7901993 0.5 3 2.5
9 0 1 0 0 0 1 0 0 0 1 -115.2385 -18.5 0.2098007 0.5 5 1.5
9 0 1 0 0 0 1 0 0 0 1 -114.2385 -31 -4.290199 1.5 2.5 1
9 0 1 0 0 0 1 0 0 0 1 -54.23851 -77.5 -14.7902 3.5 2 0.5
9 0 1 0 0 0 1 0 0 0 1 -66.73851 -74.5 -19.7902 1 1 3.5
9 0 1 0 0 0 1 0 0 0 1 -1.23851 -20 -4.790199 1.5 4.5 0.5
9 0 1 0 0 0 1 0 0 0 1 -27.23851 -58 -8.790199 1.5 1.5 1.5
9 0 1 0 0 0 1 0 0 0 1 -30.23851 -61 -9.790199 1.5 1.5 1.5
9 0 1 0 0 0 1 0 0 0 1 -90.23851 -60 -9.790199 1.5 1.5 1.5
9 0 1 0 0 0 1 0 0 0 1 -95.23851 -55 -7.790199 1.5 1.5 1.5
9 0 1 0 0 0 1 0 0 0 1 -98.23851 -52 -6.790199 1.5 1.5 1.5
9 0 1 0 0 0 1 0 0 0 1 -119.2385 -18 -4.790199 1.5 4.5 0.5
9 0 1 0 0 0 1 0 0 0 1 -119.7385 -8 -41.7902 1 6.5 0.5
9 0 1 0 0 0 1 0 0 0 1 -60.23851 -44 -66.7902 2.5 2.5 0.5
9 0 1 0 0 0 1 0 0 0 1 -106.2385 -43 -4.790199 0.5 2.5 2.5
9 0 1 0 0 0 1 0 0 0 1 -5.23851 -19.5 0.2098007 0.5 4 1.5
9 0 1 0 0 0 1 0 0 0 1 -4.23851 -32.5 -2.290199 1.5 1 2
9 0 1 0 0 0 1 0 0 0 1 -6.23851 -26.5 -0.2901993 0.5 3 2
9 0 1 0 0 0 1 0 0 0 1 -9.73851 -34 -2.290199 1 1.5 2
9 0 1 0 0 0 1 0 0 0 1 -9.23851 -36.5 -5.290199 1.5 2 1
9 0 1 0 0 0 1 0 0 0 1 -55.73851 -77.5 -26.7902 2 1 1.5
9 0 1 0 0 0 1 0 0 0 1 -56.73851 -74 -12.7902 4 0.5 1.5
9 0 1 0 0 0 1 0 0 0 1 -60.23851 -33.5 33.7098 1.5 2 1
9 0 1 0 0 0 1 0 0 0 1 -59.73851 -75.5 -26.7902 2 1 1.5
9 0 1 0 0 0 1 0 0 0 1 -62.73851 -77 -26.2902 1 3.5 1
9 0 1 0 0 0 1 0 0 0 1 -63.23851 -25.5 -76.2902 0.5 6 1
9 0 1 0 0 0 1 0 0 0 1 -118.2385 -7.5 -40.2902 0.5 6 1
9 0 1 0 0 0 1 0 0 0 1 -118.7385 -16.5 4.209801 2 3 0.5
9 0 1 0 0 0 1 0 0 0 1 -4.23851 -29 -4.790199 1.5 3.5 0.5
9 0 1 0 0 0 1 0 0 0 1 -65.23851 -77 -24.7902 1.5 3.5 0.5
9 0 1 0 0 0 1 0 0 0 1 -117.2385 -23 -39.7902 0.5 3.5 1.5
9 0 1 0 0 0 1 0 0 0 1 -117.2385 -30 -1.790199 0.5 1.5 3.5
9 0 1 0 0 0 1 0 0 0 1 -1.23851 -26.5 -23.2902 0.5 1 5
9 0 1 0 0 0 1 0 0 0 1 -0.7385101 -16 4.209801 2 2.5 0.5
9 0 1 0 0 0 1 0 0 0 1 -17.23851 -47 -5.290199 2.5 0.5 2
9 0 1 0 0 0 1 0 0 0 1 -65.23851 -76 -16.2902 0.5 2.5 2
9 0 1 0 0 0 1 0 0 0 1 -110.7385 -38.5 -3.790199 1 1 2.5
9 0 1 0 0 0 1 0 0 0 1 -116.7385 -26 2.209801 2 2.5 0.5
9 0 1 0 0 0 1 0 0 0 1 -2.73851 -26 -38.7902 1 1.5 1.5
9 0 1 0 0 0 1 0 0 0 1 -4.73851 -29 -38.7902 1 1.5 1.5
9 0 1 0 0 0 1 0 0 0 1 -6.73851 -33 -37.7902 1 1.5 1.5
9 0 1 0 0 0 1 0 0 0 1 -7.23851 -36.5 -2.790199 1.5 1 1.5
9 0 1 0 0 0 1 0 0 0 1 -11.23851 -39.5 -5.790199 1.5 1 1.5
9 0 1 0 0 0 1 0 0 0 1 -12.23851 -40.5 -35.7902 1.5 1 1.5
9 0 1 0 0 0 1 0 0 0 1 -14.73851 -44 -34.7902 1 1.5 1.5
9 0 1 0 0 0 1 0 0 0 1 -23.73851 -54 -31.7902 1 1.5 1.5
9 0 1 0 0 0 1 0 0 0 1 -24.23851 -54.5 -8.790199 1.5 1 1.5
9 0 1 0 0 0 1 0 0 0 1 -26.23851 -56.5 -30.7902 1.5 1 1.5
9 0 1 0 0 0 1 0 0 0 1 -28.23851 -58.5 -30.7902 1.5 1 1.5
9 0 1 0 0 0 1 0 0 0 1 -33.23851 -63.5 -10.7902 1.5 1 1.5
9 0 1 0 0 0 1 0 0 0 1 -35.23851 -65.5 -11.7902 1.5 1 1.5
9 0 1 0 0 0 1 0 0 0 1 -38.23851 -68.5 -12.7902 1.5 1 1.5
9 0 1 0 0 0 1 0 0 0 1 -40.23851 -70.5 -26.7902 1.5 1 1.5
9 0 1 0 0 0 1 0 0 0 1 -40.23851 -70.5 -13.7902 1.5 1 1.5
9 0 1 0 0 0 1 0 0 0 1 -46.23851 -75.5 -24.7902 1.5 1 1.5
9 0 1 0 0 0 1 0 0 0 1 -59.73851 -38 31.2098 1 1.5 1.5
9 0 1 0 0 0 1 0 0 0 1 -59.73851 -41 29.2098 1 1.5 1.5
9 0 1 0 0 0 1 0 0 0 1 -59.73851 -44 27.2098 1 1.5 1.5
9 0 1 0 0 0 1 0 0 0 1 -59.73851 -50 -62.7902 1 1.5 1.5
9 0 1 0 0 0 1 0 0 0 1 -59.73851 -50 22.2098 1 1.5 1.5
9 0 1 0 0 0 1 0 0 0 1 -59.73851 -54 -58.7902 1 1.5 1.5
9 0 1 0 0 0 1 0 0 0 1 -59.73851 -59 14.2098 1 1.5 1.5
9 0 1 0 0 0 1 0 0 0 1 -59.73851 -62 11.2098 1 1.5 1.5
9 0 1 0 0 0 1 0 0 0 1 -59.73851 -69 3.209801 1 1.5 1.5
9 0 1 0 0 0 1 0 0 0 1 -59.73851 -71 -40.7902 1 1.5 1.5
9 0 1 0 0 0 1 0 0 0 1 -59.73851 -74 -36.7902 1 1.5 1.5
9 0 1 0 0 0 1 0 0 0 1 -60.23851 -46.5 25.2098 1.5 1 1.5
9 0 1 0 0 0 1 0 0 0 1 -60.23851 -56.5 -56.7902 1.5 1 1.5
9 0 1 0 0 0 1 0 0 0 1 -60.23851 -58.5 -54.7902 1.5 1 1.5
9 0 1 0 0 0 1 0 0 0 1 -60.23851 -64 -49.2902 1.5 1.5 1
9 0 1 0 0 0 1 0 0 0 1 -60.23851 -72.5 -0.7901993 1.5 1 1.5
9 0 1 0 0 0 1 0 0 0 1 -61.23851 -76.5 -9.790199 0.5 1 4.5
9 0 1 0 0 0 1 0 0 0 1 -60.23851 -78.5 -9.790199 1.5 1 1.5
9 0 1 0 0 0 1 0 0 0 1 -72.73851 -76 -15.7902 1 1.5 1.5
9 0 1 0 0 0 1 0 0 0 1 -73.23851 -75.5 -24.7902 1.5 1 1.5
9 0 1 0 0 0 1 0 0 0 1 -77.23851 -72.5 -13.7902 1.5 1 1.5
9 0 1 0 0 0 1 0 0 0 1 -79.23851 -70.5 -13.7902 1.5 1 1.5
9 0 1 0 0 0 1 0 0 0 1 -83.73851 -67 -11.7902 1 1.5 1.5
9 0 1 0 0 0 1 0 0 0 1 -86.23851 -64.5 -10.7902 1.5 1 1.5
9 0 1 0 0 0 1 0 0 0 1 -88.23851 -62.5 -10.7902 1.5 1 1.5
9 0 1 0 0 0 1 0 0 0 1 -106.2385 -42.5 -35.7902 1.5 1 1.5
9 0 1 0 0 0 1 0 0 0 1 -109.7385 -38 -36.7902 1 1.5 1.5
9 0 1 0 0 0 1 0 0 0 1 -114.2385 -31 -38.2902 1.5 1.5 1
9 0 1 0 0 0 1 0 0 0 1 -117.2385 -25.5 -4.790199 1.5 3 0.5
9 0 1 0 0 0 1 0 0 0 1 -120.2385 -25 -1.290199 0.5 1.5 3
9 0 1 0 0 0 1 0 0 0 1 -56.23851 -22 -76.7902 0.5 8.5 0.5
9 0 1 0 0 0 1 0 0 0 1 -3.23851 -20.5 3.709801 0.5 4 1
9 0 1 0 0 0 1 0 0 0 1 -6.73851 -33.5 -5.290199 1 2 1
9 0 1 0 0 0 1 0 0 0 1 -25.73851 -56 -8.290199 2 0.5 2
9 0 1 0 0 0 1 0 0 0 1 -55.23851 -17.5 -79.2902 0.5 4 1
9 0 1 0 0 0 1 0 0 0 1 -57.23851 -30.5 -74.2902 0.5 4 1
9 0 1 0 0 0 1 0 0 0 1 -57.73851 -19.5 -75.7902 1 4 0.5
9 0 1 0 0 0 1 0 0 0 1 -59.73851 -56.5 16.7098 1 2 1
9 0 1 0 0 0 1 0 0 0 1 -59.73851 -67.5 -45.2902 1 1 2
9 0 1 0 0 0 1 0 0 0 1 -59.73851 -80.5 -12.2902 1 1 2
9 0 1 0 0 0 1 0 0 0 1 -63.73851 -75.5 -14.2902 1 2 1
9 0 1 0 0 0 1 0 0 0 1 -65.23851 -77.5 -23.2902 0.5 4 1
9 0 1 0 0 0 1 0 0 0 1 -75.73851 -73.5 -25.2902 2 1 1
9 0 1 0 0 0 1 0 0 0 1 -78.73851 -71.5 -26.2902 2 1 1
9 0 1 0 0 0 1 0 0 0 1 -81.73851 -68.5 -27.2902 2 1 1
9 0 1 0 0 0 1 0 0 0 1 -90.73851 -59.5 -30.2902 1 1 2
9 0 1 0 0 0 1 0 0 0 1 -89.23851 -61.5 -29.7902 1.5 1 1.5
9 0 1 0 0 0 1 0 0 0 1 -92.73851 -58.5 -9.290199 1 1 2
9 0 1 0 0 0 1 0 0 0 1 -93.73851 -56.5 -31.2902 2 1 1
9 0 1 0 0 0 1 0 0 0 1 -101.7385 -47.5 -4.290199 2 1 1
9 0 1 0 0 0 1 0 0 0 1 -114.7385 -34.5 -2.290199 1 1 2
9 0 1 0 0 0 1 0 0 0 1 -115.7385 -27.5 -39.2902 1 2 1
9 0 1 0 0 0 1 0 0 0 1 -114.7385 -30.5 1.209801 2 2 0.5
9 0 1 0 0 0 1 0 0 0 1 -60.23851 -37 -69.7902 1.5 2.5 0.5
9 0 1 0 0 0 1 0 0 0 1 -120.2385 -16 -39.7902 0.5 2.5 1.5
9 0 1 0 0 0 1 0 0 0 1 1.76149 -5 -40.2902 0.5 3.5 1
9 0 1 0 0 0 1 0 0 0 1 -0.2385101 -8.5 -41.7902 0.5 7 0.5
9 0 1 0 0 0 1 0 0 0 1 -55.73851 -77 -24.7902 1 3.5 0.5
9 0 1 0 0 0 1 0 0 0 1 -116.2385 -20.5 3.209801 0.5 7 0.5
9 0 1 0 0 0 1 0 0 0 1 0.7614899 -25 -1.290199 0.5 1.5 2
9 0 1 0 0 0 1 0 0 0 1 -1.23851 -29 -1.290199 0.5 1.5 2
9 0 1 0 0 0 1 0 0 0 1 -3.23851 -23 -40.2902 0.5 1.5 2
9 0 1 0 0 0 1 0 0 0 1 -4.23851 -28.5 1.709801 1.5 1 1
9 0 1 0 0 0 1 0 0 0 1 -7.23851 -27.5 -0.7901993 0.5 2 1.5
9 0 1 0 0 0 1 0 0 0 1 -5.73851 -31 1.209801 2 1.5 0.5
9 0 1 0 0 0 1 0 0 0 1 -8.23851 -35.5 -37.2902 1.5 1 1
9 0 1 0 0 0 1 0 0 0 1 -9.73851 -37.5 -36.7902 1 1 1.5
9 0 1 0 0 0 1 0 0 0 1 -9.73851 -37 -0.7901993 2 1.5 0.5
9 0 1 0 0 0 1 0 0 0 1 -10.73851 -41.5 -3.790199 1 1 1.5
9 0 1 0 0 0 1 0 0 0 1 -13.73851 -39.5 -3.790199 1 1 1.5
9 0 1 0 0 0 1 0 0 0 1 -16.73851 -45.5 -34.7902 1 1 1.5
9 0 1 0 0 0 1 0 0 0 1 -17.73851 -47.5 -33.7902 1 1 1.5
9 0 1 0 0 0 1 0 0 0 1 -19.73851 -49 -33.2902 1 1.5 1
9 0 1 0 0 0 1 0 0 0 1 -21.73851 -51.5 -32.7902 1 1 1.5
9 0 1 0 0 0 1 0 0 0 1 -24.23851 -54.5 -6.290199 1.5 1 1
9 0 1 0 0 0 1 0 0 0 1 -29.73851 -60.5 -29.7902 1 1 1.5
9 0 1 0 0 0 1 0 0 0 1 -31.23851 -62 -29.2902 0.5 1.5 2
9 0 1 0 0 0 1 0 0 0 1 -32.73851 -63 -29.2902 1 1.5 1
9 0 1 0 0 0 1 0 0 0 1 -34.73851 -65.5 -28.2902 1 1 2
9 0 1 0 0 0 1 0 0 0 1 -36.23851 -67 -12.2902 1.5 0.5 2
9 0 1 0 0 0 1 0 0 0 1 -36.73851 -67.5 -27.7902 1 1 1.5
9 0 1 0 0 0 1 0 0 0 1 -38.73851 -69 -27.7902 2 0.5 1.5
9 0 1 0 0 0 1 0 0 0 1 -41.73851 -72 -25.7902 2 0.5 1.5
9 0 1 0 0 0 1 0 0 0 1 -41.73851 -72 -13.7902 2 0.5 1.5
9 0 1 0 0 0 1 0 0 0 1 -43.23851 -73 -14.2902 1.5 0.5 2
9 0 1 0 0 0 1 0 0 0 1 -43.23851 -73.5 -25.2902 1.5 1 1
9 0 1 0 0 0 1 0 0 0 1 -52.23851 -75.5 -12.2902 1.5 1 1
9 0 1 0 0 0 1 0 0 0 1 -53.73851 -82 -20.2902 1 0.5 3
9 0 1 0 0 0 1 0 0 0 1 -59.73851 -38 -73.2902 1 1.5 1
9 0 1 0 0 0 1 0 0 0 1 -59.73851 -52.5 20.2098 1 1 1.5
9 0 1 0 0 0 1 0 0 0 1 -59.73851 -64 8.709801 1 1.5 1
9 0 1 0 0 0 1 0 0 0 1 -59.73851 -66 6.709801 1 1.5 1
9 0 1 0 0 0 1 0 0 0 1 -59.73851 -74 -3.290199 1 0.5 3
9 0 1 0 0 0 1 0 0 0 1 -60.23851 -31.5 -71.7902 1.5 2 0.5
9 0 1 0 0 0 1 0 0 0 1 -60.23851 -33.5 -76.2902 1.5 1 1
9 0 1 0 0 0 1 0 0 0 1 -60.23851 -44.5 -68.2902 1.5 1 1
9 0 1 0 0 0 1 0 0 0 1 -59.73851 -44 -65.7902 2 1.5 0.5
9 0 1 0 0 0 1 0 0 0 1 -59.73851 -51 -60.7902 2 1.5 0.5
9 0 1 0 0 0 1 0 0 0 1 -60.23851 -54.5 18.7098 1.5 1 1
9 0 1 0 0 0 1 0 0 0 1 -60.23851 -60 -53.2902 1.5 0.5 2
9 0 1 0 0 0 1 0 0 0 1 -60.23851 -69.5 -43.2902 1.5 1 1
9 0 1 0 0 0 1 0 0 0 1 -60.23851 -71 0.7098007 1.5 0.5 2
9 0 1 0 0 0 1 0 0 0 1 -59.73851 -74 -26.7902 2 0.5 1.5
9 0 1 0 0 0 1 0 0 0 1 -60.23851 -81.5 -26.2902 1.5 1 1
9 0 1 0 0 0 1 0 0 0 1 -62.23851 -36.5 -71.2902 0.5 3 1
9 0 1 0 0 0 1 0 0 0 1 -68.73851 -78 -24.7902 2 1.5 0.5
9 0 1 0 0 0 1 0 0 0 1 -74.23851 -75 -15.2902 0.5 1.5 2
9 0 1 0 0 0 1 0 0 0 1 -81.73851 -69 -13.2902 1 1.5 1
9 0 1 0 0 0 1 0 0 0 1 -83.73851 -66.5 -27.7902 1 1 1.5
9 0 1 0 0 0 1 0 0 0 1 -85.73851 -64.5 -28.7902 1 1 1.5
9 0 1 0 0 0 1 0 0 0 1 -93.73851 -57 -7.790199 2 0.5 1.5
9 0 1 0 0 0 1 0 0 0 1 -95.73851 -54 -32.2902 1 1.5 1
9 0 1 0 0 0 1 0 0 0 1 -97.73851 -52 -33.2902 1 1.5 1
9 0 1 0 0 0 1 0 0 0 1 -99.73851 -49.5 -33.7902 1 1 1.5
9 0 1 0 0 0 1 0 0 0 1 -101.7385 -47 -34.2902 1 1.5 1
9 0 1 0 0 0 1 0 0 0 1 -103.2385 -46 -34.2902 0.5 1.5 2
9 0 1 0 0 0 1 0 0 0 1 -104.7385 -44.5 -34.7902 1 1 1.5
9 0 1 0 0 0 1 0 0 0 1 -107.2385 -40.5 -36.2902 1.5 1 1
9 0 1 0 0 0 1 0 0 0 1 -108.7385 -36.5 -3.790199 1 1 1.5
9 0 1 0 0 0 1 0 0 0 1 -108.7385 -38 -1.790199 1 3.5 0.5
9 0 1 0 0 0 1 0 0 0 1 -110.7385 -32.5 -1.790199 1 1 1.5
9 0 1 0 0 0 1 0 0 0 1 -111.2385 -35.5 -37.2902 1.5 1 1
9 0 1 0 0 0 1 0 0 0 1 -113.2385 -26.5 -0.7901993 0.5 2 1.5
9 0 1 0 0 0 1 0 0 0 1 -111.7385 -35 0.2098007 2 1.5 0.5
9 0 1 0 0 0 1 0 0 0 1 -113.2385 -33.5 -37.2902 1.5 1 1
9 0 1 0 0 0 1 0 0 0 1 -116.2385 -20.5 -3.290199 0.5 3 1
9 0 1 0 0 0 1 0 0 0 1 -118.2385 -25 -38.2902 0.5 1.5 2
9 0 1 0 0 0 1 0 0 0 1 -49.23851 -78 -19.7902 0.5 0.5 5.5
9 0 1 0 0 0 1 0 0 0 1 -0.2385101 -20 -39.2902 0.5 2.5 1
9 0 1 0 0 0 1 0 0 0 1 -1.23851 -27.5 -12.7902 0.5 1 2.5
9 0 1 0 0 0 1 0 0 0 1 -2.23851 -27 -5.290199 0.5 2.5 1
9 0 1 0 0 0 1 0 0 0 1 -3.23851 -18.5 -3.790199 0.5 5 0.5
9 0 1 0 0 0 1 0 0 0 1 -29.23851 -58.5 -8.790199 0.5 1 2.5
9 0 1 0 0 0 1 0 0 0 1 -47.23851 -76 -18.2902 0.5 0.5 5
9 0 1 0 0 0 1 0 0 0 1 -51.23851 -76.5 -13.7902 2.5 1 0.5
9 0 1 0 0 0 1 0 0 0 1 -56.23851 -29 -75.2902 0.5 2.5 1
9 0 1 0 0 0 1 0 0 0 1 -57.23851 -35 -72.2902 0.5 2.5 1
9 0 1 0 0 0 1 0 0 0 1 -59.73851 -77 -6.790199 1 0.5 2.5
9 0 1 0 0 0 1 0 0 0 1 -62.23851 -18.5 -75.7902 0.5 5 0.5
9 0 1 0 0 0 1 0 0 0 1 -63.23851 -26 -78.2902 0.5 2.5 1
9 0 1 0 0 0 1 0 0 0 1 -63.23851 -32 -74.2902 0.5 2.5 1
9 0 1 0 0 0 1 0 0 0 1 -64.73851 -77 -25.7902 1 2.5 0.5
9 0 1 0 0 0 1 0 0 0 1 -66.73851 -82 -19.7902 1 0.5 2.5
9 0 1 0 0 0 1 0 0 0 1 -117.2385 -18.5 -3.790199 0.5 5 0.5
9 0 1 0 0 0 1 0 0 0 1 -116.7385 -27 -37.7902 1 2.5 0.5
9 0 1 0 0 0 1 0 0 0 1 -118.2385 -29.5 -1.790199 0.5 1 2.5
9 0 1 0 0 0 1 0 0 0 1 -4.23851 -24 3.209801 0.5 4.5 0.5
9 0 1 0 0 0 1 0 0 0 1 -5.23851 -35 -2.790199 0.5 1.5 1.5
9 0 1 0 0 0 1 0 0 0 1 -11.23851 -39 -36.7902 1.5 0.5 1.5
9 0 1 0 0 0 1 0 0 0 1 -13.23851 -42 -35.7902 1.5 0.5 1.5
9 0 1 0 0 0 1 0 0 0 1 -13.23851 -42 -6.790199 1.5 1.5 0.5
9 0 1 0 0 0 1 0 0 0 1 -44.23851 -74 -14.7902 1.5 0.5 1.5
9 0 1 0 0 0 1 0 0 0 1 -51.23851 -80 -19.7902 0.5 0.5 4.5
9 0 1 0 0 0 1 0 0 0 1 -55.23851 -78 -12.7902 1.5 0.5 1.5
9 0 1 0 0 0 1 0 0 0 1 -56.23851 -75 -25.7902 1.5 1.5 0.5
9 0 1 0 0 0 1 0 0 0 1 -60.23851 -28 -79.7902 1.5 1.5 0.5
9 0 1 0 0 0 1 0 0 0 1 -60.23851 -48 24.2098 1.5 0.5 1.5
9 0 1 0 0 0 1 0 0 0 1 -60.23851 -66 -46.7902 1.5 0.5 1.5
9 0 1 0 0 0 1 0 0 0 1 -60.23851 -68 5.209801 1.5 1.5 0.5
9 0 1 0 0 0 1 0 0 0 1 -60.23851 -73 -38.7902 1.5 1.5 0.5
9 0 1 0 0 0 1 0 0 0 1 -75.23851 -74 -14.7902 0.5 1.5 1.5
9 0 1 0 0 0 1 0 0 0 1 -80.23851 -70 -26.7902 1.5 0.5 1.5
9 0 1 0 0 0 1 0 0 0 1 -87.23851 -63 -29.7902 0.5 1.5 1.5
9 0 1 0 0 0 1 0 0 0 1 -92.23851 -58 -30.7902 1.5 0.5 1.5
9 0 1 0 0 0 1 0 0 0 1 -99.23851 -49 -5.790199 0.5 1.5 1.5
9 0 1 0 0 0 1 0 0 0 1 -116.2385 -30 -4.790199 0.5 1.5 1.5
9 0 1 0 0 0 1 0 0 0 1 -117.2385 -21 4.209801 1.5 1.5 0.5
9 0 1 0 0 0 1 0 0 0 1 -119.2385 -19 -37.7902 0.5 4.5 0.5
9 0 1 0 0 0 1 0 0 0 1 -121.2385 -25 -0.7901993 0.5 1.5 1.5
9 0 1 0 0 0 1 0 0 0 1 -124.2385 -15 0.2098007 0.5 1.5 1.5
9 0 1 0 0 0 1 0 0 0 1 -1.23851 -21.5 -37.7902 0.5 4 0.5
9 0 1 0 0 0 1 0 0 0 1 -4.23851 -21.5 -3.290199 0.5 2 1
9 0 1 0 0 0 1 0 0 0 1 -6.23851 -27.5 -3.290199 0.5 2 1
9 0 1 0 0 0 1 0 0 0 1 -15.73851 -44.5 -2.790199 2 1 0.5
9 0 1 0 0 0 1 0 0 0 1 -17.23851 -48.5 -6.290199 0.5 1 2
9 0 1 0 0 0 1 0 0 0 1 -18.73851 -45.5 -5.290199 1 1 1
9 0 1 0 0 0 1 0 0 0 1 -20.23851 -51.5 -7.290199 0.5 1 2
9 0 1 0 0 0 1 0 0 0 1 -52.73851 -75 -23.2902 2 0.5 1
9 0 1 0 0 0 1 0 0 0 1 -55.23851 -78 -23.7902 0.5 4.5 0.5
9 0 1 0 0 0 1 0 0 0 1 -54.73851 -74.5 -15.2902 1 1 1
9 0 1 0 0 0 1 0 0 0 1 -56.23851 -25.5 -78.2902 0.5 2 1
9 0 1 0 0 0 1 0 0 0 1 -55.73851 -75.5 -8.790199 2 1 0.5
9 0 1 0 0 0 1 0 0 0 1 -55.73851 -77 -29.2902 2 0.5 1
9 0 1 0 0 0 1 0 0 0 1 -58.23851 -20.5 38.7098 0.5 2 1
9 0 1 0 0 0 1 0 0 0 1 -59.73851 -14.5 41.2098 1 2 0.5
9 0 1 0 0 0 1 0 0 0 1 -59.73851 -23.5 39.2098 1 2 0.5
9 0 1 0 0 0 1 0 0 0 1 -59.73851 -38.5 -68.2902 1 1 1
9 0 1 0 0 0 1 0 0 0 1 -59.73851 -61.5 -52.2902 1 1 1
9 0 1 0 0 0 1 0 0 0 1 -59.73851 -75.5 -34.2902 1 1 1
9 0 1 0 0 0 1 0 0 0 1 -59.73851 -62.5 -50.7902 2 1 0.5
9 0 1 0 0 0 1 0 0 0 1 -62.23851 -40.5 -69.2902 0.5 2 1
9 0 1 0 0 0 1 0 0 0 1 -61.73851 -74.5 -13.2902 1 1 1
9 0 1 0 0 0 1 0 0 0 1 -64.23851 -25.5 -77.2902 0.5 2 1
9 0 1 0 0 0 1 0 0 0 1 -64.23851 -77.5 -15.7902 0.5 4 0.5
9 0 1 0 0 0 1 0 0 0 1 -68.23851 -75 -20.2902 0.5 0.5 4
9 0 1 0 0 0 1 0 0 0 1 -69.23851 -80 -20.2902 0.5 0.5 4
9 0 1 0 0 0 1 0 0 0 1 -72.73851 -77 -24.2902 1 0.5 2
9 0 1 0 0 0 1 0 0 0 1 -93.73851 -56.5 -10.2902 1 1 1
9 0 1 0 0 0 1 0 0 0 1 -95.73851 -52.5 -7.290199 1 1 1
9 0 1 0 0 0 1 0 0 0 1 -96.73851 -53 -9.290199 2 0.5 1
9 0 1 0 0 0 1 0 0 0 1 -101.7385 -45.5 -5.290199 1 1 1
9 0 1 0 0 0 1 0 0 0 1 -103.7385 -47.5 -6.290199 1 1 1
9 0 1 0 0 0 1 0 0 0 1 -104.7385 -41.5 -4.290199 1 1 1
9 0 1 0 0 0 1 0 0 0 1 -104.7385 -43.5 -2.790199 1 2 0.5
9 0 1 0 0 0 1 0 0 0 1 -107.2385 -43.5 -4.290199 0.5 1 2
9 0 1 0 0 0 1 0 0 0 1 -115.2385 -21.5 -2.290199 0.5 2 1
9 0 1 0 0 0 1 0 0 0 1 -117.7385 -26.5 -5.790199 1 2 0.5
9 0 1 0 0 0 1 0 0 0 1 0.7614899 -17 -4.790199 0.5 3.5 0.5
9 0 1 0 0 0 1 0 0 0 1 -50.23851 -77 -25.7902 3.5 0.5 0.5
9 0 1 0 0 0 1 0 0 0 1 -61.23851 -18 38.2098 0.5 3.5 0.5
9 0 1 0 0 0 1 0 0 0 1 -64.23851 -17 -80.7902 0.5 3.5 0.5
9 0 1 0 0 0 1 0 0 0 1 -64.23851 -28 36.2098 0.5 3.5 0.5
9 0 1 0 0 0 1 0 0 0 1 -114.2385 -28 2.209801 0.5 3.5 0.5
9 0 1 0 0 0 1 0 0 0 1 -118.2385 -27 -20.7902 0.5 0.5 3.5
9 0 1 0 0 0 1 0 0 0 1 0.7614899 -4.5 -41.7902 0.5 3 0.5
9 0 1 0 0 0 1 0 0 0 1 -0.2385101 -16.5 -37.7902 0.5 3 0.5
9 0 1 0 0 0 1 0 0 0 1 -1.73851 -20 4.209801 1 1.5 0.5
9 0 1 0 0 0 1 0 0 0 1 -2.23851 -31 -19.2902 0.5 0.5 3
9 0 1 0 0 0 1 0 0 0 1 -3.23851 -28.5 -37.7902 0.5 1 1.5
9 0 1 0 0 0 1 0 0 0 1 -4.23851 -26 -39.2902 0.5 1.5 1
9 0 1 0 0 0 1 0 0 0 1 -3.73851 -29 -5.790199 1 1.5 0.5
9 0 1 0 0 0 1 0 0 0 1 -5.23851 -32 -37.2902 0.5 1.5 1
9 0 1 0 0 0 1 0 0 0 1 -7.73851 -38 -2.790199 1 0.5 1.5
9 0 1 0 0 0 1 0 0 0 1 -9.23851 -31.5 -1.790199 0.5 1 1.5
9 0 1 0 0 0 1 0 0 0 1 -12.73851 -44 -4.790199 1 0.5 1.5
9 0 1 0 0 0 1 0 0 0 1 -13.23851 -41.5 -1.790199 1.5 1 0.5
9 0 1 0 0 0 1 0 0 0 1 -16.23851 -42 -4.290199 0.5 1.5 1
9 0 1 0 0 0 1 0 0 0 1 -15.73851 -45 -7.790199 1 1.5 0.5
9 0 1 0 0 0 1 0 0 0 1 -19.23851 -48.5 -3.790199 1.5 1 0.5
9 0 1 0 0 0 1 0 0 0 1 -20.23851 -49.5 -8.790199 1.5 1 0.5
9 0 1 0 0 0 1 0 0 0 1 -24.23851 -52.5 -7.790199 0.5 1 1.5
9 0 1 0 0 0 1 0 0 0 1 -25.23851 -54.5 -31.7902 0.5 1 1.5
9 0 1 0 0 0 1 0 0 0 1 -27.23851 -57.5 -10.7902 1.5 1 0.5
9 0 1 0 0 0 1 0 0 0 1 -28.23851 -60.5 -9.790199 0.5 1 1.5
9 0 1 0 0 0 1 0 0 0 1 -32.73851 -62 -10.7902 1 0.5 1.5
9 0 1 0 0 0 1 0 0 0 1 -45.73851 -74 -25.7902 1 0.5 1.5
9 0 1 0 0 0 1 0 0 0 1 -53.23851 -29.5 35.2098 0.5 3 0.5
9 0 1 0 0 0 1 0 0 0 1 -55.23851 -22.5 -77.7902 0.5 3 0.5
9 0 1 0 0 0 1 0 0 0 1 -55.23851 -78.5 -15.7902 0.5 3 0.5
9 0 1 0 0 0 1 0 0 0 1 -57.23851 -31 -76.2902 0.5 1.5 1
9 0 1 0 0 0 1 0 0 0 1 -56.73851 -79 -26.7902 1 0.5 1.5
9 0 1 0 0 0 1 0 0 0 1 -58.23851 -77.5 -30.7902 0.5 1 1.5
9 0 1 0 0 0 1 0 0 0 1 -59.73851 -27 -72.7902 1 1.5 0.5
9 0 1 0 0 0 1 0 0 0 1 -59.73851 -28 35.2098 1 1.5 0.5
9 0 1 0 0 0 1 0 0 0 1 -59.73851 -29 37.2098 1 1.5 0.5
9 0 1 0 0 0 1 0 0 0 1 -59.73851 -35 32.2098 1 1.5 0.5
9 0 1 0 0 0 1 0 0 0 1 -59.73851 -79 -30.7902 1 0.5 1.5
9 0 1 0 0 0 1 0 0 0 1 -60.23851 -24 -74.2902 1.5 0.5 1
9 0 1 0 0 0 1 0 0 0 1 -62.23851 -24.5 -74.7902 0.5 4 0.5
9 0 1 0 0 0 1 0 0 0 1 -60.23851 -30.5 -78.7902 1.5 1 0.5
9 0 1 0 0 0 1 0 0 0 1 -60.23851 -30.5 34.2098 1.5 1 0.5
9 0 1 0 0 0 1 0 0 0 1 -60.23851 -36.5 33.2098 1.5 1 0.5
9 0 1 0 0 0 1 0 0 0 1 -61.23851 -42 28.7098 0.5 1.5 1
9 0 1 0 0 0 1 0 0 0 1 -60.23851 -44.5 -64.7902 1.5 1 0.5
9 0 1 0 0 0 1 0 0 0 1 -60.23851 -47.5 -62.7902 1.5 1 0.5
9 0 1 0 0 0 1 0 0 0 1 -61.23851 -49.5 -62.7902 0.5 1 1.5
9 0 1 0 0 0 1 0 0 0 1 -61.23851 -50 22.7098 0.5 1.5 1
9 0 1 0 0 0 1 0 0 0 1 -60.23851 -51.5 -59.7902 1.5 1 0.5
9 0 1 0 0 0 1 0 0 0 1 -60.23851 -61 13.7098 1.5 0.5 1
9 0 1 0 0 0 1 0 0 0 1 -61.23851 -71 -41.2902 0.5 1.5 1
9 0 1 0 0 0 1 0 0 0 1 -60.23851 -75 -3.290199 1.5 0.5 1
9 0 1 0 0 0 1 0 0 0 1 -62.23851 -30.5 -76.7902 0.5 1 1.5
9 0 1 0 0 0 1 0 0 0 1 -62.23851 -46 -65.2902 0.5 1.5 1
9 0 1 0 0 0 1 0 0 0 1 -62.23851 -77.5 -27.7902 0.5 3 0.5
9 0 1 0 0 0 1 0 0 0 1 -63.23851 -16.5 -76.7902 0.5 3 0.5
9 0 1 0 0 0 1 0 0 0 1 -64.23851 -78.5 -13.7902 0.5 1 1.5
9 0 1 0 0 0 1 0 0 0 1 -65.23851 -80 -16.2902 0.5 1.5 1
9 0 1 0 0 0 1 0 0 0 1 -66.73851 -28 35.2098 1 1.5 0.5
9 0 1 0 0 0 1 0 0 0 1 -67.23851 -78.5 -14.7902 1.5 1 0.5
9 0 1 0 0 0 1 0 0 0 1 -72.23851 -76 -20.2902 0.5 0.5 3
9 0 1 0 0 0 1 0 0 0 1 -76.23851 -73.5 -26.7902 1.5 1 0.5
9 0 1 0 0 0 1 0 0 0 1 -85.23851 -66.5 -11.7902 0.5 1 1.5
9 0 1 0 0 0 1 0 0 0 1 -95.23851 -54.5 -9.790199 1.5 1 0.5
9 0 1 0 0 0 1 0 0 0 1 -97.23851 -54.5 -7.790199 0.5 1 1.5
9 0 1 0 0 0 1 0 0 0 1 -97.73851 -53 -31.7902 1 1.5 0.5
9 0 1 0 0 0 1 0 0 0 1 -99.23851 -51.5 -32.7902 0.5 1 1.5
9 0 1 0 0 0 1 0 0 0 1 -98.23851 -51.5 -8.790199 1.5 1 0.5
9 0 1 0 0 0 1 0 0 0 1 -100.2385 -51.5 -6.790199 0.5 1 1.5
9 0 1 0 0 0 1 0 0 0 1 -101.7385 -48 -32.7902 1 1.5 0.5
9 0 1 0 0 0 1 0 0 0 1 -103.2385 -45.5 -7.790199 1.5 1 0.5
9 0 1 0 0 0 1 0 0 0 1 -106.2385 -39 -3.290199 0.5 1.5 1
9 0 1 0 0 0 1 0 0 0 1 -107.7385 -41 -6.790199 1 1.5 0.5
9 0 1 0 0 0 1 0 0 0 1 -110.2385 -40.5 -3.790199 0.5 1 1.5
9 0 1 0 0 0 1 0 0 0 1 -111.2385 -30.5 -1.790199 0.5 1 1.5
9 0 1 0 0 0 1 0 0 0 1 -110.2385 -36.5 -5.790199 1.5 1 0.5
9 0 1 0 0 0 1 0 0 0 1 -111.2385 -37.5 -36.7902 0.5 1 1.5
9 0 1 0 0 0 1 0 0 0 1 -112.2385 -32 -4.290199 0.5 1.5 1
9 0 1 0 0 0 1 0 0 0 1 -112.2385 -34.5 -5.790199 1.5 1 0.5
9 0 1 0 0 0 1 0 0 0 1 -112.7385 -38 -2.790199 1 0.5 1.5
9 0 1 0 0 0 1 0 0 0 1 -114.2385 -21 -0.2901993 0.5 1.5 1
9 0 1 0 0 0 1 0 0 0 1 -115.2385 -20.5 2.209801 0.5 3 0.5
9 0 1 0 0 0 1 0 0 0 1 -115.2385 -25.5 3.209801 0.5 3 0.5
9 0 1 0 0 0 1 0 0 0 1 -114.7385 -31 -5.790199 1 1.5 0.5
9 0 1 0 0 0 1 0 0 0 1 -116.2385 -24 -39.2902 0.5 1.5 1
9 0 1 0 0 0 1 0 0 0 1 -117.2385 -32.5 -1.790199 0.5 1 1.5
9 0 1 0 0 0 1 0 0 0 1 -118.2385 -31 -14.2902 0.5 0.5 3
9 0 1 0 0 0 1 0 0 0 1 1.76149 -11 -39.7902 0.5 2.5 0.5
9 0 1 0 0 0 1 0 0 0 1 -1.23851 -26 -15.7902 0.5 0.5 2.5
9 0 1 0 0 0 1 0 0 0 1 -2.23851 -16 -39.7902 0.5 2.5 0.5
9 0 1 0 0 0 1 0 0 0 1 -5.23851 -21 -1.790199 0.5 2.5 0.5
9 0 1 0 0 0 1 0 0 0 1 -9.23851 -35 0.2098007 0.5 2.5 0.5
9 0 1 0 0 0 1 0 0 0 1 -54.23851 -83 -19.7902 0.5 0.5 2.5
9 0 1 0 0 0 1 0 0 0 1 -55.23851 -16 -80.7902 0.5 2.5 0.5
9 0 1 0 0 0 1 0 0 0 1 -58.23851 -22 -74.7902 0.5 2.5 0.5
9 0 1 0 0 0 1 0 0 0 1 -58.23851 -26 37.2098 0.5 2.5 0.5
9 0 1 0 0 0 1 0 0 0 1 -60.23851 -75 -30.7902 0.5 0.5 2.5
9 0 1 0 0 0 1 0 0 0 1 -62.23851 -18 39.2098 0.5 2.5 0.5
9 0 1 0 0 0 1 0 0 0 1 -107.2385 -40 -1.790199 0.5 2.5 0.5
9 0 1 0 0 0 1 0 0 0 1 -109.2385 -37 -0.7901993 0.5 2.5 0.5
9 0 1 0 0 0 1 0 0 0 1 -114.2385 -36 -2.790199 0.5 0.5 2.5
9 0 1 0 0 0 1 0 0 0 1 1.76149 -24.5 -0.2901993 0.5 1 1
9 0 1 0 0 0 1 0 0 0 1 0.2614899 -24.5 1.209801 1 1 0.5
9 0 1 0 0 0 1 0 0 0 1 -0.2385101 -28 -1.290199 0.5 0.5 2
9 0 1 0 0 0 1 0 0 0 1 -0.7385101 -14.5 -4.790199 1 1 0.5
9 0 1 0 0 0 1 0 0 0 1 -1.23851 -15.5 -41.7902 0.5 2 0.5
9 0 1 0 0 0 1 0 0 0 1 -1.23851 -28 -27.2902 0.5 0.5 2
9 0 1 0 0 0 1 0 0 0 1 -1.73851 -24 -39.2902 1 0.5 1
9 0 1 0 0 0 1 0 0 0 1 -1.73851 -24.5 3.209801 1 1 0.5
9 0 1 0 0 0 1 0 0 0 1 -3.23851 -23.5 -4.790199 0.5 2 0.5
9 0 1 0 0 0 1 0 0 0 1 -4.23851 -23.5 4.209801 0.5 2 0.5
9 0 1 0 0 0 1 0 0 0 1 -4.23851 -34 -2.290199 0.5 0.5 2
9 0 1 0 0 0 1 0 0 0 1 -5.23851 -27.5 3.209801 0.5 2 0.5
9 0 1 0 0 0 1 0 0 0 1 -4.73851 -31.5 -5.790199 1 1 0.5
9 0 1 0 0 0 1 0 0 0 1 -4.73851 -32.5 0.2098007 1 1 0.5
9 0 1 0 0 0 1 0 0 0 1 -6.23851 -22.5 -0.2901993 0.5 1 1
9 0 1 0 0 0 1 0 0 0 1 -6.23851 -30.5 -38.2902 0.5 1 1
9 0 1 0 0 0 1 0 0 0 1 -5.73851 -30.5 2.209801 1 1 0.5
9 0 1 0 0 0 1 0 0 0 1 -7.23851 -28.5 -3.290199 0.5 1 1
9 0 1 0 0 0 1 0 0 0 1 -6.73851 -30.5 -4.790199 1 1 0.5
9 0 1 0 0 0 1 0 0 0 1 -8.23851 -29 -1.290199 0.5 0.5 2
9 0 1 0 0 0 1 0 0 0 1 -6.73851 -33 1.209801 2 0.5 0.5
9 0 1 0 0 0 1 0 0 0 1 -8.23851 -33.5 -37.2902 0.5 1 1
9 0 1 0 0 0 1 0 0 0 1 -8.23851 -32.5 -4.790199 0.5 2 0.5
9 0 1 0 0 0 1 0 0 0 1 -8.23851 -36.5 -35.7902 0.5 2 0.5
9 0 1 0 0 0 1 0 0 0 1 -8.23851 -39 -3.290199 0.5 0.5 2
9 0 1 0 0 0 1 0 0 0 1 -11.23851 -34.5 -2.290199 0.5 1 1
9 0 1 0 0 0 1 0 0 0 1 -11.23851 -37.5 -5.290199 0.5 1 1
9 0 1 0 0 0 1 0 0 0 1 -10.73851 -39 -0.7901993 2 0.5 0.5
9 0 1 0 0 0 1 0 0 0 1 -13.23851 -43 -35.2902 0.5 0.5 2
9 0 1 0 0 0 1 0 0 0 1 -14.73851 -43.5 -36.7902 1 1 0.5
9 0 1 0 0 0 1 0 0 0 1 -16.23851 -43.5 -35.2902 0.5 1 1
9 0 1 0 0 0 1 0 0 0 1 -17.73851 -46.5 -7.790199 1 1 0.5
9 0 1 0 0 0 1 0 0 0 1 -19.23851 -48.5 -34.7902 0.5 2 0.5
9 0 1 0 0 0 1 0 0 0 1 -18.73851 -51 -6.290199 1 0.5 1
9 0 1 0 0 0 1 0 0 0 1 -21.23851 -49.5 -33.2902 0.5 1 1
9 0 1 0 0 0 1 0 0 0 1 -22.23851 -49.5 -6.290199 0.5 1 1
9 0 1 0 0 0 1 0 0 0 1 -20.73851 -51 -4.790199 2 0.5 0.5
9 0 1 0 0 0 1 0 0 0 1 -21.73851 -53 -32.2902 1 0.5 1
9 0 1 0 0 0 1 0 0 0 1 -21.73851 -54 -7.290199 1 0.5 1
9 0 1 0 0 0 1 0 0 0 1 -22.73851 -52.5 -9.790199 1 1 0.5
9 0 1 0 0 0 1 0 0 0 1 -23.73851 -53.5 -33.7902 1 1 0.5
9 0 1 0 0 0 1 0 0 0 1 -24.73851 -57 -8.290199 1 0.5 1
9 0 1 0 0 0 1 0 0 0 1 -26.23851 -54.5 -8.290199 0.5 1 1
9 0 1 0 0 0 1 0 0 0 1 -26.73851 -56.5 -32.7902 1 1 0.5
9 0 1 0 0 0 1 0 0 0 1 -26.73851 -57.5 -6.790199 1 1 0.5
9 0 1 0 0 0 1 0 0 0 1 -30.23851 -59 -8.290199 0.5 0.5 2
9 0 1 0 0 0 1 0 0 0 1 -29.73851 -60.5 -11.7902 1 1 0.5
9 0 1 0 0 0 1 0 0 0 1 -30.73851 -63 -10.2902 1 0.5 1
9 0 1 0 0 0 1 0 0 0 1 -32.73851 -63.5 -27.7902 1 1 0.5
9 0 1 0 0 0 1 0 0 0 1 -32.73851 -63.5 -12.7902 1 1 0.5
9 0 1 0 0 0 1 0 0 0 1 -32.73851 -65 -11.2902 1 0.5 1
9 0 1 0 0 0 1 0 0 0 1 -33.23851 -65.5 -28.2902 0.5 1 1
9 0 1 0 0 0 1 0 0 0 1 -34.23851 -63.5 -29.2902 0.5 1 1
9 0 1 0 0 0 1 0 0 0 1 -34.73851 -65.5 -9.790199 1 1 0.5
9 0 1 0 0 0 1 0 0 0 1 -36.23851 -65.5 -28.2902 0.5 1 1
9 0 1 0 0 0 1 0 0 0 1 -36.23851 -68 -12.2902 0.5 0.5 2
9 0 1 0 0 0 1 0 0 0 1 -38.23851 -67.5 -27.2902 0.5 1 1
9 0 1 0 0 0 1 0 0 0 1 -39.73851 -70 -11.7902 2 0.5 0.5
9 0 1 0 0 0 1 0 0 0 1 -42.23851 -70.5 -26.2902 0.5 1 1
9 0 1 0 0 0 1 0 0 0 1 -41.73851 -71.5 -11.7902 1 1 0.5
9 0 1 0 0 0 1 0 0 0 1 -43.73851 -73.5 -26.7902 1 1 0.5
9 0 1 0 0 0 1 0 0 0 1 -45.73851 -76 -15.2902 1 0.5 1
9 0 1 0 0 0 1 0 0 0 1 -46.73851 -77 -24.2902 1 0.5 1
9 0 1 0 0 0 1 0 0 0 1 -46.73851 -77 -15.2902 1 0.5 1
9 0 1 0 0 0 1 0 0 0 1 -47.73851 -78 -16.2902 1 0.5 1
9 0 1 0 0 0 1 0 0 0 1 -48.73851 -75 -12.7902 2 0.5 0.5
9 0 1 0 0 0 1 0 0 0 1 -52.73851 -75.5 -10.7902 1 1 0.5
9 0 1 0 0 0 1 0 0 0 1 -52.73851 -77 -27.2902 1 0.5 1
9 0 1 0 0 0 1 0 0 0 1 -53.73851 -74 -23.2902 1 0.5 1
9 0 1 0 0 0 1 0 0 0 1 -55.23851 -26.5 36.2098 0.5 2 0.5
9 0 1 0 0 0 1 0 0 0 1 -56.23851 -24.5 -75.7902 0.5 2 0.5
9 0 1 0 0 0 1 0 0 0 1 -56.23851 -32.5 -73.7902 0.5 2 0.5
9 0 1 0 0 0 1 0 0 0 1 -54.73851 -74 -10.7902 2 0.5 0.5
9 0 1 0 0 0 1 0 0 0 1 -55.73851 -79 -13.2902 1 0.5 1
9 0 1 0 0 0 1 0 0 0 1 -57.23851 -24.5 -74.7902 0.5 2 0.5
9 0 1 0 0 0 1 0 0 0 1 -57.23851 -42.5 -68.2902 0.5 1 1
9 0 1 0 0 0 1 0 0 0 1 -57.23851 -44.5 -66.2902 0.5 1 1
9 0 1 0 0 0 1 0 0 0 1 -56.73851 -74.5 -14.7902 1 1 0.5
9 0 1 0 0 0 1 0 0 0 1 -55.73851 -76 -26.7902 2 0.5 0.5
9 0 1 0 0 0 1 0 0 0 1 -56.73851 -75.5 -7.790199 1 1 0.5
9 0 1 0 0 0 1 0 0 0 1 -56.73851 -78 -29.2902 1 0.5 1
9 0 1 0 0 0 1 0 0 0 1 -56.73851 -80 -14.2902 1 0.5 1
9 0 1 0 0 0 1 0 0 0 1 -58.23851 -32.5 34.2098 0.5 2 0.5
9 0 1 0 0 0 1 0 0 0 1 -58.23851 -49.5 -62.2902 0.5 1 1
9 0 1 0 0 0 1 0 0 0 1 -58.23851 -49.5 22.7098 0.5 1 1
9 0 1 0 0 0 1 0 0 0 1 -58.23851 -57.5 -55.2902 0.5 1 1
9 0 1 0 0 0 1 0 0 0 1 -58.23851 -69.5 2.709801 0.5 1 1
9 0 1 0 0 0 1 0 0 0 1 -58.23851 -72.5 -1.290199 0.5 1 1
9 0 1 0 0 0 1 0 0 0 1 -57.73851 -78 -10.2902 1 0.5 1
9 0 1 0 0 0 1 0 0 0 1 -59.73851 -20.5 37.2098 1 1 0.5
9 0 1 0 0 0 1 0 0 0 1 -59.73851 -24.5 -81.7902 1 1 0.5
9 0 1 0 0 0 1 0 0 0 1 -59.73851 -32.5 -70.7902 1 1 0.5
9 0 1 0 0 0 1 0 0 0 1 -59.73851 -35.5 -75.7902 1 1 0.5
9 0 1 0 0 0 1 0 0 0 1 -59.73851 -40.5 -66.7902 1 1 0.5
9 0 1 0 0 0 1 0 0 0 1 -59.73851 -44.5 25.2098 1 1 0.5
9 0 1 0 0 0 1 0 0 0 1 -59.73851 -47.5 -66.7902 1 1 0.5
9 0 1 0 0 0 1 0 0 0 1 -59.73851 -49 -65.2902 1 0.5 1
9 0 1 0 0 0 1 0 0 0 1 -59.73851 -52 -62.2902 1 0.5 1
9 0 1 0 0 0 1 0 0 0 1 -59.73851 -53 -61.2902 1 0.5 1
9 0 1 0 0 0 1 0 0 0 1 -59.73851 -54.5 -56.7902 1 1 0.5
9 0 1 0 0 0 1 0 0 0 1 -59.73851 -59.5 12.2098 1 1 0.5
9 0 1 0 0 0 1 0 0 0 1 -59.73851 -64 10.7098 1 0.5 1
9 0 1 0 0 0 1 0 0 0 1 -59.73851 -64.5 -47.7902 1 1 0.5
9 0 1 0 0 0 1 0 0 0 1 -59.73851 -69.5 1.209801 1 1 0.5
9 0 1 0 0 0 1 0 0 0 1 -59.73851 -72 1.709801 1 0.5 1
9 0 1 0 0 0 1 0 0 0 1 -59.73851 -73 -40.2902 1 0.5 1
9 0 1 0 0 0 1 0 0 0 1 -59.73851 -73 -3.290199 1 0.5 1
9 0 1 0 0 0 1 0 0 0 1 -59.73851 -76 -36.2902 1 0.5 1
9 0 1 0 0 0 1 0 0 0 1 -59.73851 -77 -34.2902 1 0.5 1
9 0 1 0 0 0 1 0 0 0 1 -59.73851 -78 -7.290199 1 0.5 1
9 0 1 0 0 0 1 0 0 0 1 -59.73851 -81 -28.2902 1 0.5 1
9 0 1 0 0 0 1 0 0 0 1 -59.73851 -82 -13.2902 1 0.5 1
9 0 1 0 0 0 1 0 0 0 1 -61.23851 -37.5 -73.2902 0.5 1 1
9 0 1 0 0 0 1 0 0 0 1 -61.23851 -36.5 32.2098 0.5 2 0.5
9 0 1 0 0 0 1 0 0 0 1 -61.23851 -38.5 31.2098 0.5 2 0.5
9 0 1 0 0 0 1 0 0 0 1 -61.23851 -44.5 26.7098 0.5 1 1
9 0 1 0 0 0 1 0 0 0 1 -59.73851 -46 -67.7902 2 0.5 0.5
9 0 1 0 0 0 1 0 0 0 1 -59.73851 -49 24.2098 2 0.5 0.5
9 0 1 0 0 0 1 0 0 0 1 -61.23851 -51.5 20.7098 0.5 1 1
9 0 1 0 0 0 1 0 0 0 1 -61.23851 -53.5 -59.2902 0.5 1 1
9 0 1 0 0 0 1 0 0 0 1 -61.23851 -56.5 16.7098 0.5 1 1
9 0 1 0 0 0 1 0 0 0 1 -61.23851 -58.5 14.7098 0.5 1 1
9 0 1 0 0 0 1 0 0 0 1 -61.23851 -61.5 11.7098 0.5 1 1
9 0 1 0 0 0 1 0 0 0 1 -61.23851 -63.5 9.709801 0.5 1 1
9 0 1 0 0 0 1 0 0 0 1 -61.23851 -65.5 7.709801 0.5 1 1
9 0 1 0 0 0 1 0 0 0 1 -61.23851 -67.5 -45.2902 0.5 1 1
9 0 1 0 0 0 1 0 0 0 1 -61.23851 -68.5 3.709801 0.5 1 1
9 0 1 0 0 0 1 0 0 0 1 -61.23851 -73.5 -37.2902 0.5 1 1
9 0 1 0 0 0 1 0 0 0 1 -61.23851 -74 -3.290199 0.5 0.5 2
9 0 1 0 0 0 1 0 0 0 1 -61.23851 -75.5 -35.2902 0.5 1 1
9 0 1 0 0 0 1 0 0 0 1 -61.23851 -80 -12.2902 0.5 0.5 2
9 0 1 0 0 0 1 0 0 0 1 -62.23851 -25.5 37.2098 0.5 2 0.5
9 0 1 0 0 0 1 0 0 0 1 -62.23851 -42.5 -67.7902 0.5 2 0.5
9 0 1 0 0 0 1 0 0 0 1 -62.23851 -76.5 -13.2902 0.5 1 1
9 0 1 0 0 0 1 0 0 0 1 -63.23851 -27.5 -74.7902 0.5 2 0.5
9 0 1 0 0 0 1 0 0 0 1 -63.23851 -34.5 -72.7902 0.5 2 0.5
9 0 1 0 0 0 1 0 0 0 1 -62.73851 -78 -29.2902 1 0.5 1
9 0 1 0 0 0 1 0 0 0 1 -63.23851 -79.5 -14.7902 0.5 2 0.5
9 0 1 0 0 0 1 0 0 0 1 -64.23851 -28.5 -76.2902 0.5 1 1
9 0 1 0 0 0 1 0 0 0 1 -64.23851 -77.5 -26.7902 0.5 2 0.5
9 0 1 0 0 0 1 0 0 0 1 -65.73851 -78 -13.2902 1 0.5 1
9 0 1 0 0 0 1 0 0 0 1 -66.23851 -83 -20.2902 0.5 0.5 2
9 0 1 0 0 0 1 0 0 0 1 -66.73851 -78 -26.2902 1 0.5 1
9 0 1 0 0 0 1 0 0 0 1 -66.73851 -80.5 -23.7902 1 1 0.5
9 0 1 0 0 0 1 0 0 0 1 -73.73851 -75.5 -22.7902 1 1 0.5
9 0 1 0 0 0 1 0 0 0 1 -75.23851 -75 -25.2902 0.5 0.5 2
9 0 1 0 0 0 1 0 0 0 1 -76.23851 -74 -14.2902 0.5 0.5 2
9 0 1 0 0 0 1 0 0 0 1 -76.73851 -72.5 -15.7902 1 1 0.5
9 0 1 0 0 0 1 0 0 0 1 -78.73851 -71.5 -27.7902 1 1 0.5
9 0 1 0 0 0 1 0 0 0 1 -77.73851 -72 -24.7902 2 0.5 0.5
9 0 1 0 0 0 1 0 0 0 1 -79.23851 -72 -14.2902 0.5 0.5 2
9 0 1 0 0 0 1 0 0 0 1 -79.73851 -70.5 -11.7902 1 1 0.5
9 0 1 0 0 0 1 0 0 0 1 -80.73851 -69 -11.2902 1 0.5 1
9 0 1 0 0 0 1 0 0 0 1 -81.73851 -68.5 -28.7902 1 1 0.5
9 0 1 0 0 0 1 0 0 0 1 -81.73851 -68.5 -25.7902 1 1 0.5
9 0 1 0 0 0 1 0 0 0 1 -82.23851 -67.5 -11.7902 0.5 2 0.5
9 0 1 0 0 0 1 0 0 0 1 -84.23851 -64.5 -11.2902 0.5 1 1
9 0 1 0 0 0 1 0 0 0 1 -83.73851 -66.5 -13.7902 1 1 0.5
9 0 1 0 0 0 1 0 0 0 1 -85.23851 -66 -28.2902 0.5 0.5 2
9 0 1 0 0 0 1 0 0 0 1 -85.73851 -64.5 -12.7902 1 1 0.5
9 0 1 0 0 0 1 0 0 0 1 -87.73851 -61 -10.2902 1 0.5 1
9 0 1 0 0 0 1 0 0 0 1 -88.23851 -63 -29.2902 0.5 0.5 2
9 0 1 0 0 0 1 0 0 0 1 -87.73851 -62.5 -8.790199 1 1 0.5
9 0 1 0 0 0 1 0 0 0 1 -89.73851 -60.5 -11.7902 1 1 0.5
9 0 1 0 0 0 1 0 0 0 1 -89.73851 -60.5 -7.790199 1 1 0.5
9 0 1 0 0 0 1 0 0 0 1 -90.73851 -58 -9.290199 1 0.5 1
9 0 1 0 0 0 1 0 0 0 1 -90.73851 -59 -7.290199 1 0.5 1
9 0 1 0 0 0 1 0 0 0 1 -92.23851 -59 -30.2902 0.5 0.5 2
9 0 1 0 0 0 1 0 0 0 1 -92.23851 -60 -9.290199 0.5 0.5 2
9 0 1 0 0 0 1 0 0 0 1 -92.73851 -56 -8.290199 1 0.5 1
9 0 1 0 0 0 1 0 0 0 1 -93.73851 -55 -31.2902 1 0.5 1
9 0 1 0 0 0 1 0 0 0 1 -93.73851 -56.5 -32.7902 1 1 0.5
9 0 1 0 0 0 1 0 0 0 1 -93.73851 -56.5 -29.7902 1 1 0.5
9 0 1 0 0 0 1 0 0 0 1 -95.73851 -54.5 -30.7902 1 1 0.5
9 0 1 0 0 0 1 0 0 0 1 -95.73851 -54.5 -5.790199 1 1 0.5
9 0 1 0 0 0 1 0 0 0 1 -97.73851 -49.5 -6.790199 1 1 0.5
9 0 1 0 0 0 1 0 0 0 1 -97.73851 -51.5 -4.790199 1 1 0.5
9 0 1 0 0 0 1 0 0 0 1 -98.73851 -49.5 -7.790199 1 1 0.5
9 0 1 0 0 0 1 0 0 0 1 -99.73851 -49.5 -8.790199 1 1 0.5
9 0 1 0 0 0 1 0 0 0 1 -100.7385 -49 -4.290199 1 0.5 1
9 0 1 0 0 0 1 0 0 0 1 -102.2385 -45.5 -3.290199 0.5 1 1
9 0 1 0 0 0 1 0 0 0 1 -105.2385 -41.5 -6.290199 0.5 1 1
9 0 1 0 0 0 1 0 0 0 1 -105.7385 -42.5 -1.790199 1 1 0.5
9 0 1 0 0 0 1 0 0 0 1 -104.7385 -44 -7.790199 2 0.5 0.5
9 0 1 0 0 0 1 0 0 0 1 -107.7385 -39 -36.2902 1 0.5 1
9 0 1 0 0 0 1 0 0 0 1 -107.7385 -40.5 -34.7902 1 1 0.5
9 0 1 0 0 0 1 0 0 0 1 -108.2385 -43 -4.290199 0.5 0.5 2
9 0 1 0 0 0 1 0 0 0 1 -109.2385 -33.5 -2.290199 0.5 1 1
9 0 1 0 0 0 1 0 0 0 1 -109.2385 -40 -36.2902 0.5 0.5 2
9 0 1 0 0 0 1 0 0 0 1 -109.7385 -38.5 -34.7902 1 1 0.5
9 0 1 0 0 0 1 0 0 0 1 -109.7385 -38.5 -6.790199 1 1 0.5
9 0 1 0 0 0 1 0 0 0 1 -112.2385 -27.5 -1.290199 0.5 1 1
9 0 1 0 0 0 1 0 0 0 1 -112.2385 -32.5 1.209801 0.5 2 0.5
9 0 1 0 0 0 1 0 0 0 1 -111.7385 -35.5 -35.7902 1 1 0.5
9 0 1 0 0 0 1 0 0 0 1 -114.2385 -26.5 -3.790199 0.5 2 0.5
9 0 1 0 0 0 1 0 0 0 1 -114.7385 -27.5 -4.790199 1 1 0.5
9 0 1 0 0 0 1 0 0 0 1 -115.2385 -30.5 -36.7902 0.5 2 0.5
9 0 1 0 0 0 1 0 0 0 1 -116.2385 -15.5 -2.790199 0.5 2 0.5
9 0 1 0 0 0 1 0 0 0 1 -116.2385 -25.5 -40.7902 0.5 2 0.5
9 0 1 0 0 0 1 0 0 0 1 -115.7385 -29.5 2.209801 1 1 0.5
9 0 1 0 0 0 1 0 0 0 1 -118.2385 -21.5 -37.7902 0.5 2 0.5
9 0 1 0 0 0 1 0 0 0 1 -117.7385 -24.5 3.209801 1 1 0.5
9 0 1 0 0 0 1 0 0 0 1 -118.2385 -27.5 -7.290199 0.5 1 1
9 0 1 0 0 0 1 0 0 0 1 -119.2385 -24.5 -4.790199 0.5 2 0.5
9 0 1 0 0 0 1 0 0 0 1 -119.2385 -29 -1.290199 0.5 0.5 2
9 0 1 0 0 0 1 0 0 0 1 -120.2385 -19.5 -39.2902 0.5 1 1
9 0 1 0 0 0 1 0 0 0 1 -120.2385 -27 -1.290199 0.5 0.5 2
9 0 1 0 0 0 1 0 0 0 1 0.7614899 -27 -0.7901993 0.5 0.5 1.5
9 0 1 0 0 0 1 0 0 0 1 -0.2385101 -19 -40.7902 0.5 1.5 0.5
9 0 1 0 0 0 1 0 0 0 1 -1.23851 -18 -39.7902 0.5 0.5 1.5
9 0 1 0 0 0 1 0 0 0 1 -1.23851 -26 -4.790199 0.5 1.5 0.5
9 0 1 0 0 0 1 0 0 0 1 -1.23851 -29 -11.7902 0.5 0.5 1.5
9 0 1 0 0 0 1 0 0 0 1 -2.23851 -23 -37.7902 0.5 1.5 0.5
9 0 1 0 0 0 1 0 0 0 1 -2.23851 -26 -36.7902 0.5 1.5 0.5
9 0 1 0 0 0 1 0 0 0 1 -2.23851 -29 1.209801 0.5 1.5 0.5
9 0 1 0 0 0 1 0 0 0 1 -2.23851 -32 -1.790199 0.5 0.5 1.5
9 0 1 0 0 0 1 0 0 0 1 -3.23851 -15 3.209801 0.5 1.5 0.5
9 0 1 0 0 0 1 0 0 0 1 -3.23851 -26 -40.7902 0.5 1.5 0.5
9 0 1 0 0 0 1 0 0 0 1 -4.23851 -18 -2.790199 0.5 1.5 0.5
9 0 1 0 0 0 1 0 0 0 1 -4.23851 -29 -36.7902 0.5 1.5 0.5
9 0 1 0 0 0 1 0 0 0 1 -5.23851 -34 -4.790199 0.5 1.5 0.5
9 0 1 0 0 0 1 0 0 0 1 -10.23851 -37 0.2098007 0.5 1.5 0.5
9 0 1 0 0 0 1 0 0 0 1 -14.23851 -41 -35.7902 0.5 0.5 1.5
9 0 1 0 0 0 1 0 0 0 1 -14.23851 -43 -7.790199 1.5 0.5 0.5
9 0 1 0 0 0 1 0 0 0 1 -14.23851 -43 -1.790199 1.5 0.5 0.5
9 0 1 0 0 0 1 0 0 0 1 -17.23851 -43 -4.790199 0.5 0.5 1.5
9 0 1 0 0 0 1 0 0 0 1 -17.23851 -46 -2.790199 1.5 0.5 0.5
9 0 1 0 0 0 1 0 0 0 1 -20.23851 -50 -31.7902 0.5 1.5 0.5
9 0 1 0 0 0 1 0 0 0 1 -26.23851 -55 -31.7902 0.5 0.5 1.5
9 0 1 0 0 0 1 0 0 0 1 -26.23851 -58 -30.7902 0.5 0.5 1.5
9 0 1 0 0 0 1 0 0 0 1 -28.23851 -60 -30.7902 0.5 0.5 1.5
9 0 1 0 0 0 1 0 0 0 1 -29.23851 -60 -7.790199 1.5 0.5 0.5
9 0 1 0 0 0 1 0 0 0 1 -32.23851 -62 -8.790199 0.5 1.5 0.5
9 0 1 0 0 0 1 0 0 0 1 -35.23851 -64 -11.7902 0.5 0.5 1.5
9 0 1 0 0 0 1 0 0 0 1 -38.23851 -69 -25.7902 0.5 1.5 0.5
9 0 1 0 0 0 1 0 0 0 1 -40.23851 -69 -12.7902 0.5 0.5 1.5
9 0 1 0 0 0 1 0 0 0 1 -40.23851 -70 -28.7902 1.5 0.5 0.5
9 0 1 0 0 0 1 0 0 0 1 -41.23851 -71 -24.7902 1.5 0.5 0.5
9 0 1 0 0 0 1 0 0 0 1 -42.23851 -72 -27.7902 1.5 0.5 0.5
9 0 1 0 0 0 1 0 0 0 1 -42.23851 -72 -15.7902 1.5 0.5 0.5
9 0 1 0 0 0 1 0 0 0 1 -44.23851 -74 -23.7902 1.5 0.5 0.5
9 0 1 0 0 0 1 0 0 0 1 -45.23851 -74 -16.7902 1.5 0.5 0.5
9 0 1 0 0 0 1 0 0 0 1 -46.23851 -75 -26.7902 1.5 0.5 0.5
9 0 1 0 0 0 1 0 0 0 1 -49.23851 -79 -16.7902 0.5 0.5 1.5
9 0 1 0 0 0 1 0 0 0 1 -49.23851 -75 -23.7902 1.5 0.5 0.5
9 0 1 0 0 0 1 0 0 0 1 -50.23851 -77 -14.7902 0.5 1.5 0.5
9 0 1 0 0 0 1 0 0 0 1 -52.23851 -74 -12.7902 0.5 0.5 1.5
9 0 1 0 0 0 1 0 0 0 1 -53.23851 -74 -15.7902 0.5 0.5 1.5
9 0 1 0 0 0 1 0 0 0 1 -52.23851 -77 -12.7902 1.5 0.5 0.5
9 0 1 0 0 0 1 0 0 0 1 -52.23851 -78 -25.7902 1.5 0.5 0.5
9 0 1 0 0 0 1 0 0 0 1 -53.23851 -80 -15.7902 1.5 0.5 0.5
9 0 1 0 0 0 1 0 0 0 1 -55.23851 -26 -76.7902 0.5 1.5 0.5
9 0 1 0 0 0 1 0 0 0 1 -54.23851 -79 -25.7902 1.5 0.5 0.5
9 0 1 0 0 0 1 0 0 0 1 -57.23851 -25 -79.7902 0.5 1.5 0.5
9 0 1 0 0 0 1 0 0 0 1 -57.23851 -38 -70.7902 0.5 1.5 0.5
9 0 1 0 0 0 1 0 0 0 1 -58.23851 -24 38.2098 0.5 1.5 0.5
9 0 1 0 0 0 1 0 0 0 1 -58.23851 -32 -71.7902 0.5 1.5 0.5
9 0 1 0 0 0 1 0 0 0 1 -58.23851 -34 -75.7902 0.5 1.5 0.5
9 0 1 0 0 0 1 0 0 0 1 -58.23851 -35 33.2098 0.5 1.5 0.5
9 0 1 0 0 0 1 0 0 0 1 -58.23851 -38 -72.7902 0.5 1.5 0.5
9 0 1 0 0 0 1 0 0 0 1 -58.23851 -38 -69.7902 0.5 1.5 0.5
9 0 1 0 0 0 1 0 0 0 1 -58.23851 -55 -57.7902 0.5 1.5 0.5
9 0 1 0 0 0 1 0 0 0 1 -58.23851 -59 -53.7902 0.5 1.5 0.5
9 0 1 0 0 0 1 0 0 0 1 -57.23851 -77 -8.790199 1.5 0.5 0.5
9 0 1 0 0 0 1 0 0 0 1 -60.23851 -19 -79.7902 0.5 1.5 0.5
9 0 1 0 0 0 1 0 0 0 1 -61.23851 -22 39.2098 0.5 1.5 0.5
9 0 1 0 0 0 1 0 0 0 1 -60.23851 -27 -80.7902 1.5 0.5 0.5
9 0 1 0 0 0 1 0 0 0 1 -60.23851 -34 35.2098 1.5 0.5 0.5
9 0 1 0 0 0 1 0 0 0 1 -60.23851 -37 -74.7902 1.5 0.5 0.5
9 0 1 0 0 0 1 0 0 0 1 -60.23851 -40 -72.7902 1.5 0.5 0.5
9 0 1 0 0 0 1 0 0 0 1 -61.23851 -40 30.2098 0.5 1.5 0.5
9 0 1 0 0 0 1 0 0 0 1 -60.23851 -42 -70.7902 1.5 0.5 0.5
9 0 1 0 0 0 1 0 0 0 1 -60.23851 -42 -65.7902 1.5 0.5 0.5
9 0 1 0 0 0 1 0 0 0 1 -60.23851 -44 -69.7902 1.5 0.5 0.5
9 0 1 0 0 0 1 0 0 0 1 -60.23851 -45 -63.7902 1.5 0.5 0.5
9 0 1 0 0 0 1 0 0 0 1 -60.23851 -52 -58.7902 1.5 0.5 0.5
9 0 1 0 0 0 1 0 0 0 1 -60.23851 -52 22.2098 1.5 0.5 0.5
9 0 1 0 0 0 1 0 0 0 1 -60.23851 -56 -58.7902 1.5 0.5 0.5
9 0 1 0 0 0 1 0 0 0 1 -60.23851 -56 18.2098 1.5 0.5 0.5
9 0 1 0 0 0 1 0 0 0 1 -60.23851 -57 -54.7902 1.5 0.5 0.5
9 0 1 0 0 0 1 0 0 0 1 -60.23851 -57 15.2098 1.5 0.5 0.5
9 0 1 0 0 0 1 0 0 0 1 -60.23851 -58 -56.7902 1.5 0.5 0.5
9 0 1 0 0 0 1 0 0 0 1 -60.23851 -59 -52.7902 1.5 0.5 0.5
9 0 1 0 0 0 1 0 0 0 1 -60.23851 -62 13.2098 1.5 0.5 0.5
9 0 1 0 0 0 1 0 0 0 1 -60.23851 -67 4.209801 1.5 0.5 0.5
9 0 1 0 0 0 1 0 0 0 1 -60.23851 -68 6.209801 1.5 0.5 0.5
9 0 1 0 0 0 1 0 0 0 1 -60.23851 -69 -44.7902 1.5 0.5 0.5
9 0 1 0 0 0 1 0 0 0 1 -60.23851 -71 -42.7902 1.5 0.5 0.5
9 0 1 0 0 0 1 0 0 0 1 -60.23851 -72 -37.7902 1.5 0.5 0.5
9 0 1 0 0 0 1 0 0 0 1 -61.23851 -72 -39.7902 0.5 1.5 0.5
9 0 1 0 0 0 1 0 0 0 1 -61.23851 -75 -5.790199 0.5 0.5 1.5
9 0 1 0 0 0 1 0 0 0 1 -60.23851 -76 -28.7902 1.5 0.5 0.5
9 0 1 0 0 0 1 0 0 0 1 -60.23851 -76 -3.790199 1.5 0.5 0.5
9 0 1 0 0 0 1 0 0 0 1 -60.23851 -80 -29.7902 1.5 0.5 0.5
9 0 1 0 0 0 1 0 0 0 1 -62.23851 -27 -73.7902 0.5 1.5 0.5
9 0 1 0 0 0 1 0 0 0 1 -62.23851 -33 -75.7902 0.5 1.5 0.5
9 0 1 0 0 0 1 0 0 0 1 -62.23851 -48 -63.7902 0.5 1.5 0.5
9 0 1 0 0 0 1 0 0 0 1 -63.23851 -37 -71.7902 0.5 1.5 0.5
9 0 1 0 0 0 1 0 0 0 1 -63.23851 -78 -27.7902 0.5 1.5 0.5
9 0 1 0 0 0 1 0 0 0 1 -64.23851 -22 -76.7902 0.5 1.5 0.5
9 0 1 0 0 0 1 0 0 0 1 -63.23851 -78 -10.7902 1.5 0.5 0.5
9 0 1 0 0 0 1 0 0 0 1 -65.23851 -15 -79.7902 0.5 1.5 0.5
9 0 1 0 0 0 1 0 0 0 1 -67.23851 -80 -15.7902 1.5 0.5 0.5
9 0 1 0 0 0 1 0 0 0 1 -70.23851 -75 -23.7902 1.5 0.5 0.5
9 0 1 0 0 0 1 0 0 0 1 -70.23851 -75 -16.7902 1.5 0.5 0.5
9 0 1 0 0 0 1 0 0 0 1 -71.23851 -77 -24.7902 0.5 1.5 0.5
9 0 1 0 0 0 1 0 0 0 1 -72.23851 -78 -23.7902 0.5 0.5 1.5
9 0 1 0 0 0 1 0 0 0 1 -75.23851 -74 -23.7902 1.5 0.5 0.5
9 0 1 0 0 0 1 0 0 0 1 -77.23851 -71 -13.7902 0.5 0.5 1.5
9 0 1 0 0 0 1 0 0 0 1 -78.23851 -73 -25.7902 0.5 0.5 1.5
9 0 1 0 0 0 1 0 0 0 1 -79.23851 -71 -24.7902 1.5 0.5 0.5
9 0 1 0 0 0 1 0 0 0 1 -82.23851 -67 -27.7902 0.5 0.5 1.5
9 0 1 0 0 0 1 0 0 0 1 -87.23851 -64 -27.7902 0.5 1.5 0.5
9 0 1 0 0 0 1 0 0 0 1 -88.23851 -64 -10.7902 0.5 0.5 1.5
9 0 1 0 0 0 1 0 0 0 1 -90.23851 -62 -9.790199 0.5 0.5 1.5
9 0 1 0 0 0 1 0 0 0 1 -91.23851 -58 -6.790199 0.5 0.5 1.5
9 0 1 0 0 0 1 0 0 0 1 -93.23851 -55 -8.790199 0.5 0.5 1.5
9 0 1 0 0 0 1 0 0 0 1 -94.23851 -58 -8.790199 0.5 0.5 1.5
9 0 1 0 0 0 1 0 0 0 1 -98.23851 -49 -5.790199 0.5 1.5 0.5
9 0 1 0 0 0 1 0 0 0 1 -98.23851 -54 -7.790199 0.5 0.5 1.5
9 0 1 0 0 0 1 0 0 0 1 -100.2385 -51 -32.7902 0.5 0.5 1.5
9 0 1 0 0 0 1 0 0 0 1 -101.2385 -51 -6.790199 0.5 0.5 1.5
9 0 1 0 0 0 1 0 0 0 1 -101.2385 -46 -6.790199 1.5 0.5 0.5
9 0 1 0 0 0 1 0 0 0 1 -103.2385 -44 -1.790199 0.5 0.5 1.5
9 0 1 0 0 0 1 0 0 0 1 -103.2385 -49 -5.790199 0.5 0.5 1.5
9 0 1 0 0 0 1 0 0 0 1 -104.2385 -43 -35.7902 0.5 0.5 1.5
9 0 1 0 0 0 1 0 0 0 1 -104.2385 -46 -34.7902 0.5 0.5 1.5
9 0 1 0 0 0 1 0 0 0 1 -106.2385 -40 -5.790199 0.5 0.5 1.5
9 0 1 0 0 0 1 0 0 0 1 -106.2385 -44 -34.7902 0.5 0.5 1.5
9 0 1 0 0 0 1 0 0 0 1 -108.2385 -39 -0.7901993 0.5 1.5 0.5
9 0 1 0 0 0 1 0 0 0 1 -108.2385 -42 -35.7902 0.5 0.5 1.5
9 0 1 0 0 0 1 0 0 0 1 -111.2385 -32 0.2098007 0.5 1.5 0.5
9 0 1 0 0 0 1 0 0 0 1 -111.2385 -40 -3.790199 0.5 0.5 1.5
9 0 1 0 0 0 1 0 0 0 1 -112.2385 -35 -38.7902 0.5 1.5 0.5
9 0 1 0 0 0 1 0 0 0 1 -111.2385 -38 -0.7901993 1.5 0.5 0.5
9 0 1 0 0 0 1 0 0 0 1 -113.2385 -27 -2.790199 0.5 1.5 0.5
9 0 1 0 0 0 1 0 0 0 1 -113.2385 -33 -5.790199 1.5 0.5 0.5
9 0 1 0 0 0 1 0 0 0 1 -115.2385 -18 -1.790199 0.5 1.5 0.5
9 0 1 0 0 0 1 0 0 0 1 -116.2385 -24 4.209801 0.5 1.5 0.5
9 0 1 0 0 0 1 0 0 0 1 -116.2385 -33 -3.790199 0.5 1.5 0.5
9 0 1 0 0 0 1 0 0 0 1 -117.2385 -21 -41.7902 0.5 1.5 0.5
9 0 1 0 0 0 1 0 0 0 1 -117.2385 -27 -36.7902 0.5 1.5 0.5
9 0 1 0 0 0 1 0 0 0 1 -118.2385 -31 -1.790199 0.5 0.5 1.5
9 0 1 0 0 0 1 0 0 0 1 -119.2385 -16 -41.7902 0.5 1.5 0.5
9 0 1 0 0 0 1 0 0 0 1 -119.2385 -25 2.209801 0.5 1.5 0.5
9 0 1 0 0 0 1 0 0 0 1 -120.2385 -19 0.2098007 0.5 1.5 0.5
9 0 1 0 0 0 1 0 0 0 1 -121.2385 -15 -39.7902 0.5 1.5 0.5
9 0 1 0 0 0 1 0 0 0 1 -121.2385 -15 -4.790199 0.5 1.5 0.5
9 0 1 0 0 0 1 0 0 0 1 -121.2385 -15 4.209801 0.5 1.5 0.5
