9 0 1 0 0 0 1 0 0 0 1 -50 -2 -40 3.35 0.5 3.35
9 0 1 0 0 0 1 0 0 0 1 -30 -2 -40 3.35 0.5 3.35
9 0 1 0 0 0 1 0 0 0 1 -50 -2 -20 3.35 0.5 3.35
9 0 1 0 0 0 1 0 0 0 1 -30 -2 -20 3.35 0.5 3.35
9 0 1 0 0 0 1 0 0 0 1 -50 -2 0 3.35 0.5 3.35
9 0 1 0 0 0 1 0 0 0 1 -30 -2 0 3.35 0.5 3.35
9 0 1 0 0 0 1 0 0 0 1 -50 -2 20 3.35 0.5 3.35
9 0 1 0 0 0 1 0 0 0 1 -30 -2 20 3.35 0.5 3.35
9 0 1 0 0 0 1 0 0 0 1 -10 -2 0 3.35 0.5 3.35
9 0 1 0 0 0 1 0 0 0 1 10 -2 0 3.35 0.5 3.35
9 0 1 0 0 0 1 0 0 0 1 -10 -2 20 3.35 0.5 3.35
9 0 1 0 0 0 1 0 0 0 1 10 -2 20 3.35 0.5 3.35
9 0 1 0 0 0 1 0 0 0 1 -10 -2 -40 3.35 0.5 3.35
9 0 1 0 0 0 1 0 0 0 1 10 -2 -40 3.35 0.5 3.35
9 0 1 0 0 0 1 0 0 0 1 -10 -2 -20 3.35 0.5 3.35
9 0 1 0 0 0 1 0 0 0 1 10 -2 -20 3.35 0.5 3.35
9 0 1 0 0 0 1 0 0 0 1 -50 -2 40 3.35 0.5 3.35
9 0 1 0 0 0 1 0 0 0 1 -30 -2 40 3.35 0.5 3.35
9 0 1 0 0 0 1 0 0 0 1 -10 -2 40 3.35 0.5 3.35
9 0 1 0 0 0 1 0 0 0 1 10 -2 40 3.35 0.5 3.35
9 0 1 0 0 0 1 0 0 0 1 30 -2 -40 3.35 0.5 3.35
9 0 1 0 0 0 1 0 0 0 1 30 -2 -20 3.35 0.5 3.35
9 0 1 0 0 0 1 0 0 0 1 30 -2 0 3.35 0.5 3.35
9 0 1 0 0 0 1 0 0 0 1 30 -2 20 3.35 0.5 3.35
9 0 1 0 0 0 1 0 0 0 1 30 -2 40 3.35 0.5 3.35
9 0 1 0 0 0 1 0 0 0 1 50 -2 40 3.35 0.5 3.35
9 0 1 0 0 0 1 0 0 0 1 50 -2 20 3.35 0.5 3.35
9 0 1 0 0 0 1 0 0 0 1 50 -2 0 3.35 0.5 3.35
9 0 1 0 0 0 1 0 0 0 1 50 -2 -20 3.35 0.5 3.35
9 0 1 0 0 0 1 0 0 0 1 50 -2 -40 3.35 0.5 3.35
9 0 1 0 0 0 1 0 0 0 1 0 2 24 58.5 0.5 24.5
9 0 1 0 0 0 1 0 0 0 1 0 2 -34 58.5 0.5 14.5
9 0 1 0 0 0 1 0 0 0 1 34 2 -10 24.5 0.5 9.5
9 0 1 0 0 0 1 0 0 0 1 -34 2 -10 24.5 0.5 9.5
9 0 1 0 0 0 1 0 0 0 1 0 4.5 -48 58.5 2 0.5
9 0 1 0 0 0 1 0 0 0 1 0 4.5 48 58.5 2 0.5
9 0 1 0 0 0 1 0 0 0 1 58 4.5 0 0.5 2 47.5
9 0 1 0 0 0 1 0 0 0 1 -58 4.5 0 0.5 2 47.5
9 0 1 0 0 0 1 0 0 0 1 8.5 2 -18 1 0.5 1.5
9 0 1 0 0 0 1 0 0 0 1 8.5 2 -2 1 0.5 1.5
9 0 1 0 0 0 1 0 0 0 1 -8 2 -18.5 1.5 0.5 1
9 0 1 0 0 0 1 0 0 0 1 -7 2 -1 2.5 0.5 0.5
9 0 1 0 0 0 1 0 0 0 1 -9 2 -3.5 0.5 0.5 2
9 0 1 0 0 0 1 0 0 0 1 6 2 -19 1.5 0.5 0.5
9 0 1 0 0 0 1 0 0 0 1 6 2 -1 1.5 0.5 0.5
9 0 1 0 0 0 1 0 0 0 1 -9 2 -16 0.5 0.5 1.5
