9 0 1 0 0 0 1 0 0 0 1 48.5 -5 0 6 8.5 7.5
9 0 1 0 0 0 1 0 0 0 1 38.5 -5 0 1 9.5 9.5
9 0 1 0 0 0 1 0 0 0 1 16.5 2 0 18 0.5 8.5
9 0 1 0 0 0 1 0 0 0 1 48.5 -5 -9 6 4.5 1.5
9 0 1 0 0 0 1 0 0 0 1 48.5 -5 9 6 4.5 1.5
9 0 1 0 0 0 1 0 0 0 1 48.5 -14.5 0 6 1 4.5
9 0 1 0 0 0 1 0 0 0 1 48.5 5 0 6 1.5 2.5
9 0 1 0 0 0 1 0 0 0 1 0 -8.5 0 1.5 7 1.5
9 0 1 0 0 0 1 0 0 0 1 30.5 -12 0 4 0.5 7.5
9 0 1 0 0 0 1 0 0 0 1 38.5 6 0 1 1.5 5.5
9 0 1 0 0 0 1 0 0 0 1 38.5 -5 -11 1 5.5 1.5
9 0 1 0 0 0 1 0 0 0 1 38.5 -5 11 1 5.5 1.5
9 0 1 0 0 0 1 0 0 0 1 38.5 -16 0 1 1.5 5.5
9 0 1 0 0 0 1 0 0 0 1 48.5 -5 -11 6 2.5 0.5
9 0 1 0 0 0 1 0 0 0 1 48.5 -5 11 6 2.5 0.5
9 0 1 0 0 0 1 0 0 0 1 48.5 -16 0 6 0.5 2.5
9 0 1 0 0 0 1 0 0 0 1 -4 2 0 2.5 0.5 5.5
9 0 1 0 0 0 1 0 0 0 1 48.5 4.5 -3.5 6 1 1
9 0 1 0 0 0 1 0 0 0 1 48.5 4.5 3.5 6 1 1
9 0 1 0 0 0 1 0 0 0 1 48.5 0.5 -8.5 6 1 1
9 0 1 0 0 0 1 0 0 0 1 48.5 0.5 8.5 6 1 1
9 0 1 0 0 0 1 0 0 0 1 48.5 -10.5 -8.5 6 1 1
9 0 1 0 0 0 1 0 0 0 1 48.5 -10.5 8.5 6 1 1
9 0 1 0 0 0 1 0 0 0 1 48.5 4 -5.5 6 0.5 1
9 0 1 0 0 0 1 0 0 0 1 48.5 4 5.5 6 0.5 1
9 0 1 0 0 0 1 0 0 0 1 48.5 -14 -5.5 6 0.5 1
9 0 1 0 0 0 1 0 0 0 1 48.5 -14 5.5 6 0.5 1
9 0 1 0 0 0 1 0 0 0 1 2 -8.5 0 0.5 7 0.5
9 0 1 0 0 0 1 0 0 0 1 0 -8.5 -2 0.5 7 0.5
9 0 1 0 0 0 1 0 0 0 1 0 -8.5 2 0.5 7 0.5
9 0 1 0 0 0 1 0 0 0 1 -2 -8.5 0 0.5 7 0.5
9 0 1 0 0 0 1 0 0 0 1 48.5 2 -8 6 0.5 0.5
9 0 1 0 0 0 1 0 0 0 1 48.5 2 8 6 0.5 0.5
9 0 1 0 0 0 1 0 0 0 1 48.5 -12 -8 6 0.5 0.5
9 0 1 0 0 0 1 0 0 0 1 48.5 -12 8 6 0.5 0.5
9 0 1 0 0 0 1 0 0 0 1 26 -12 0 0.5 0.5 5.5
9 0 1 0 0 0 1 0 0 0 1 38.5 8 0 1 0.5 2.5
9 0 1 0 0 0 1 0 0 0 1 38.5 -5 -13 1 2.5 0.5
9 0 1 0 0 0 1 0 0 0 1 38.5 -5 13 1 2.5 0.5
9 0 1 0 0 0 1 0 0 0 1 38.5 -18 0 1 0.5 2.5
9 0 1 0 0 0 1 0 0 0 1 31 -12 -8 3.5 0.5 0.5
9 0 1 0 0 0 1 0 0 0 1 31 -12 8 3.5 0.5 0.5
9 0 1 0 0 0 1 0 0 0 1 -7 2 0 0.5 0.5 3.5
9 0 1 0 0 0 1 0 0 0 1 38.5 5 -7 1 0.5 1.5
9 0 1 0 0 0 1 0 0 0 1 38.5 5 7 1 0.5 1.5
9 0 1 0 0 0 1 0 0 0 1 38.5 2 -10 1 1.5 0.5
9 0 1 0 0 0 1 0 0 0 1 38.5 2 10 1 1.5 0.5
9 0 1 0 0 0 1 0 0 0 1 38.5 -12 -10 1 1.5 0.5
9 0 1 0 0 0 1 0 0 0 1 38.5 -12 10 1 1.5 0.5
9 0 1 0 0 0 1 0 0 0 1 38.5 -15 -7 1 0.5 1.5
9 0 1 0 0 0 1 0 0 0 1 38.5 -15 7 1 0.5 1.5
9 0 1 0 0 0 1 0 0 0 1 -2.5 2 -6.5 1 0.5 1
9 0 1 0 0 0 1 0 0 0 1 -2.5 2 6.5 1 0.5 1
9 0 1 0 0 0 1 0 0 0 1 3 -14 0 0.5 0.5 1.5
9 0 1 0 0 0 1 0 0 0 1 0 -14 -3 1.5 0.5 0.5
9 0 1 0 0 0 1 0 0 0 1 0 -14 3 1.5 0.5 0.5
9 0 1 0 0 0 1 0 0 0 1 -3 -14 0 0.5 0.5 1.5
9 0 1 0 0 0 1 0 0 0 1 -8 2 0 0.5 0.5 1.5
