9 0 1 0 0 0 1 0 0 0 1 -100 0.1999998 -0.01539993 76.5 1 1.5
9 0 1 0 0 0 1 0 0 0 1 -99.5 1.7 -0.01539993 23 0.5 1.5
9 0 1 0 0 0 1 0 0 0 1 -108 -1.3 -0.01539993 68.5 0.5 0.5
9 0 1 0 0 0 1 0 0 0 1 -11 -0.3000002 -0.01539993 7.5 1.5 1.5
9 0 1 0 0 0 1 0 0 0 1 -191 -0.3000002 -0.01539993 7.5 1.5 1.5
9 0 1 0 0 0 1 0 0 0 1 -110.5 -0.3000002 -2.0154 36 0.5 0.5
9 0 1 0 0 0 1 0 0 0 1 -95 -0.3000002 1.9846 33.5 0.5 0.5
9 0 1 0 0 0 1 0 0 0 1 -71.5 -1.3 -1.0154 32 0.5 0.5
9 0 1 0 0 0 1 0 0 0 1 -127.5 -1.3 0.9846001 32 0.5 0.5
9 0 1 0 0 0 1 0 0 0 1 -145.5 -1.3 -1.0154 31 0.5 0.5
9 0 1 0 0 0 1 0 0 0 1 -54 -1.3 0.9846001 30.5 0.5 0.5
9 0 1 0 0 0 1 0 0 0 1 -47.5 -0.3000002 -2.0154 24 0.5 0.5
9 0 1 0 0 0 1 0 0 0 1 -154 -0.3000002 1.9846 22.5 0.5 0.5
9 0 1 0 0 0 1 0 0 0 1 -9 1.7 -0.01539993 5.5 0.5 1.5
9 0 1 0 0 0 1 0 0 0 1 -189 1.7 -0.01539993 5.5 0.5 1.5
9 0 1 0 0 0 1 0 0 0 1 -153.5 1.7 0.4846001 8 0.5 1
9 0 1 0 0 0 1 0 0 0 1 -38.5 -0.3000002 1.9846 15 0.5 0.5
9 0 1 0 0 0 1 0 0 0 1 -75.5 0.6999998 1.9846 14 0.5 0.5
9 0 1 0 0 0 1 0 0 0 1 -52 1.7 -1.0154 13.5 0.5 0.5
9 0 1 0 0 0 1 0 0 0 1 -163 -0.3000002 -2.0154 13.5 0.5 0.5
9 0 1 0 0 0 1 0 0 0 1 -36.5 1.7 -0.01539993 13 0.5 0.5
9 0 1 0 0 0 1 0 0 0 1 -125.5 0.6999998 -2.0154 13 0.5 0.5
9 0 1 0 0 0 1 0 0 0 1 -134 1.7 -0.5153999 6.5 0.5 1
9 0 1 0 0 0 1 0 0 0 1 -2.5 -0.3000002 -0.01539993 1 1.5 1.5
9 0 1 0 0 0 1 0 0 0 1 -63 1.7 0.4846001 4.5 0.5 1
9 0 1 0 0 0 1 0 0 0 1 -182.5 -0.3000002 -0.01539993 1 1.5 1.5
9 0 1 0 0 0 1 0 0 0 1 -10 -0.3000002 -2.0154 8.5 0.5 0.5
9 0 1 0 0 0 1 0 0 0 1 -190 -0.3000002 -2.0154 8.5 0.5 0.5
9 0 1 0 0 0 1 0 0 0 1 -10.5 -0.3000002 1.9846 8 0.5 0.5
9 0 1 0 0 0 1 0 0 0 1 -31.5 -1.3 -0.01539993 8 0.5 0.5
9 0 1 0 0 0 1 0 0 0 1 -190.5 -0.3000002 1.9846 8 0.5 0.5
9 0 1 0 0 0 1 0 0 0 1 -169 1.7 -0.01539993 7.5 0.5 0.5
9 0 1 0 0 0 1 0 0 0 1 -101 0.6999998 -2.0154 6.5 0.5 0.5
9 0 1 0 0 0 1 0 0 0 1 -73.5 1.7 0.4846001 3 0.5 1
9 0 1 0 0 0 1 0 0 0 1 -99.5 0.6999998 1.9846 6 0.5 0.5
9 0 1 0 0 0 1 0 0 0 1 -139.5 1.7 0.9846001 6 0.5 0.5
9 0 1 0 0 0 1 0 0 0 1 -41 0.6999998 1.9846 4.5 0.5 0.5
9 0 1 0 0 0 1 0 0 0 1 -54 0.6999998 1.9846 4.5 0.5 0.5
9 0 1 0 0 0 1 0 0 0 1 -6 0.6999998 1.9846 3.5 0.5 0.5
9 0 1 0 0 0 1 0 0 0 1 -186 0.6999998 1.9846 3.5 0.5 0.5
9 0 1 0 0 0 1 0 0 0 1 -16 1.7 0.4846001 1.5 0.5 1
9 0 1 0 0 0 1 0 0 0 1 -27.5 -2.3 -0.01539993 3 0.5 0.5
9 0 1 0 0 0 1 0 0 0 1 -55.5 1.7 -0.01539993 3 0.5 0.5
9 0 1 0 0 0 1 0 0 0 1 -173.5 -1.3 0.9846001 3 0.5 0.5
9 0 1 0 0 0 1 0 0 0 1 -196 1.7 0.4846001 1.5 0.5 1
9 0 1 0 0 0 1 0 0 0 1 -26 -1.3 -1.0154 2.5 0.5 0.5
9 0 1 0 0 0 1 0 0 0 1 -45 1.7 0.9846001 2.5 0.5 0.5
9 0 1 0 0 0 1 0 0 0 1 -59 -0.3000002 1.9846 2.5 0.5 0.5
9 0 1 0 0 0 1 0 0 0 1 -125 1.7 -1.0154 2.5 0.5 0.5
9 0 1 0 0 0 1 0 0 0 1 -12.5 0.6999998 -2.0154 2 0.5 0.5
9 0 1 0 0 0 1 0 0 0 1 -34.5 -1.3 -1.0154 2 0.5 0.5
9 0 1 0 0 0 1 0 0 0 1 -90.5 -1.3 0.9846001 2 0.5 0.5
9 0 1 0 0 0 1 0 0 0 1 -109.5 -1.3 -1.0154 2 0.5 0.5
9 0 1 0 0 0 1 0 0 0 1 -165.5 -1.3 0.9846001 2 0.5 0.5
9 0 1 0 0 0 1 0 0 0 1 -192.5 0.6999998 -2.0154 2 0.5 0.5
9 0 1 0 0 0 1 0 0 0 1 -69 1.7 0.9846001 1.5 0.5 0.5
