9 0 1 0 0 0 1 0 0 0 1 0 0.375 -17.25 5.5 8 4
9 0 1 0 0 0 1 0 0 0 1 0 -1.125 -23.25 2.5 11.5 2
9 0 1 0 0 0 1 0 0 0 1 -4.5 0.375 -23.25 2 4 2
9 0 1 0 0 0 1 0 0 0 1 0 -8.625 -18.75 5.5 1 2.5
9 0 1 0 0 0 1 0 0 0 1 -6 -0.125 -17.25 0.5 6.5 4
9 0 1 0 0 0 1 0 0 0 1 9 -12.125 -22.75 6.5 0.5 3.5
9 0 1 0 0 0 1 0 0 0 1 -9 -12.125 -22.75 6.5 0.5 3.5
9 0 1 0 0 0 1 0 0 0 1 7 0.375 -19.75 1.5 3 2.5
9 0 1 0 0 0 1 0 0 0 1 0 -0.125 -25.75 4.5 4.5 0.5
9 0 1 0 0 0 1 0 0 0 1 4.5 0.375 -23.75 2 4 1.5
9 0 1 0 0 0 1 0 0 0 1 -7.5 -0.125 -19.75 1 3.5 2.5
9 0 1 0 0 0 1 0 0 0 1 4 -0.625 -21.75 1.5 11 0.5
9 0 1 0 0 0 1 0 0 0 1 0 9.375 -19.75 5.5 1 1.5
9 0 1 0 0 0 1 0 0 0 1 6.5 0.375 -15.25 1 3 2
9 0 1 0 0 0 1 0 0 0 1 0 -10.625 -20.25 5.5 1 1
9 0 1 0 0 0 1 0 0 0 1 0 8.875 -16.75 6.5 0.5 1.5
9 0 1 0 0 0 1 0 0 0 1 6 -4.625 -17.75 0.5 2 4.5
9 0 1 0 0 0 1 0 0 0 1 -3.5 -7.625 -22.25 1 4 1
9 0 1 0 0 0 1 0 0 0 1 6 5.875 -16.25 0.5 2.5 3
9 0 1 0 0 0 1 0 0 0 1 0 -12.125 -26.75 13.5 0.5 0.5
9 0 1 0 0 0 1 0 0 0 1 0 -8.125 -15.25 6.5 0.5 1
9 0 1 0 0 0 1 0 0 0 1 -3.5 7.375 -22.25 1 3 1
9 0 1 0 0 0 1 0 0 0 1 -7 0.375 -15.25 0.5 3 2
9 0 1 0 0 0 1 0 0 0 1 3.5 -7.625 -22.75 1 4 0.5
9 0 1 0 0 0 1 0 0 0 1 -17.5 -12.125 -21.25 2 0.5 2
9 0 1 0 0 0 1 0 0 0 1 9 -0.125 -20.25 0.5 1.5 2
9 0 1 0 0 0 1 0 0 0 1 7 0.375 -23.75 0.5 2 1.5
9 0 1 0 0 0 1 0 0 0 1 7 -3.625 -19.25 0.5 1 3
9 0 1 0 0 0 1 0 0 0 1 6.5 4.375 -20.75 1 1 1.5
9 0 1 0 0 0 1 0 0 0 1 3.5 7.375 -22.75 1 3 0.5
9 0 1 0 0 0 1 0 0 0 1 -6 7.375 -16.25 0.5 1 3
9 0 1 0 0 0 1 0 0 0 1 -7 0.375 -23.75 0.5 2 1.5
9 0 1 0 0 0 1 0 0 0 1 -9 -0.125 -20.25 0.5 1.5 2
9 0 1 0 0 0 1 0 0 0 1 5.5 -0.125 -25.75 1 2.5 0.5
9 0 1 0 0 0 1 0 0 0 1 0 5.375 -25.75 2.5 1 0.5
9 0 1 0 0 0 1 0 0 0 1 0 -12.125 -20.25 2.5 0.5 1
9 0 1 0 0 0 1 0 0 0 1 -5.5 -0.125 -25.75 1 2.5 0.5
9 0 1 0 0 0 1 0 0 0 1 6 -8.125 -17.75 0.5 1.5 1.5
9 0 1 0 0 0 1 0 0 0 1 -6 -8.125 -17.75 0.5 1.5 1.5
9 0 1 0 0 0 1 0 0 0 1 16.5 -12.125 -21.25 1 0.5 2
9 0 1 0 0 0 1 0 0 0 1 3.5 -4.625 -24.25 1 1 1
9 0 1 0 0 0 1 0 0 0 1 -3 -7.625 -23.75 0.5 4 0.5
9 0 1 0 0 0 1 0 0 0 1 -5 -7.625 -21.75 0.5 4 0.5
9 0 1 0 0 0 1 0 0 0 1 -7 4.375 -20.25 0.5 1 2
9 0 1 0 0 0 1 0 0 0 1 -7 -4.625 -20.25 0.5 1 2
9 0 1 0 0 0 1 0 0 0 1 0 -5.125 -25.75 3.5 0.5 0.5
9 0 1 0 0 0 1 0 0 0 1 15.5 -0.125 8.25 1 1.5 0.5
9 0 1 0 0 0 1 0 0 0 1 3 7.375 -23.75 0.5 3 0.5
9 0 1 0 0 0 1 0 0 0 1 3 -8.625 -23.75 0.5 3 0.5
9 0 1 0 0 0 1 0 0 0 1 -3 7.375 -23.75 0.5 3 0.5
9 0 1 0 0 0 1 0 0 0 1 -5 7.375 -21.75 0.5 3 0.5
9 0 1 0 0 0 1 0 0 0 1 -15.5 -0.125 8.25 1 1.5 0.5
9 0 1 0 0 0 1 0 0 0 1 8 -0.125 -22.75 0.5 2.5 0.5
9 0 1 0 0 0 1 0 0 0 1 8 -0.125 -16.75 0.5 2.5 0.5
9 0 1 0 0 0 1 0 0 0 1 8 -3.125 -19.75 0.5 0.5 2.5
9 0 1 0 0 0 1 0 0 0 1 0 -12.125 -25.75 2.5 0.5 0.5
9 0 1 0 0 0 1 0 0 0 1 -8 -0.125 -22.75 0.5 2.5 0.5
9 0 1 0 0 0 1 0 0 0 1 -8 -0.125 -16.75 0.5 2.5 0.5
9 0 1 0 0 0 1 0 0 0 1 7 -2.625 -23.25 0.5 1 1
9 0 1 0 0 0 1 0 0 0 1 7 -5.125 -20.25 0.5 0.5 2
9 0 1 0 0 0 1 0 0 0 1 5.5 -4.125 -23.25 1 0.5 1
9 0 1 0 0 0 1 0 0 0 1 -3.5 -4.625 -24.75 1 1 0.5
9 0 1 0 0 0 1 0 0 0 1 -4.5 -4.625 -23.75 1 1 0.5
9 0 1 0 0 0 1 0 0 0 1 -5.5 -4.625 -22.75 1 1 0.5
9 0 1 0 0 0 1 0 0 0 1 -7 -2.625 -23.25 0.5 1 1
9 0 1 0 0 0 1 0 0 0 1 8 -0.125 -14.75 0.5 0.5 1.5
9 0 1 0 0 0 1 0 0 0 1 7 3.875 -17.75 0.5 0.5 1.5
9 0 1 0 0 0 1 0 0 0 1 6 5.875 -20.75 0.5 0.5 1.5
9 0 1 0 0 0 1 0 0 0 1 6 -7.125 -14.75 0.5 0.5 1.5
9 0 1 0 0 0 1 0 0 0 1 0 -6.125 -25.75 1.5 0.5 0.5
9 0 1 0 0 0 1 0 0 0 1 -6 -5.125 -21.75 0.5 1.5 0.5
9 0 1 0 0 0 1 0 0 0 1 -6 -7.125 -14.75 0.5 0.5 1.5
9 0 1 0 0 0 1 0 0 0 1 -8 -0.125 -14.75 0.5 0.5 1.5
