9 0 1 0 0 0 1 0 0 0 1 30 -50 130 3.35 0.5 3.35
9 0 1 0 0 0 1 0 0 0 1 10 -50 130 3.35 0.5 3.35
9 0 1 0 0 0 1 0 0 0 1 -10 -50 130 3.35 0.5 3.35
9 0 1 0 0 0 1 0 0 0 1 -30 -50 130 3.35 0.5 3.35
9 0 1 0 0 0 1 0 0 0 1 30 -50 110 3.35 0.5 3.35
9 0 1 0 0 0 1 0 0 0 1 -30 -50 110 3.35 0.5 3.35
9 0 1 0 0 0 1 0 0 0 1 30 -50 90 3.35 0.5 3.35
9 0 1 0 0 0 1 0 0 0 1 -30 -50 90 3.35 0.5 3.35
9 0 1 0 0 0 1 0 0 0 1 30 -50 10 3.35 0.5 3.35
9 0 1 0 0 0 1 0 0 0 1 -30 -50 10 3.35 0.5 3.35
9 0 1 0 0 0 1 0 0 0 1 30 -50 -10 3.35 0.5 3.35
9 0 1 0 0 0 1 0 0 0 1 10 -50 -10 3.35 0.5 3.35
9 0 1 0 0 0 1 0 0 0 1 -10 -50 -10 3.35 0.5 3.35
9 0 1 0 0 0 1 0 0 0 1 -30 -50 -10 3.35 0.5 3.35
9 0 1 0 0 0 1 0 0 0 1 30 -50 -30 3.35 0.5 3.35
9 0 1 0 0 0 1 0 0 0 1 10 -50 -30 3.35 0.5 3.35
9 0 1 0 0 0 1 0 0 0 1 -10 -50 -30 3.35 0.5 3.35
9 0 1 0 0 0 1 0 0 0 1 -30 -50 -30 3.35 0.5 3.35
9 0 1 0 0 0 1 0 0 0 1 30 -50 -50 3.35 0.5 3.35
9 0 1 0 0 0 1 0 0 0 1 10 -50 -50 3.35 0.5 3.35
9 0 1 0 0 0 1 0 0 0 1 -10 -50 -50 3.35 0.5 3.35
9 0 1 0 0 0 1 0 0 0 1 -30 -50 -50 3.35 0.5 3.35
9 0 1 0 0 0 1 0 0 0 1 30 -50 -70 3.35 0.5 3.35
9 0 1 0 0 0 1 0 0 0 1 10 -50 -70 3.35 0.5 3.35
9 0 1 0 0 0 1 0 0 0 1 -10 -50 -70 3.35 0.5 3.35
9 0 1 0 0 0 1 0 0 0 1 -30 -50 -70 3.35 0.5 3.35
9 0 1 0 0 0 1 0 0 0 1 30 -50 -90 3.35 0.5 3.35
9 0 1 0 0 0 1 0 0 0 1 10 -50 -90 3.35 0.5 3.35
9 0 1 0 0 0 1 0 0 0 1 -10 -50 -90 3.35 0.5 3.35
9 0 1 0 0 0 1 0 0 0 1 -30 -50 -90 3.35 0.5 3.35
9 0 1 0 0 0 1 0 0 0 1 30 -50 -110 3.35 0.5 3.35
9 0 1 0 0 0 1 0 0 0 1 10 -50 -110 3.35 0.5 3.35
9 0 1 0 0 0 1 0 0 0 1 -10 -50 -110 3.35 0.5 3.35
9 0 1 0 0 0 1 0 0 0 1 -30 -50 -110 3.35 0.5 3.35
9 0 1 0 0 0 1 0 0 0 1 30 -50 -130 3.35 0.5 3.35
9 0 1 0 0 0 1 0 0 0 1 10 -50 -130 3.35 0.5 3.35
9 0 1 0 0 0 1 0 0 0 1 -10 -50 -130 3.35 0.5 3.35
9 0 1 0 0 0 1 0 0 0 1 -30 -50 -130 3.35 0.5 3.35
9 0 1 0 0 0 1 0 0 0 1 0 1 0 35.5 35.5 135.5
9 0 1 0 0 0 1 0 0 0 1 0 -39 -68.5 35.5 4.5 67
9 0 1 0 0 0 1 0 0 0 1 0 41 0 37.5 1.5 137.5
9 0 1 0 0 0 1 0 0 0 1 0 -37.5 74 35.5 3 61.5
9 0 1 0 0 0 1 0 0 0 1 20 -48 60 12.5 4.5 12.5
9 0 1 0 0 0 1 0 0 0 1 -20 -48 60 12.5 4.5 12.5
9 0 1 0 0 0 1 0 0 0 1 0 -45 100 18.5 1.5 18.5
9 0 1 0 0 0 1 0 0 0 1 24.5 -37.5 5.5 11 3 7
9 0 1 0 0 0 1 0 0 0 1 -24.5 -37.5 5.5 11 3 7
9 0 1 0 0 0 1 0 0 0 1 38 44 0 0.5 2.5 138.5
9 0 1 0 0 0 1 0 0 0 1 -38 44 0 0.5 2.5 138.5
9 0 1 0 0 0 1 0 0 0 1 0 -45 16 18.5 1.5 2.5
9 0 1 0 0 0 1 0 0 0 1 0 44 -138 37.5 2.5 0.5
9 0 1 0 0 0 1 0 0 0 1 0 44 138 37.5 2.5 0.5
9 0 1 0 0 0 1 0 0 0 1 16 -45 7.5 2.5 1.5 6
9 0 1 0 0 0 1 0 0 0 1 -16 -45 7.5 2.5 1.5 6
9 0 1 0 0 0 1 0 0 0 1 10 -50 90 3.5 0.5 2.5
9 0 1 0 0 0 1 0 0 0 1 10 -50 110 3.5 0.5 2.5
9 0 1 0 0 0 1 0 0 0 1 -10 -50 90 3.5 0.5 2.5
9 0 1 0 0 0 1 0 0 0 1 -10 -50 110 3.5 0.5 2.5
9 0 1 0 0 0 1 0 0 0 1 10 -50 87 2.5 0.5 0.5
9 0 1 0 0 0 1 0 0 0 1 10 -50 93 2.5 0.5 0.5
9 0 1 0 0 0 1 0 0 0 1 10 -50 107 2.5 0.5 0.5
9 0 1 0 0 0 1 0 0 0 1 10 -50 113 2.5 0.5 0.5
9 0 1 0 0 0 1 0 0 0 1 -10 -50 87 2.5 0.5 0.5
9 0 1 0 0 0 1 0 0 0 1 -10 -50 93 2.5 0.5 0.5
9 0 1 0 0 0 1 0 0 0 1 -10 -50 107 2.5 0.5 0.5
9 0 1 0 0 0 1 0 0 0 1 -10 -50 113 2.5 0.5 0.5
