9 0 1 0 0 0 1 0 0 0 1 0 -31 0 7.5 1.5 8.5
9 0 1 0 0 0 1 0 0 0 1 -13 -18 0 1.5 7.5 8.5
9 0 1 0 0 0 1 0 0 0 1 13.5 -18 0 2 5.5 8.5
9 0 1 0 0 0 1 0 0 0 1 0 -4.5 0 5.5 2 8.5
9 0 1 0 0 0 1 0 0 0 1 12 -10.5 0 1.5 2 8.5
9 0 1 0 0 0 1 0 0 0 1 8.5 -7 0 2 1.5 8.5
9 0 1 0 0 0 1 0 0 0 1 0 -33 0 5.5 0.5 8.5
9 0 1 0 0 0 1 0 0 0 1 -15 -18 0 0.5 5.5 8.5
9 0 1 0 0 0 1 0 0 0 1 9 -28.5 0 2.5 1 8.5
9 0 1 0 0 0 1 0 0 0 1 -10.5 -9 0 1 2.5 8.5
9 0 1 0 0 0 1 0 0 0 1 12.5 -25.5 0 1 2 8.5
9 0 1 0 0 0 1 0 0 0 1 -7.5 -5.5 0 2 1 8.5
9 0 1 0 0 0 1 0 0 0 1 -10.5 -20.5 0 1 9 1.5
9 0 1 0 0 0 1 0 0 0 1 -8.5 -30 0 1 1.5 8.5
9 0 1 0 0 0 1 0 0 0 1 -1.5 -7.5 0 8 1 1.5
9 0 1 0 0 0 1 0 0 0 1 10.5 -20 0 1 7.5 1.5
9 0 1 0 0 0 1 0 0 0 1 16 -18 0 0.5 2.5 8.5
9 0 1 0 0 0 1 0 0 0 1 0 -2 0 2.5 0.5 8.5
9 0 1 0 0 0 1 0 0 0 1 0 -34 0 2.5 0.5 8.5
9 0 1 0 0 0 1 0 0 0 1 -16 -18 0 0.5 2.5 8.5
9 0 1 0 0 0 1 0 0 0 1 -0.5 -28.5 0 7 1 1.5
9 0 1 0 0 0 1 0 0 0 1 -10.5 -27 -5 1 2.5 3.5
9 0 1 0 0 0 1 0 0 0 1 -10.5 -27 5 1 2.5 3.5
9 0 1 0 0 0 1 0 0 0 1 8.5 -30.5 0 1 1 8.5
9 0 1 0 0 0 1 0 0 0 1 7.5 -5 0 2 0.5 8.5
9 0 1 0 0 0 1 0 0 0 1 -12.5 -9.5 0 1 1 8.5
9 0 1 0 0 0 1 0 0 0 1 -12.5 -26.5 0 1 1 8.5
9 0 1 0 0 0 1 0 0 0 1 10 -10 0 0.5 1.5 8.5
9 0 1 0 0 0 1 0 0 0 1 10.5 -26 -5 1 1.5 3.5
9 0 1 0 0 0 1 0 0 0 1 10.5 -26 5 1 1.5 3.5
9 0 1 0 0 0 1 0 0 0 1 -8 -7.5 -5 1.5 1 3.5
9 0 1 0 0 0 1 0 0 0 1 -8 -7.5 5 1.5 1 3.5
9 0 1 0 0 0 1 0 0 0 1 14 -11.5 0 0.5 1 8.5
9 0 1 0 0 0 1 0 0 0 1 14 -24.5 0 0.5 1 8.5
9 0 1 0 0 0 1 0 0 0 1 11.5 -8 0 1 0.5 8.5
9 0 1 0 0 0 1 0 0 0 1 6.5 -4 0 1 0.5 8.5
9 0 1 0 0 0 1 0 0 0 1 -6.5 -4 0 1 0.5 8.5
9 0 1 0 0 0 1 0 0 0 1 -8.5 -27 0.5 1 1.5 2
9 0 1 0 0 0 1 0 0 0 1 -6 -29 -5 1.5 0.5 3.5
9 0 1 0 0 0 1 0 0 0 1 -6 -29 5 1.5 0.5 3.5
9 0 1 0 0 0 1 0 0 0 1 -8 -28 -5 1.5 0.5 3.5
9 0 1 0 0 0 1 0 0 0 1 8.5 -9.5 0 1 1 2.5
9 0 1 0 0 0 1 0 0 0 1 8.5 -26 0 1 1.5 1.5
9 0 1 0 0 0 1 0 0 0 1 -8 -9.5 0 1.5 1 1.5
9 0 1 0 0 0 1 0 0 0 1 -8 -28 5.5 1.5 0.5 3
9 0 1 0 0 0 1 0 0 0 1 12 -28 0 0.5 0.5 8.5
9 0 1 0 0 0 1 0 0 0 1 11 -7 0 0.5 0.5 8.5
9 0 1 0 0 0 1 0 0 0 1 10 -30 0 0.5 0.5 8.5
9 0 1 0 0 0 1 0 0 0 1 6 -6 0 0.5 0.5 8.5
9 0 1 0 0 0 1 0 0 0 1 -10 -6 0 0.5 0.5 8.5
9 0 1 0 0 0 1 0 0 0 1 -10 -30 0 0.5 0.5 8.5
9 0 1 0 0 0 1 0 0 0 1 -12 -8 0 0.5 0.5 8.5
9 0 1 0 0 0 1 0 0 0 1 -12 -28 0 0.5 0.5 8.5
9 0 1 0 0 0 1 0 0 0 1 11 -23.5 -5 0.5 1 3.5
9 0 1 0 0 0 1 0 0 0 1 11 -23.5 5 0.5 1 3.5
9 0 1 0 0 0 1 0 0 0 1 7 -18 5.5 0.5 3.5 1
9 0 1 0 0 0 1 0 0 0 1 5.5 -7 -5 1 0.5 3.5
9 0 1 0 0 0 1 0 0 0 1 5.5 -7 5 1 0.5 3.5
9 0 1 0 0 0 1 0 0 0 1 5.5 -29 -5 1 0.5 3.5
9 0 1 0 0 0 1 0 0 0 1 5.5 -29 5 1 0.5 3.5
9 0 1 0 0 0 1 0 0 0 1 0 -11 5.5 3.5 0.5 1
9 0 1 0 0 0 1 0 0 0 1 0 -25 5.5 3.5 0.5 1
9 0 1 0 0 0 1 0 0 0 1 -5.5 -7 -5 1 0.5 3.5
9 0 1 0 0 0 1 0 0 0 1 -5.5 -7 5 1 0.5 3.5
9 0 1 0 0 0 1 0 0 0 1 -7 -18 5.5 0.5 3.5 1
9 0 1 0 0 0 1 0 0 0 1 -11 -12.5 -5 0.5 1 3.5
9 0 1 0 0 0 1 0 0 0 1 -11 -12.5 5 0.5 1 3.5
9 0 1 0 0 0 1 0 0 0 1 -11 -23.5 -5 0.5 1 3.5
9 0 1 0 0 0 1 0 0 0 1 -11 -23.5 5 0.5 1 3.5
9 0 1 0 0 0 1 0 0 0 1 11 -17.5 -2 0.5 5 0.5
9 0 1 0 0 0 1 0 0 0 1 11 -17.5 2 0.5 5 0.5
9 0 1 0 0 0 1 0 0 0 1 6 -27 0 1.5 0.5 1.5
9 0 1 0 0 0 1 0 0 0 1 0 -7 -2 4.5 0.5 0.5
9 0 1 0 0 0 1 0 0 0 1 0 -7 2 4.5 0.5 0.5
9 0 1 0 0 0 1 0 0 0 1 0 -29 -2 4.5 0.5 0.5
9 0 1 0 0 0 1 0 0 0 1 0 -29 2 4.5 0.5 0.5
9 0 1 0 0 0 1 0 0 0 1 -9 -24 0 0.5 1.5 1.5
9 0 1 0 0 0 1 0 0 0 1 -11 -18 -2 0.5 4.5 0.5
9 0 1 0 0 0 1 0 0 0 1 -11 -18 2 0.5 4.5 0.5
9 0 1 0 0 0 1 0 0 0 1 9 -27 -5 0.5 0.5 3.5
9 0 1 0 0 0 1 0 0 0 1 9 -27 5 0.5 0.5 3.5
9 0 1 0 0 0 1 0 0 0 1 -9 -9 -5 0.5 0.5 3.5
9 0 1 0 0 0 1 0 0 0 1 -9 -9 5 0.5 0.5 3.5
9 0 1 0 0 0 1 0 0 0 1 -9 -27 -5 0.5 0.5 3.5
9 0 1 0 0 0 1 0 0 0 1 11 -13 -5.5 0.5 0.5 3
9 0 1 0 0 0 1 0 0 0 1 11 -13 5.5 0.5 0.5 3
9 0 1 0 0 0 1 0 0 0 1 9 -9 -5.5 0.5 0.5 3
9 0 1 0 0 0 1 0 0 0 1 9 -9 5.5 0.5 0.5 3
9 0 1 0 0 0 1 0 0 0 1 9.5 -12 0 1 0.5 1.5
9 0 1 0 0 0 1 0 0 0 1 8.5 -11 0 1 0.5 1.5
9 0 1 0 0 0 1 0 0 0 1 7 -9.5 0 0.5 1 1.5
9 0 1 0 0 0 1 0 0 0 1 -5.5 -9 0 1 0.5 1.5
9 0 1 0 0 0 1 0 0 0 1 -7 -26.5 0 0.5 1 1.5
9 0 1 0 0 0 1 0 0 0 1 -8.5 -11 0 1 0.5 1.5
9 0 1 0 0 0 1 0 0 0 1 -9 -27 5.5 0.5 0.5 3
9 0 1 0 0 0 1 0 0 0 1 5.5 -13.5 6 1 1 0.5
9 0 1 0 0 0 1 0 0 0 1 5.5 -22 5.5 1 0.5 1
9 0 1 0 0 0 1 0 0 0 1 4.5 -23 5.5 1 0.5 1
9 0 1 0 0 0 1 0 0 0 1 -4 -12.5 5.5 0.5 1 1
9 0 1 0 0 0 1 0 0 0 1 -4 -23.5 5.5 0.5 1 1
9 0 1 0 0 0 1 0 0 0 1 -5 -13.5 5.5 0.5 1 1
9 0 1 0 0 0 1 0 0 0 1 -5 -22.5 5.5 0.5 1 1
9 0 1 0 0 0 1 0 0 0 1 9 -13 0 0.5 0.5 1.5
9 0 1 0 0 0 1 0 0 0 1 8 -18 6 0.5 1.5 0.5
9 0 1 0 0 0 1 0 0 0 1 7 -26 0 0.5 0.5 1.5
9 0 1 0 0 0 1 0 0 0 1 6 -9 0 0.5 0.5 1.5
9 0 1 0 0 0 1 0 0 0 1 0 -10 6 1.5 0.5 0.5
9 0 1 0 0 0 1 0 0 0 1 0 -26 6 1.5 0.5 0.5
9 0 1 0 0 0 1 0 0 0 1 -8 -18 6 0.5 1.5 0.5
9 0 1 0 0 0 1 0 0 0 1 -8 -25 0 0.5 0.5 1.5
9 0 1 0 0 0 1 0 0 0 1 -9 -12 0 0.5 0.5 1.5
