9 0 -1.192093E-07 0 -1 0 1 0 1 0 -1.192093E-07 -310 -2 -30 3.35 0.5 3.35
9 0 -1.192093E-07 0 -1 0 1 0 1 0 -1.192093E-07 -310 -2 -10 3.35 0.5 3.35
9 0 -1.192093E-07 0 -1 0 1 0 1 0 -1.192093E-07 -310 -2 10 3.35 0.5 3.35
9 0 -1.192093E-07 0 -1 0 1 0 1 0 -1.192093E-07 -310 -2 30 3.35 0.5 3.35
9 0 -1.192093E-07 0 -1 0 1 0 1 0 -1.192093E-07 -310 -2 70 3.35 0.5 3.35
9 0 -1.192093E-07 0 -1 0 1 0 1 0 -1.192093E-07 -310 -2 -70 3.35 0.5 3.35
9 0 -1.192093E-07 0 -1 0 1 0 1 0 -1.192093E-07 -230 -2 -70 3.35 0.5 3.35
9 0 -1.192093E-07 0 -1 0 1 0 1 0 -1.192093E-07 -270 -2 -70 3.35 0.5 3.35
9 0 -1.192093E-07 0 -1 0 1 0 1 0 -1.192093E-07 -170 -2 -70 3.35 0.5 3.35
9 0 -1.192093E-07 0 -1 0 1 0 1 0 -1.192093E-07 -150 -2 -70 3.35 0.5 3.35
9 0 -1.192093E-07 0 -1 0 1 0 1 0 -1.192093E-07 -90 -2 -70 3.35 0.5 3.35
9 0 -1.192093E-07 0 -1 0 1 0 1 0 -1.192093E-07 -70 -2 -70 3.35 0.5 3.35
9 0 0.1980392 0 -0.9801942 0 1 0 0.9801942 0 0.1980392 -166.556 -2 86.33 3.349336 0.5 3.349336
9 0 0.1980392 0 -0.9801942 0 1 0 0.9801942 0 0.1980392 -186.16 -2 82.374 3.349336 0.5 3.349336
9 0 0.2939453 0 -0.9558223 0 1 0 0.9558223 0 0.2939453 -96.766 -2 105.1 3.350623 0.5 3.350623
9 0 0.2939453 0 -0.9558223 0 1 0 0.9558223 0 0.2939453 -115.88 -2 99.214 3.350623 0.5 3.350623
9 0 -1.192093E-07 0 -1 0 1 0 1 0 -1.192093E-07 -270 -2 90 3.35 0.5 3.35
9 0 -1.192093E-07 0 -1 0 1 0 1 0 -1.192093E-07 -270 -2 110 3.35 0.5 3.35
9 0 -1.192093E-07 0 -1 0 1 0 1 0 -1.192093E-07 -270 -2 130 3.35 0.5 3.35
9 0 -1.192093E-07 0 -1 0 1 0 1 0 -1.192093E-07 -270 -2 150 3.35 0.5 3.35
9 0 -1.192093E-07 0 -1 0 1 0 1 0 -1.192093E-07 -270 -2 190 3.35 0.5 3.35
9 0 -1.192093E-07 0 -1 0 1 0 1 0 -1.192093E-07 -230 -2 90 3.35 0.5 3.35
9 0 -1.192093E-07 0 -1 0 1 0 1 0 -1.192093E-07 -230 -2 110 3.35 0.5 3.35
9 0 -1.192093E-07 0 -1 0 1 0 1 0 -1.192093E-07 -230 -2 130 3.35 0.5 3.35
9 0 -1.192093E-07 0 -1 0 1 0 1 0 -1.192093E-07 -230 -2 150 3.35 0.5 3.35
9 0 -1.192093E-07 0 -1 0 1 0 1 0 -1.192093E-07 -230 -2 190 3.35 0.5 3.35
9 0 -1.192093E-07 0 -1 0 1 0 1 0 -1.192093E-07 -250 -10 90 3.35 0.5 3.35
9 0 -1.192093E-07 0 -1 0 1 0 1 0 -1.192093E-07 -250 -10 110 3.35 0.5 3.35
9 0 -1.192093E-07 0 -1 0 1 0 1 0 -1.192093E-07 -250 -10 130 3.35 0.5 3.35
9 0 -1.192093E-07 0 -1 0 1 0 1 0 -1.192093E-07 -10 -2 -30 3.35 0.5 3.35
9 0 -1.192093E-07 0 -1 0 1 0 1 0 -1.192093E-07 10 -2 -30 3.35 0.5 3.35
9 0 -1.192093E-07 0 -1 0 1 0 1 0 -1.192093E-07 10 -2 -10 3.35 0.5 3.35
9 0 0.3870283 0 -0.9220679 0 1 0 0.9220679 0 0.3870283 -5.91 -2 75.41 3.349754 0.5 3.349754
9 0 0.3870283 0 -0.9220679 0 1 0 0.9220679 0 0.3870283 -32.11 -2 86.09 3.349754 0.5 3.349754
9 0 0.3870283 0 -0.9220679 0 1 0 0.9220679 0 0.3870283 -13.67 -2 93.85 3.349754 0.5 3.349754
9 0 -1.192093E-07 0 -1 0 1 0 1 0 -1.192093E-07 170 -2 70 3.35 0.5 3.35
9 0 -1.192093E-07 0 -1 0 1 0 1 0 -1.192093E-07 -10 -2 -70 3.35 0.5 3.35
9 0 -1.192093E-07 0 -1 0 1 0 1 0 -1.192093E-07 10 -2 -70 3.35 0.5 3.35
9 0 -1.192093E-07 0 -1 0 1 0 1 0 -1.192093E-07 70 -2 -70 3.35 0.5 3.35
9 0 -1.192093E-07 0 -1 0 1 0 1 0 -1.192093E-07 90 -2 -70 3.35 0.5 3.35
9 0 -1.192093E-07 0 -1 0 1 0 1 0 -1.192093E-07 150 -2 -70 3.35 0.5 3.35
9 0 -1.192093E-07 0 -1 0 1 0 1 0 -1.192093E-07 170 -2 -70 3.35 0.5 3.35
9 0 -1.192093E-07 0 -1 0 1 0 1 0 -1.192093E-07 230 -2 -70 3.35 0.5 3.35
9 0 -1.192093E-07 0 -1 0 1 0 1 0 -1.192093E-07 250 -2 -70 3.35 0.5 3.35
9 0 -1.192093E-07 0 -1 0 1 0 1 0 -1.192093E-07 250 -2 70 3.35 0.5 3.35
9 0 -1.192093E-07 0 -1 0 1 0 1 0 -1.192093E-07 230 -2 70 3.35 0.5 3.35
9 0 0.5620636 0 -0.827094 0 1 0 0.827094 0 0.5620636 223.982 -2 121.08 3.34962 0.5 3.349619
9 0 0.5620636 0 -0.827094 0 1 0 0.827094 0 0.5620636 240.53 -2 132.312 3.34962 0.5 3.349619
9 0 0.4749941 0 -0.879989 0 1 0 0.879989 0 0.4749941 286.624 -2 160.292 3.350042 0.5 3.350042
9 0 0.4749941 0 -0.879989 0 1 0 0.879989 0 0.4749941 304.228 -2 169.784 3.350042 0.5 3.350042
9 0 0.3878781 0 -0.9217107 0 1 0 0.9217107 0 0.3878781 -29.192 -2 130.716 3.351051 0.5 3.351051
9 0 0.3878781 0 -0.9217107 0 1 0 0.9217107 0 0.3878781 -47.626 -2 122.958 3.351051 0.5 3.351051
9 0 0.4777313 0 -0.878506 0 1 0 0.878506 0 0.4777313 35.51 -2 162.922 3.351884 0.5 3.351884
9 0 0.4777313 0 -0.878506 0 1 0 0.878506 0 0.4777313 17.938 -2 153.37 3.351884 0.5 3.351884
9 0 0.5627474 0 -0.826629 0 1 0 0.826629 0 0.5627474 96.692 -2 201.404 3.351504 0.5 3.351504
9 0 0.5627474 0 -0.826629 0 1 0 0.826629 0 0.5627474 80.156 -2 190.152 3.351504 0.5 3.351504
9 0 0.5620636 0 -0.827094 0 1 0 0.827094 0 0.5620636 161.898 -2 248.15 3.34962 0.5 3.349619
9 0 0.5620636 0 -0.827094 0 1 0 0.827094 0 0.5620636 145.35 -2 236.918 3.34962 0.5 3.349619
9 0 0.4749941 0 -0.879989 0 1 0 0.879989 0 0.4749941 237.786 -2 293.008 3.350042 0.5 3.350042
9 0 0.4749941 0 -0.879989 0 1 0 0.879989 0 0.4749941 220.182 -2 283.516 3.350042 0.5 3.350042
9 0 -1.192093E-07 0 -1 0 1 0 1 0 -1.192093E-07 150 -2 -30 3.35 0.5 3.35
9 0 -1.192093E-07 0 -1 0 1 0 1 0 -1.192093E-07 150 -2 -10 3.35 0.5 3.35
9 0 -1.192093E-07 0 -1 0 1 0 1 0 -1.192093E-07 150 -2 10 3.35 0.5 3.35
9 0 -1.192093E-07 0 -1 0 1 0 1 0 -1.192093E-07 150 -2 30 3.35 0.5 3.35
9 0 -1.192093E-07 0 -1 0 1 0 1 0 -1.192093E-07 170 -2 -30 3.35 0.5 3.35
9 0 -1.192093E-07 0 -1 0 1 0 1 0 -1.192093E-07 170 -2 -10 3.35 0.5 3.35
9 0 -1.192093E-07 0 -1 0 1 0 1 0 -1.192093E-07 170 -2 10 3.35 0.5 3.35
9 0 -1.192093E-07 0 -1 0 1 0 1 0 -1.192093E-07 170 -2 30 3.35 0.5 3.35
9 0 0.5627474 0 -0.826629 0 1 0 0.826629 0 0.5627474 136.41 -2 107.47 3.351504 0.5 3.351504
9 0 0.5627474 0 -0.826629 0 1 0 0.826629 0 0.5627474 125.158 -2 124.006 3.351504 0.5 3.351504
9 0 0.5627474 0 -0.826629 0 1 0 0.826629 0 0.5627474 113.906 -2 140.542 3.351504 0.5 3.351504
9 0 0.5627474 0 -0.826629 0 1 0 0.826629 0 0.5627474 102.654 -2 157.078 3.351504 0.5 3.351504
9 0 0.5627474 0 -0.826629 0 1 0 0.826629 0 0.5627474 152.946 -2 118.722 3.351504 0.5 3.351504
9 0 0.5627474 0 -0.826629 0 1 0 0.826629 0 0.5627474 141.694 -2 135.258 3.351504 0.5 3.351504
9 0 0.5627474 0 -0.826629 0 1 0 0.826629 0 0.5627474 130.442 -2 151.794 3.351504 0.5 3.351504
9 0 0.5627474 0 -0.826629 0 1 0 0.826629 0 0.5627474 119.19 -2 168.33 3.351504 0.5 3.351504
9 0 -1.192093E-07 0 -1 0 1 0 1 0 -1.192093E-07 230 -2 -30 3.35 0.5 3.35
9 0 -1.192093E-07 0 -1 0 1 0 1 0 -1.192093E-07 230 -2 -10 3.35 0.5 3.35
9 0 -1.192093E-07 0 -1 0 1 0 1 0 -1.192093E-07 230 -2 10 3.35 0.5 3.35
9 0 -1.192093E-07 0 -1 0 1 0 1 0 -1.192093E-07 230 -2 30 3.35 0.5 3.35
9 0 -1.192093E-07 0 -1 0 1 0 1 0 -1.192093E-07 250 -2 -30 3.35 0.5 3.35
9 0 -1.192093E-07 0 -1 0 1 0 1 0 -1.192093E-07 250 -2 -10 3.35 0.5 3.35
9 0 -1.192093E-07 0 -1 0 1 0 1 0 -1.192093E-07 250 -2 10 3.35 0.5 3.35
9 0 -1.192093E-07 0 -1 0 1 0 1 0 -1.192093E-07 250 -2 30 3.35 0.5 3.35
9 0 0.5620636 0 -0.827094 0 1 0 0.827094 0 0.5620636 201.514 -2 154.172 3.34962 0.5 3.349619
9 0 0.5620636 0 -0.827094 0 1 0 0.827094 0 0.5620636 190.282 -2 170.72 3.34962 0.5 3.349619
9 0 0.5620636 0 -0.827094 0 1 0 0.827094 0 0.5620636 179.05 -2 187.268 3.34962 0.5 3.349619
9 0 0.5620636 0 -0.827094 0 1 0 0.827094 0 0.5620636 167.818 -2 203.816 3.34962 0.5 3.349619
9 0 0.5620636 0 -0.827094 0 1 0 0.827094 0 0.5620636 218.062 -2 165.404 3.34962 0.5 3.349619
9 0 0.5620636 0 -0.827094 0 1 0 0.827094 0 0.5620636 206.83 -2 181.952 3.34962 0.5 3.349619
9 0 0.5620636 0 -0.827094 0 1 0 0.827094 0 0.5620636 195.598 -2 198.5 3.34962 0.5 3.349619
9 0 0.5620636 0 -0.827094 0 1 0 0.827094 0 0.5620636 184.366 -2 215.048 3.34962 0.5 3.349619
9 0 0.4749941 0 -0.879989 0 1 0 0.879989 0 0.4749941 267.636 -2 195.498 3.350042 0.5 3.350042
9 0 0.4749941 0 -0.879989 0 1 0 0.879989 0 0.4749941 258.144 -2 213.102 3.350042 0.5 3.350042
9 0 0.4749941 0 -0.879989 0 1 0 0.879989 0 0.4749941 248.652 -2 230.706 3.350042 0.5 3.350042
9 0 0.4749941 0 -0.879989 0 1 0 0.879989 0 0.4749941 239.16 -2 248.31 3.350042 0.5 3.350042
9 0 0.4749941 0 -0.879989 0 1 0 0.879989 0 0.4749941 285.24 -2 204.99 3.350042 0.5 3.350042
9 0 0.4749941 0 -0.879989 0 1 0 0.879989 0 0.4749941 275.748 -2 222.594 3.350042 0.5 3.350042
9 0 0.4749941 0 -0.879989 0 1 0 0.879989 0 0.4749941 266.256 -2 240.198 3.350042 0.5 3.350042
9 0 0.4749941 0 -0.879989 0 1 0 0.879989 0 0.4749941 256.764 -2 257.802 3.350042 0.5 3.350042
9 0 -1.192093E-07 0 -1 0 1 0 1 0 -1.192093E-07 310 -2 30 3.35 0.5 3.35
9 0 -1.192093E-07 0 -1 0 1 0 1 0 -1.192093E-07 310 -2 10 3.35 0.5 3.35
9 0 -1.192093E-07 0 -1 0 1 0 1 0 -1.192093E-07 310 -2 -10 3.35 0.5 3.35
9 0 -1.192093E-07 0 -1 0 1 0 1 0 -1.192093E-07 310 -2 -30 3.35 0.5 3.35
9 0 -1.192093E-07 0 -1 0 1 0 1 0 -1.192093E-07 310 -2 -70 3.35 0.5 3.35
9 0 -1.192093E-07 0 -1 0 1 0 1 0 -1.192093E-07 310 -2 70 3.35 0.5 3.35
9 0 0.3829112 0 -0.9237852 0 1 0 0.9237852 0 0.3829112 314.65 -2 285.31 3.350779 0.5 3.350779
9 0 0.3829112 0 -0.9237852 0 1 0 0.9237852 0 0.3829112 322.31 -2 266.83 3.350779 0.5 3.350779
9 0 0.3829112 0 -0.9237852 0 1 0 0.9237852 0 0.3829112 329.97 -2 248.35 3.350779 0.5 3.350779
9 0 0.3829112 0 -0.9237852 0 1 0 0.9237852 0 0.3829112 337.63 -2 229.87 3.350779 0.5 3.350779
9 0 0.3829112 0 -0.9237852 0 1 0 0.9237852 0 0.3829112 352.95 -2 192.91 3.350779 0.5 3.350779
9 0 0.3829112 0 -0.9237852 0 1 0 0.9237852 0 0.3829112 299.33 -2 322.27 3.350779 0.5 3.350779
9 0 1 0 0 0 1 0 0 0 1 -202 0.2770004 47.34003 26 3.5 4.5
9 0 1 0 0 0 1 0 0 0 1 238 2.277 -0.6599731 14 0.5 40.5
9 0 1 0 0 0 1 0 0 0 1 158 2.277 -0.6599731 14 0.5 40.5
9 0 1 0 0 0 1 0 0 0 1 78 2.277 -5.159973 14 0.5 36
9 0 1 0 0 0 1 0 0 0 1 -2 2.277 -23.15997 14 0.5 18
9 0 1 0 0 0 1 0 0 0 1 -84 2.277 18.84003 12 0.5 21
9 0 1 0 0 0 1 0 0 0 1 -190 -2.723 -30.65997 10 1.5 7.5
9 0 1 0 0 0 1 0 0 0 1 -18 2.277 75.84003 10 0.5 18
9 0 1 0 0 0 1 0 0 0 1 -190 1.777 54.84003 14 2 3
9 0 1 0 0 0 1 0 0 0 1 260 2.277 230.34 8 0.5 16.5
9 0 1 0 0 0 1 0 0 0 1 64 2.277 89.34003 8 0.5 16.5
9 0 1 0 0 0 1 0 0 0 1 238 2.277 66.84003 14 0.5 9
9 0 1 0 0 0 1 0 0 0 1 160 2.277 68.34003 12 0.5 10.5
9 0 1 0 0 0 1 0 0 0 1 -234 0.2770004 45.84003 6 3.5 3
9 0 1 0 0 0 1 0 0 0 1 192 2.277 186.84 8 0.5 15
9 0 1 0 0 0 1 0 0 0 1 140 2.277 119.34 8 0.5 13.5
9 0 1 0 0 0 1 0 0 0 1 124 2.277 143.34 8 0.5 13.5
9 0 1 0 0 0 1 0 0 0 1 50 2.277 114.84 6 0.5 18
9 0 1 0 0 0 1 0 0 0 1 238 2.277 -66.65997 14 0.5 7.5
9 0 1 0 0 0 1 0 0 0 1 158 2.277 -66.65997 14 0.5 7.5
9 0 1 0 0 0 1 0 0 0 1 78 2.277 -66.65997 14 0.5 7.5
9 0 1 0 0 0 1 0 0 0 1 -2 2.277 -66.65997 14 0.5 7.5
9 0 1 0 0 0 1 0 0 0 1 -82 2.277 -66.65997 14 0.5 7.5
9 0 1 0 0 0 1 0 0 0 1 308 2.277 -12.65997 4 0.5 25.5
9 0 1 0 0 0 1 0 0 0 1 -102 2.277 62.34003 22 0.5 4.5
9 0 1 0 0 0 1 0 0 0 1 276 2.277 203.34 12 0.5 7.5
9 0 1 0 0 0 1 0 0 0 1 208 2.277 161.34 12 0.5 7.5
9 0 1 0 0 0 1 0 0 0 1 -88 2.277 -36.65997 20 0.5 4.5
9 0 1 0 0 0 1 0 0 0 1 176 2.277 206.34 8 0.5 10.5
9 0 1 0 0 0 1 0 0 0 1 -222 2.277 53.34003 18 1.5 1.5
9 0 1 0 0 0 1 0 0 0 1 248 2.277 245.34 4 0.5 16.5
9 0 1 0 0 0 1 0 0 0 1 110 2.277 158.34 6 0.5 10.5
9 0 1 0 0 0 1 0 0 0 1 -190 -1.723 53.34003 14 1.5 1.5
9 0 1 0 0 0 1 0 0 0 1 -214 -2.723 -33.65997 14 1.5 1.5
9 0 1 0 0 0 1 0 0 0 1 -310 2.277 12.84003 2 0.5 27
9 0 1 0 0 0 1 0 0 0 1 140 2.277 63.84003 8 0.5 6
9 0 1 0 0 0 1 0 0 0 1 -104 2.277 99.84003 8 0.5 6
9 0 1 0 0 0 1 0 0 0 1 310 2.277 -66.65997 6 0.5 7.5
9 0 1 0 0 0 1 0 0 0 1 310 2.277 68.34003 6 0.5 7.5
9 0 1 0 0 0 1 0 0 0 1 -34 2.277 125.34 10 0.5 4.5
9 0 1 0 0 0 1 0 0 0 1 272 2.277 221.34 4 0.5 10.5
9 0 1 0 0 0 1 0 0 0 1 298 2.277 168.84 6 0.5 6
9 0 1 0 0 0 1 0 0 0 1 232 2.277 287.34 8 0.5 4.5
9 0 1 0 0 0 1 0 0 0 1 206 2.277 174.84 6 0.5 6
9 0 1 0 0 0 1 0 0 0 1 76 2.277 81.84003 4 0.5 9
9 0 1 0 0 0 1 0 0 0 1 40 2.277 120.84 4 0.5 9
9 0 1 0 0 0 1 0 0 0 1 32 2.277 158.34 8 0.5 4.5
9 0 1 0 0 0 1 0 0 0 1 -196 -2.723 -21.65997 8 1.5 1.5
9 0 1 0 0 0 1 0 0 0 1 -234 1.777 50.34003 6 2 1.5
9 0 1 0 0 0 1 0 0 0 1 -252 -2.723 -29.15997 4 1.5 3
9 0 1 0 0 0 1 0 0 0 1 256 2.277 254.34 4 0.5 7.5
9 0 1 0 0 0 1 0 0 0 1 240 2.277 251.34 4 0.5 7.5
9 0 1 0 0 0 1 0 0 0 1 60 2.277 113.34 4 0.5 7.5
9 0 1 0 0 0 1 0 0 0 1 -4 2.277 65.34003 4 0.5 7.5
9 0 1 0 0 0 1 0 0 0 1 -70 2.277 12.84003 2 0.5 15
9 0 1 0 0 0 1 0 0 0 1 -94 2.277 69.84003 10 0.5 3
9 0 1 0 0 0 1 0 0 0 1 310 2.277 35.34003 6 0.5 4.5
9 0 1 0 0 0 1 0 0 0 1 234 2.277 131.34 6 0.5 4.5
9 0 1 0 0 0 1 0 0 0 1 166 2.277 83.34003 6 0.5 4.5
9 0 1 0 0 0 1 0 0 0 1 158 2.277 242.34 6 0.5 4.5
9 0 1 0 0 0 1 0 0 0 1 94 2.277 197.34 6 0.5 4.5
9 0 1 0 0 0 1 0 0 0 1 14 2.277 35.34003 6 0.5 4.5
9 0 1 0 0 0 1 0 0 0 1 -182 2.277 59.34003 6 1.5 1.5
9 0 1 0 0 0 1 0 0 0 1 -182 -1.723 56.34003 6 1.5 1.5
9 0 1 0 0 0 1 0 0 0 1 -202 -2.723 -27.65997 2 1.5 4.5
9 0 1 0 0 0 1 0 0 0 1 288 2.277 162.84 4 0.5 6
9 0 1 0 0 0 1 0 0 0 1 188 2.277 207.84 4 0.5 6
9 0 1 0 0 0 1 0 0 0 1 180 2.277 189.84 4 0.5 6
9 0 1 0 0 0 1 0 0 0 1 136 2.277 138.84 4 0.5 6
9 0 1 0 0 0 1 0 0 0 1 128 2.277 123.84 4 0.5 6
9 0 1 0 0 0 1 0 0 0 1 120 2.277 162.84 4 0.5 6
9 0 1 0 0 0 1 0 0 0 1 68 2.277 69.84003 8 0.5 3
9 0 1 0 0 0 1 0 0 0 1 4 2.277 -2.159973 8 0.5 3
9 0 1 0 0 0 1 0 0 0 1 -20 2.277 96.84003 8 0.5 3
9 0 1 0 0 0 1 0 0 0 1 -30 2.277 84.84003 2 0.5 12
9 0 1 0 0 0 1 0 0 0 1 -76 2.277 -29.15997 8 0.5 3
9 0 1 0 0 0 1 0 0 0 1 -14 2.277 29.34003 2 0.5 10.5
9 0 1 0 0 0 1 0 0 0 1 306 2.277 21.84003 2 0.5 9
9 0 1 0 0 0 1 0 0 0 1 274 2.277 192.84 6 0.5 3
9 0 1 0 0 0 1 0 0 0 1 226 2.277 123.84 6 0.5 3
9 0 1 0 0 0 1 0 0 0 1 154 2.277 114.84 6 0.5 3
9 0 1 0 0 0 1 0 0 0 1 150 2.277 234.84 6 0.5 3
9 0 1 0 0 0 1 0 0 0 1 86 2.277 189.84 6 0.5 3
9 0 1 0 0 0 1 0 0 0 1 80 2.277 32.34003 12 0.5 1.5
9 0 1 0 0 0 1 0 0 0 1 52 2.277 92.34003 4 0.5 4.5
9 0 1 0 0 0 1 0 0 0 1 22 2.277 150.84 6 0.5 3
9 0 1 0 0 0 1 0 0 0 1 -114 2.277 -38.15997 6 0.5 3
9 0 1 0 0 0 1 0 0 0 1 -130 2.277 60.84003 6 0.5 3
9 0 1 0 0 0 1 0 0 0 1 -176 -2.723 -24.65997 4 1.5 1.5
9 0 1 0 0 0 1 0 0 0 1 -208 2.277 56.34003 4 1.5 1.5
9 0 1 0 0 0 1 0 0 0 1 330 2.277 248.34 2 0.5 7.5
9 0 1 0 0 0 1 0 0 0 1 326 2.277 257.34 2 0.5 7.5
9 0 1 0 0 0 1 0 0 0 1 314 2.277 2.340027 2 0.5 7.5
9 0 1 0 0 0 1 0 0 0 1 314 2.277 287.34 2 0.5 7.5
9 0 1 0 0 0 1 0 0 0 1 -214 0.2770004 53.34003 10 0.5 1.5
9 0 1 0 0 0 1 0 0 0 1 -310 2.277 -66.65997 2 0.5 7.5
9 0 1 0 0 0 1 0 0 0 1 -310 2.277 68.34003 2 0.5 7.5
9 0 1 0 0 0 1 0 0 0 1 352 2.277 195.84 4 0.5 3
9 0 1 0 0 0 1 0 0 0 1 322 2.277 264.84 2 0.5 6
9 0 1 0 0 0 1 0 0 0 1 300 2.277 321.84 4 0.5 3
9 0 1 0 0 0 1 0 0 0 1 280 2.277 213.84 4 0.5 3
9 0 1 0 0 0 1 0 0 0 1 262 2.277 207.84 2 0.5 6
9 0 1 0 0 0 1 0 0 0 1 228 2.277 281.34 8 0.5 1.5
9 0 1 0 0 0 1 0 0 0 1 204 2.277 150.84 4 0.5 3
9 0 1 0 0 0 1 0 0 0 1 204 2.277 183.84 4 0.5 3
9 0 1 0 0 0 1 0 0 0 1 194 2.277 165.84 2 0.5 6
9 0 1 0 0 0 1 0 0 0 1 166 2.277 207.84 2 0.5 6
9 0 1 0 0 0 1 0 0 0 1 140 2.277 102.84 4 0.5 3
9 0 1 0 0 0 1 0 0 0 1 128 2.277 60.84003 4 0.5 3
9 0 1 0 0 0 1 0 0 0 1 114 2.277 141.84 2 0.5 6
9 0 1 0 0 0 1 0 0 0 1 116 2.277 171.84 4 0.5 3
9 0 1 0 0 0 1 0 0 0 1 102 2.277 159.84 2 0.5 6
9 0 1 0 0 0 1 0 0 0 1 -40 2.277 119.34 8 0.5 1.5
9 0 1 0 0 0 1 0 0 0 1 -48 2.277 123.84 4 0.5 3
9 0 1 0 0 0 1 0 0 0 1 -88 2.277 -3.659973 8 0.5 1.5
9 0 1 0 0 0 1 0 0 0 1 -114 2.277 96.84003 2 0.5 6
9 0 1 0 0 0 1 0 0 0 1 -228 -2.223 -30.65997 4 1 1.5
9 0 1 0 0 0 1 0 0 0 1 -242 -2.223 45.84003 2 1 3
9 0 1 0 0 0 1 0 0 0 1 -310 2.277 -32.15997 2 0.5 6
9 0 1 0 0 0 1 0 0 0 1 338 2.277 227.34 2 0.5 4.5
9 0 1 0 0 0 1 0 0 0 1 334 2.277 236.34 2 0.5 4.5
9 0 1 0 0 0 1 0 0 0 1 222 2.277 161.34 2 0.5 4.5
9 0 1 0 0 0 1 0 0 0 1 150 2.277 122.34 2 0.5 4.5
9 0 1 0 0 0 1 0 0 0 1 82 2.277 77.34003 2 0.5 4.5
9 0 1 0 0 0 1 0 0 0 1 42 2.277 107.34 2 0.5 4.5
9 0 1 0 0 0 1 0 0 0 1 34 2.277 122.34 2 0.5 4.5
9 0 1 0 0 0 1 0 0 0 1 18 2.277 155.34 6 0.5 1.5
9 0 1 0 0 0 1 0 0 0 1 -6 2.277 77.34003 2 0.5 4.5
9 0 1 0 0 0 1 0 0 0 1 -34 2.277 89.34003 2 0.5 4.5
9 0 1 0 0 0 1 0 0 0 1 -90 2.277 -30.65997 6 0.5 1.5
9 0 1 0 0 0 1 0 0 0 1 -94 2.277 101.34 2 0.5 4.5
9 0 1 0 0 0 1 0 0 0 1 -98 2.277 35.34003 2 0.5 4.5
9 0 1 0 0 0 1 0 0 0 1 -126 2.277 -39.65997 6 0.5 1.5
9 0 1 0 0 0 1 0 0 0 1 -142 2.277 59.34003 6 0.5 1.5
9 0 1 0 0 0 1 0 0 0 1 -178 2.277 62.34003 2 1.5 1.5
9 0 1 0 0 0 1 0 0 0 1 -178 -2.723 -27.65997 2 1.5 1.5
