9 0 1 0 0 0 1 0 0 0 1 -70 -92 90 3.35 0.5 3.35
9 0 1 0 0 0 1 0 0 0 1 -50 -92 90 3.35 0.5 3.35
9 0 1 0 0 0 1 0 0 0 1 -30 -92 90 3.35 0.5 3.35
9 0 1 0 0 0 1 0 0 0 1 -10 -92 90 3.35 0.5 3.35
9 0 1 0 0 0 1 0 0 0 1 10 -92 90 3.35 0.5 3.35
9 0 1 0 0 0 1 0 0 0 1 30 -92 90 3.35 0.5 3.35
9 0 1 0 0 0 1 0 0 0 1 50 -92 90 3.35 0.5 3.35
9 0 1 0 0 0 1 0 0 0 1 70 -92 90 3.35 0.5 3.35
9 0 1 0 0 0 1 0 0 0 1 0 -88 90 78.5 0.5 8.5
9 0 1 0 0 0 1 0 0 0 1 0 -10 2 38.5 6.5 0.5
9 0 1 0 0 0 1 0 0 0 1 0 -85.5 82 78.5 2 0.5
9 0 1 0 0 0 1 0 0 0 1 0 -85.5 98 78.5 2 0.5
9 0 1 0 0 0 1 0 0 0 1 -0.5 -21.5 3 78 2 0.5
9 0 1 0 0 0 1 0 0 0 1 0 -88 77.5 38.5 0.5 4
9 0 1 0 0 0 1 0 0 0 1 0 -27 4 78.5 1.5 0.5
9 0 1 0 0 0 1 0 0 0 1 0 -87 68.5 38.5 0.5 2
9 0 1 0 0 0 1 0 0 0 1 62 -88 77.5 16.5 0.5 4
9 0 1 0 0 0 1 0 0 0 1 -62 -88 77.5 16.5 0.5 4
9 0 1 0 0 0 1 0 0 0 1 0 -86 63 38.5 0.5 1.5
9 0 1 0 0 0 1 0 0 0 1 58.5 -14 2 20 2.5 0.5
9 0 1 0 0 0 1 0 0 0 1 -58.5 -14 2 20 2.5 0.5
9 0 1 0 0 0 1 0 0 0 1 0 -31 5 78.5 0.5 0.5
9 0 1 0 0 0 1 0 0 0 1 62 -87 68.5 16.5 0.5 2
9 0 1 0 0 0 1 0 0 0 1 -62 -87 68.5 16.5 0.5 2
9 0 1 0 0 0 1 0 0 0 1 62 -86 63 16.5 0.5 1.5
9 0 1 0 0 0 1 0 0 0 1 -62 -86 63 16.5 0.5 1.5
9 0 1 0 0 0 1 0 0 0 1 48.5 -9.5 2 10 2 0.5
9 0 1 0 0 0 1 0 0 0 1 -48.5 -9.5 2 10 2 0.5
9 0 1 0 0 0 1 0 0 0 1 0 -34 6 38.5 0.5 0.5
9 0 1 0 0 0 1 0 0 0 1 0 -37 7 38.5 0.5 0.5
9 0 1 0 0 0 1 0 0 0 1 0 -83 53 38.5 0.5 0.5
9 0 1 0 0 0 1 0 0 0 1 0 -84 56 38.5 0.5 0.5
9 0 1 0 0 0 1 0 0 0 1 0 -85 59 38.5 0.5 0.5
9 0 1 0 0 0 1 0 0 0 1 78 -85.5 90 0.5 2 7.5
9 0 1 0 0 0 1 0 0 0 1 -78 -85.5 90 0.5 2 7.5
9 0 1 0 0 0 1 0 0 0 1 62 -34 6 16.5 0.5 0.5
9 0 1 0 0 0 1 0 0 0 1 62 -37 7 16.5 0.5 0.5
9 0 1 0 0 0 1 0 0 0 1 62 -83 53 16.5 0.5 0.5
9 0 1 0 0 0 1 0 0 0 1 62 -84 56 16.5 0.5 0.5
9 0 1 0 0 0 1 0 0 0 1 62 -85 59 16.5 0.5 0.5
9 0 1 0 0 0 1 0 0 0 1 -62 -34 6 16.5 0.5 0.5
9 0 1 0 0 0 1 0 0 0 1 -62 -37 7 16.5 0.5 0.5
9 0 1 0 0 0 1 0 0 0 1 -62 -83 53 16.5 0.5 0.5
9 0 1 0 0 0 1 0 0 0 1 -62 -84 56 16.5 0.5 0.5
9 0 1 0 0 0 1 0 0 0 1 -62 -85 59 16.5 0.5 0.5
9 0 1 0 0 0 1 0 0 0 1 42 -10.5 6.5 0.5 6 1
9 0 1 0 0 0 1 0 0 0 1 -42 -10.5 6.5 0.5 6 1
9 0 1 0 0 0 1 0 0 0 1 50 5 4 8.5 0.5 0.5
9 0 1 0 0 0 1 0 0 0 1 50 4 5 8.5 0.5 0.5
9 0 1 0 0 0 1 0 0 0 1 50 -4 -5 8.5 0.5 0.5
9 0 1 0 0 0 1 0 0 0 1 50 -5 -4 8.5 0.5 0.5
9 0 1 0 0 0 1 0 0 0 1 -50 5 4 8.5 0.5 0.5
9 0 1 0 0 0 1 0 0 0 1 -50 4 5 8.5 0.5 0.5
9 0 1 0 0 0 1 0 0 0 1 -50 -4 -5 8.5 0.5 0.5
9 0 1 0 0 0 1 0 0 0 1 -50 -5 -4 8.5 0.5 0.5
9 0 1 0 0 0 1 0 0 0 1 60 -84 90 1.5 0.5 1.5
9 0 1 0 0 0 1 0 0 0 1 40 -84 90 1.5 0.5 1.5
9 0 1 0 0 0 1 0 0 0 1 20 -84 90 1.5 0.5 1.5
9 0 1 0 0 0 1 0 0 0 1 0 -84 90 1.5 0.5 1.5
9 0 1 0 0 0 1 0 0 0 1 -20 -84 90 1.5 0.5 1.5
9 0 1 0 0 0 1 0 0 0 1 -40 -84 90 1.5 0.5 1.5
9 0 1 0 0 0 1 0 0 0 1 -60 -84 90 1.5 0.5 1.5
9 0 1 0 0 0 1 0 0 0 1 42 -23.5 8 0.5 4 0.5
9 0 1 0 0 0 1 0 0 0 1 42 -84 77.5 0.5 0.5 4
9 0 1 0 0 0 1 0 0 0 1 42 -88 77.5 0.5 0.5 4
9 0 1 0 0 0 1 0 0 0 1 -42 -23.5 8 0.5 4 0.5
9 0 1 0 0 0 1 0 0 0 1 -42 -84 77.5 0.5 0.5 4
9 0 1 0 0 0 1 0 0 0 1 -42 -88 77.5 0.5 0.5 4
9 0 1 0 0 0 1 0 0 0 1 42 -19.5 7 0.5 3 0.5
9 0 1 0 0 0 1 0 0 0 1 -42 -19.5 7 0.5 3 0.5
9 0 1 0 0 0 1 0 0 0 1 75 -19 3 2.5 0.5 0.5
9 0 1 0 0 0 1 0 0 0 1 69 -40 8 2.5 0.5 0.5
9 0 1 0 0 0 1 0 0 0 1 67 -19 3 2.5 0.5 0.5
9 0 1 0 0 0 1 0 0 0 1 67 -42 9 2.5 0.5 0.5
9 0 1 0 0 0 1 0 0 0 1 63 -81 48 2.5 0.5 0.5
9 0 1 0 0 0 1 0 0 0 1 61 -82 50 2.5 0.5 0.5
9 0 1 0 0 0 1 0 0 0 1 59 -19 3 2.5 0.5 0.5
9 0 1 0 0 0 1 0 0 0 1 53 -82 50 2.5 0.5 0.5
9 0 1 0 0 0 1 0 0 0 1 51 -19 3 2.5 0.5 0.5
9 0 1 0 0 0 1 0 0 0 1 42 -28 9 0.5 2.5 0.5
9 0 1 0 0 0 1 0 0 0 1 35 -19 3 2.5 0.5 0.5
9 0 1 0 0 0 1 0 0 0 1 31 -40 8 2.5 0.5 0.5
9 0 1 0 0 0 1 0 0 0 1 27 -19 3 2.5 0.5 0.5
9 0 1 0 0 0 1 0 0 0 1 23 -40 8 2.5 0.5 0.5
9 0 1 0 0 0 1 0 0 0 1 18 -42 9 2.5 0.5 0.5
9 0 1 0 0 0 1 0 0 0 1 15 -82 50 2.5 0.5 0.5
9 0 1 0 0 0 1 0 0 0 1 7 -82 50 2.5 0.5 0.5
9 0 1 0 0 0 1 0 0 0 1 -7 -40 8 2.5 0.5 0.5
9 0 1 0 0 0 1 0 0 0 1 -15 -40 8 2.5 0.5 0.5
9 0 1 0 0 0 1 0 0 0 1 -18 -81 48 2.5 0.5 0.5
9 0 1 0 0 0 1 0 0 0 1 -23 -82 50 2.5 0.5 0.5
9 0 1 0 0 0 1 0 0 0 1 -27 -87 71 2.5 0.5 0.5
9 0 1 0 0 0 1 0 0 0 1 -31 -82 50 2.5 0.5 0.5
9 0 1 0 0 0 1 0 0 0 1 -35 -87 71 2.5 0.5 0.5
9 0 1 0 0 0 1 0 0 0 1 -42 -28 9 0.5 2.5 0.5
9 0 1 0 0 0 1 0 0 0 1 -42 -87 69 0.5 0.5 2.5
9 0 1 0 0 0 1 0 0 0 1 -51 -87 71 2.5 0.5 0.5
9 0 1 0 0 0 1 0 0 0 1 -53 -40 8 2.5 0.5 0.5
9 0 1 0 0 0 1 0 0 0 1 -59 -87 71 2.5 0.5 0.5
9 0 1 0 0 0 1 0 0 0 1 -61 -40 8 2.5 0.5 0.5
9 0 1 0 0 0 1 0 0 0 1 -63 -42 9 2.5 0.5 0.5
9 0 1 0 0 0 1 0 0 0 1 -67 -81 48 2.5 0.5 0.5
9 0 1 0 0 0 1 0 0 0 1 -67 -87 71 2.5 0.5 0.5
9 0 1 0 0 0 1 0 0 0 1 -69 -82 50 2.5 0.5 0.5
9 0 1 0 0 0 1 0 0 0 1 -75 -87 71 2.5 0.5 0.5
9 0 1 0 0 0 1 0 0 0 1 78 -21.5 3 0.5 2 0.5
9 0 1 0 0 0 1 0 0 0 1 76.5 -40 8 2 0.5 0.5
9 0 1 0 0 0 1 0 0 0 1 74.5 -46 11 2 0.5 0.5
9 0 1 0 0 0 1 0 0 0 1 74.5 -80 46 2 0.5 0.5
9 0 1 0 0 0 1 0 0 0 1 70.5 -44 10 2 0.5 0.5
9 0 1 0 0 0 1 0 0 0 1 70.5 -48 12 2 0.5 0.5
9 0 1 0 0 0 1 0 0 0 1 70.5 -79 44 2 0.5 0.5
9 0 1 0 0 0 1 0 0 0 1 68.5 -82 50 2 0.5 0.5
9 0 1 0 0 0 1 0 0 0 1 66.5 -46 11 2 0.5 0.5
9 0 1 0 0 0 1 0 0 0 1 66.5 -80 46 2 0.5 0.5
9 0 1 0 0 0 1 0 0 0 1 62.5 -44 10 2 0.5 0.5
9 0 1 0 0 0 1 0 0 0 1 62.5 -48 12 2 0.5 0.5
9 0 1 0 0 0 1 0 0 0 1 61.5 -40 8 2 0.5 0.5
9 0 1 0 0 0 1 0 0 0 1 61.5 -87 71 2 0.5 0.5
9 0 1 0 0 0 1 0 0 0 1 58.5 -46 11 2 0.5 0.5
9 0 1 0 0 0 1 0 0 0 1 58.5 -80 46 2 0.5 0.5
9 0 1 0 0 0 1 0 0 0 1 54.5 -44 10 2 0.5 0.5
9 0 1 0 0 0 1 0 0 0 1 54.5 -48 12 2 0.5 0.5
9 0 1 0 0 0 1 0 0 0 1 53.5 -40 8 2 0.5 0.5
9 0 1 0 0 0 1 0 0 0 1 53.5 -87 71 2 0.5 0.5
9 0 1 0 0 0 1 0 0 0 1 50.5 -42 9 2 0.5 0.5
9 0 1 0 0 0 1 0 0 0 1 50.5 -46 11 2 0.5 0.5
9 0 1 0 0 0 1 0 0 0 1 50.5 -80 46 2 0.5 0.5
9 0 1 0 0 0 1 0 0 0 1 42 -6.5 5 0.5 2 0.5
9 0 1 0 0 0 1 0 0 0 1 42 -83 69.5 0.5 0.5 2
9 0 1 0 0 0 1 0 0 0 1 42 -87 68.5 0.5 0.5 2
9 0 1 0 0 0 1 0 0 0 1 34.5 -42 9 2 0.5 0.5
9 0 1 0 0 0 1 0 0 0 1 34.5 -46 11 2 0.5 0.5
9 0 1 0 0 0 1 0 0 0 1 34.5 -80 46 2 0.5 0.5
9 0 1 0 0 0 1 0 0 0 1 30.5 -44 10 2 0.5 0.5
9 0 1 0 0 0 1 0 0 0 1 30.5 -82 50 2 0.5 0.5
9 0 1 0 0 0 1 0 0 0 1 29.5 -87 71 2 0.5 0.5
9 0 1 0 0 0 1 0 0 0 1 26.5 -42 9 2 0.5 0.5
9 0 1 0 0 0 1 0 0 0 1 26.5 -46 11 2 0.5 0.5
9 0 1 0 0 0 1 0 0 0 1 26.5 -80 46 2 0.5 0.5
9 0 1 0 0 0 1 0 0 0 1 22.5 -44 10 2 0.5 0.5
9 0 1 0 0 0 1 0 0 0 1 22.5 -82 50 2 0.5 0.5
9 0 1 0 0 0 1 0 0 0 1 21.5 -87 71 2 0.5 0.5
9 0 1 0 0 0 1 0 0 0 1 18.5 -19 3 2 0.5 0.5
9 0 1 0 0 0 1 0 0 0 1 18.5 -80 46 2 0.5 0.5
9 0 1 0 0 0 1 0 0 0 1 15.5 -40 8 2 0.5 0.5
9 0 1 0 0 0 1 0 0 0 1 14.5 -44 10 2 0.5 0.5
9 0 1 0 0 0 1 0 0 0 1 13.5 -87 71 2 0.5 0.5
9 0 1 0 0 0 1 0 0 0 1 10.5 -19 3 2 0.5 0.5
9 0 1 0 0 0 1 0 0 0 1 6.5 -44 10 2 0.5 0.5
9 0 1 0 0 0 1 0 0 0 1 5.5 -87 71 2 0.5 0.5
9 0 1 0 0 0 1 0 0 0 1 2.5 -19 3 2 0.5 0.5
9 0 1 0 0 0 1 0 0 0 1 0.5 -40 8 2 0.5 0.5
9 0 1 0 0 0 1 0 0 0 1 -0.5 -82 50 2 0.5 0.5
9 0 1 0 0 0 1 0 0 0 1 -2.5 -87 71 2 0.5 0.5
9 0 1 0 0 0 1 0 0 0 1 -5.5 -19 3 2 0.5 0.5
9 0 1 0 0 0 1 0 0 0 1 -6.5 -80 46 2 0.5 0.5
9 0 1 0 0 0 1 0 0 0 1 -10.5 -87 71 2 0.5 0.5
9 0 1 0 0 0 1 0 0 0 1 -13.5 -19 3 2 0.5 0.5
9 0 1 0 0 0 1 0 0 0 1 -14.5 -80 46 2 0.5 0.5
9 0 1 0 0 0 1 0 0 0 1 -15.5 -82 50 2 0.5 0.5
9 0 1 0 0 0 1 0 0 0 1 -18.5 -44 10 2 0.5 0.5
9 0 1 0 0 0 1 0 0 0 1 -18.5 -87 71 2 0.5 0.5
9 0 1 0 0 0 1 0 0 0 1 -21.5 -19 3 2 0.5 0.5
9 0 1 0 0 0 1 0 0 0 1 -22.5 -40 8 2 0.5 0.5
9 0 1 0 0 0 1 0 0 0 1 -22.5 -80 46 2 0.5 0.5
9 0 1 0 0 0 1 0 0 0 1 -26.5 -44 10 2 0.5 0.5
9 0 1 0 0 0 1 0 0 0 1 -26.5 -79 44 2 0.5 0.5
9 0 1 0 0 0 1 0 0 0 1 -26.5 -81 48 2 0.5 0.5
9 0 1 0 0 0 1 0 0 0 1 -29.5 -19 3 2 0.5 0.5
9 0 1 0 0 0 1 0 0 0 1 -30.5 -40 8 2 0.5 0.5
9 0 1 0 0 0 1 0 0 0 1 -30.5 -80 46 2 0.5 0.5
9 0 1 0 0 0 1 0 0 0 1 -34.5 -44 10 2 0.5 0.5
9 0 1 0 0 0 1 0 0 0 1 -34.5 -79 44 2 0.5 0.5
9 0 1 0 0 0 1 0 0 0 1 -34.5 -81 48 2 0.5 0.5
9 0 1 0 0 0 1 0 0 0 1 -42 -6.5 5 0.5 2 0.5
9 0 1 0 0 0 1 0 0 0 1 -42 -83 69.5 0.5 0.5 2
9 0 1 0 0 0 1 0 0 0 1 -50.5 -44 10 2 0.5 0.5
9 0 1 0 0 0 1 0 0 0 1 -50.5 -79 44 2 0.5 0.5
9 0 1 0 0 0 1 0 0 0 1 -50.5 -81 48 2 0.5 0.5
9 0 1 0 0 0 1 0 0 0 1 -53.5 -19 3 2 0.5 0.5
9 0 1 0 0 0 1 0 0 0 1 -53.5 -82 50 2 0.5 0.5
9 0 1 0 0 0 1 0 0 0 1 -54.5 -78 42 2 0.5 0.5
9 0 1 0 0 0 1 0 0 0 1 -54.5 -80 46 2 0.5 0.5
9 0 1 0 0 0 1 0 0 0 1 -58.5 -44 10 2 0.5 0.5
9 0 1 0 0 0 1 0 0 0 1 -58.5 -79 44 2 0.5 0.5
9 0 1 0 0 0 1 0 0 0 1 -61.5 -19 3 2 0.5 0.5
9 0 1 0 0 0 1 0 0 0 1 -61.5 -82 50 2 0.5 0.5
9 0 1 0 0 0 1 0 0 0 1 -62.5 -78 42 2 0.5 0.5
9 0 1 0 0 0 1 0 0 0 1 -62.5 -80 46 2 0.5 0.5
9 0 1 0 0 0 1 0 0 0 1 -66.5 -44 10 2 0.5 0.5
9 0 1 0 0 0 1 0 0 0 1 -66.5 -79 44 2 0.5 0.5
9 0 1 0 0 0 1 0 0 0 1 -68.5 -40 8 2 0.5 0.5
9 0 1 0 0 0 1 0 0 0 1 -70.5 -46 11 2 0.5 0.5
9 0 1 0 0 0 1 0 0 0 1 -70.5 -78 42 2 0.5 0.5
9 0 1 0 0 0 1 0 0 0 1 -70.5 -80 46 2 0.5 0.5
9 0 1 0 0 0 1 0 0 0 1 -74.5 -44 10 2 0.5 0.5
9 0 1 0 0 0 1 0 0 0 1 -74.5 -79 44 2 0.5 0.5
9 0 1 0 0 0 1 0 0 0 1 -76.5 -82 50 2 0.5 0.5
9 0 1 0 0 0 1 0 0 0 1 76 -82 50 1.5 0.5 0.5
9 0 1 0 0 0 1 0 0 0 1 74 -42 9 1.5 0.5 0.5
9 0 1 0 0 0 1 0 0 0 1 74 -78 42 1.5 0.5 0.5
9 0 1 0 0 0 1 0 0 0 1 72 -81 48 1.5 0.5 0.5
9 0 1 0 0 0 1 0 0 0 1 70 -87 71 1.5 0.5 0.5
9 0 1 0 0 0 1 0 0 0 1 66 -78 42 1.5 0.5 0.5
9 0 1 0 0 0 1 0 0 0 1 62 -79 44 1.5 0.5 0.5
9 0 1 0 0 0 1 0 0 0 1 58 -42 9 1.5 0.5 0.5
9 0 1 0 0 0 1 0 0 0 1 58 -78 42 1.5 0.5 0.5
9 0 1 0 0 0 1 0 0 0 1 56 -81 48 1.5 0.5 0.5
9 0 1 0 0 0 1 0 0 0 1 54 -79 44 1.5 0.5 0.5
9 0 1 0 0 0 1 0 0 0 1 50 -78 42 1.5 0.5 0.5
9 0 1 0 0 0 1 0 0 0 1 48 -81 48 1.5 0.5 0.5
9 0 1 0 0 0 1 0 0 0 1 47 -40 8 1.5 0.5 0.5
9 0 1 0 0 0 1 0 0 0 1 47 -44 10 1.5 0.5 0.5
9 0 1 0 0 0 1 0 0 0 1 42 -32 10 0.5 1.5 0.5
9 0 1 0 0 0 1 0 0 0 1 42 -35 11 0.5 1.5 0.5
9 0 1 0 0 0 1 0 0 0 1 42 -38 12 0.5 1.5 0.5
9 0 1 0 0 0 1 0 0 0 1 42 -86 63 0.5 0.5 1.5
9 0 1 0 0 0 1 0 0 0 1 37 -82 50 1.5 0.5 0.5
9 0 1 0 0 0 1 0 0 0 1 37 -87 71 1.5 0.5 0.5
9 0 1 0 0 0 1 0 0 0 1 34 -78 42 1.5 0.5 0.5
9 0 1 0 0 0 1 0 0 0 1 30 -48 12 1.5 0.5 0.5
9 0 1 0 0 0 1 0 0 0 1 30 -79 44 1.5 0.5 0.5
9 0 1 0 0 0 1 0 0 0 1 26 -78 42 1.5 0.5 0.5
9 0 1 0 0 0 1 0 0 0 1 22 -48 12 1.5 0.5 0.5
9 0 1 0 0 0 1 0 0 0 1 22 -79 44 1.5 0.5 0.5
9 0 1 0 0 0 1 0 0 0 1 18 -46 11 1.5 0.5 0.5
9 0 1 0 0 0 1 0 0 0 1 18 -78 42 1.5 0.5 0.5
9 0 1 0 0 0 1 0 0 0 1 14 -48 12 1.5 0.5 0.5
9 0 1 0 0 0 1 0 0 0 1 14 -79 44 1.5 0.5 0.5
9 0 1 0 0 0 1 0 0 0 1 11 -42 9 1.5 0.5 0.5
9 0 1 0 0 0 1 0 0 0 1 10 -46 11 1.5 0.5 0.5
9 0 1 0 0 0 1 0 0 0 1 10 -78 42 1.5 0.5 0.5
9 0 1 0 0 0 1 0 0 0 1 10 -80 46 1.5 0.5 0.5
9 0 1 0 0 0 1 0 0 0 1 8 -40 8 1.5 0.5 0.5
9 0 1 0 0 0 1 0 0 0 1 6 -48 12 1.5 0.5 0.5
9 0 1 0 0 0 1 0 0 0 1 6 -79 44 1.5 0.5 0.5
9 0 1 0 0 0 1 0 0 0 1 2 -46 11 1.5 0.5 0.5
9 0 1 0 0 0 1 0 0 0 1 2 -78 42 1.5 0.5 0.5
9 0 1 0 0 0 1 0 0 0 1 2 -80 46 1.5 0.5 0.5
9 0 1 0 0 0 1 0 0 0 1 -2 -44 10 1.5 0.5 0.5
9 0 1 0 0 0 1 0 0 0 1 -2 -48 12 1.5 0.5 0.5
9 0 1 0 0 0 1 0 0 0 1 -2 -79 44 1.5 0.5 0.5
9 0 1 0 0 0 1 0 0 0 1 -6 -46 11 1.5 0.5 0.5
9 0 1 0 0 0 1 0 0 0 1 -6 -78 42 1.5 0.5 0.5
9 0 1 0 0 0 1 0 0 0 1 -8 -82 50 1.5 0.5 0.5
9 0 1 0 0 0 1 0 0 0 1 -10 -44 10 1.5 0.5 0.5
9 0 1 0 0 0 1 0 0 0 1 -10 -48 12 1.5 0.5 0.5
9 0 1 0 0 0 1 0 0 0 1 -10 -79 44 1.5 0.5 0.5
9 0 1 0 0 0 1 0 0 0 1 -11 -81 48 1.5 0.5 0.5
9 0 1 0 0 0 1 0 0 0 1 -14 -46 11 1.5 0.5 0.5
9 0 1 0 0 0 1 0 0 0 1 -14 -78 42 1.5 0.5 0.5
9 0 1 0 0 0 1 0 0 0 1 -18 -48 12 1.5 0.5 0.5
9 0 1 0 0 0 1 0 0 0 1 -18 -79 44 1.5 0.5 0.5
9 0 1 0 0 0 1 0 0 0 1 -22 -46 11 1.5 0.5 0.5
9 0 1 0 0 0 1 0 0 0 1 -22 -78 42 1.5 0.5 0.5
9 0 1 0 0 0 1 0 0 0 1 -26 -48 12 1.5 0.5 0.5
9 0 1 0 0 0 1 0 0 0 1 -30 -46 11 1.5 0.5 0.5
9 0 1 0 0 0 1 0 0 0 1 -30 -78 42 1.5 0.5 0.5
9 0 1 0 0 0 1 0 0 0 1 -34 -48 12 1.5 0.5 0.5
9 0 1 0 0 0 1 0 0 0 1 -37 -19 3 1.5 0.5 0.5
9 0 1 0 0 0 1 0 0 0 1 -37 -40 8 1.5 0.5 0.5
9 0 1 0 0 0 1 0 0 0 1 -42 -32 10 0.5 1.5 0.5
9 0 1 0 0 0 1 0 0 0 1 -42 -35 11 0.5 1.5 0.5
9 0 1 0 0 0 1 0 0 0 1 -42 -38 12 0.5 1.5 0.5
9 0 1 0 0 0 1 0 0 0 1 -42 -86 63 0.5 0.5 1.5
9 0 1 0 0 0 1 0 0 0 1 -47 -80 46 1.5 0.5 0.5
9 0 1 0 0 0 1 0 0 0 1 -47 -82 50 1.5 0.5 0.5
9 0 1 0 0 0 1 0 0 0 1 -48 -42 9 1.5 0.5 0.5
9 0 1 0 0 0 1 0 0 0 1 -50 -48 12 1.5 0.5 0.5
9 0 1 0 0 0 1 0 0 0 1 -54 -46 11 1.5 0.5 0.5
9 0 1 0 0 0 1 0 0 0 1 -56 -42 9 1.5 0.5 0.5
9 0 1 0 0 0 1 0 0 0 1 -58 -48 12 1.5 0.5 0.5
9 0 1 0 0 0 1 0 0 0 1 -58 -81 48 1.5 0.5 0.5
9 0 1 0 0 0 1 0 0 0 1 -62 -46 11 1.5 0.5 0.5
9 0 1 0 0 0 1 0 0 0 1 -66 -48 12 1.5 0.5 0.5
9 0 1 0 0 0 1 0 0 0 1 -70 -19 3 1.5 0.5 0.5
9 0 1 0 0 0 1 0 0 0 1 -72 -42 9 1.5 0.5 0.5
9 0 1 0 0 0 1 0 0 0 1 -74 -48 12 1.5 0.5 0.5
9 0 1 0 0 0 1 0 0 0 1 -74 -81 48 1.5 0.5 0.5
9 0 1 0 0 0 1 0 0 0 1 -76 -40 8 1.5 0.5 0.5
