9 0 1 0 0 0 1 0 0 0 1 0 0 0 3.5 2.5 2.5
9 0 1 0 0 0 1 0 0 0 1 0 7 0 1.5 1.5 1.5
9 0 1 0 0 0 1 0 0 0 1 0 -7 0 1.5 1.5 1.5
9 0 1 0 0 0 1 0 0 0 1 0 0 -3 2.5 2.5 0.5
9 0 1 0 0 0 1 0 0 0 1 0 0 3 2.5 2.5 0.5
9 0 1 0 0 0 1 0 0 0 1 4 0 0 0.5 2.5 0.5
9 0 1 0 0 0 1 0 0 0 1 0.5 0.5 -4 1 1 0.5
9 0 1 0 0 0 1 0 0 0 1 0.5 -0.5 4 1 1 0.5
9 0 1 0 0 0 1 0 0 0 1 -4 0.5 -0.5 0.5 1 1
9 0 1 0 0 0 1 0 0 0 1 2 7 0 0.5 1.5 0.5
9 0 1 0 0 0 1 0 0 0 1 2 -7 0 0.5 1.5 0.5
9 0 1 0 0 0 1 0 0 0 1 0 7 -2 0.5 1.5 0.5
9 0 1 0 0 0 1 0 0 0 1 0 7 2 0.5 1.5 0.5
9 0 1 0 0 0 1 0 0 0 1 0 -7 -2 0.5 1.5 0.5
9 0 1 0 0 0 1 0 0 0 1 0 -7 2 0.5 1.5 0.5
9 0 1 0 0 0 1 0 0 0 1 -2 7 0 0.5 1.5 0.5
9 0 1 0 0 0 1 0 0 0 1 -2 -7 0 0.5 1.5 0.5
