9 0 1 0 0 0 1 0 0 0 1 9.993 20 19.5 4.5 2.5 4
9 0 1 0 0 0 1 0 0 0 1 -10.507 20 19.5 4 2.5 4
9 0 1 0 0 0 1 0 0 0 1 -0.006999969 -8.5 -0.5 2.5 3 3
9 0 1 0 0 0 1 0 0 0 1 -0.006999969 40 -20 1.5 6.5 1.5
9 0 1 0 0 0 1 0 0 0 1 -5.507 20 20 1 2.5 2.5
9 0 1 0 0 0 1 0 0 0 1 -0.006999969 -7.5 4.5 1.5 2 2
9 0 1 0 0 0 1 0 0 0 1 -0.006999969 26 -21 2.5 1.5 1.5
9 0 1 0 0 0 1 0 0 0 1 8.993 19.5 24 3.5 3 0.5
9 0 1 0 0 0 1 0 0 0 1 -9.007 19.5 24 3.5 3 0.5
9 0 1 0 0 0 1 0 0 0 1 9.493 19.5 15 3 3 0.5
9 0 1 0 0 0 1 0 0 0 1 -9.507 19.5 15 3 3 0.5
9 0 1 0 0 0 1 0 0 0 1 -2.507 19.5 25 8 1 0.5
9 0 1 0 0 0 1 0 0 0 1 1.993 40 -19.5 0.5 6.5 1
9 0 1 0 0 0 1 0 0 0 1 -2.007 40 -19.5 0.5 6.5 1
9 0 1 0 0 0 1 0 0 0 1 4.993 20 20 0.5 2.5 2.5
9 0 1 0 0 0 1 0 0 0 1 -0.006999969 -12 -1 1.5 0.5 3.5
9 0 1 0 0 0 1 0 0 0 1 7.993 20.5 25 2.5 2 0.5
9 0 1 0 0 0 1 0 0 0 1 2.993 -7.5 -1.5 0.5 2 2
9 0 1 0 0 0 1 0 0 0 1 -3.007 -7.5 -1.5 0.5 2 2
9 0 1 0 0 0 1 0 0 0 1 14.993 20 20 0.5 2.5 1.5
9 0 1 0 0 0 1 0 0 0 1 -0.006999969 45 -18 2.5 1.5 0.5
9 0 1 0 0 0 1 0 0 0 1 -0.006999969 -10 -4 2.5 1.5 0.5
9 0 1 0 0 0 1 0 0 0 1 -15.007 20 20 0.5 2.5 1.5
9 0 1 0 0 0 1 0 0 0 1 -9.007 21.5 25 3.5 1 0.5
9 0 1 0 0 0 1 0 0 0 1 -0.006999969 40 -22 0.5 6.5 0.5
9 0 1 0 0 0 1 0 0 0 1 -0.006999969 -6.5 7.5 1.5 1 1
9 0 1 0 0 0 1 0 0 0 1 -0.006999969 -10.5 3.5 1.5 1 1
9 0 1 0 0 0 1 0 0 0 1 15.993 16 2.5 0.5 0.5 5
9 0 1 0 0 0 1 0 0 0 1 3.993 18.5 22 0.5 1 2.5
9 0 1 0 0 0 1 0 0 0 1 1.993 -8 3.5 0.5 2.5 1
9 0 1 0 0 0 1 0 0 0 1 -0.006999969 24 -20.5 2.5 0.5 1
9 0 1 0 0 0 1 0 0 0 1 -0.006999969 -12 -5.5 2.5 0.5 1
9 0 1 0 0 0 1 0 0 0 1 -4.007 18.5 22 0.5 1 2.5
9 0 1 0 0 0 1 0 0 0 1 9.993 17 16 4.5 0.5 0.5
9 0 1 0 0 0 1 0 0 0 1 -2.007 -7 4 0.5 1.5 1.5
9 0 1 0 0 0 1 0 0 0 1 16.493 -1 2.5 1 0.5 2
9 0 1 0 0 0 1 0 0 0 1 13.493 20.5 24 1 2 0.5
9 0 1 0 0 0 1 0 0 0 1 -0.006999969 -13 -2.5 0.5 0.5 4
9 0 1 0 0 0 1 0 0 0 1 -13.507 20.5 24 1 2 0.5
9 0 1 0 0 0 1 0 0 0 1 -10.507 17 16 4 0.5 0.5
9 0 1 0 0 0 1 0 0 0 1 13.993 0 2.5 0.5 0.5 3
9 0 1 0 0 0 1 0 0 0 1 4.993 19 23.5 0.5 1.5 1
9 0 1 0 0 0 1 0 0 0 1 4.493 -6 -2 1 0.5 1.5
9 0 1 0 0 0 1 0 0 0 1 -0.006999969 33 -19.5 1.5 0.5 1
9 0 1 0 0 0 1 0 0 0 1 -5.007 19 23.5 0.5 1.5 1
9 0 1 0 0 0 1 0 0 0 1 -4.507 -6 -2 1 0.5 1.5
9 0 1 0 0 0 1 0 0 0 1 -6.007 21 16.5 0.5 1.5 1
9 0 1 0 0 0 1 0 0 0 1 -14.007 0 2.5 0.5 0.5 3
9 0 1 0 0 0 1 0 0 0 1 -16.007 16 0.5 0.5 0.5 3
9 0 1 0 0 0 1 0 0 0 1 -16.507 -1 2 1 0.5 1.5
9 0 1 0 0 0 1 0 0 0 1 15.993 15 3 0.5 0.5 2.5
9 0 1 0 0 0 1 0 0 0 1 7.993 22 26 2.5 0.5 0.5
9 0 1 0 0 0 1 0 0 0 1 -6.007 20 23 0.5 2.5 0.5
9 0 1 0 0 0 1 0 0 0 1 -6.007 18 25 2.5 0.5 0.5
9 0 1 0 0 0 1 0 0 0 1 -8.007 22 26 2.5 0.5 0.5
9 0 1 0 0 0 1 0 0 0 1 14.993 21.5 17.5 0.5 1 1
9 0 1 0 0 0 1 0 0 0 1 13.993 1 6.5 0.5 0.5 2
9 0 1 0 0 0 1 0 0 0 1 11.493 21.5 25 1 1 0.5
9 0 1 0 0 0 1 0 0 0 1 5.493 18 25 2 0.5 0.5
9 0 1 0 0 0 1 0 0 0 1 2.993 -10 -2.5 0.5 0.5 2
9 0 1 0 0 0 1 0 0 0 1 -0.507 -10.5 5 1 1 0.5
9 0 1 0 0 0 1 0 0 0 1 -3.007 -10 -2.5 0.5 0.5 2
9 0 1 0 0 0 1 0 0 0 1 -14.007 1 6.5 0.5 0.5 2
9 0 1 0 0 0 1 0 0 0 1 -15.007 21.5 17.5 0.5 1 1
9 0 1 0 0 0 1 0 0 0 1 3.993 21 20 0.5 1.5 0.5
9 0 1 0 0 0 1 0 0 0 1 1.993 42 -18 0.5 1.5 0.5
9 0 1 0 0 0 1 0 0 0 1 1.993 -7 5 0.5 1.5 0.5
9 0 1 0 0 0 1 0 0 0 1 -0.006999969 -8 7 1.5 0.5 0.5
9 0 1 0 0 0 1 0 0 0 1 -4.007 21 20 0.5 1.5 0.5
9 0 1 0 0 0 1 0 0 0 1 -16.007 15 2 0.5 0.5 1.5
