9 0 1 0 0 0 1 0 0 0 1 0.1660004 4.663 15.073 5.5 5.5 1
9 0 1 0 0 0 1 0 0 0 1 0.1660004 -8.837 -0.427 5.5 1 5.5
9 0 1 0 0 0 1 0 0 0 1 0.6660004 7.163 17.073 4 3 1
9 0 1 0 0 0 1 0 0 0 1 0.1660004 22.163 -17.427 4.5 1 2.5
9 0 1 0 0 0 1 0 0 0 1 12.666 6.663 9.573 1 6.5 1.5
9 0 1 0 0 0 1 0 0 0 1 10.666 4.663 11.573 1 6.5 1.5
9 0 1 0 0 0 1 0 0 0 1 -6.834 5.663 14.073 1.5 5.5 1
9 0 1 0 0 0 1 0 0 0 1 7.166 5.163 13.573 2.5 6 0.5
9 0 1 0 0 0 1 0 0 0 1 0.1660004 -10.337 -0.927 3.5 0.5 4
9 0 1 0 0 0 1 0 0 0 1 -11.334 5.163 11.073 1 7 1
9 0 1 0 0 0 1 0 0 0 1 -9.834 4.663 12.573 1.5 6.5 0.5
9 0 1 0 0 0 1 0 0 0 1 13.166 6.163 7.073 0.5 9 1
9 0 1 0 0 0 1 0 0 0 1 0.1660004 1.663 16.573 3.5 2.5 0.5
9 0 1 0 0 0 1 0 0 0 1 0.1660004 -8.337 -7.427 5.5 0.5 1.5
9 0 1 0 0 0 1 0 0 0 1 -7.334 -8.337 -0.927 2 0.5 4
9 0 1 0 0 0 1 0 0 0 1 7.166 7.663 15.073 1.5 2.5 1
9 0 1 0 0 0 1 0 0 0 1 -0.3339996 -8.337 6.573 5 0.5 1.5
9 0 1 0 0 0 1 0 0 0 1 -12.334 5.663 9.573 1 7.5 0.5
9 0 1 0 0 0 1 0 0 0 1 9.166 5.163 12.073 0.5 7 1
9 0 1 0 0 0 1 0 0 0 1 7.666 -8.337 -0.427 2 0.5 3.5
9 0 1 0 0 0 1 0 0 0 1 0.1660004 -1.837 15.073 3.5 1 1
9 0 1 0 0 0 1 0 0 0 1 14.666 15.163 4.573 1 2 1.5
9 0 1 0 0 0 1 0 0 0 1 -9.334 8.163 14.073 1 3 1
9 0 1 0 0 0 1 0 0 0 1 -13.334 7.663 10.573 1 5.5 0.5
9 0 1 0 0 0 1 0 0 0 1 0.1660004 20.663 -16.927 2.5 0.5 2
9 0 1 0 0 0 1 0 0 0 1 -5.334 7.663 16.573 2 2.5 0.5
9 0 1 0 0 0 1 0 0 0 1 -7.334 7.663 15.573 2 2.5 0.5
9 0 1 0 0 0 1 0 0 0 1 0.1660004 24.163 -18.427 4.5 1 0.5
9 0 1 0 0 0 1 0 0 0 1 -13.834 19.663 -6.927 0.5 1.5 3
9 0 1 0 0 0 1 0 0 0 1 -14.334 14.663 5.573 1 1.5 1.5
9 0 1 0 0 0 1 0 0 0 1 -12.834 5.663 8.573 0.5 8.5 0.5
9 0 1 0 0 0 1 0 0 0 1 13.666 20.163 -7.927 1 2 1
9 0 1 0 0 0 1 0 0 0 1 2.666 10.663 14.573 8 0.5 0.5
9 0 1 0 0 0 1 0 0 0 1 8.166 4.663 12.573 0.5 7.5 0.5
9 0 1 0 0 0 1 0 0 0 1 6.166 7.663 16.573 1.5 2.5 0.5
9 0 1 0 0 0 1 0 0 0 1 -6.834 -9.337 -1.427 1.5 0.5 2.5
9 0 1 0 0 0 1 0 0 0 1 -9.834 4.663 11.573 0.5 7.5 0.5
9 0 1 0 0 0 1 0 0 0 1 12.166 5.663 11.573 0.5 6.5 0.5
9 0 1 0 0 0 1 0 0 0 1 14.666 13.663 7.073 1 1.5 1
9 0 1 0 0 0 1 0 0 0 1 6.666 2.163 14.573 1 3 0.5
9 0 1 0 0 0 1 0 0 0 1 7.666 -9.337 -0.427 2 0.5 1.5
9 0 1 0 0 0 1 0 0 0 1 0.1660004 6.163 18.573 1.5 2 0.5
9 0 1 0 0 0 1 0 0 0 1 -14.834 16.163 2.573 0.5 2 1.5
9 0 1 0 0 0 1 0 0 0 1 -14.334 12.663 8.073 1 1.5 1
9 0 1 0 0 0 1 0 0 0 1 15.166 16.663 2.073 0.5 2.5 1
9 0 1 0 0 0 1 0 0 0 1 11.166 9.163 9.573 0.5 5 0.5
9 0 1 0 0 0 1 0 0 0 1 10.666 8.663 13.573 1 2.5 0.5
9 0 1 0 0 0 1 0 0 0 1 0.1660004 -3.837 14.573 2.5 1 0.5
9 0 1 0 0 0 1 0 0 0 1 -3.834 22.163 -14.427 2.5 1 0.5
9 0 1 0 0 0 1 0 0 0 1 14.166 8.663 10.573 0.5 4.5 0.5
9 0 1 0 0 0 1 0 0 0 1 3.166 21.663 -14.427 1.5 1.5 0.5
9 0 1 0 0 0 1 0 0 0 1 0.1660004 23.663 -19.427 4.5 0.5 0.5
9 0 1 0 0 0 1 0 0 0 1 0.1660004 23.663 -17.427 4.5 0.5 0.5
9 0 1 0 0 0 1 0 0 0 1 12.666 20.163 -9.427 1 2 0.5
9 0 1 0 0 0 1 0 0 0 1 9.666 8.163 14.573 1 2 0.5
9 0 1 0 0 0 1 0 0 0 1 7.666 21.663 -13.927 2 0.5 1
9 0 1 0 0 0 1 0 0 0 1 0.6660004 -9.337 -6.927 2 0.5 1
9 0 1 0 0 0 1 0 0 0 1 -4.334 7.163 17.573 1 2 0.5
9 0 1 0 0 0 1 0 0 0 1 -4.334 -10.337 -2.927 1 0.5 2
9 0 1 0 0 0 1 0 0 0 1 -12.334 20.163 -9.427 1 2 0.5
9 0 1 0 0 0 1 0 0 0 1 0.1660004 -8.337 8.573 3.5 0.5 0.5
9 0 1 0 0 0 1 0 0 0 1 12.166 -0.8369999 9.573 0.5 1 1.5
9 0 1 0 0 0 1 0 0 0 1 7.166 -8.337 -4.927 1.5 0.5 1
9 0 1 0 0 0 1 0 0 0 1 5.166 -10.337 -1.927 1.5 0.5 1
9 0 1 0 0 0 1 0 0 0 1 3.166 -0.8369999 -14.427 1.5 1 0.5
9 0 1 0 0 0 1 0 0 0 1 -1.334 22.663 -20.427 3 0.5 0.5
9 0 1 0 0 0 1 0 0 0 1 -2.834 -0.8369999 -14.427 1.5 1 0.5
9 0 1 0 0 0 1 0 0 0 1 -6.334 -1.337 13.573 1 1.5 0.5
9 0 1 0 0 0 1 0 0 0 1 -7.334 21.663 -14.427 1 0.5 1.5
9 0 1 0 0 0 1 0 0 0 1 -8.834 2.163 13.573 0.5 3 0.5
9 0 1 0 0 0 1 0 0 0 1 -14.334 11.663 9.573 1 1.5 0.5
9 0 1 0 0 0 1 0 0 0 1 13.166 3.663 11.573 0.5 2.5 0.5
9 0 1 0 0 0 1 0 0 0 1 0.1660004 3.663 17.573 2.5 0.5 0.5
9 0 1 0 0 0 1 0 0 0 1 0.1660004 -0.3369999 -15.427 2.5 0.5 0.5
9 0 1 0 0 0 1 0 0 0 1 0.1660004 -9.337 5.573 2.5 0.5 0.5
9 0 1 0 0 0 1 0 0 0 1 0.1660004 -10.337 -5.427 2.5 0.5 0.5
9 0 1 0 0 0 1 0 0 0 1 -9.834 -8.337 -0.427 0.5 0.5 2.5
9 0 1 0 0 0 1 0 0 0 1 -10.834 8.663 13.573 0.5 2.5 0.5
9 0 1 0 0 0 1 0 0 0 1 -11.834 8.663 12.573 0.5 2.5 0.5
9 0 1 0 0 0 1 0 0 0 1 -12.834 3.663 11.573 0.5 2.5 0.5
9 0 1 0 0 0 1 0 0 0 1 14.166 19.163 -6.427 0.5 2 0.5
9 0 1 0 0 0 1 0 0 0 1 14.666 17.663 4.073 1 0.5 1
9 0 1 0 0 0 1 0 0 0 1 14.666 12.163 8.573 1 1 0.5
9 0 1 0 0 0 1 0 0 0 1 10.666 12.163 10.573 1 1 0.5
9 0 1 0 0 0 1 0 0 0 1 10.666 0.1630001 13.573 1 1 0.5
9 0 1 0 0 0 1 0 0 0 1 10.666 -2.337 11.073 1 0.5 1
9 0 1 0 0 0 1 0 0 0 1 6.666 -9.337 -2.927 1 0.5 1
9 0 1 0 0 0 1 0 0 0 1 5.166 22.163 -14.927 0.5 1 1
9 0 1 0 0 0 1 0 0 0 1 5.666 -1.337 14.073 1 0.5 1
9 0 1 0 0 0 1 0 0 0 1 -0.3339996 -10.337 4.073 1 0.5 1
9 0 1 0 0 0 1 0 0 0 1 -0.3339996 -8.337 -9.427 2 0.5 0.5
9 0 1 0 0 0 1 0 0 0 1 -0.3339996 -11.337 -3.427 2 0.5 0.5
9 0 1 0 0 0 1 0 0 0 1 -4.334 -1.837 14.573 1 1 0.5
9 0 1 0 0 0 1 0 0 0 1 -3.334 -9.337 -6.427 2 0.5 0.5
9 0 1 0 0 0 1 0 0 0 1 -5.334 22.163 -15.427 1 1 0.5
9 0 1 0 0 0 1 0 0 0 1 -9.334 21.663 -12.927 1 0.5 1
9 0 1 0 0 0 1 0 0 0 1 -10.334 0.1630001 13.573 1 1 0.5
9 0 1 0 0 0 1 0 0 0 1 -11.834 1.163 12.573 0.5 2 0.5
9 0 1 0 0 0 1 0 0 0 1 -12.834 20.163 -8.427 0.5 2 0.5
9 0 1 0 0 0 1 0 0 0 1 -13.834 -1.837 5.073 0.5 1 1
9 0 1 0 0 0 1 0 0 0 1 -14.834 19.163 -6.427 0.5 2 0.5
9 0 1 0 0 0 1 0 0 0 1 -14.334 17.163 4.573 1 1 0.5
9 0 1 0 0 0 1 0 0 0 1 -14.334 12.663 6.073 1 0.5 1
9 0 1 0 0 0 1 0 0 0 1 -15.834 15.163 2.073 0.5 1 1
9 0 1 0 0 0 1 0 0 0 1 14.166 11.663 9.573 0.5 1.5 0.5
9 0 1 0 0 0 1 0 0 0 1 14.166 15.663 6.573 1.5 0.5 0.5
9 0 1 0 0 0 1 0 0 0 1 13.166 13.663 8.573 1.5 0.5 0.5
9 0 1 0 0 0 1 0 0 0 1 12.166 1.663 12.573 0.5 1.5 0.5
9 0 1 0 0 0 1 0 0 0 1 10.166 -8.337 0.573 0.5 0.5 1.5
9 0 1 0 0 0 1 0 0 0 1 9.166 8.663 15.573 0.5 1.5 0.5
9 0 1 0 0 0 1 0 0 0 1 0.1660004 -8.337 9.573 1.5 0.5 0.5
9 0 1 0 0 0 1 0 0 0 1 -1.834 5.663 18.573 0.5 1.5 0.5
9 0 1 0 0 0 1 0 0 0 1 -2.834 20.663 -14.427 1.5 0.5 0.5
9 0 1 0 0 0 1 0 0 0 1 -4.834 4.663 16.573 1.5 0.5 0.5
9 0 1 0 0 0 1 0 0 0 1 -5.834 -8.337 -6.427 0.5 0.5 1.5
9 0 1 0 0 0 1 0 0 0 1 -8.834 -9.337 -0.427 0.5 0.5 1.5
9 0 1 0 0 0 1 0 0 0 1 -12.834 0.6630001 10.573 0.5 1.5 0.5
9 0 1 0 0 0 1 0 0 0 1 -13.834 21.663 -8.427 0.5 0.5 1.5
9 0 1 0 0 0 1 0 0 0 1 -14.834 -1.337 1.573 0.5 0.5 1.5
