9 0 1 0 0 0 1 0 0 0 1 15.171 -47.409 5.753006 1 5 9.5
9 0 1 0 0 0 1 0 0 0 1 -14.829 -48.409 9.253006 1 3 14
9 0 1 0 0 0 1 0 0 0 1 0.1709976 0.09100342 -10.24699 1 4.5 8.5
9 0 1 0 0 0 1 0 0 0 1 15.171 -33.909 0.753006 1 4.5 7.5
9 0 1 0 0 0 1 0 0 0 1 -14.829 -33.909 0.753006 1 4.5 7.5
9 0 1 0 0 0 1 0 0 0 1 -15.329 -41.909 2.753006 0.5 3.5 13.5
9 0 1 0 0 0 1 0 0 0 1 15.171 -42.909 -6.746994 1 4.5 3
9 0 1 0 0 0 1 0 0 0 1 14.671 -48.409 18.75301 0.5 4 3.5
9 0 1 0 0 0 1 0 0 0 1 14.671 -35.409 -8.246994 1.5 3 1.5
9 0 1 0 0 0 1 0 0 0 1 15.671 -40.409 2.253006 0.5 2 6
9 0 1 0 0 0 1 0 0 0 1 -15.329 -52.409 12.75301 0.5 1 11.5
9 0 1 0 0 0 1 0 0 0 1 13.671 -33.909 -4.746994 0.5 4.5 2
9 0 1 0 0 0 1 0 0 0 1 5.170998 -0.4089966 -23.24699 1 3 1.5
9 0 1 0 0 0 1 0 0 0 1 -14.829 -35.409 -8.246994 1 3 1.5
9 0 1 0 0 0 1 0 0 0 1 -14.829 -35.409 9.753006 1 3 1.5
9 0 1 0 0 0 1 0 0 0 1 -17.329 -71.409 20.25301 0.5 3 3
9 0 1 0 0 0 1 0 0 0 1 17.671 -73.909 21.75301 0.5 2.5 3.5
9 0 1 0 0 0 1 0 0 0 1 15.171 -40.409 -10.74699 1 4 1
9 0 1 0 0 0 1 0 0 0 1 14.171 -10.409 -10.74699 1 2 2
9 0 1 0 0 0 1 0 0 0 1 -14.829 -10.409 -10.74699 1 2 2
9 0 1 0 0 0 1 0 0 0 1 15.671 -54.909 17.25301 0.5 2.5 3
9 0 1 0 0 0 1 0 0 0 1 16.671 -64.409 19.75301 0.5 2 3.5
9 0 1 0 0 0 1 0 0 0 1 15.171 -28.409 0.753006 1 1 3.5
9 0 1 0 0 0 1 0 0 0 1 13.671 -49.409 0.253006 0.5 1 7
9 0 1 0 0 0 1 0 0 0 1 -14.829 -28.409 0.753006 1 1 3.5
9 0 1 0 0 0 1 0 0 0 1 0.1709976 5.591003 -23.24699 2 1 1.5
9 0 1 0 0 0 1 0 0 0 1 0.1709976 -5.408997 -22.74699 3 1 1
9 0 1 0 0 0 1 0 0 0 1 -14.329 -44.409 -4.746994 0.5 1 6
9 0 1 0 0 0 1 0 0 0 1 -14.829 -46.909 -6.746994 1 1.5 2
9 0 1 0 0 0 1 0 0 0 1 -16.329 -61.409 21.25301 0.5 2 3
9 0 1 0 0 0 1 0 0 0 1 -17.329 -66.409 24.25301 0.5 2 3
9 0 1 0 0 0 1 0 0 0 1 -6.829002 -32.909 -24.24699 1 5.5 0.5
9 0 1 0 0 0 1 0 0 0 1 -5.329002 0.09100342 -23.24699 0.5 3.5 1.5
9 0 1 0 0 0 1 0 0 0 1 14.671 -35.409 9.753006 0.5 3 1.5
9 0 1 0 0 0 1 0 0 0 1 15.171 -48.909 -5.246994 1 1.5 1.5
9 0 1 0 0 0 1 0 0 0 1 -14.329 -51.909 5.253006 0.5 0.5 9
9 0 1 0 0 0 1 0 0 0 1 -14.829 -49.909 24.75301 1 1.5 1.5
9 0 1 0 0 0 1 0 0 0 1 -16.329 -57.909 27.25301 0.5 1.5 3
9 0 1 0 0 0 1 0 0 0 1 -18.329 -74.409 27.75301 0.5 3 1.5
9 0 1 0 0 0 1 0 0 0 1 -4.329002 0.09100342 -10.24699 0.5 0.5 8.5
9 0 1 0 0 0 1 0 0 0 1 17.671 -66.409 28.25301 0.5 2 2
9 0 1 0 0 0 1 0 0 0 1 16.671 -61.409 25.25301 0.5 2 2
9 0 1 0 0 0 1 0 0 0 1 14.671 -50.409 24.25301 0.5 2 2
9 0 1 0 0 0 1 0 0 0 1 0.1709976 10.091 -25.74699 4 0.5 1
9 0 1 0 0 0 1 0 0 0 1 -15.329 -54.409 18.25301 0.5 1 4
9 0 1 0 0 0 1 0 0 0 1 -18.329 -67.409 33.25301 0.5 2 2
9 0 1 0 0 0 1 0 0 0 1 16.671 -58.409 30.75301 0.5 1 3.5
9 0 1 0 0 0 1 0 0 0 1 14.171 8.091003 -12.24699 1 0.5 3.5
9 0 1 0 0 0 1 0 0 0 1 15.671 -52.909 7.753006 0.5 0.5 6.5
9 0 1 0 0 0 1 0 0 0 1 17.671 -69.409 24.75301 0.5 2 1.5
9 0 1 0 0 0 1 0 0 0 1 15.671 -49.409 16.25301 0.5 3 1
9 0 1 0 0 0 1 0 0 0 1 -14.329 -44.909 7.253006 0.5 0.5 6
9 0 1 0 0 0 1 0 0 0 1 -14.829 -36.909 -10.74699 1 1.5 1
9 0 1 0 0 0 1 0 0 0 1 -14.829 -36.909 12.25301 1 1.5 1
9 0 1 0 0 0 1 0 0 0 1 -15.329 -43.409 17.75301 0.5 2 1.5
9 0 1 0 0 0 1 0 0 0 1 -17.329 -60.909 33.25301 0.5 1.5 2
9 0 1 0 0 0 1 0 0 0 1 6.670998 -32.909 -24.24699 0.5 5.5 0.5
9 0 1 0 0 0 1 0 0 0 1 18.671 -69.909 34.25301 0.5 2.5 1
9 0 1 0 0 0 1 0 0 0 1 15.671 -55.909 25.25301 0.5 0.5 5
9 0 1 0 0 0 1 0 0 0 1 14.671 -43.409 17.75301 0.5 1 2.5
9 0 1 0 0 0 1 0 0 0 1 13.671 -47.909 -3.746994 0.5 0.5 5
9 0 1 0 0 0 1 0 0 0 1 -15.329 -9.908997 -7.746994 0.5 2.5 1
9 0 1 0 0 0 1 0 0 0 1 -17.329 -63.409 28.75301 0.5 1 2.5
9 0 1 0 0 0 1 0 0 0 1 -18.329 -70.409 30.75301 0.5 1 2.5
9 0 1 0 0 0 1 0 0 0 1 18.671 -72.909 31.75301 0.5 1.5 1.5
9 0 1 0 0 0 1 0 0 0 1 17.671 -63.909 31.75301 0.5 1.5 1.5
9 0 1 0 0 0 1 0 0 0 1 -4.329002 0.09100342 -22.24699 0.5 4.5 0.5
9 0 1 0 0 0 1 0 0 0 1 -17.329 -75.909 20.75301 0.5 1.5 1.5
9 0 1 0 0 0 1 0 0 0 1 -18.329 -77.909 24.75301 0.5 1.5 1.5
9 0 1 0 0 0 1 0 0 0 1 17.671 -77.409 22.25301 0.5 1 2
9 0 1 0 0 0 1 0 0 0 1 13.671 9.091003 -17.74699 0.5 0.5 4
9 0 1 0 0 0 1 0 0 0 1 14.171 -7.408997 -9.746994 1 1 1
9 0 1 0 0 0 1 0 0 0 1 14.171 -13.409 -9.746994 1 1 1
9 0 1 0 0 0 1 0 0 0 1 13.671 -50.909 -0.746994 0.5 0.5 4
9 0 1 0 0 0 1 0 0 0 1 -0.8290024 -85.909 9.753006 4 0.5 0.5
9 0 1 0 0 0 1 0 0 0 1 -14.829 -49.409 -5.746994 1 1 1
9 0 1 0 0 0 1 0 0 0 1 -16.329 -62.409 17.25301 0.5 2 1
9 0 1 0 0 0 1 0 0 0 1 2.670998 -4.908997 -24.24699 3.5 0.5 0.5
9 0 1 0 0 0 1 0 0 0 1 -14.329 9.091003 -17.24699 0.5 0.5 3.5
9 0 1 0 0 0 1 0 0 0 1 -14.329 8.091003 -12.24699 0.5 0.5 3.5
9 0 1 0 0 0 1 0 0 0 1 16.671 -60.409 28.75301 0.5 1 1.5
9 0 1 0 0 0 1 0 0 0 1 15.671 -50.909 18.25301 0.5 1.5 1
9 0 1 0 0 0 1 0 0 0 1 15.671 -57.909 18.25301 0.5 0.5 3
9 0 1 0 0 0 1 0 0 0 1 14.671 -36.909 12.25301 0.5 1.5 1
9 0 1 0 0 0 1 0 0 0 1 14.671 -41.909 -0.746994 0.5 0.5 3
9 0 1 0 0 0 1 0 0 0 1 14.671 -52.909 4.253006 0.5 0.5 3
9 0 1 0 0 0 1 0 0 0 1 14.671 -28.909 -3.746994 1.5 0.5 1
9 0 1 0 0 0 1 0 0 0 1 14.671 -31.409 -7.246994 1.5 1 0.5
9 0 1 0 0 0 1 0 0 0 1 14.671 -35.409 -10.24699 1.5 1 0.5
9 0 1 0 0 0 1 0 0 0 1 4.670998 3.591003 -23.24699 0.5 1 1.5
9 0 1 0 0 0 1 0 0 0 1 4.170998 -3.908997 -23.24699 1 0.5 1.5
9 0 1 0 0 0 1 0 0 0 1 -2.829002 5.091003 -23.24699 1 0.5 1.5
9 0 1 0 0 0 1 0 0 0 1 -6.329002 -0.4089966 -23.24699 0.5 1 1.5
9 0 1 0 0 0 1 0 0 0 1 -14.829 -12.909 -10.24699 1 0.5 1.5
9 0 1 0 0 0 1 0 0 0 1 -15.329 -41.409 -11.24699 0.5 3 0.5
9 0 1 0 0 0 1 0 0 0 1 -19.329 -73.909 35.25301 0.5 1.5 1
9 0 1 0 0 0 1 0 0 0 1 14.671 -39.909 -14.24699 0.5 0.5 2.5
9 0 1 0 0 0 1 0 0 0 1 -15.329 -51.909 -1.246994 0.5 0.5 2.5
9 0 1 0 0 0 1 0 0 0 1 -15.329 -55.909 16.75301 0.5 0.5 2.5
9 0 1 0 0 0 1 0 0 0 1 18.671 -75.409 30.25301 0.5 1 1
9 0 1 0 0 0 1 0 0 0 1 17.671 -62.409 34.25301 0.5 1 1
9 0 1 0 0 0 1 0 0 0 1 17.671 -70.409 22.25301 0.5 1 1
9 0 1 0 0 0 1 0 0 0 1 16.671 -61.409 22.25301 0.5 1 1
9 0 1 0 0 0 1 0 0 0 1 16.671 -71.409 15.75301 0.5 2 0.5
9 0 1 0 0 0 1 0 0 0 1 15.671 -56.909 22.25301 0.5 0.5 2
9 0 1 0 0 0 1 0 0 0 1 15.171 -28.909 5.253006 1 0.5 1
9 0 1 0 0 0 1 0 0 0 1 15.171 -47.909 -7.746994 1 0.5 1
9 0 1 0 0 0 1 0 0 0 1 14.671 -47.409 23.25301 0.5 1 1
9 0 1 0 0 0 1 0 0 0 1 14.671 -51.409 27.25301 0.5 1 1
9 0 1 0 0 0 1 0 0 0 1 13.671 -37.409 -10.74699 0.5 1 1
9 0 1 0 0 0 1 0 0 0 1 6.170998 10.091 -25.24699 2 0.5 0.5
9 0 1 0 0 0 1 0 0 0 1 3.670998 4.591003 -23.74699 0.5 1 1
9 0 1 0 0 0 1 0 0 0 1 -3.329002 -4.408997 -22.74699 0.5 1 1
9 0 1 0 0 0 1 0 0 0 1 -3.829002 4.091003 -23.74699 1 0.5 1
9 0 1 0 0 0 1 0 0 0 1 -4.329002 -3.408997 -23.74699 0.5 1 1
9 0 1 0 0 0 1 0 0 0 1 -5.829002 10.091 -25.24699 2 0.5 0.5
9 0 1 0 0 0 1 0 0 0 1 -14.329 -7.408997 -9.746994 0.5 1 1
9 0 1 0 0 0 1 0 0 0 1 -14.829 -28.909 -3.746994 1 0.5 1
9 0 1 0 0 0 1 0 0 0 1 -14.829 -28.909 5.253006 1 0.5 1
9 0 1 0 0 0 1 0 0 0 1 -14.829 -31.409 -7.246994 1 1 0.5
9 0 1 0 0 0 1 0 0 0 1 -14.829 -31.409 8.753006 1 1 0.5
9 0 1 0 0 0 1 0 0 0 1 -15.329 -44.409 20.25301 0.5 1 1
9 0 1 0 0 0 1 0 0 0 1 -14.829 -46.409 -9.246994 1 1 0.5
9 0 1 0 0 0 1 0 0 0 1 -14.829 -47.409 23.75301 1 1 0.5
9 0 1 0 0 0 1 0 0 0 1 -14.829 -50.409 26.75301 1 1 0.5
9 0 1 0 0 0 1 0 0 0 1 -15.329 -51.909 26.75301 0.5 0.5 2.5
9 0 1 0 0 0 1 0 0 0 1 -16.329 -56.909 32.25301 0.5 0.5 2
9 0 1 0 0 0 1 0 0 0 1 -16.329 -58.409 23.25301 0.5 1 1
9 0 1 0 0 0 1 0 0 0 1 -16.329 -59.909 26.25301 0.5 0.5 2
9 0 1 0 0 0 1 0 0 0 1 -17.329 -65.409 28.25301 0.5 1 1
9 0 1 0 0 0 1 0 0 0 1 -17.329 -67.409 20.25301 0.5 1 1
9 0 1 0 0 0 1 0 0 0 1 -17.329 -71.409 16.25301 0.5 1 1
9 0 1 0 0 0 1 0 0 0 1 -18.329 -68.409 30.25301 0.5 1 1
9 0 1 0 0 0 1 0 0 0 1 -18.329 -72.409 30.25301 0.5 1 1
9 0 1 0 0 0 1 0 0 0 1 -19.329 -71.409 36.75301 0.5 2 0.5
9 0 1 0 0 0 1 0 0 0 1 19.671 -72.909 37.75301 0.5 1.5 0.5
9 0 1 0 0 0 1 0 0 0 1 18.671 -69.909 35.75301 0.5 1.5 0.5
9 0 1 0 0 0 1 0 0 0 1 18.671 -76.909 28.75301 0.5 1.5 0.5
9 0 1 0 0 0 1 0 0 0 1 17.671 -68.909 27.75301 0.5 0.5 1.5
9 0 1 0 0 0 1 0 0 0 1 16.671 -66.909 17.75301 0.5 0.5 1.5
9 0 1 0 0 0 1 0 0 0 1 14.671 9.091003 -15.24699 0.5 0.5 1.5
9 0 1 0 0 0 1 0 0 0 1 14.671 -31.909 -8.246994 1.5 0.5 0.5
9 0 1 0 0 0 1 0 0 0 1 14.671 -48.909 -7.246994 1.5 0.5 0.5
9 0 1 0 0 0 1 0 0 0 1 2.670998 5.091003 -23.24699 0.5 0.5 1.5
9 0 1 0 0 0 1 0 0 0 1 -6.329002 -2.908997 -24.24699 0.5 1.5 0.5
9 0 1 0 0 0 1 0 0 0 1 -14.329 -42.909 -10.24699 0.5 0.5 1.5
9 0 1 0 0 0 1 0 0 0 1 -14.329 -52.909 2.753006 0.5 0.5 1.5
9 0 1 0 0 0 1 0 0 0 1 -15.329 -10.909 -6.246994 0.5 1.5 0.5
9 0 1 0 0 0 1 0 0 0 1 -17.329 -58.909 34.75301 0.5 0.5 1.5
9 0 1 0 0 0 1 0 0 0 1 -17.329 -61.909 29.75301 0.5 0.5 1.5
9 0 1 0 0 0 1 0 0 0 1 -17.329 -63.909 24.75301 0.5 0.5 1.5
9 0 1 0 0 0 1 0 0 0 1 -17.329 -69.909 23.75301 0.5 1.5 0.5
9 0 1 0 0 0 1 0 0 0 1 -18.329 -74.909 25.75301 0.5 1.5 0.5
9 0 1 0 0 0 1 0 0 0 1 -18.329 -79.909 23.75301 0.5 0.5 1.5
