9 0 1 0 0 0 1 0 0 0 1 29.356 2.584 4.118 1 8 6
9 0 1 0 0 0 1 0 0 0 1 -0.144001 -9.916 0.118 4.5 8.5 1
9 0 1 0 0 0 1 0 0 0 1 -28.644 4.584 -0.382 1 5 4.5
9 0 1 0 0 0 1 0 0 0 1 27.856 0.5839996 -1.382 0.5 8 2.5
9 0 1 0 0 0 1 0 0 0 1 -29.144 4.084 7.118 0.5 6.5 3
9 0 1 0 0 0 1 0 0 0 1 0.355999 -23.416 5.118 4 2 1
9 0 1 0 0 0 1 0 0 0 1 24.856 16.084 -14.382 0.5 5.5 2.5
9 0 1 0 0 0 1 0 0 0 1 -24.144 17.584 -17.382 0.5 5 2.5
9 0 1 0 0 0 1 0 0 0 1 29.356 4.584 -3.382 1 4 1.5
9 0 1 0 0 0 1 0 0 0 1 29.356 1.584 11.118 1 6 1
9 0 1 0 0 0 1 0 0 0 1 0.355999 15.584 -46.882 3 2 1
9 0 1 0 0 0 1 0 0 0 1 23.856 18.084 -19.382 0.5 4.5 2.5
9 0 1 0 0 0 1 0 0 0 1 -25.144 16.084 -13.382 0.5 4.5 2.5
9 0 1 0 0 0 1 0 0 0 1 27.856 12.084 -4.882 0.5 3.5 3
9 0 1 0 0 0 1 0 0 0 1 29.356 11.584 3.618 1 1 4.5
9 0 1 0 0 0 1 0 0 0 1 27.856 -2.916 10.118 0.5 4.5 2
9 0 1 0 0 0 1 0 0 0 1 27.356 -4.916 -6.382 2 1.5 1.5
9 0 1 0 0 0 1 0 0 0 1 5.855999 -22.916 0.118 1.5 1.5 2
9 0 1 0 0 0 1 0 0 0 1 -5.644001 -22.916 0.118 1 1.5 3
9 0 1 0 0 0 1 0 0 0 1 -28.144 0.5839996 7.118 0.5 3 3
9 0 1 0 0 0 1 0 0 0 1 -28.644 -1.916 1.118 1 1.5 3
9 0 1 0 0 0 1 0 0 0 1 -0.144001 11.084 -45.382 3.5 2.5 0.5
9 0 1 0 0 0 1 0 0 0 1 -28.144 12.084 -1.382 0.5 2.5 3.5
9 0 1 0 0 0 1 0 0 0 1 -23.144 18.084 -22.382 0.5 5.5 1.5
9 0 1 0 0 0 1 0 0 0 1 0.355999 8.584 -44.382 4 2 0.5
9 0 1 0 0 0 1 0 0 0 1 -22.144 21.584 -27.882 0.5 4 2
9 0 1 0 0 0 1 0 0 0 1 26.356 17.084 -13.382 1 1.5 2.5
9 0 1 0 0 0 1 0 0 0 1 22.856 21.584 -25.382 0.5 3 2.5
9 0 1 0 0 0 1 0 0 0 1 21.856 21.584 -28.382 0.5 5 1.5
9 0 1 0 0 0 1 0 0 0 1 -0.144001 19.084 -47.882 2.5 1.5 1
9 0 1 0 0 0 1 0 0 0 1 -0.144001 -22.416 -5.382 2.5 1 1.5
9 0 1 0 0 0 1 0 0 0 1 -26.644 17.084 -13.382 1 1.5 2.5
9 0 1 0 0 0 1 0 0 0 1 -0.144001 5.584 -43.382 3.5 2 0.5
9 0 1 0 0 0 1 0 0 0 1 -28.644 4.084 11.118 1 3.5 1
9 0 1 0 0 0 1 0 0 0 1 -0.144001 -23.916 6.618 2.5 2.5 0.5
9 0 1 0 0 0 1 0 0 0 1 -29.144 12.084 3.118 0.5 1.5 4
9 0 1 0 0 0 1 0 0 0 1 29.356 -5.916 4.618 1 0.5 5.5
9 0 1 0 0 0 1 0 0 0 1 -0.144001 3.584 -42.382 5.5 1 0.5
9 0 1 0 0 0 1 0 0 0 1 27.856 -6.916 4.618 1.5 0.5 3.5
9 0 1 0 0 0 1 0 0 0 1 -25.144 9.584 -11.382 0.5 2 2.5
9 0 1 0 0 0 1 0 0 0 1 27.856 -1.916 2.118 0.5 4.5 1
9 0 1 0 0 0 1 0 0 0 1 24.856 19.584 -18.382 0.5 3 1.5
9 0 1 0 0 0 1 0 0 0 1 -24.144 20.584 -21.382 0.5 3 1.5
9 0 1 0 0 0 1 0 0 0 1 -25.144 19.584 -17.382 0.5 3 1.5
9 0 1 0 0 0 1 0 0 0 1 -0.144001 -9.916 -4.382 0.5 8.5 0.5
9 0 1 0 0 0 1 0 0 0 1 -0.144001 -9.916 4.618 0.5 8.5 0.5
9 0 1 0 0 0 1 0 0 0 1 27.856 0.5839996 -4.382 0.5 8 0.5
9 0 1 0 0 0 1 0 0 0 1 -21.144 28.584 -32.882 0.5 4 1
9 0 1 0 0 0 1 0 0 0 1 25.856 20.084 -13.382 0.5 1.5 2.5
9 0 1 0 0 0 1 0 0 0 1 -0.144001 12.084 -46.382 2.5 1.5 0.5
9 0 1 0 0 0 1 0 0 0 1 -23.144 22.084 -25.382 0.5 2.5 1.5
9 0 1 0 0 0 1 0 0 0 1 28.856 -2.916 -2.882 0.5 3.5 1
9 0 1 0 0 0 1 0 0 0 1 23.356 20.084 -22.382 1 3.5 0.5
9 0 1 0 0 0 1 0 0 0 1 -21.144 22.084 -30.882 0.5 3.5 1
9 0 1 0 0 0 1 0 0 0 1 -28.644 -3.916 3.618 1 0.5 3.5
9 0 1 0 0 0 1 0 0 0 1 28.356 4.584 -5.382 1 3 0.5
9 0 1 0 0 0 1 0 0 0 1 27.856 -5.416 -8.882 1.5 1 1
9 0 1 0 0 0 1 0 0 0 1 26.356 18.584 -17.382 1 1 1.5
9 0 1 0 0 0 1 0 0 0 1 22.856 16.584 -24.382 0.5 2 1.5
9 0 1 0 0 0 1 0 0 0 1 4.855999 -23.416 3.618 0.5 2 1.5
9 0 1 0 0 0 1 0 0 0 1 4.355999 -22.916 -3.882 1 1.5 1
9 0 1 0 0 0 1 0 0 0 1 0.355999 -23.916 -5.882 3 0.5 1
9 0 1 0 0 0 1 0 0 0 1 -4.644001 -22.916 -3.882 1 1.5 1
9 0 1 0 0 0 1 0 0 0 1 -25.644 14.584 -10.382 1 3 0.5
9 0 1 0 0 0 1 0 0 0 1 20.856 28.084 -33.382 0.5 5.5 0.5
9 0 1 0 0 0 1 0 0 0 1 25.856 13.084 -10.882 0.5 2.5 1
9 0 1 0 0 0 1 0 0 0 1 24.856 13.084 -11.382 0.5 6.5 0.5
9 0 1 0 0 0 1 0 0 0 1 -4.144001 -23.916 4.118 0.5 2.5 1
9 0 1 0 0 0 1 0 0 0 1 -28.144 9.084 -5.882 0.5 2.5 1
9 0 1 0 0 0 1 0 0 0 1 -28.644 -2.916 6.618 1 0.5 2.5
9 0 1 0 0 0 1 0 0 0 1 23.856 12.084 -18.382 0.5 1.5 1.5
9 0 1 0 0 0 1 0 0 0 1 -0.144001 -25.916 5.618 4.5 0.5 0.5
9 0 1 0 0 0 1 0 0 0 1 29.356 13.084 4.118 1 0.5 2
9 0 1 0 0 0 1 0 0 0 1 26.856 -6.416 10.118 0.5 1 2
9 0 1 0 0 0 1 0 0 0 1 26.356 -5.916 -2.882 1 0.5 2
9 0 1 0 0 0 1 0 0 0 1 26.356 -6.916 -0.882 1 0.5 2
9 0 1 0 0 0 1 0 0 0 1 23.856 22.584 -23.882 0.5 2 1
9 0 1 0 0 0 1 0 0 0 1 21.856 23.584 -30.382 0.5 4 0.5
9 0 1 0 0 0 1 0 0 0 1 20.856 21.584 -31.882 0.5 2 1
9 0 1 0 0 0 1 0 0 0 1 -22.144 15.584 -26.882 0.5 2 1
9 0 1 0 0 0 1 0 0 0 1 -26.144 19.084 -14.882 0.5 0.5 4
9 0 1 0 0 0 1 0 0 0 1 -28.644 4.584 -5.382 1 2 0.5
9 0 1 0 0 0 1 0 0 0 1 28.856 3.084 12.618 0.5 3.5 0.5
9 0 1 0 0 0 1 0 0 0 1 -29.144 10.084 0.618 0.5 0.5 3.5
9 0 1 0 0 0 1 0 0 0 1 27.856 14.084 -8.882 0.5 1.5 1
9 0 1 0 0 0 1 0 0 0 1 27.856 11.584 -1.382 0.5 3 0.5
9 0 1 0 0 0 1 0 0 0 1 24.856 9.584 -13.382 0.5 1 1.5
9 0 1 0 0 0 1 0 0 0 1 25.356 -4.916 -8.382 1 1.5 0.5
9 0 1 0 0 0 1 0 0 0 1 5.355999 -22.916 -2.382 1 1.5 0.5
9 0 1 0 0 0 1 0 0 0 1 4.855999 6.584 -43.382 1.5 1 0.5
9 0 1 0 0 0 1 0 0 0 1 0.355999 17.084 -48.382 3 0.5 0.5
9 0 1 0 0 0 1 0 0 0 1 -3.144001 -22.916 -4.882 0.5 1.5 1
9 0 1 0 0 0 1 0 0 0 1 -4.144001 -21.916 0.118 0.5 0.5 3
9 0 1 0 0 0 1 0 0 0 1 -5.144001 -24.916 2.118 0.5 0.5 3
9 0 1 0 0 0 1 0 0 0 1 -5.144001 6.584 -43.382 1.5 1 0.5
9 0 1 0 0 0 1 0 0 0 1 -22.144 24.584 -30.382 0.5 3 0.5
9 0 1 0 0 0 1 0 0 0 1 -22.144 20.584 -25.382 0.5 3 0.5
9 0 1 0 0 0 1 0 0 0 1 -24.144 11.584 -17.382 0.5 1 1.5
9 0 1 0 0 0 1 0 0 0 1 -25.144 6.584 -9.382 0.5 1 1.5
9 0 1 0 0 0 1 0 0 0 1 -26.644 15.084 -12.382 1 0.5 1.5
9 0 1 0 0 0 1 0 0 0 1 -28.144 6.584 9.618 0.5 3 0.5
9 0 1 0 0 0 1 0 0 0 1 -28.644 4.084 12.618 1 1.5 0.5
9 0 1 0 0 0 1 0 0 0 1 27.856 16.084 -5.382 0.5 0.5 2.5
9 0 1 0 0 0 1 0 0 0 1 27.856 -6.916 -7.382 0.5 0.5 2.5
9 0 1 0 0 0 1 0 0 0 1 25.856 10.084 -9.382 0.5 2.5 0.5
9 0 1 0 0 0 1 0 0 0 1 21.856 32.084 -33.382 0.5 2.5 0.5
9 0 1 0 0 0 1 0 0 0 1 21.856 27.084 -31.382 0.5 2.5 0.5
9 0 1 0 0 0 1 0 0 0 1 3.855999 -23.916 3.618 0.5 2.5 0.5
9 0 1 0 0 0 1 0 0 0 1 -0.144001 20.084 -49.382 2.5 0.5 0.5
9 0 1 0 0 0 1 0 0 0 1 -0.144001 6.084 -44.382 2.5 0.5 0.5
9 0 1 0 0 0 1 0 0 0 1 -0.144001 -10.916 -33.382 2.5 0.5 0.5
9 0 1 0 0 0 1 0 0 0 1 -0.144001 -11.916 -32.382 2.5 0.5 0.5
9 0 1 0 0 0 1 0 0 0 1 29.356 9.584 -2.382 1 1 0.5
9 0 1 0 0 0 1 0 0 0 1 29.356 8.584 10.618 1 1 0.5
9 0 1 0 0 0 1 0 0 0 1 28.856 -5.416 11.118 0.5 1 1
9 0 1 0 0 0 1 0 0 0 1 27.856 3.584 9.618 0.5 2 0.5
9 0 1 0 0 0 1 0 0 0 1 26.856 15.084 -11.882 0.5 0.5 2
9 0 1 0 0 0 1 0 0 0 1 26.356 17.084 -16.882 1 0.5 1
9 0 1 0 0 0 1 0 0 0 1 26.356 16.584 -10.382 1 1 0.5
9 0 1 0 0 0 1 0 0 0 1 26.356 -2.916 -6.882 1 0.5 1
9 0 1 0 0 0 1 0 0 0 1 24.856 21.584 -20.382 0.5 2 0.5
9 0 1 0 0 0 1 0 0 0 1 24.856 14.584 -17.382 0.5 2 0.5
9 0 1 0 0 0 1 0 0 0 1 22.856 24.584 -28.382 0.5 2 0.5
9 0 1 0 0 0 1 0 0 0 1 21.856 29.584 -32.382 0.5 2 0.5
9 0 1 0 0 0 1 0 0 0 1 21.856 15.584 -27.882 0.5 1 1
9 0 1 0 0 0 1 0 0 0 1 5.855999 -23.416 2.618 0.5 2 0.5
9 0 1 0 0 0 1 0 0 0 1 5.355999 -24.916 1.118 1 0.5 1
9 0 1 0 0 0 1 0 0 0 1 3.355999 -22.416 -5.382 1 1 0.5
9 0 1 0 0 0 1 0 0 0 1 3.355999 -25.916 4.618 2 0.5 0.5
9 0 1 0 0 0 1 0 0 0 1 -3.144001 13.584 -46.382 0.5 2 0.5
9 0 1 0 0 0 1 0 0 0 1 -4.644001 8.584 -44.382 1 1 0.5
9 0 1 0 0 0 1 0 0 0 1 -7.144001 -23.416 0.118 0.5 1 1
9 0 1 0 0 0 1 0 0 0 1 -21.144 22.584 -32.382 0.5 2 0.5
9 0 1 0 0 0 1 0 0 0 1 -21.644 33.584 -33.382 1 1 0.5
9 0 1 0 0 0 1 0 0 0 1 -21.644 27.584 -31.382 1 1 0.5
9 0 1 0 0 0 1 0 0 0 1 -23.144 23.584 -27.382 0.5 2 0.5
9 0 1 0 0 0 1 0 0 0 1 -23.144 21.584 -20.382 0.5 2 0.5
9 0 1 0 0 0 1 0 0 0 1 -23.144 18.584 -24.882 0.5 1 1
9 0 1 0 0 0 1 0 0 0 1 -24.144 16.584 -20.882 0.5 1 1
9 0 1 0 0 0 1 0 0 0 1 -25.144 21.084 -13.882 0.5 0.5 2
9 0 1 0 0 0 1 0 0 0 1 -25.144 15.584 -16.882 0.5 1 1
9 0 1 0 0 0 1 0 0 0 1 -26.144 17.584 -16.882 0.5 1 1
9 0 1 0 0 0 1 0 0 0 1 -27.144 15.584 -10.382 0.5 2 0.5
9 0 1 0 0 0 1 0 0 0 1 -28.144 15.084 -1.882 0.5 0.5 2
9 0 1 0 0 0 1 0 0 0 1 -28.144 11.584 2.618 0.5 2 0.5
9 0 1 0 0 0 1 0 0 0 1 -28.144 5.584 4.618 0.5 2 0.5
9 0 1 0 0 0 1 0 0 0 1 -29.144 8.584 11.118 0.5 1 1
9 0 1 0 0 0 1 0 0 0 1 -28.644 -0.9160004 -2.882 1 0.5 1
9 0 1 0 0 0 1 0 0 0 1 28.856 13.084 0.618 0.5 0.5 1.5
9 0 1 0 0 0 1 0 0 0 1 28.856 -4.916 -4.382 0.5 1.5 0.5
9 0 1 0 0 0 1 0 0 0 1 25.856 14.084 -12.382 0.5 1.5 0.5
9 0 1 0 0 0 1 0 0 0 1 25.856 -6.916 10.618 0.5 0.5 1.5
9 0 1 0 0 0 1 0 0 0 1 24.856 7.084 -10.382 0.5 1.5 0.5
9 0 1 0 0 0 1 0 0 0 1 23.856 23.084 -20.382 0.5 0.5 1.5
9 0 1 0 0 0 1 0 0 0 1 23.856 19.084 -23.382 0.5 1.5 0.5
9 0 1 0 0 0 1 0 0 0 1 20.856 25.084 -32.382 0.5 1.5 0.5
9 0 1 0 0 0 1 0 0 0 1 2.855999 -22.916 -4.382 0.5 1.5 0.5
9 0 1 0 0 0 1 0 0 0 1 -0.144001 13.084 -47.382 1.5 0.5 0.5
9 0 1 0 0 0 1 0 0 0 1 -0.144001 -9.916 -34.382 1.5 0.5 0.5
9 0 1 0 0 0 1 0 0 0 1 -5.144001 -22.916 3.618 0.5 1.5 0.5
9 0 1 0 0 0 1 0 0 0 1 -21.144 17.084 -30.382 0.5 1.5 0.5
9 0 1 0 0 0 1 0 0 0 1 -24.144 23.084 -23.382 0.5 1.5 0.5
9 0 1 0 0 0 1 0 0 0 1 -25.144 22.084 -19.382 0.5 1.5 0.5
9 0 1 0 0 0 1 0 0 0 1 -25.144 4.084 -8.382 0.5 1.5 0.5
9 0 1 0 0 0 1 0 0 0 1 -28.144 10.084 -7.382 0.5 1.5 0.5
