9 0 1 0 0 0 1 0 0 0 1 4.666 -22.173 10 8.5 0.5 6
9 0 1 0 0 0 1 0 0 0 1 -18.334 -12.173 9.5 7.5 0.5 6.5
9 0 1 0 0 0 1 0 0 0 1 17.666 -31.173 10 2.5 0.5 16
9 0 1 0 0 0 1 0 0 0 1 13.666 -21.173 10 6.5 0.5 6
9 0 1 0 0 0 1 0 0 0 1 7.666 -12.673 10.5 0.5 5 7.5
9 0 1 0 0 0 1 0 0 0 1 10.166 -31.673 10 1 1 17
9 0 1 0 0 0 1 0 0 0 1 -81.834 5.327003 10 1 1 17
9 0 1 0 0 0 1 0 0 0 1 -7.334 -13.173 10.5 0.5 4.5 7.5
9 0 1 0 0 0 1 0 0 0 1 -16.334 -21.173 10 2.5 0.5 13
9 0 1 0 0 0 1 0 0 0 1 -27.834 -11.173 9.5 5 0.5 6.5
9 0 1 0 0 0 1 0 0 0 1 -23.834 -20.673 10 1 1 16
9 0 1 0 0 0 1 0 0 0 1 -68.834 -1.672997 10 1 1 15
9 0 1 0 0 0 1 0 0 0 1 54.666 -32.173 9.5 0.5 3.5 7.5
9 0 1 0 0 0 1 0 0 0 1 8.666 -38.673 10 0.5 2 13
9 0 1 0 0 0 1 0 0 0 1 -8.834 -21.673 10 1 1 13
9 0 1 0 0 0 1 0 0 0 1 39.666 -27.173 10 1.5 0.5 16
9 0 1 0 0 0 1 0 0 0 1 -53.834 -6.672997 10 1 1 12
9 0 1 0 0 0 1 0 0 0 1 62.166 -22.173 9.5 2 0.5 11.5
9 0 1 0 0 0 1 0 0 0 1 -36.334 -10.173 9.5 3.5 0.5 6.5
9 0 1 0 0 0 1 0 0 0 1 54.666 -24.173 10 1.5 0.5 15
9 0 1 0 0 0 1 0 0 0 1 33.666 -28.173 10 1.5 0.5 15
9 0 1 0 0 0 1 0 0 0 1 31.666 -29.173 10 1.5 0.5 15
9 0 1 0 0 0 1 0 0 0 1 -38.334 -17.173 8 1.5 0.5 15
9 0 1 0 0 0 1 0 0 0 1 66.166 -21.173 10 2 0.5 11
9 0 1 0 0 0 1 0 0 0 1 45.666 -26.173 10 1.5 0.5 14
9 0 1 0 0 0 1 0 0 0 1 24.666 -20.173 10 3.5 0.5 6
9 0 1 0 0 0 1 0 0 0 1 -41.834 -9.172997 10 3 0.5 7
9 0 1 0 0 0 1 0 0 0 1 31.166 -19.173 10 3 0.5 6
9 0 1 0 0 0 1 0 0 0 1 25.166 -30.173 10 1 0.5 17
9 0 1 0 0 0 1 0 0 0 1 39.666 -34.173 10 0.5 1.5 11
9 0 1 0 0 0 1 0 0 0 1 19.166 -30.173 10 1 0.5 16
9 0 1 0 0 0 1 0 0 0 1 -32.834 -18.173 10 1 0.5 16
9 0 1 0 0 0 1 0 0 0 1 -46.834 -8.172997 10 2 0.5 8
9 0 1 0 0 0 1 0 0 0 1 69.666 -20.173 10 1.5 0.5 10
9 0 1 0 0 0 1 0 0 0 1 -29.834 -19.173 10 1 0.5 15
9 0 1 0 0 0 1 0 0 0 1 49.166 -25.173 10 1 0.5 14
9 0 1 0 0 0 1 0 0 0 1 73.666 -19.173 10 1.5 0.5 9
9 0 1 0 0 0 1 0 0 0 1 38.666 -39.173 10 0.5 1.5 9
9 0 1 0 0 0 1 0 0 0 1 77.666 -18.173 10 1.5 0.5 8
9 0 1 0 0 0 1 0 0 0 1 23.666 -38.673 10 0.5 1 12
9 0 1 0 0 0 1 0 0 0 1 -60.334 -4.172997 7 1.5 0.5 8
9 0 1 0 0 0 1 0 0 0 1 -62.834 -3.172997 10 1 0.5 12
9 0 1 0 0 0 1 0 0 0 1 80.666 -17.173 9.5 1.5 0.5 7.5
9 0 1 0 0 0 1 0 0 0 1 40.166 -28.173 4.5 1 0.5 10.5
9 0 1 0 0 0 1 0 0 0 1 6.666 -44.673 10 0.5 1 10
9 0 1 0 0 0 1 0 0 0 1 7.666 -42.673 12 0.5 1 9
9 0 1 0 0 0 1 0 0 0 1 -45.334 -30.673 7 0.5 1 9
9 0 1 0 0 0 1 0 0 0 1 24.666 -29.173 10 0.5 0.5 17
9 0 1 0 0 0 1 0 0 0 1 24.666 -31.173 10 0.5 0.5 17
9 0 1 0 0 0 1 0 0 0 1 5.166 3.827003 9.5 1 0.5 8.5
9 0 1 0 0 0 1 0 0 0 1 -4.334 4.327003 9.5 0.5 1 8.5
9 0 1 0 0 0 1 0 0 0 1 -4.334 -4.672997 9.5 0.5 1 8.5
9 0 1 0 0 0 1 0 0 0 1 -38.334 -18.173 10 0.5 0.5 17
9 0 1 0 0 0 1 0 0 0 1 -74.834 1.827003 3.5 1 0.5 8.5
9 0 1 0 0 0 1 0 0 0 1 109.166 -9.172997 10 4 0.5 2
9 0 1 0 0 0 1 0 0 0 1 86.666 -15.173 10 1.5 0.5 5
9 0 1 0 0 0 1 0 0 0 1 54.666 -25.173 10 0.5 0.5 15
9 0 1 0 0 0 1 0 0 0 1 37.666 -45.173 10 0.5 1.5 5
9 0 1 0 0 0 1 0 0 0 1 -40.334 -22.173 10 0.5 0.5 15
9 0 1 0 0 0 1 0 0 0 1 -41.334 -24.173 10.5 0.5 0.5 14.5
9 0 1 0 0 0 1 0 0 0 1 114.666 -7.672997 10 3.5 1 1
9 0 1 0 0 0 1 0 0 0 1 105.666 -10.173 10 3.5 0.5 2
9 0 1 0 0 0 1 0 0 0 1 102.666 -11.673 10 3.5 1 1
9 0 1 0 0 0 1 0 0 0 1 95.666 -13.173 10 3.5 0.5 2
9 0 1 0 0 0 1 0 0 0 1 -42.334 -26.173 10 0.5 0.5 14
9 0 1 0 0 0 1 0 0 0 1 -73.334 0.8270035 10 0.5 0.5 14
9 0 1 0 0 0 1 0 0 0 1 -43.334 -27.173 10 0.5 0.5 13
9 0 1 0 0 0 1 0 0 0 1 -85.334 0.8270035 10 0.5 0.5 13
9 0 1 0 0 0 1 0 0 0 1 -86.334 -0.1729965 10 0.5 0.5 13
9 0 1 0 0 0 1 0 0 0 1 54.666 -23.173 12.5 0.5 0.5 12.5
9 0 1 0 0 0 1 0 0 0 1 90.666 -14.173 10 1.5 0.5 4
9 0 1 0 0 0 1 0 0 0 1 84.166 -16.173 10 1 0.5 6
9 0 1 0 0 0 1 0 0 0 1 59.666 -23.173 10 0.5 0.5 12
9 0 1 0 0 0 1 0 0 0 1 53.666 -40.173 10 0.5 1.5 4
9 0 1 0 0 0 1 0 0 0 1 20.666 -48.673 9 0.5 1 6
9 0 1 0 0 0 1 0 0 0 1 0.1660004 -22.173 17.5 4 0.5 1.5
9 0 1 0 0 0 1 0 0 0 1 -26.334 -28.173 10 0.5 0.5 12
9 0 1 0 0 0 1 0 0 0 1 -44.334 -29.173 10 0.5 0.5 12
9 0 1 0 0 0 1 0 0 0 1 -87.334 -1.172997 10 0.5 0.5 12
9 0 1 0 0 0 1 0 0 0 1 1.666 -22.173 3 5.5 0.5 1
9 0 1 0 0 0 1 0 0 0 1 -46.334 -32.173 10 0.5 0.5 11
9 0 1 0 0 0 1 0 0 0 1 -47.334 -33.173 10 0.5 0.5 11
9 0 1 0 0 0 1 0 0 0 1 -88.334 -2.172997 10 0.5 0.5 11
9 0 1 0 0 0 1 0 0 0 1 22.666 -42.173 10 0.5 0.5 10
9 0 1 0 0 0 1 0 0 0 1 -89.334 -3.172997 10 0.5 0.5 10
9 0 1 0 0 0 1 0 0 0 1 21.666 -45.173 10 0.5 0.5 9
9 0 1 0 0 0 1 0 0 0 1 5.666 -47.173 10 0.5 0.5 9
9 0 1 0 0 0 1 0 0 0 1 -90.334 -4.172997 10 0.5 0.5 9
9 0 1 0 0 0 1 0 0 0 1 -91.334 -5.172997 10 0.5 0.5 9
9 0 1 0 0 0 1 0 0 0 1 4.666 4.827003 9.5 0.5 0.5 8.5
9 0 1 0 0 0 1 0 0 0 1 4.666 -4.172997 9.5 0.5 0.5 8.5
9 0 1 0 0 0 1 0 0 0 1 -5.334 3.827003 9.5 0.5 0.5 8.5
9 0 1 0 0 0 1 0 0 0 1 -5.334 -4.172997 9.5 0.5 0.5 8.5
9 0 1 0 0 0 1 0 0 0 1 40.166 -28.173 22 1 0.5 4
9 0 1 0 0 0 1 0 0 0 1 4.666 -49.173 10 0.5 0.5 8
9 0 1 0 0 0 1 0 0 0 1 -10.334 -29.173 10 0.5 0.5 8
9 0 1 0 0 0 1 0 0 0 1 -50.334 -37.173 10 0.5 0.5 8
9 0 1 0 0 0 1 0 0 0 1 -51.334 -38.173 10 0.5 0.5 8
9 0 1 0 0 0 1 0 0 0 1 -92.334 -6.172997 10 0.5 0.5 8
9 0 1 0 0 0 1 0 0 0 1 -25.334 -26.173 5.5 0.5 0.5 7.5
9 0 1 0 0 0 1 0 0 0 1 3.666 -51.173 10 0.5 0.5 7
9 0 1 0 0 0 1 0 0 0 1 -52.334 -39.173 10 0.5 0.5 7
9 0 1 0 0 0 1 0 0 0 1 -93.334 -7.172997 10 0.5 0.5 7
9 0 1 0 0 0 1 0 0 0 1 -75.334 1.827003 18.5 0.5 0.5 6.5
9 0 1 0 0 0 1 0 0 0 1 97.666 -12.173 10 1.5 0.5 2
9 0 1 0 0 0 1 0 0 0 1 35.666 -20.173 10 0.5 0.5 6
9 0 1 0 0 0 1 0 0 0 1 -44.334 -8.172997 8 0.5 0.5 6
9 0 1 0 0 0 1 0 0 0 1 -60.834 -4.172997 18 1 0.5 3
9 0 1 0 0 0 1 0 0 0 1 -94.334 -8.172997 10 0.5 0.5 6
9 0 1 0 0 0 1 0 0 0 1 75.666 -18.173 6.5 0.5 0.5 5.5
9 0 1 0 0 0 1 0 0 0 1 120.666 -6.172997 10 0.5 0.5 5
9 0 1 0 0 0 1 0 0 0 1 54.666 -31.173 18 0.5 2.5 1
9 0 1 0 0 0 1 0 0 0 1 23.666 -37.173 2 0.5 0.5 5
9 0 1 0 0 0 1 0 0 0 1 19.666 -51.173 10 0.5 0.5 5
9 0 1 0 0 0 1 0 0 0 1 1.666 -54.173 10 0.5 0.5 5
9 0 1 0 0 0 1 0 0 0 1 -76.334 2.827003 0 0.5 0.5 5
9 0 1 0 0 0 1 0 0 0 1 -55.334 -42.173 10.5 0.5 0.5 4.5
9 0 1 0 0 0 1 0 0 0 1 119.166 -6.672997 10 1 1 1
9 0 1 0 0 0 1 0 0 0 1 110.166 -8.172997 10 1 0.5 2
9 0 1 0 0 0 1 0 0 0 1 36.666 -21.173 12 0.5 0.5 4
9 0 1 0 0 0 1 0 0 0 1 36.666 -49.173 10 0.5 0.5 4
9 0 1 0 0 0 1 0 0 0 1 9.166 -21.673 3.5 2 1 0.5
9 0 1 0 0 0 1 0 0 0 1 9.166 -21.673 16.5 2 1 0.5
9 0 1 0 0 0 1 0 0 0 1 0.6660004 -56.173 10 0.5 0.5 4
9 0 1 0 0 0 1 0 0 0 1 -7.334 -8.172997 7 0.5 0.5 4
9 0 1 0 0 0 1 0 0 0 1 -28.334 -32.173 4 0.5 0.5 4
9 0 1 0 0 0 1 0 0 0 1 -38.834 -17.173 25 1 0.5 2
9 0 1 0 0 0 1 0 0 0 1 -53.334 -40.173 8 0.5 0.5 4
9 0 1 0 0 0 1 0 0 0 1 -56.334 -43.173 10 0.5 0.5 4
9 0 1 0 0 0 1 0 0 0 1 -97.334 -10.173 10 0.5 0.5 4
9 0 1 0 0 0 1 0 0 0 1 54.666 -36.173 13.5 0.5 0.5 3.5
9 0 1 0 0 0 1 0 0 0 1 -0.3339996 -22.173 1.5 3.5 0.5 0.5
9 0 1 0 0 0 1 0 0 0 1 -73.334 -8.172997 4.5 0.5 0.5 3.5
9 0 1 0 0 0 1 0 0 0 1 -77.334 2.827003 5.5 0.5 0.5 3.5
9 0 1 0 0 0 1 0 0 0 1 -77.334 2.827003 17.5 0.5 0.5 3.5
9 0 1 0 0 0 1 0 0 0 1 110.666 -10.173 10 1.5 0.5 1
9 0 1 0 0 0 1 0 0 0 1 107.666 -11.173 10 1.5 0.5 1
9 0 1 0 0 0 1 0 0 0 1 102.166 -11.173 8.5 3 0.5 0.5
9 0 1 0 0 0 1 0 0 0 1 102.166 -11.173 11.5 3 0.5 0.5
9 0 1 0 0 0 1 0 0 0 1 100.666 -13.173 10 1.5 0.5 1
9 0 1 0 0 0 1 0 0 0 1 88.666 -15.173 8 0.5 0.5 3
9 0 1 0 0 0 1 0 0 0 1 54.666 -30.173 1 0.5 1.5 1
9 0 1 0 0 0 1 0 0 0 1 53.666 -42.173 10 0.5 0.5 3
9 0 1 0 0 0 1 0 0 0 1 47.666 -26.173 21 0.5 0.5 3
9 0 1 0 0 0 1 0 0 0 1 5.666 -22.173 17 1.5 0.5 1
9 0 1 0 0 0 1 0 0 0 1 -1.334 -59.173 10 0.5 0.5 3
9 0 1 0 0 0 1 0 0 0 1 -38.334 -16.173 0 0.5 0.5 3
9 0 1 0 0 0 1 0 0 0 1 -45.334 -30.173 19 0.5 0.5 3
9 0 1 0 0 0 1 0 0 0 1 -57.334 -44.173 10 0.5 0.5 3
9 0 1 0 0 0 1 0 0 0 1 -98.834 -11.173 10.5 1 0.5 1.5
9 0 1 0 0 0 1 0 0 0 1 113.666 -8.172997 8.5 2.5 0.5 0.5
9 0 1 0 0 0 1 0 0 0 1 113.666 -8.172997 11.5 2.5 0.5 0.5
9 0 1 0 0 0 1 0 0 0 1 38.666 -28.173 3.5 0.5 0.5 2.5
9 0 1 0 0 0 1 0 0 0 1 38.666 -28.173 18.5 0.5 0.5 2.5
9 0 1 0 0 0 1 0 0 0 1 25.666 -31.173 6.5 0.5 0.5 2.5
9 0 1 0 0 0 1 0 0 0 1 25.666 -31.173 18.5 0.5 0.5 2.5
9 0 1 0 0 0 1 0 0 0 1 23.666 -30.173 3.5 0.5 0.5 2.5
9 0 1 0 0 0 1 0 0 0 1 23.666 -30.173 14.5 0.5 0.5 2.5
9 0 1 0 0 0 1 0 0 0 1 7.666 -42.173 0.5 0.5 0.5 2.5
9 0 1 0 0 0 1 0 0 0 1 123.166 -5.172997 10 1 0.5 1
9 0 1 0 0 0 1 0 0 0 1 117.166 -6.172997 10 1 0.5 1
9 0 1 0 0 0 1 0 0 0 1 114.166 -9.172997 10 1 0.5 1
9 0 1 0 0 0 1 0 0 0 1 108.166 -8.172997 10 1 0.5 1
9 0 1 0 0 0 1 0 0 0 1 54.666 -36.173 5 0.5 0.5 2
9 0 1 0 0 0 1 0 0 0 1 53.666 -25.173 -1 0.5 0.5 2
9 0 1 0 0 0 1 0 0 0 1 39.666 -26.173 13 0.5 0.5 2
9 0 1 0 0 0 1 0 0 0 1 35.666 -52.173 10 0.5 0.5 2
9 0 1 0 0 0 1 0 0 0 1 25.666 -31.173 -5 0.5 0.5 2
9 0 1 0 0 0 1 0 0 0 1 -2.334 -60.173 10 0.5 0.5 2
9 0 1 0 0 0 1 0 0 0 1 -3.334 -61.173 10 0.5 0.5 2
9 0 1 0 0 0 1 0 0 0 1 -39.334 -18.173 6 0.5 0.5 2
9 0 1 0 0 0 1 0 0 0 1 -58.334 -45.173 10 0.5 0.5 2
9 0 1 0 0 0 1 0 0 0 1 115.666 -7.172997 8.5 1.5 0.5 0.5
9 0 1 0 0 0 1 0 0 0 1 115.666 -7.172997 11.5 1.5 0.5 0.5
9 0 1 0 0 0 1 0 0 0 1 100.666 -12.173 11.5 1.5 0.5 0.5
9 0 1 0 0 0 1 0 0 0 1 93.666 -13.173 7.5 1.5 0.5 0.5
9 0 1 0 0 0 1 0 0 0 1 93.666 -13.173 12.5 1.5 0.5 0.5
9 0 1 0 0 0 1 0 0 0 1 62.666 -22.173 21.5 1.5 0.5 0.5
9 0 1 0 0 0 1 0 0 0 1 54.666 -30.173 19.5 0.5 1.5 0.5
9 0 1 0 0 0 1 0 0 0 1 39.666 -26.173 23.5 0.5 0.5 1.5
9 0 1 0 0 0 1 0 0 0 1 39.666 -28.173 16.5 0.5 0.5 1.5
9 0 1 0 0 0 1 0 0 0 1 23.666 -30.173 24.5 0.5 0.5 1.5
9 0 1 0 0 0 1 0 0 0 1 -2.334 -22.173 0.5 1.5 0.5 0.5
9 0 1 0 0 0 1 0 0 0 1 -2.334 -22.173 19.5 1.5 0.5 0.5
9 0 1 0 0 0 1 0 0 0 1 -28.334 -32.173 16.5 0.5 0.5 1.5
9 0 1 0 0 0 1 0 0 0 1 -38.334 -16.173 24.5 0.5 0.5 1.5
9 0 1 0 0 0 1 0 0 0 1 -39.334 -18.173 -3.5 0.5 0.5 1.5
9 0 1 0 0 0 1 0 0 0 1 -39.334 -18.173 16.5 0.5 0.5 1.5
9 0 1 0 0 0 1 0 0 0 1 -77.334 2.827003 -3.5 0.5 0.5 1.5
