9 0 1 0 0 0 1 0 0 0 1 -8.405 -8.986 -0.5289993 1 3.5 4.5
9 0 1 0 0 0 1 0 0 0 1 8.595 -8.986 -0.02899933 1 3.5 3
9 0 1 0 0 0 1 0 0 0 1 0.09500027 -10.986 -9.028999 3.5 1.5 1
9 0 1 0 0 0 1 0 0 0 1 -9.905 -8.986 -0.02899933 0.5 2.5 3
9 0 1 0 0 0 1 0 0 0 1 7.595 -8.986 -5.028999 1 3.5 1
9 0 1 0 0 0 1 0 0 0 1 10.095 -8.986 -0.5289993 0.5 2.5 2.5
9 0 1 0 0 0 1 0 0 0 1 3.595 -7.486 -8.528999 1 2 1.5
9 0 1 0 0 0 1 0 0 0 1 7.595 -8.986 4.971001 1 2.5 1
9 0 1 0 0 0 1 0 0 0 1 0.09500027 -11.486 8.471001 4.5 1 0.5
9 0 1 0 0 0 1 0 0 0 1 -3.405 -7.486 -8.028999 1 2 1
9 0 1 0 0 0 1 0 0 0 1 -8.405 -8.486 4.971001 1 2 1
9 0 1 0 0 0 1 0 0 0 1 8.595 -8.986 -3.528999 1 3.5 0.5
9 0 1 0 0 0 1 0 0 0 1 5.095 -10.486 -7.528999 0.5 2 1.5
9 0 1 0 0 0 1 0 0 0 1 -4.405 -10.986 -8.028999 1 1.5 1
9 0 1 0 0 0 1 0 0 0 1 -6.405 -10.986 -6.028999 1 1.5 1
9 0 1 0 0 0 1 0 0 0 1 -7.905 -13.486 -0.02899933 0.5 1 3
9 0 1 0 0 0 1 0 0 0 1 8.595 -9.986 3.471001 1 2.5 0.5
9 0 1 0 0 0 1 0 0 0 1 8.095 -13.486 -0.5289993 0.5 1 2.5
9 0 1 0 0 0 1 0 0 0 1 0.09500027 -8.486 -8.528999 2.5 1 0.5
9 0 1 0 0 0 1 0 0 0 1 6.095 -9.986 -5.528999 0.5 4.5 0.5
9 0 1 0 0 0 1 0 0 0 1 -7.905 -7.986 -5.528999 1.5 1.5 0.5
9 0 1 0 0 0 1 0 0 0 1 8.095 -4.986 -1.028999 0.5 0.5 4
9 0 1 0 0 0 1 0 0 0 1 3.595 -11.486 -7.528999 1 2 0.5
9 0 1 0 0 0 1 0 0 0 1 -3.405 -7.486 -9.528999 1 2 0.5
9 0 1 0 0 0 1 0 0 0 1 -7.905 -4.986 -1.028999 0.5 0.5 4
9 0 1 0 0 0 1 0 0 0 1 0.09500027 -10.986 9.471001 3.5 0.5 0.5
9 0 1 0 0 0 1 0 0 0 1 9.095 -8.486 -4.528999 0.5 3 0.5
9 0 1 0 0 0 1 0 0 0 1 8.095 -7.986 6.971001 0.5 1.5 1
9 0 1 0 0 0 1 0 0 0 1 6.595 -10.986 -6.528999 1 1.5 0.5
9 0 1 0 0 0 1 0 0 0 1 6.095 -10.986 5.971001 0.5 1.5 1
9 0 1 0 0 0 1 0 0 0 1 4.095 -11.486 7.471001 1.5 1 0.5
9 0 1 0 0 0 1 0 0 0 1 0.09500027 -12.986 -9.028999 1.5 0.5 1
9 0 1 0 0 0 1 0 0 0 1 -3.405 -11.986 7.471001 1 1.5 0.5
9 0 1 0 0 0 1 0 0 0 1 -6.905 -9.486 5.471001 0.5 3 0.5
9 0 1 0 0 0 1 0 0 0 1 -7.905 -7.486 7.471001 0.5 1 1.5
9 0 1 0 0 0 1 0 0 0 1 0.09500027 -12.986 8.471001 2.5 0.5 0.5
9 0 1 0 0 0 1 0 0 0 1 -2.905 -11.986 -7.528999 0.5 2.5 0.5
9 0 1 0 0 0 1 0 0 0 1 -8.905 -12.986 -0.5289993 0.5 0.5 2.5
9 0 1 0 0 0 1 0 0 0 1 -9.905 -11.986 -0.5289993 0.5 0.5 2.5
9 0 1 0 0 0 1 0 0 0 1 10.095 -8.486 2.971001 0.5 1 1
9 0 1 0 0 0 1 0 0 0 1 10.095 -11.986 -1.028999 0.5 0.5 2
9 0 1 0 0 0 1 0 0 0 1 9.095 -8.486 4.471001 0.5 2 0.5
9 0 1 0 0 0 1 0 0 0 1 9.095 -12.986 -1.028999 0.5 0.5 2
9 0 1 0 0 0 1 0 0 0 1 7.095 -9.486 6.971001 0.5 1 1
9 0 1 0 0 0 1 0 0 0 1 -5.905 -10.486 6.971001 0.5 1 1
9 0 1 0 0 0 1 0 0 0 1 5.095 -11.986 6.471001 0.5 1.5 0.5
9 0 1 0 0 0 1 0 0 0 1 4.095 -10.986 -8.528999 0.5 1.5 0.5
9 0 1 0 0 0 1 0 0 0 1 3.095 -4.986 -8.528999 0.5 0.5 1.5
9 0 1 0 0 0 1 0 0 0 1 0.09500027 -13.986 -8.528999 1.5 0.5 0.5
9 0 1 0 0 0 1 0 0 0 1 -7.905 -10.986 -5.528999 0.5 1.5 0.5
9 0 1 0 0 0 1 0 0 0 1 -9.905 -8.986 -3.528999 0.5 1.5 0.5
