9 0 1 0 0 0 1 0 0 0 1 0.8470001 4.033 -15.96 5.5 1 1
9 0 1 0 0 0 1 0 0 0 1 -2.153 5.533 -16.96 2.5 0.5 2
9 0 1 0 0 0 1 0 0 0 1 -6.653 5.033 -14.96 2 1 1
9 0 1 0 0 0 1 0 0 0 1 6.347 3.033 -14.46 3 1 0.5
9 0 1 0 0 0 1 0 0 0 1 1.847 2.533 -15.46 5.5 0.5 0.5
9 0 1 0 0 0 1 0 0 0 1 0.8470001 4.533 -17.46 5.5 0.5 0.5
9 0 1 0 0 0 1 0 0 0 1 -8.153 4.533 -13.46 1.5 1.5 0.5
9 0 1 0 0 0 1 0 0 0 1 -9.653 4.533 -12.46 1 1.5 0.5
9 0 1 0 0 0 1 0 0 0 1 -10.653 4.533 -11.46 1 1.5 0.5
9 0 1 0 0 0 1 0 0 0 1 10.847 2.033 -10.96 0.5 1 1
9 0 1 0 0 0 1 0 0 0 1 9.847 2.033 -11.96 0.5 1 1
9 0 1 0 0 0 1 0 0 0 1 8.847 3.033 -12.96 0.5 1 1
9 0 1 0 0 0 1 0 0 0 1 -4.153 4.033 -14.46 0.5 2 0.5
9 0 1 0 0 0 1 0 0 0 1 -5.653 5.033 -16.46 1 1 0.5
9 0 1 0 0 0 1 0 0 0 1 -5.653 3.533 -14.96 1 0.5 1
9 0 1 0 0 0 1 0 0 0 1 -11.653 4.033 -10.46 1 1 0.5
9 0 1 0 0 0 1 0 0 0 1 -13.153 4.033 -7.959999 0.5 1 1
9 0 1 0 0 0 1 0 0 0 1 7.847 2.533 -13.46 0.5 1.5 0.5
9 0 1 0 0 0 1 0 0 0 1 4.847 4.533 -14.46 1.5 0.5 0.5
9 0 1 0 0 0 1 0 0 0 1 4.847 1.533 -14.46 1.5 0.5 0.5
9 0 1 0 0 0 1 0 0 0 1 -12.153 4.533 -9.459999 0.5 1.5 0.5
