9 0 1 0 0 0 1 0 0 0 1 0.3869972 -20 -12.5 1.5 1.5 11
9 0 1 0 0 0 1 0 0 0 1 -9.613003 -45 -23 0.5 17.5 2.5
9 0 1 0 0 0 1 0 0 0 1 11.387 -65.5 -21.5 2.5 4 2
9 0 1 0 0 0 1 0 0 0 1 0.3869972 0 -10 1.5 1.5 8.5
9 0 1 0 0 0 1 0 0 0 1 -10.613 -79.5 -20 3.5 2 2.5
9 0 1 0 0 0 1 0 0 0 1 -11.113 -68 -21 2 5.5 1.5
9 0 1 0 0 0 1 0 0 0 1 0.3869972 -55 -23.5 9.5 0.5 3
9 0 1 0 0 0 1 0 0 0 1 10.387 -80 -20 3.5 2.5 1.5
9 0 1 0 0 0 1 0 0 0 1 9.386997 -37.5 -23.5 0.5 10 2
9 0 1 0 0 0 1 0 0 0 1 -0.1130028 -80 -20 4 1.5 1.5
9 0 1 0 0 0 1 0 0 0 1 10.887 -71.5 -20.5 2 2 2
9 0 1 0 0 0 1 0 0 0 1 -9.113003 -20 -15.5 4 0.5 4
9 0 1 0 0 0 1 0 0 0 1 18.387 -49 -25 0.5 4.5 3.5
9 0 1 0 0 0 1 0 0 0 1 9.386997 -20 -15.5 3.5 0.5 4
9 0 1 0 0 0 1 0 0 0 1 -11.613 -64.5 -23.5 2.5 2 1
9 0 1 0 0 0 1 0 0 0 1 -9.613003 -48 -27 0.5 5.5 1.5
9 0 1 0 0 0 1 0 0 0 1 9.386997 -45.5 -26.5 0.5 8 1
9 0 1 0 0 0 1 0 0 0 1 9.386997 -58.5 -23 0.5 3 2.5
9 0 1 0 0 0 1 0 0 0 1 -12.613 -62 -22.5 2.5 0.5 3
9 0 1 0 0 0 1 0 0 0 1 11.387 -64 -24 2.5 2.5 0.5
9 0 1 0 0 0 1 0 0 0 1 -8.113003 -56.5 -23.5 1 1 3
9 0 1 0 0 0 1 0 0 0 1 -11.113 -70.5 -19 2 3 0.5
9 0 1 0 0 0 1 0 0 0 1 0.3869972 -18 -12.5 0.5 0.5 11
9 0 1 0 0 0 1 0 0 0 1 -1.613003 -20 -12.5 0.5 0.5 11
9 0 1 0 0 0 1 0 0 0 1 10.387 -80 -22 3.5 1.5 0.5
9 0 1 0 0 0 1 0 0 0 1 10.387 -80 -18 3.5 1.5 0.5
9 0 1 0 0 0 1 0 0 0 1 -10.613 -82 -20 3.5 0.5 1.5
9 0 1 0 0 0 1 0 0 0 1 14.387 -63.5 -22 0.5 2 2.5
9 0 1 0 0 0 1 0 0 0 1 9.386997 -32.5 -21 0.5 9 0.5
9 0 1 0 0 0 1 0 0 0 1 7.386997 -56 -23.5 1.5 0.5 3
9 0 1 0 0 0 1 0 0 0 1 0.3869972 -6.5 -16 0.5 1 4.5
9 0 1 0 0 0 1 0 0 0 1 -13.613 -65.5 -21 0.5 3 1.5
9 0 1 0 0 0 1 0 0 0 1 0.3869972 -2 -10 0.5 0.5 8.5
9 0 1 0 0 0 1 0 0 0 1 -1.613003 0 -10 0.5 0.5 8.5
9 0 1 0 0 0 1 0 0 0 1 -9.613003 -25.5 -22.5 0.5 2 2
9 0 1 0 0 0 1 0 0 0 1 -11.113 -68.5 -23 2 2 0.5
9 0 1 0 0 0 1 0 0 0 1 9.386997 -51 -24.5 0.5 3.5 1
9 0 1 0 0 0 1 0 0 0 1 0.3869972 -22 -8 0.5 0.5 6.5
9 0 1 0 0 0 1 0 0 0 1 17.387 -48.5 -30 1.5 2 0.5
9 0 1 0 0 0 1 0 0 0 1 9.386997 -25.5 -23 0.5 2 1.5
9 0 1 0 0 0 1 0 0 0 1 9.386997 -48.5 -29 0.5 2 1.5
9 0 1 0 0 0 1 0 0 0 1 13.887 -20 -14 1 0.5 2.5
9 0 1 0 0 0 1 0 0 0 1 12.387 -61.5 -25 2.5 1 0.5
9 0 1 0 0 0 1 0 0 0 1 11.387 -68.5 -19 2.5 1 0.5
9 0 1 0 0 0 1 0 0 0 1 0.3869972 6.5 -14 0.5 1 2.5
9 0 1 0 0 0 1 0 0 0 1 -0.1130028 -36 -28 5 0.5 0.5
9 0 1 0 0 0 1 0 0 0 1 -9.613003 -37.5 -26 0.5 5 0.5
9 0 1 0 0 0 1 0 0 0 1 -14.613 -63.5 -22 0.5 1 2.5
9 0 1 0 0 0 1 0 0 0 1 0.3869972 -21 -25 1.5 0.5 1.5
9 0 1 0 0 0 1 0 0 0 1 18.387 -48.5 -20.5 0.5 2 1
9 0 1 0 0 0 1 0 0 0 1 -0.1130028 -78 -20 4 0.5 0.5
9 0 1 0 0 0 1 0 0 0 1 -0.1130028 -80 -22 4 0.5 0.5
9 0 1 0 0 0 1 0 0 0 1 -0.1130028 -80 -18 4 0.5 0.5
9 0 1 0 0 0 1 0 0 0 1 -0.1130028 -82 -20 4 0.5 0.5
9 0 1 0 0 0 1 0 0 0 1 -9.613003 -48.5 -29.5 0.5 2 1
9 0 1 0 0 0 1 0 0 0 1 -14.113 -20 -13.5 1 0.5 2
9 0 1 0 0 0 1 0 0 0 1 -17.113 -48.5 -30 1 2 0.5
9 0 1 0 0 0 1 0 0 0 1 18.387 -49 -29 0.5 3.5 0.5
9 0 1 0 0 0 1 0 0 0 1 10.387 -77 -20 3.5 0.5 0.5
9 0 1 0 0 0 1 0 0 0 1 10.387 -80 -23 3.5 0.5 0.5
9 0 1 0 0 0 1 0 0 0 1 10.387 -80 -17 3.5 0.5 0.5
9 0 1 0 0 0 1 0 0 0 1 10.387 -83 -20 3.5 0.5 0.5
9 0 1 0 0 0 1 0 0 0 1 -8.613003 -20 -20 3.5 0.5 0.5
9 0 1 0 0 0 1 0 0 0 1 -10.613 -77 -20 3.5 0.5 0.5
9 0 1 0 0 0 1 0 0 0 1 -10.613 -80 -23 3.5 0.5 0.5
9 0 1 0 0 0 1 0 0 0 1 -10.613 -80 -17 3.5 0.5 0.5
9 0 1 0 0 0 1 0 0 0 1 -10.613 -83 -20 3.5 0.5 0.5
9 0 1 0 0 0 1 0 0 0 1 17.887 -54 -25 1 0.5 1.5
9 0 1 0 0 0 1 0 0 0 1 15.387 -61 -22.5 0.5 0.5 3
9 0 1 0 0 0 1 0 0 0 1 15.887 -44 -27 3 0.5 0.5
9 0 1 0 0 0 1 0 0 0 1 10.387 -70.5 -23 1.5 1 0.5
9 0 1 0 0 0 1 0 0 0 1 8.386997 -57 -23.5 0.5 0.5 3
9 0 1 0 0 0 1 0 0 0 1 8.886997 -20 -20 3 0.5 0.5
9 0 1 0 0 0 1 0 0 0 1 -6.613003 -56 -23.5 0.5 0.5 3
9 0 1 0 0 0 1 0 0 0 1 -10.613 -61 -22.5 0.5 0.5 3
9 0 1 0 0 0 1 0 0 0 1 -15.613 -60 -22.5 0.5 0.5 3
9 0 1 0 0 0 1 0 0 0 1 10.387 -61 -22 0.5 0.5 2.5
9 0 1 0 0 0 1 0 0 0 1 9.386997 -35 -26 0.5 2.5 0.5
9 0 1 0 0 0 1 0 0 0 1 0.3869972 -22 -20 0.5 0.5 2.5
9 0 1 0 0 0 1 0 0 0 1 -8.613003 -58 -23 0.5 0.5 2.5
9 0 1 0 0 0 1 0 0 0 1 -9.613003 -40 -27 0.5 2.5 0.5
9 0 1 0 0 0 1 0 0 0 1 -15.613 -44 -27 2.5 0.5 0.5
9 0 1 0 0 0 1 0 0 0 1 18.387 -44 -24.5 0.5 0.5 2
9 0 1 0 0 0 1 0 0 0 1 9.386997 -49.5 -23 0.5 2 0.5
9 0 1 0 0 0 1 0 0 0 1 9.386997 -51.5 -28.5 0.5 1 1
9 0 1 0 0 0 1 0 0 0 1 0.3869972 2 -16.5 0.5 0.5 2
9 0 1 0 0 0 1 0 0 0 1 -9.613003 -55.5 -26 0.5 2 0.5
9 0 1 0 0 0 1 0 0 0 1 15.387 -20 -13 0.5 0.5 1.5
9 0 1 0 0 0 1 0 0 0 1 9.386997 -45 -28 0.5 1.5 0.5
9 0 1 0 0 0 1 0 0 0 1 7.386997 -57 -22 0.5 0.5 1.5
9 0 1 0 0 0 1 0 0 0 1 -5.613003 -20 -22 0.5 0.5 1.5
9 0 1 0 0 0 1 0 0 0 1 -9.613003 -61 -20 0.5 1.5 0.5
9 0 1 0 0 0 1 0 0 0 1 -14.613 -61 -24 0.5 0.5 1.5
9 0 1 0 0 0 1 0 0 0 1 -17.613 -54 -25 0.5 0.5 1.5
