9 0 1 0 0 0 1 0 0 0 1 0.1629982 -13.579 12.5 6.5 1 9
9 0 1 0 0 0 1 0 0 0 1 32.663 15.421 9.5 1 4 7
9 0 1 0 0 0 1 0 0 0 1 -32.337 15.421 7.5 1 4 7
9 0 1 0 0 0 1 0 0 0 1 0.1629982 -1.079 20 1.5 7.5 1.5
9 0 1 0 0 0 1 0 0 0 1 31.163 13.921 3 0.5 3.5 7.5
9 0 1 0 0 0 1 0 0 0 1 -30.837 12.921 3.5 0.5 2.5 9
9 0 1 0 0 0 1 0 0 0 1 -33.337 22.421 8.5 1 2 5
9 0 1 0 0 0 1 0 0 0 1 7.662998 -12.079 18 2 0.5 9.5
9 0 1 0 0 0 1 0 0 0 1 -7.337002 -12.079 18 2 0.5 9.5
9 0 1 0 0 0 1 0 0 0 1 0.1629982 -5.579 0 1.5 4 1.5
9 0 1 0 0 0 1 0 0 0 1 33.163 22.921 6.5 0.5 3.5 5
9 0 1 0 0 0 1 0 0 0 1 0.1629982 -15.079 6 6.5 0.5 2.5
9 0 1 0 0 0 1 0 0 0 1 -32.837 14.921 16.5 1.5 2.5 2
9 0 1 0 0 0 1 0 0 0 1 32.163 16.421 -0.5 0.5 4 3
9 0 1 0 0 0 1 0 0 0 1 28.163 9.421 -4.5 1.5 1 4
9 0 1 0 0 0 1 0 0 0 1 -28.837 9.421 -1.5 1.5 1 4
9 0 1 0 0 0 1 0 0 0 1 30.163 11.421 2 0.5 1 10.5
9 0 1 0 0 0 1 0 0 0 1 0.1629982 -13.579 23 3.5 1 1.5
9 0 1 0 0 0 1 0 0 0 1 -31.837 16.421 -2 0.5 4 2.5
9 0 1 0 0 0 1 0 0 0 1 -33.837 15.921 12.5 0.5 4.5 2
9 0 1 0 0 0 1 0 0 0 1 34.163 24.421 7.5 0.5 2 4
9 0 1 0 0 0 1 0 0 0 1 26.163 -2.579 5.5 0.5 2 4
9 0 1 0 0 0 1 0 0 0 1 33.163 14.921 17.5 1.5 2.5 1
9 0 1 0 0 0 1 0 0 0 1 -0.8370018 -14.079 2.5 2.5 1.5 1
9 0 1 0 0 0 1 0 0 0 1 -34.337 25.421 8 1 1 3.5
9 0 1 0 0 0 1 0 0 0 1 -6.837002 -13.579 11 0.5 1 6.5
9 0 1 0 0 0 1 0 0 0 1 34.163 19.921 12 0.5 2.5 2.5
9 0 1 0 0 0 1 0 0 0 1 31.163 13.421 13.5 0.5 2 3
9 0 1 0 0 0 1 0 0 0 1 30.163 9.921 3.5 1.5 0.5 4
9 0 1 0 0 0 1 0 0 0 1 -25.837 -2.579 3.5 0.5 2 3
9 0 1 0 0 0 1 0 0 0 1 -26.837 8.421 -8.5 1.5 1 2
9 0 1 0 0 0 1 0 0 0 1 32.163 21.421 4 0.5 1 5.5
9 0 1 0 0 0 1 0 0 0 1 -26.837 -1.079 8 0.5 1.5 3.5
9 0 1 0 0 0 1 0 0 0 1 33.663 27.421 -2 1 1 2.5
9 0 1 0 0 0 1 0 0 0 1 25.163 -3.579 2 0.5 2 2.5
9 0 1 0 0 0 1 0 0 0 1 9.162998 -20.079 -16.5 0.5 2.5 2
9 0 1 0 0 0 1 0 0 0 1 7.162998 -13.579 11.5 0.5 1 5
9 0 1 0 0 0 1 0 0 0 1 -8.837002 -20.079 -16.5 0.5 2.5 2
9 0 1 0 0 0 1 0 0 0 1 -29.337 10.921 2.5 1 0.5 5
9 0 1 0 0 0 1 0 0 0 1 -32.337 19.921 6.5 1 0.5 5
9 0 1 0 0 0 1 0 0 0 1 34.163 15.921 15.5 0.5 4.5 1
9 0 1 0 0 0 1 0 0 0 1 29.163 -1.079 39.5 0.5 1.5 3
9 0 1 0 0 0 1 0 0 0 1 27.163 -0.07900047 9.5 0.5 1.5 3
9 0 1 0 0 0 1 0 0 0 1 26.163 8.421 -9 0.5 1 4.5
9 0 1 0 0 0 1 0 0 0 1 -24.837 -5.079 2.5 0.5 1.5 3
9 0 1 0 0 0 1 0 0 0 1 0.1629982 -1.579 22 0.5 8 0.5
9 0 1 0 0 0 1 0 0 0 1 -30.837 15.421 -7.5 0.5 2 2
9 0 1 0 0 0 1 0 0 0 1 -30.337 9.921 5.5 2 0.5 2
9 0 1 0 0 0 1 0 0 0 1 -32.837 17.421 -1.5 0.5 2 2
9 0 1 0 0 0 1 0 0 0 1 -32.337 10.921 8.5 1 0.5 4
9 0 1 0 0 0 1 0 0 0 1 -33.837 18.421 8.5 0.5 2 2
9 0 1 0 0 0 1 0 0 0 1 31.163 15.921 -6 0.5 2.5 1.5
9 0 1 0 0 0 1 0 0 0 1 0.1629982 -1.079 18 0.5 7.5 0.5
9 0 1 0 0 0 1 0 0 0 1 -1.837002 -1.079 20 0.5 7.5 0.5
9 0 1 0 0 0 1 0 0 0 1 -12.837 -14.079 4 0.5 2.5 1.5
9 0 1 0 0 0 1 0 0 0 1 -28.837 -2.079 39 0.5 1.5 2.5
9 0 1 0 0 0 1 0 0 0 1 30.163 13.421 -7 0.5 1 3.5
9 0 1 0 0 0 1 0 0 0 1 0.1629982 -12.079 11.5 0.5 0.5 7
9 0 1 0 0 0 1 0 0 0 1 -29.837 11.421 -6 0.5 1 3.5
9 0 1 0 0 0 1 0 0 0 1 -34.337 26.921 2 1 0.5 3.5
9 0 1 0 0 0 1 0 0 0 1 34.163 26.921 3.5 1.5 0.5 2
9 0 1 0 0 0 1 0 0 0 1 33.163 21.421 13 0.5 2 1.5
9 0 1 0 0 0 1 0 0 0 1 32.163 19.921 8.5 0.5 0.5 6
9 0 1 0 0 0 1 0 0 0 1 32.163 10.921 6.5 0.5 0.5 6
9 0 1 0 0 0 1 0 0 0 1 29.163 10.921 3.5 0.5 0.5 6
9 0 1 0 0 0 1 0 0 0 1 27.663 7.921 -6.5 1 0.5 3
9 0 1 0 0 0 1 0 0 0 1 23.163 -4.579 -5 0.5 2 1.5
9 0 1 0 0 0 1 0 0 0 1 10.163 -21.579 -13 0.5 2 1.5
9 0 1 0 0 0 1 0 0 0 1 8.662998 -17.579 -19 1 3 0.5
9 0 1 0 0 0 1 0 0 0 1 -7.837002 -13.579 9.5 0.5 1 3
9 0 1 0 0 0 1 0 0 0 1 -8.337002 -17.079 -19.5 1 1.5 1
9 0 1 0 0 0 1 0 0 0 1 -9.337002 -20.079 -11.5 1 0.5 3
9 0 1 0 0 0 1 0 0 0 1 -9.837002 -22.579 -15 0.5 2 1.5
9 0 1 0 0 0 1 0 0 0 1 -25.337 8.421 -13 1 1 1.5
9 0 1 0 0 0 1 0 0 0 1 -25.837 -4.079 8.5 0.5 1.5 2
9 0 1 0 0 0 1 0 0 0 1 -27.837 0.4209995 43.5 1.5 1 1
9 0 1 0 0 0 1 0 0 0 1 -28.337 9.921 -7 2 0.5 1.5
9 0 1 0 0 0 1 0 0 0 1 -30.837 12.921 14.5 0.5 1.5 2
9 0 1 0 0 0 1 0 0 0 1 -32.837 25.421 4.5 0.5 1 3
9 0 1 0 0 0 1 0 0 0 1 -33.337 18.921 15.5 1 1.5 1
9 0 1 0 0 0 1 0 0 0 1 24.663 7.921 -15 1 0.5 2.5
9 0 1 0 0 0 1 0 0 0 1 20.163 -12.079 16.5 2.5 0.5 1
9 0 1 0 0 0 1 0 0 0 1 13.163 -14.079 4.5 0.5 2.5 1
9 0 1 0 0 0 1 0 0 0 1 10.163 -19.079 -5.5 2.5 0.5 1
9 0 1 0 0 0 1 0 0 0 1 7.162998 -14.079 5.5 0.5 2.5 1
9 0 1 0 0 0 1 0 0 0 1 0.1629982 -15.079 9.5 2.5 0.5 1
9 0 1 0 0 0 1 0 0 0 1 0.1629982 -20.079 -5.5 2.5 0.5 1
9 0 1 0 0 0 1 0 0 0 1 -29.837 11.421 10 0.5 1 2.5
9 0 1 0 0 0 1 0 0 0 1 -30.837 15.921 -0.5 0.5 0.5 5
9 0 1 0 0 0 1 0 0 0 1 35.163 25.921 7 0.5 0.5 4.5
9 0 1 0 0 0 1 0 0 0 1 33.163 14.921 19 1.5 1.5 0.5
9 0 1 0 0 0 1 0 0 0 1 29.163 0.9209995 43 1.5 1.5 0.5
9 0 1 0 0 0 1 0 0 0 1 25.163 -5.079 6 0.5 1.5 1.5
9 0 1 0 0 0 1 0 0 0 1 13.163 -17.079 1 1.5 0.5 1.5
9 0 1 0 0 0 1 0 0 0 1 4.162998 -2.079 -35 0.5 1.5 1.5
9 0 1 0 0 0 1 0 0 0 1 3.162998 -14.079 3 1.5 1.5 0.5
9 0 1 0 0 0 1 0 0 0 1 0.1629982 -14.079 1 1.5 1.5 0.5
9 0 1 0 0 0 1 0 0 0 1 -10.837 -19.079 -6 1.5 0.5 1.5
9 0 1 0 0 0 1 0 0 0 1 -12.837 -17.079 1 1.5 0.5 1.5
9 0 1 0 0 0 1 0 0 0 1 -22.837 -5.079 -5 0.5 1.5 1.5
9 0 1 0 0 0 1 0 0 0 1 -31.837 20.921 2 0.5 0.5 4.5
9 0 1 0 0 0 1 0 0 0 1 -33.837 27.921 -4 0.5 0.5 4.5
9 0 1 0 0 0 1 0 0 0 1 -32.837 14.921 19 1.5 1.5 0.5
9 0 1 0 0 0 1 0 0 0 1 30.163 4.421 39.5 0.5 1 2
9 0 1 0 0 0 1 0 0 0 1 28.163 10.421 1.5 0.5 1 2
9 0 1 0 0 0 1 0 0 0 1 28.663 8.921 0.5 2 0.5 1
9 0 1 0 0 0 1 0 0 0 1 27.163 -2.079 12.5 0.5 0.5 4
9 0 1 0 0 0 1 0 0 0 1 18.663 -13.079 13.5 2 0.5 1
9 0 1 0 0 0 1 0 0 0 1 8.162998 -13.579 8.5 0.5 1 2
9 0 1 0 0 0 1 0 0 0 1 8.662998 -20.079 -9.5 2 0.5 1
9 0 1 0 0 0 1 0 0 0 1 0.1629982 -5.579 -2 0.5 4 0.5
9 0 1 0 0 0 1 0 0 0 1 0.1629982 -13.079 28.5 0.5 0.5 4
9 0 1 0 0 0 1 0 0 0 1 -1.837002 -5.579 0 0.5 4 0.5
9 0 1 0 0 0 1 0 0 0 1 -0.3370018 -19.079 -2 4 0.5 0.5
9 0 1 0 0 0 1 0 0 0 1 -4.337002 -13.579 22.5 1 1 1
9 0 1 0 0 0 1 0 0 0 1 -18.337 -13.079 13.5 2 0.5 1
9 0 1 0 0 0 1 0 0 0 1 -23.837 7.421 -16.5 0.5 1 2
9 0 1 0 0 0 1 0 0 0 1 -24.837 -2.579 0.5 0.5 1 2
9 0 1 0 0 0 1 0 0 0 1 -26.837 -3.079 11.5 0.5 0.5 4
9 0 1 0 0 0 1 0 0 0 1 -29.837 2.921 39.5 0.5 0.5 4
9 0 1 0 0 0 1 0 0 0 1 -32.837 22.421 2.5 0.5 2 1
9 0 1 0 0 0 1 0 0 0 1 33.163 27.921 -8 0.5 0.5 3.5
9 0 1 0 0 0 1 0 0 0 1 33.163 15.921 2 0.5 3.5 0.5
9 0 1 0 0 0 1 0 0 0 1 14.163 -12.079 7 0.5 3.5 0.5
9 0 1 0 0 0 1 0 0 0 1 8.162998 -19.079 -18 0.5 3.5 0.5
9 0 1 0 0 0 1 0 0 0 1 0.1629982 -5.079 2 0.5 3.5 0.5
9 0 1 0 0 0 1 0 0 0 1 -30.837 9.921 0 0.5 0.5 3.5
9 0 1 0 0 0 1 0 0 0 1 33.163 19.921 0.5 0.5 1.5 1
9 0 1 0 0 0 1 0 0 0 1 32.163 16.921 -4.5 0.5 1.5 1
9 0 1 0 0 0 1 0 0 0 1 30.163 9.921 -3.5 0.5 0.5 3
9 0 1 0 0 0 1 0 0 0 1 26.163 -0.07900047 4.5 0.5 0.5 3
9 0 1 0 0 0 1 0 0 0 1 26.163 -3.579 11 0.5 1 1.5
9 0 1 0 0 0 1 0 0 0 1 25.163 27.421 -49 0.5 1 1.5
9 0 1 0 0 0 1 0 0 0 1 24.163 24.421 -48 0.5 1 1.5
9 0 1 0 0 0 1 0 0 0 1 24.163 -5.579 1 0.5 1 1.5
9 0 1 0 0 0 1 0 0 0 1 23.163 22.421 -49 0.5 1 1.5
9 0 1 0 0 0 1 0 0 0 1 23.663 6.921 -17 1 0.5 1.5
9 0 1 0 0 0 1 0 0 0 1 22.163 19.421 -49 0.5 1 1.5
9 0 1 0 0 0 1 0 0 0 1 21.163 17.921 -50.5 0.5 1.5 1
9 0 1 0 0 0 1 0 0 0 1 22.163 -11.079 19.5 1.5 0.5 1
9 0 1 0 0 0 1 0 0 0 1 21.163 -10.079 23.5 1.5 0.5 1
9 0 1 0 0 0 1 0 0 0 1 19.663 -11.079 21 1 0.5 1.5
9 0 1 0 0 0 1 0 0 0 1 17.163 -14.079 10.5 1.5 0.5 1
9 0 1 0 0 0 1 0 0 0 1 15.663 -11.079 15 1 0.5 1.5
9 0 1 0 0 0 1 0 0 0 1 15.663 -15.079 8 1 0.5 1.5
9 0 1 0 0 0 1 0 0 0 1 12.163 -18.079 -3.5 1.5 0.5 1
9 0 1 0 0 0 1 0 0 0 1 12.163 -19.079 -7.5 1.5 0.5 1
9 0 1 0 0 0 1 0 0 0 1 9.162998 -20.079 -13.5 0.5 1.5 1
9 0 1 0 0 0 1 0 0 0 1 8.162998 -12.079 7.5 1.5 0.5 1
9 0 1 0 0 0 1 0 0 0 1 -6.837002 -15.579 6 0.5 1 1.5
9 0 1 0 0 0 1 0 0 0 1 -7.337002 -20.079 -9 1 0.5 1.5
9 0 1 0 0 0 1 0 0 0 1 -8.337002 -15.079 -21 1 1.5 0.5
9 0 1 0 0 0 1 0 0 0 1 -11.837 -18.079 -2.5 1.5 0.5 1
9 0 1 0 0 0 1 0 0 0 1 -14.337 -16.079 4 1 0.5 1.5
9 0 1 0 0 0 1 0 0 0 1 -15.337 -15.079 8 1 0.5 1.5
9 0 1 0 0 0 1 0 0 0 1 -16.337 -14.079 11 1 0.5 1.5
9 0 1 0 0 0 1 0 0 0 1 -18.337 -12.079 18 1 0.5 1.5
9 0 1 0 0 0 1 0 0 0 1 -19.337 -11.079 21 1 0.5 1.5
9 0 1 0 0 0 1 0 0 0 1 -20.837 17.421 -50 0.5 1 1.5
9 0 1 0 0 0 1 0 0 0 1 -21.837 19.421 -50 0.5 1 1.5
9 0 1 0 0 0 1 0 0 0 1 -20.837 -10.079 23.5 1.5 0.5 1
9 0 1 0 0 0 1 0 0 0 1 -22.837 21.921 -49.5 0.5 1.5 1
9 0 1 0 0 0 1 0 0 0 1 -21.837 -9.079 26.5 1.5 0.5 1
9 0 1 0 0 0 1 0 0 0 1 -23.837 24.921 -49.5 0.5 1.5 1
9 0 1 0 0 0 1 0 0 0 1 -23.837 -6.579 1 0.5 1 1.5
9 0 1 0 0 0 1 0 0 0 1 -22.837 -12.079 15.5 1.5 0.5 1
9 0 1 0 0 0 1 0 0 0 1 -24.837 26.421 -48 0.5 1 1.5
9 0 1 0 0 0 1 0 0 0 1 -25.837 28.421 -47 0.5 1 1.5
9 0 1 0 0 0 1 0 0 0 1 -26.837 9.421 -4 0.5 1 1.5
9 0 1 0 0 0 1 0 0 0 1 -27.337 7.921 -5 1 0.5 1.5
9 0 1 0 0 0 1 0 0 0 1 -27.837 1.421 13 0.5 1 1.5
9 0 1 0 0 0 1 0 0 0 1 -29.837 12.921 -8.5 0.5 0.5 3
9 0 1 0 0 0 1 0 0 0 1 -31.837 16.421 -6 0.5 1 1.5
9 0 1 0 0 0 1 0 0 0 1 -32.837 28.421 -12 0.5 1 1.5
9 0 1 0 0 0 1 0 0 0 1 -32.837 20.921 0.5 0.5 1.5 1
9 0 1 0 0 0 1 0 0 0 1 -33.337 21.921 14 1 1.5 0.5
9 0 1 0 0 0 1 0 0 0 1 -32.837 11.921 15.5 1.5 0.5 1
9 0 1 0 0 0 1 0 0 0 1 33.163 10.921 10 0.5 0.5 2.5
9 0 1 0 0 0 1 0 0 0 1 31.163 17.921 -2 0.5 0.5 2.5
9 0 1 0 0 0 1 0 0 0 1 30.163 1.921 36 0.5 2.5 0.5
9 0 1 0 0 0 1 0 0 0 1 25.163 -1.079 0 0.5 0.5 2.5
9 0 1 0 0 0 1 0 0 0 1 22.163 -9.079 26 2.5 0.5 0.5
9 0 1 0 0 0 1 0 0 0 1 -23.837 -7.079 32 2.5 0.5 0.5
9 0 1 0 0 0 1 0 0 0 1 -31.837 10.921 2 0.5 0.5 2.5
9 0 1 0 0 0 1 0 0 0 1 -33.837 23.921 3 0.5 2.5 0.5
9 0 1 0 0 0 1 0 0 0 1 -35.837 25.921 9 0.5 0.5 2.5
9 0 1 0 0 0 1 0 0 0 1 35.163 24.921 6.5 0.5 0.5 2
9 0 1 0 0 0 1 0 0 0 1 34.163 23.421 12.5 0.5 1 1
9 0 1 0 0 0 1 0 0 0 1 34.163 21.921 7.5 0.5 0.5 2
9 0 1 0 0 0 1 0 0 0 1 34.163 11.921 12.5 0.5 0.5 2
9 0 1 0 0 0 1 0 0 0 1 33.163 28.921 -10.5 0.5 0.5 2
9 0 1 0 0 0 1 0 0 0 1 33.163 17.421 -2.5 0.5 1 1
9 0 1 0 0 0 1 0 0 0 1 33.163 14.421 0.5 0.5 1 1
9 0 1 0 0 0 1 0 0 0 1 32.163 11.921 0.5 0.5 0.5 2
9 0 1 0 0 0 1 0 0 0 1 31.163 15.421 -8.5 0.5 1 1
9 0 1 0 0 0 1 0 0 0 1 31.163 13.421 17.5 0.5 1 1
9 0 1 0 0 0 1 0 0 0 1 30.163 14.921 -10.5 0.5 0.5 2
9 0 1 0 0 0 1 0 0 0 1 29.163 11.921 6.5 0.5 0.5 2
9 0 1 0 0 0 1 0 0 0 1 29.163 -3.079 39.5 0.5 0.5 2
9 0 1 0 0 0 1 0 0 0 1 28.663 1.421 44 1 1 0.5
9 0 1 0 0 0 1 0 0 0 1 27.663 8.921 -9.5 1 0.5 1
9 0 1 0 0 0 1 0 0 0 1 27.163 0.4209995 43.5 0.5 1 1
9 0 1 0 0 0 1 0 0 0 1 27.663 -1.579 43 1 1 0.5
9 0 1 0 0 0 1 0 0 0 1 25.163 8.921 -12.5 0.5 0.5 2
9 0 1 0 0 0 1 0 0 0 1 24.663 -6.079 3.5 1 0.5 1
9 0 1 0 0 0 1 0 0 0 1 23.663 7.921 -18.5 1 0.5 1
9 0 1 0 0 0 1 0 0 0 1 23.163 -5.579 -2.5 0.5 1 1
9 0 1 0 0 0 1 0 0 0 1 23.663 -10.079 22.5 1 0.5 1
9 0 1 0 0 0 1 0 0 0 1 22.163 -5.579 -6.5 0.5 1 1
9 0 1 0 0 0 1 0 0 0 1 23.663 -7.079 32 2 0.5 0.5
9 0 1 0 0 0 1 0 0 0 1 22.663 -8.079 29.5 1 0.5 1
9 0 1 0 0 0 1 0 0 0 1 21.663 -13.079 12.5 1 0.5 1
9 0 1 0 0 0 1 0 0 0 1 20.163 16.421 -50.5 0.5 1 1
9 0 1 0 0 0 1 0 0 0 1 19.663 -14.079 9.5 1 0.5 1
9 0 1 0 0 0 1 0 0 0 1 18.663 -12.079 18.5 1 0.5 1
9 0 1 0 0 0 1 0 0 0 1 16.663 -17.079 -1.5 1 0.5 1
9 0 1 0 0 0 1 0 0 0 1 14.663 -16.079 4.5 1 0.5 1
9 0 1 0 0 0 1 0 0 0 1 10.663 -18.079 -2 2 0.5 0.5
9 0 1 0 0 0 1 0 0 0 1 9.162998 -23.579 -16.5 0.5 1 1
9 0 1 0 0 0 1 0 0 0 1 8.162998 -15.579 -20.5 0.5 1 1
9 0 1 0 0 0 1 0 0 0 1 8.662998 -17.079 -16.5 1 0.5 1
9 0 1 0 0 0 1 0 0 0 1 7.662998 -14.079 -21.5 1 0.5 1
9 0 1 0 0 0 1 0 0 0 1 7.662998 -15.579 7 1 1 0.5
9 0 1 0 0 0 1 0 0 0 1 6.662998 -18.079 0 2 0.5 0.5
9 0 1 0 0 0 1 0 0 0 1 6.662998 -19.079 -4 2 0.5 0.5
9 0 1 0 0 0 1 0 0 0 1 4.662998 -13.579 22 1 1 0.5
9 0 1 0 0 0 1 0 0 0 1 3.662998 -20.079 -6.5 1 0.5 1
9 0 1 0 0 0 1 0 0 0 1 -3.337002 -20.079 -6.5 1 0.5 1
9 0 1 0 0 0 1 0 0 0 1 -5.337002 -19.079 -3.5 1 0.5 1
9 0 1 0 0 0 1 0 0 0 1 -6.337002 -18.079 0.5 1 0.5 1
9 0 1 0 0 0 1 0 0 0 1 -8.337002 -12.079 7.5 1 0.5 1
9 0 1 0 0 0 1 0 0 0 1 -8.337002 -18.079 -0.5 1 0.5 1
9 0 1 0 0 0 1 0 0 0 1 -9.837002 -21.579 -12.5 0.5 1 1
9 0 1 0 0 0 1 0 0 0 1 -10.837 -20.579 -9.5 0.5 1 1
9 0 1 0 0 0 1 0 0 0 1 -13.837 -10.579 6 0.5 2 0.5
9 0 1 0 0 0 1 0 0 0 1 -13.337 -18.079 -4 2 0.5 0.5
9 0 1 0 0 0 1 0 0 0 1 -15.837 -11.079 14.5 0.5 0.5 2
9 0 1 0 0 0 1 0 0 0 1 -15.337 -17.079 -0.5 1 0.5 1
9 0 1 0 0 0 1 0 0 0 1 -16.337 -18.079 -5.5 1 0.5 1
9 0 1 0 0 0 1 0 0 0 1 -17.337 -16.079 2.5 1 0.5 1
9 0 1 0 0 0 1 0 0 0 1 -19.337 -14.079 9.5 1 0.5 1
9 0 1 0 0 0 1 0 0 0 1 -21.337 -13.079 12.5 1 0.5 1
9 0 1 0 0 0 1 0 0 0 1 -22.837 20.421 -47.5 0.5 1 1
9 0 1 0 0 0 1 0 0 0 1 -22.837 -6.579 -2.5 0.5 1 1
9 0 1 0 0 0 1 0 0 0 1 -22.337 -8.079 29.5 1 0.5 1
9 0 1 0 0 0 1 0 0 0 1 -22.337 -11.079 19.5 1 0.5 1
9 0 1 0 0 0 1 0 0 0 1 -23.837 23.421 -47.5 0.5 1 1
9 0 1 0 0 0 1 0 0 0 1 -23.337 -10.079 22.5 1 0.5 1
9 0 1 0 0 0 1 0 0 0 1 -24.837 24.921 -46.5 0.5 0.5 2
9 0 1 0 0 0 1 0 0 0 1 -24.837 7.921 -16.5 0.5 0.5 2
9 0 1 0 0 0 1 0 0 0 1 -24.837 -1.079 -1.5 0.5 0.5 2
9 0 1 0 0 0 1 0 0 0 1 -25.837 -0.07900047 2.5 0.5 0.5 2
9 0 1 0 0 0 1 0 0 0 1 -25.837 -5.079 4.5 0.5 0.5 2
9 0 1 0 0 0 1 0 0 0 1 -26.337 8.421 -11 1 1 0.5
9 0 1 0 0 0 1 0 0 0 1 -27.837 10.921 -0.5 0.5 0.5 2
9 0 1 0 0 0 1 0 0 0 1 -27.337 -1.579 43 1 1 0.5
9 0 1 0 0 0 1 0 0 0 1 -28.837 8.921 -7.5 0.5 0.5 2
9 0 1 0 0 0 1 0 0 0 1 -28.337 1.921 43.5 1 0.5 1
9 0 1 0 0 0 1 0 0 0 1 -29.837 0.4209995 36 0.5 2 0.5
9 0 1 0 0 0 1 0 0 0 1 -29.837 0.4209995 43 0.5 2 0.5
9 0 1 0 0 0 1 0 0 0 1 -30.837 3.921 39.5 0.5 0.5 2
9 0 1 0 0 0 1 0 0 0 1 -31.837 11.921 -1.5 0.5 0.5 2
9 0 1 0 0 0 1 0 0 0 1 -32.837 14.421 -0.5 0.5 1 1
9 0 1 0 0 0 1 0 0 0 1 -33.837 28.921 -7.5 0.5 0.5 2
9 0 1 0 0 0 1 0 0 0 1 -33.837 26.921 -3.5 0.5 0.5 2
9 0 1 0 0 0 1 0 0 0 1 -34.837 18.921 13.5 0.5 0.5 2
9 0 1 0 0 0 1 0 0 0 1 36.163 25.921 10 0.5 0.5 1.5
9 0 1 0 0 0 1 0 0 0 1 35.163 18.921 13 0.5 0.5 1.5
9 0 1 0 0 0 1 0 0 0 1 32.163 27.921 -16 0.5 0.5 1.5
9 0 1 0 0 0 1 0 0 0 1 32.163 20.921 11 0.5 0.5 1.5
9 0 1 0 0 0 1 0 0 0 1 33.163 17.921 17 1.5 0.5 0.5
9 0 1 0 0 0 1 0 0 0 1 31.163 15.921 12 0.5 0.5 1.5
9 0 1 0 0 0 1 0 0 0 1 30.163 12.921 -2 0.5 0.5 1.5
9 0 1 0 0 0 1 0 0 0 1 29.163 10.921 -10 0.5 0.5 1.5
9 0 1 0 0 0 1 0 0 0 1 27.163 -1.079 14 0.5 0.5 1.5
9 0 1 0 0 0 1 0 0 0 1 26.163 29.921 -48 0.5 0.5 1.5
9 0 1 0 0 0 1 0 0 0 1 26.163 28.921 -46 0.5 0.5 1.5
9 0 1 0 0 0 1 0 0 0 1 26.163 27.921 -44 0.5 0.5 1.5
9 0 1 0 0 0 1 0 0 0 1 26.163 -2.079 1 0.5 1.5 0.5
9 0 1 0 0 0 1 0 0 0 1 25.163 25.921 -46 0.5 0.5 1.5
9 0 1 0 0 0 1 0 0 0 1 25.163 7.921 -11 0.5 0.5 1.5
9 0 1 0 0 0 1 0 0 0 1 25.163 -6.079 9 0.5 0.5 1.5
9 0 1 0 0 0 1 0 0 0 1 25.163 -6.079 35 1.5 0.5 0.5
9 0 1 0 0 0 1 0 0 0 1 23.163 20.921 -48 0.5 0.5 1.5
9 0 1 0 0 0 1 0 0 0 1 23.163 -7.079 0 0.5 0.5 1.5
9 0 1 0 0 0 1 0 0 0 1 22.163 -8.079 -3 0.5 0.5 1.5
9 0 1 0 0 0 1 0 0 0 1 21.163 16.921 -49 0.5 1.5 0.5
9 0 1 0 0 0 1 0 0 0 1 22.163 -12.079 15 1.5 0.5 0.5
9 0 1 0 0 0 1 0 0 0 1 19.163 -15.079 6 1.5 0.5 0.5
9 0 1 0 0 0 1 0 0 0 1 17.163 -16.079 3 1.5 0.5 0.5
9 0 1 0 0 0 1 0 0 0 1 15.163 -11.079 12 0.5 0.5 1.5
9 0 1 0 0 0 1 0 0 0 1 9.162998 -16.079 6 1.5 0.5 0.5
9 0 1 0 0 0 1 0 0 0 1 9.162998 -17.079 3 1.5 0.5 0.5
9 0 1 0 0 0 1 0 0 0 1 9.162998 -18.079 -1 1.5 0.5 0.5
9 0 1 0 0 0 1 0 0 0 1 6.162998 -20.079 -8 1.5 0.5 0.5
9 0 1 0 0 0 1 0 0 0 1 4.162998 -4.079 -34 0.5 0.5 1.5
9 0 1 0 0 0 1 0 0 0 1 5.162998 -19.079 -3 1.5 0.5 0.5
9 0 1 0 0 0 1 0 0 0 1 2.162998 -14.079 2 0.5 1.5 0.5
9 0 1 0 0 0 1 0 0 0 1 0.1629982 -14.079 25 1.5 0.5 0.5
9 0 1 0 0 0 1 0 0 0 1 -3.837002 -14.079 3 0.5 1.5 0.5
9 0 1 0 0 0 1 0 0 0 1 -4.837002 -20.079 -8 1.5 0.5 0.5
9 0 1 0 0 0 1 0 0 0 1 -6.837002 -12.079 28 1.5 0.5 0.5
9 0 1 0 0 0 1 0 0 0 1 -8.837002 -17.079 -17 0.5 0.5 1.5
9 0 1 0 0 0 1 0 0 0 1 -7.837002 -17.079 4 1.5 0.5 0.5
9 0 1 0 0 0 1 0 0 0 1 -8.837002 -16.079 6 1.5 0.5 0.5
9 0 1 0 0 0 1 0 0 0 1 -9.837002 -19.079 -15 0.5 1.5 0.5
9 0 1 0 0 0 1 0 0 0 1 -12.837 -19.079 -7 0.5 0.5 1.5
9 0 1 0 0 0 1 0 0 0 1 -18.837 -15.079 6 1.5 0.5 0.5
9 0 1 0 0 0 1 0 0 0 1 -21.837 17.921 -49 0.5 0.5 1.5
9 0 1 0 0 0 1 0 0 0 1 -20.837 -12.079 17 1.5 0.5 0.5
9 0 1 0 0 0 1 0 0 0 1 -24.837 -6.079 7 0.5 0.5 1.5
9 0 1 0 0 0 1 0 0 0 1 -25.837 -2.079 0 0.5 1.5 0.5
9 0 1 0 0 0 1 0 0 0 1 -25.837 -5.079 12 0.5 0.5 1.5
9 0 1 0 0 0 1 0 0 0 1 -24.837 -6.079 35 1.5 0.5 0.5
9 0 1 0 0 0 1 0 0 0 1 -26.837 31.921 -48 0.5 0.5 1.5
9 0 1 0 0 0 1 0 0 0 1 -26.837 30.921 -46 0.5 0.5 1.5
9 0 1 0 0 0 1 0 0 0 1 -26.837 0.9209995 8 0.5 0.5 1.5
9 0 1 0 0 0 1 0 0 0 1 -26.837 -2.079 13 0.5 0.5 1.5
9 0 1 0 0 0 1 0 0 0 1 -28.837 -1.079 35 0.5 0.5 1.5
9 0 1 0 0 0 1 0 0 0 1 -29.837 13.921 -11 0.5 0.5 1.5
9 0 1 0 0 0 1 0 0 0 1 -29.837 11.921 6 0.5 0.5 1.5
9 0 1 0 0 0 1 0 0 0 1 -28.837 9.921 3 1.5 0.5 0.5
9 0 1 0 0 0 1 0 0 0 1 -30.837 12.921 -7 0.5 0.5 1.5
9 0 1 0 0 0 1 0 0 0 1 -32.837 29.921 -14 0.5 0.5 1.5
9 0 1 0 0 0 1 0 0 0 1 -32.837 24.921 9 0.5 0.5 1.5
9 0 1 0 0 0 1 0 0 0 1 -32.837 19.921 13 0.5 0.5 1.5
9 0 1 0 0 0 1 0 0 0 1 -34.837 27.921 -1 0.5 0.5 1.5
9 0 1 0 0 0 1 0 0 0 1 -33.837 20.921 15 1.5 0.5 0.5
