9 0 1 0 0 0 1 0 0 0 1 0.08399391 -16.91601 1 5.5 0.5 6.5
9 0 1 0 0 0 1 0 0 0 1 -16.91601 0.08399391 1 0.5 5.5 6.5
9 0 1 0 0 0 1 0 0 0 1 -0.4160061 17.08399 1 5 0.5 6.5
9 0 1 0 0 0 1 0 0 0 1 17.08399 -1.916006 1 0.5 3.5 6.5
9 0 1 0 0 0 1 0 0 0 1 0.08399391 -17.91601 1 2.5 0.5 6.5
9 0 1 0 0 0 1 0 0 0 1 -17.91601 0.08399391 1 0.5 2.5 6.5
9 0 1 0 0 0 1 0 0 0 1 18.08399 0.08399391 1 0.5 1.5 6.5
9 0 1 0 0 0 1 0 0 0 1 17.08399 3.083994 1 0.5 1.5 6.5
9 0 1 0 0 0 1 0 0 0 1 0.08399391 18.08399 1 1.5 0.5 6.5
9 0 1 0 0 0 1 0 0 0 1 16.08399 6.583994 1 0.5 1 6.5
9 0 1 0 0 0 1 0 0 0 1 6.583994 16.08399 1 1 0.5 6.5
9 0 1 0 0 0 1 0 0 0 1 16.08399 -7.416006 4.5 0.5 2 3
9 0 1 0 0 0 1 0 0 0 1 -15.91601 8.083994 4.5 0.5 1.5 3
9 0 1 0 0 0 1 0 0 0 1 -15.91601 -7.916006 4.5 0.5 1.5 3
9 0 1 0 0 0 1 0 0 0 1 -6.416006 16.08399 3.5 1 0.5 4
9 0 1 0 0 0 1 0 0 0 1 -7.416006 16.08399 -3.5 2 0.5 2
9 0 1 0 0 0 1 0 0 0 1 0.08399391 -15.91601 0 7.5 0.5 0.5
9 0 1 0 0 0 1 0 0 0 1 -15.91601 0.08399391 0 0.5 7.5 0.5
9 0 1 0 0 0 1 0 0 0 1 16.08399 -0.9160061 0 0.5 6.5 0.5
9 0 1 0 0 0 1 0 0 0 1 15.08399 -8.916006 1 0.5 0.5 6.5
9 0 1 0 0 0 1 0 0 0 1 9.083994 -14.91601 1 0.5 0.5 6.5
9 0 1 0 0 0 1 0 0 0 1 -8.916006 15.08399 1 0.5 0.5 6.5
9 0 1 0 0 0 1 0 0 0 1 -8.916006 -14.91601 1 0.5 0.5 6.5
9 0 1 0 0 0 1 0 0 0 1 -14.91601 9.083994 1 0.5 0.5 6.5
9 0 1 0 0 0 1 0 0 0 1 -14.91601 -8.916006 1 0.5 0.5 6.5
9 0 1 0 0 0 1 0 0 0 1 18.08399 -2.416006 4.5 0.5 1 3
9 0 1 0 0 0 1 0 0 0 1 16.08399 8.583994 4.5 0.5 1 3
9 0 1 0 0 0 1 0 0 0 1 8.083994 -15.91601 -3.5 1.5 0.5 2
9 0 1 0 0 0 1 0 0 0 1 5.583994 17.08399 4.5 1 0.5 3
9 0 1 0 0 0 1 0 0 0 1 -7.916006 -15.91601 -3.5 1.5 0.5 2
9 0 1 0 0 0 1 0 0 0 1 -11.41601 -13.91601 4.5 1 0.5 3
9 0 1 0 0 0 1 0 0 0 1 0.08399391 16.08399 0 5.5 0.5 0.5
9 0 1 0 0 0 1 0 0 0 1 16.08399 -6.416006 -3 0.5 1 2.5
9 0 1 0 0 0 1 0 0 0 1 17.08399 5.583994 -3.5 0.5 1 2
9 0 1 0 0 0 1 0 0 0 1 9.083994 15.58399 -3.5 0.5 1 2
9 0 1 0 0 0 1 0 0 0 1 -2.416006 18.08399 -3.5 1 0.5 2
9 0 1 0 0 0 1 0 0 0 1 -13.41601 -11.91601 -3.5 1 0.5 2
9 0 1 0 0 0 1 0 0 0 1 7.083994 -15.91601 4 0.5 0.5 3.5
9 0 1 0 0 0 1 0 0 0 1 -6.916006 -15.91601 4 0.5 0.5 3.5
9 0 1 0 0 0 1 0 0 0 1 18.08399 2.083994 4.5 0.5 0.5 3
9 0 1 0 0 0 1 0 0 0 1 15.08399 9.083994 4.5 0.5 0.5 3
9 0 1 0 0 0 1 0 0 0 1 12.08399 13.08399 4.5 0.5 0.5 3
9 0 1 0 0 0 1 0 0 0 1 12.08399 -12.91601 4.5 0.5 0.5 3
9 0 1 0 0 0 1 0 0 0 1 11.08399 14.08399 4.5 0.5 0.5 3
9 0 1 0 0 0 1 0 0 0 1 11.08399 -13.91601 4.5 0.5 0.5 3
9 0 1 0 0 0 1 0 0 0 1 6.083994 -16.91601 4.5 0.5 0.5 3
9 0 1 0 0 0 1 0 0 0 1 -5.916006 17.08399 4.5 0.5 0.5 3
9 0 1 0 0 0 1 0 0 0 1 -5.916006 -16.91601 4.5 0.5 0.5 3
9 0 1 0 0 0 1 0 0 0 1 -10.91601 14.08399 4.5 0.5 0.5 3
9 0 1 0 0 0 1 0 0 0 1 -11.91601 13.08399 4.5 0.5 0.5 3
9 0 1 0 0 0 1 0 0 0 1 -11.91601 -12.91601 4.5 0.5 0.5 3
9 0 1 0 0 0 1 0 0 0 1 -17.91601 -2.916006 4.5 0.5 0.5 3
9 0 1 0 0 0 1 0 0 0 1 -15.91601 7.083994 -3 0.5 0.5 2.5
9 0 1 0 0 0 1 0 0 0 1 -15.91601 -6.916006 -3 0.5 0.5 2.5
9 0 1 0 0 0 1 0 0 0 1 17.08399 -5.916006 -3.5 0.5 0.5 2
9 0 1 0 0 0 1 0 0 0 1 14.08399 11.08399 -3.5 0.5 0.5 2
9 0 1 0 0 0 1 0 0 0 1 14.08399 -10.91601 -3.5 0.5 0.5 2
9 0 1 0 0 0 1 0 0 0 1 13.08399 12.08399 -3.5 0.5 0.5 2
9 0 1 0 0 0 1 0 0 0 1 13.08399 -11.91601 -3.5 0.5 0.5 2
9 0 1 0 0 0 1 0 0 0 1 8.083994 16.08399 -3.5 0.5 0.5 2
9 0 1 0 0 0 1 0 0 0 1 2.083994 18.08399 -3.5 0.5 0.5 2
9 0 1 0 0 0 1 0 0 0 1 -2.916006 -17.91601 -3.5 0.5 0.5 2
9 0 1 0 0 0 1 0 0 0 1 -12.91601 12.08399 -3.5 0.5 0.5 2
9 0 1 0 0 0 1 0 0 0 1 -13.91601 11.08399 -3.5 0.5 0.5 2
9 0 1 0 0 0 1 0 0 0 1 -13.91601 -10.91601 -3.5 0.5 0.5 2
9 0 1 0 0 0 1 0 0 0 1 -16.91601 6.083994 -3.5 0.5 0.5 2
9 0 1 0 0 0 1 0 0 0 1 -16.91601 -5.916006 -3.5 0.5 0.5 2
9 0 1 0 0 0 1 0 0 0 1 15.08399 7.083994 0 0.5 1.5 0.5
9 0 1 0 0 0 1 0 0 0 1 15.08399 -6.916006 0 0.5 1.5 0.5
9 0 1 0 0 0 1 0 0 0 1 14.08399 9.083994 0 0.5 1.5 0.5
9 0 1 0 0 0 1 0 0 0 1 9.083994 15.08399 6 0.5 0.5 1.5
9 0 1 0 0 0 1 0 0 0 1 9.083994 14.08399 0 1.5 0.5 0.5
9 0 1 0 0 0 1 0 0 0 1 7.083994 15.08399 0 1.5 0.5 0.5
9 0 1 0 0 0 1 0 0 0 1 7.083994 -14.91601 0 1.5 0.5 0.5
9 0 1 0 0 0 1 0 0 0 1 -6.916006 15.08399 0 1.5 0.5 0.5
9 0 1 0 0 0 1 0 0 0 1 -6.916006 -14.91601 0 1.5 0.5 0.5
9 0 1 0 0 0 1 0 0 0 1 -14.91601 7.083994 0 0.5 1.5 0.5
9 0 1 0 0 0 1 0 0 0 1 -14.91601 -6.916006 0 0.5 1.5 0.5
