9 0 1 0 0 0 1 0 0 0 1 -0.1969948 11.606 -0.1270027 2 3 12
9 0 1 0 0 0 1 0 0 0 1 -0.1969948 -11.394 -0.1270027 2 3 12
9 0 1 0 0 0 1 0 0 0 1 -0.1969948 -0.3939991 -11.127 4 2 7
9 0 1 0 0 0 1 0 0 0 1 -0.1969948 0.1060009 10.873 3 2.5 7
9 0 1 0 0 0 1 0 0 0 1 10.80301 -5.393999 0.3729973 2 1 12.5
9 0 1 0 0 0 1 0 0 0 1 -10.19699 -5.893999 0.3729973 1 1.5 13.5
9 0 1 0 0 0 1 0 0 0 1 -0.1969948 6.106001 6.872997 1 2.5 8
9 0 1 0 0 0 1 0 0 0 1 -0.1969948 -5.893999 6.872997 1 2.5 8
9 0 1 0 0 0 1 0 0 0 1 12.80301 5.106001 -0.1270027 4 0.5 8
9 0 1 0 0 0 1 0 0 0 1 -13.19699 5.106001 0.3729973 3 0.5 9.5
9 0 1 0 0 0 1 0 0 0 1 12.80301 0.1060009 8.872997 3 1.5 3
9 0 1 0 0 0 1 0 0 0 1 12.30301 0.1060009 -9.627003 2.5 1.5 3.5
9 0 1 0 0 0 1 0 0 0 1 -12.69699 0.1060009 9.372997 2.5 1.5 3.5
9 0 1 0 0 0 1 0 0 0 1 10.80301 6.606001 0.3729973 1 1 12.5
9 0 1 0 0 0 1 0 0 0 1 10.80301 -7.393999 -0.1270027 1 1 12
9 0 1 0 0 0 1 0 0 0 1 -12.69699 0.1060009 -9.127003 2.5 1.5 3
9 0 1 0 0 0 1 0 0 0 1 -13.69699 -4.893999 -0.1270027 2.5 0.5 9
9 0 1 0 0 0 1 0 0 0 1 2.303005 11.606 5.372997 0.5 3 6.5
9 0 1 0 0 0 1 0 0 0 1 2.303005 -11.894 4.372997 0.5 3.5 5.5
9 0 1 0 0 0 1 0 0 0 1 0.3030052 5.106001 -8.627003 0.5 3.5 5.5
9 0 1 0 0 0 1 0 0 0 1 -10.69699 7.106001 0.3729973 0.5 1.5 12.5
9 0 1 0 0 0 1 0 0 0 1 11.80301 -3.893999 -0.1270027 6 0.5 3
9 0 1 0 0 0 1 0 0 0 1 -12.19699 -3.893999 -0.1270027 6 0.5 3
9 0 1 0 0 0 1 0 0 0 1 12.30301 4.106001 -0.1270027 5.5 0.5 3
9 0 1 0 0 0 1 0 0 0 1 0.3030052 -5.393999 -8.627003 0.5 3 5.5
9 0 1 0 0 0 1 0 0 0 1 -11.69699 4.106001 -0.1270027 5.5 0.5 3
9 0 1 0 0 0 1 0 0 0 1 14.80301 -4.893999 -0.1270027 2 0.5 8
9 0 1 0 0 0 1 0 0 0 1 -1.196995 -14.894 4.872997 3 0.5 5
9 0 1 0 0 0 1 0 0 0 1 -9.196995 5.106001 0.3729973 1 0.5 14.5
9 0 1 0 0 0 1 0 0 0 1 -11.69699 8.106001 -5.127003 0.5 2.5 5
9 0 1 0 0 0 1 0 0 0 1 -11.69699 -7.893999 -5.127003 0.5 2.5 5
9 0 1 0 0 0 1 0 0 0 1 3.303005 0.1060009 8.372997 0.5 2.5 4.5
9 0 1 0 0 0 1 0 0 0 1 11.30301 8.606001 0.8729973 0.5 1 11
9 0 1 0 0 0 1 0 0 0 1 2.803005 2.106001 -8.627003 2 0.5 5.5
9 0 1 0 0 0 1 0 0 0 1 -2.196995 2.106001 -8.627003 2 0.5 5.5
9 0 1 0 0 0 1 0 0 0 1 11.30301 -9.393999 0.3729973 0.5 1 10.5
9 0 1 0 0 0 1 0 0 0 1 2.803005 15.106 -0.1270027 1 0.5 10
9 0 1 0 0 0 1 0 0 0 1 -2.696995 14.606 -0.1270027 0.5 1 10
9 0 1 0 0 0 1 0 0 0 1 3.303005 -15.394 -0.1270027 0.5 1 9
9 0 1 0 0 0 1 0 0 0 1 -3.696995 16.106 -0.1270027 0.5 1.5 6
9 0 1 0 0 0 1 0 0 0 1 3.803005 16.106 -0.1270027 1 0.5 8
9 0 1 0 0 0 1 0 0 0 1 -0.1969948 10.606 -13.127 2 2 1
9 0 1 0 0 0 1 0 0 0 1 -0.1969948 10.606 12.873 2 2 1
9 0 1 0 0 0 1 0 0 0 1 -0.1969948 -10.394 -13.127 2 2 1
9 0 1 0 0 0 1 0 0 0 1 -0.1969948 -10.394 12.873 2 2 1
9 0 1 0 0 0 1 0 0 0 1 8.303005 -4.893999 0.3729973 0.5 0.5 15.5
9 0 1 0 0 0 1 0 0 0 1 2.303005 -13.894 -6.127003 0.5 1.5 5
9 0 1 0 0 0 1 0 0 0 1 -8.696995 -4.893999 -0.1270027 0.5 0.5 15
9 0 1 0 0 0 1 0 0 0 1 9.303005 6.106001 -0.1270027 0.5 0.5 14
9 0 1 0 0 0 1 0 0 0 1 -3.696995 -16.394 -0.1270027 0.5 1 7
9 0 1 0 0 0 1 0 0 0 1 -9.696995 6.106001 -0.1270027 0.5 0.5 14
9 0 1 0 0 0 1 0 0 0 1 11.30301 0.1060009 13.373 1.5 1.5 1.5
9 0 1 0 0 0 1 0 0 0 1 -11.69699 0.1060009 -13.627 1.5 1.5 1.5
9 0 1 0 0 0 1 0 0 0 1 -0.1969948 3.106001 9.372997 1 0.5 6.5
9 0 1 0 0 0 1 0 0 0 1 -0.1969948 -2.893999 9.372997 1 0.5 6.5
9 0 1 0 0 0 1 0 0 0 1 -10.69699 -7.893999 -0.1270027 0.5 0.5 13
9 0 1 0 0 0 1 0 0 0 1 10.30301 5.106001 10.373 2.5 0.5 2.5
9 0 1 0 0 0 1 0 0 0 1 10.80301 5.106001 -10.127 3 0.5 2
9 0 1 0 0 0 1 0 0 0 1 -2.696995 -13.394 5.872997 0.5 1 6
9 0 1 0 0 0 1 0 0 0 1 -5.696995 -9.393999 -10.127 0.5 1 6
9 0 1 0 0 0 1 0 0 0 1 -16.19699 0.1060009 7.872997 1 1.5 2
9 0 1 0 0 0 1 0 0 0 1 6.303005 -10.394 -9.627003 0.5 1 5.5
9 0 1 0 0 0 1 0 0 0 1 2.303005 13.606 -6.627003 0.5 1 5.5
9 0 1 0 0 0 1 0 0 0 1 -2.196995 -14.894 -5.627003 1 0.5 5.5
9 0 1 0 0 0 1 0 0 0 1 -9.196995 0.1060009 11.373 1 0.5 5.5
9 0 1 0 0 0 1 0 0 0 1 -2.696995 11.606 1.372997 0.5 2 2.5
9 0 1 0 0 0 1 0 0 0 1 -3.696995 0.1060009 5.872997 0.5 2.5 2
9 0 1 0 0 0 1 0 0 0 1 -5.696995 9.606001 -10.127 0.5 1 5
9 0 1 0 0 0 1 0 0 0 1 16.80301 0.1060009 7.372997 1 1.5 1.5
9 0 1 0 0 0 1 0 0 0 1 11.30301 0.1060009 -14.127 1.5 1.5 1
9 0 1 0 0 0 1 0 0 0 1 6.303005 10.606 -9.627003 0.5 1 4.5
9 0 1 0 0 0 1 0 0 0 1 -11.69699 0.1060009 13.873 1.5 1.5 1
9 0 1 0 0 0 1 0 0 0 1 -16.69699 0.1060009 -7.127003 1.5 1.5 1
9 0 1 0 0 0 1 0 0 0 1 -17.19699 -4.893999 0.3729973 1 0.5 4.5
9 0 1 0 0 0 1 0 0 0 1 4.303005 -16.394 2.872997 0.5 1 4
9 0 1 0 0 0 1 0 0 0 1 1.303005 8.106001 6.872997 0.5 0.5 8
9 0 1 0 0 0 1 0 0 0 1 -4.696995 16.606 1.872997 0.5 1 4
9 0 1 0 0 0 1 0 0 0 1 -9.196995 0.1060009 -10.127 1 0.5 4
9 0 1 0 0 0 1 0 0 0 1 -11.69699 10.606 4.872997 0.5 1 4
9 0 1 0 0 0 1 0 0 0 1 -11.69699 -10.394 4.872997 0.5 1 4
9 0 1 0 0 0 1 0 0 0 1 5.303005 3.106001 -10.627 0.5 0.5 7.5
9 0 1 0 0 0 1 0 0 0 1 5.303005 -2.893999 -10.627 0.5 0.5 7.5
9 0 1 0 0 0 1 0 0 0 1 4.303005 -1.893999 -10.627 0.5 0.5 7.5
9 0 1 0 0 0 1 0 0 0 1 0.3030052 7.106001 -17.627 2.5 1.5 0.5
9 0 1 0 0 0 1 0 0 0 1 -7.696995 -4.893999 8.372997 0.5 0.5 7.5
9 0 1 0 0 0 1 0 0 0 1 -16.69699 5.106001 0.3729973 0.5 0.5 7.5
9 0 1 0 0 0 1 0 0 0 1 7.303005 -12.394 -8.627003 0.5 1 3.5
9 0 1 0 0 0 1 0 0 0 1 6.303005 -3.893999 9.872997 0.5 0.5 7
9 0 1 0 0 0 1 0 0 0 1 0.3030052 -7.393999 -17.627 3.5 1 0.5
9 0 1 0 0 0 1 0 0 0 1 -4.696995 -16.394 2.372997 0.5 1 3.5
9 0 1 0 0 0 1 0 0 0 1 -5.696995 3.106001 -10.127 0.5 0.5 7
9 0 1 0 0 0 1 0 0 0 1 -6.696995 4.106001 9.872997 0.5 0.5 7
9 0 1 0 0 0 1 0 0 0 1 -6.696995 -3.893999 -10.127 0.5 0.5 7
9 0 1 0 0 0 1 0 0 0 1 -6.696995 -11.394 -8.627003 0.5 1 3.5
9 0 1 0 0 0 1 0 0 0 1 9.303005 -6.893999 7.372997 0.5 0.5 6.5
9 0 1 0 0 0 1 0 0 0 1 7.303005 4.106001 -9.627003 0.5 0.5 6.5
9 0 1 0 0 0 1 0 0 0 1 3.303005 14.106 5.372997 0.5 0.5 6.5
9 0 1 0 0 0 1 0 0 0 1 3.303005 -13.894 5.372997 0.5 0.5 6.5
9 0 1 0 0 0 1 0 0 0 1 -0.6969948 8.106001 -7.627003 0.5 0.5 6.5
9 0 1 0 0 0 1 0 0 0 1 -0.6969948 -7.893999 -7.627003 0.5 0.5 6.5
9 0 1 0 0 0 1 0 0 0 1 -4.696995 -2.893999 9.372997 0.5 0.5 6.5
9 0 1 0 0 0 1 0 0 0 1 -9.696995 7.106001 7.372997 0.5 0.5 6.5
9 0 1 0 0 0 1 0 0 0 1 -10.69699 -8.893999 5.372997 0.5 0.5 6.5
9 0 1 0 0 0 1 0 0 0 1 -11.69699 6.106001 6.372997 0.5 0.5 6.5
9 0 1 0 0 0 1 0 0 0 1 -11.69699 -5.893999 6.372997 0.5 0.5 6.5
9 0 1 0 0 0 1 0 0 0 1 16.80301 0.1060009 -7.127003 1 1.5 1
9 0 1 0 0 0 1 0 0 0 1 15.30301 -0.3939991 -9.127003 0.5 1 3
9 0 1 0 0 0 1 0 0 0 1 10.30301 8.106001 6.872997 0.5 0.5 6
9 0 1 0 0 0 1 0 0 0 1 8.303005 13.606 -7.127003 0.5 1 3
9 0 1 0 0 0 1 0 0 0 1 4.803005 17.106 1.872997 1 0.5 3
9 0 1 0 0 0 1 0 0 0 1 2.303005 -10.894 11.873 0.5 1.5 2
9 0 1 0 0 0 1 0 0 0 1 2.303005 5.606001 0.3729973 1.5 2 0.5
9 0 1 0 0 0 1 0 0 0 1 -2.696995 -10.394 1.372997 0.5 2 1.5
9 0 1 0 0 0 1 0 0 0 1 -2.696995 -13.894 -6.127003 0.5 0.5 6
9 0 1 0 0 0 1 0 0 0 1 -2.696995 -5.393999 0.3729973 1.5 2 0.5
9 0 1 0 0 0 1 0 0 0 1 -6.696995 -3.893999 8.872997 0.5 0.5 6
9 0 1 0 0 0 1 0 0 0 1 -8.696995 -5.893999 6.872997 0.5 0.5 6
9 0 1 0 0 0 1 0 0 0 1 -12.69699 12.106 -0.1270027 0.5 0.5 6
9 0 1 0 0 0 1 0 0 0 1 -12.69699 -11.894 -0.1270027 0.5 0.5 6
9 0 1 0 0 0 1 0 0 0 1 17.30301 5.106001 0.3729973 0.5 0.5 5.5
9 0 1 0 0 0 1 0 0 0 1 17.30301 -4.893999 0.3729973 0.5 0.5 5.5
9 0 1 0 0 0 1 0 0 0 1 9.303005 0.1060009 11.373 0.5 0.5 5.5
9 0 1 0 0 0 1 0 0 0 1 1.303005 -7.893999 5.372997 0.5 0.5 5.5
9 0 1 0 0 0 1 0 0 0 1 -8.696995 6.106001 6.372997 0.5 0.5 5.5
9 0 1 0 0 0 1 0 0 0 1 -9.696995 7.106001 -8.627003 0.5 0.5 5.5
9 0 1 0 0 0 1 0 0 0 1 -10.69699 9.106001 6.372997 0.5 0.5 5.5
9 0 1 0 0 0 1 0 0 0 1 11.30301 10.106 5.872997 0.5 0.5 5
9 0 1 0 0 0 1 0 0 0 1 10.30301 8.106001 -7.127003 0.5 0.5 5
9 0 1 0 0 0 1 0 0 0 1 9.303005 7.106001 5.872997 0.5 0.5 5
9 0 1 0 0 0 1 0 0 0 1 9.303005 0.1060009 -11.127 0.5 0.5 5
9 0 1 0 0 0 1 0 0 0 1 4.303005 15.106 3.872997 0.5 0.5 5
9 0 1 0 0 0 1 0 0 0 1 0.3030052 6.106001 -2.127003 0.5 2.5 1
9 0 1 0 0 0 1 0 0 0 1 0.3030052 -5.893999 -2.127003 0.5 2.5 1
9 0 1 0 0 0 1 0 0 0 1 -0.6969948 -2.893999 -9.127003 0.5 0.5 5
9 0 1 0 0 0 1 0 0 0 1 -1.696995 8.106001 3.872997 0.5 0.5 5
9 0 1 0 0 0 1 0 0 0 1 -3.696995 2.106001 12.873 0.5 0.5 5
9 0 1 0 0 0 1 0 0 0 1 -3.696995 -1.893999 12.873 0.5 0.5 5
9 0 1 0 0 0 1 0 0 0 1 -6.696995 11.106 -9.127003 0.5 0.5 5
9 0 1 0 0 0 1 0 0 0 1 -8.696995 -14.394 -6.627003 0.5 1 2.5
9 0 1 0 0 0 1 0 0 0 1 -9.696995 -7.893999 5.872997 0.5 0.5 5
9 0 1 0 0 0 1 0 0 0 1 10.30301 -8.893999 5.372997 0.5 0.5 4.5
9 0 1 0 0 0 1 0 0 0 1 7.303005 12.106 -8.627003 0.5 0.5 4.5
9 0 1 0 0 0 1 0 0 0 1 5.303005 3.106001 7.372997 0.5 0.5 4.5
9 0 1 0 0 0 1 0 0 0 1 -2.696995 13.106 8.372997 0.5 0.5 4.5
9 0 1 0 0 0 1 0 0 0 1 -3.696995 14.106 2.372997 0.5 0.5 4.5
9 0 1 0 0 0 1 0 0 0 1 0.3030052 2.106001 -17.627 4.5 0.5 0.5
9 0 1 0 0 0 1 0 0 0 1 -0.6969948 -1.893999 -3.627003 4.5 0.5 0.5
9 0 1 0 0 0 1 0 0 0 1 -6.696995 11.106 10.373 0.5 0.5 4.5
9 0 1 0 0 0 1 0 0 0 1 -6.696995 -10.894 10.373 0.5 0.5 4.5
9 0 1 0 0 0 1 0 0 0 1 -11.69699 -5.893999 -11.627 0.5 1.5 1.5
9 0 1 0 0 0 1 0 0 0 1 -11.69699 5.106001 -10.627 1.5 0.5 1.5
9 0 1 0 0 0 1 0 0 0 1 -11.69699 5.106001 11.373 1.5 0.5 1.5
9 0 1 0 0 0 1 0 0 0 1 -12.69699 -4.893999 10.373 1.5 0.5 1.5
9 0 1 0 0 0 1 0 0 0 1 9.803005 -5.393999 -13.127 1 1 1
9 0 1 0 0 0 1 0 0 0 1 5.803005 -15.394 -0.6270027 1 2 0.5
9 0 1 0 0 0 1 0 0 0 1 -0.1969948 5.606001 15.373 1 2 0.5
9 0 1 0 0 0 1 0 0 0 1 -0.1969948 -5.393999 15.373 1 2 0.5
9 0 1 0 0 0 1 0 0 0 1 -0.1969948 -5.893999 -18.127 2 0.5 1
9 0 1 0 0 0 1 0 0 0 1 -3.196995 -11.394 -0.6270027 1 2 0.5
9 0 1 0 0 0 1 0 0 0 1 -4.696995 2.106001 -7.127003 0.5 0.5 4
9 0 1 0 0 0 1 0 0 0 1 -4.696995 -2.893999 -7.127003 0.5 0.5 4
9 0 1 0 0 0 1 0 0 0 1 -7.696995 12.606 -7.127003 0.5 1 2
9 0 1 0 0 0 1 0 0 0 1 -7.696995 -12.894 -8.127003 0.5 0.5 4
9 0 1 0 0 0 1 0 0 0 1 -10.69699 -8.893999 -8.127003 0.5 0.5 4
9 0 1 0 0 0 1 0 0 0 1 -16.19699 -0.3939991 -9.127003 1 1 1
9 0 1 0 0 0 1 0 0 0 1 8.303005 5.106001 4.372997 0.5 0.5 3.5
9 0 1 0 0 0 1 0 0 0 1 11.30301 3.106001 -2.627003 3.5 0.5 0.5
9 0 1 0 0 0 1 0 0 0 1 7.303005 12.106 9.372997 0.5 0.5 3.5
9 0 1 0 0 0 1 0 0 0 1 -3.696995 -13.894 1.372997 0.5 0.5 3.5
9 0 1 0 0 0 1 0 0 0 1 16.30301 0.1060009 9.872997 0.5 1.5 1
9 0 1 0 0 0 1 0 0 0 1 14.30301 5.106001 8.872997 1.5 0.5 1
9 0 1 0 0 0 1 0 0 0 1 13.80301 0.1060009 12.373 1 1.5 0.5
9 0 1 0 0 0 1 0 0 0 1 13.80301 -4.893999 -9.627003 1 0.5 1.5
9 0 1 0 0 0 1 0 0 0 1 14.30301 -4.893999 8.872997 1.5 0.5 1
9 0 1 0 0 0 1 0 0 0 1 12.30301 12.106 3.872997 0.5 0.5 3
9 0 1 0 0 0 1 0 0 0 1 12.30301 -11.894 3.872997 0.5 0.5 3
9 0 1 0 0 0 1 0 0 0 1 10.80301 6.106001 -12.627 1 1.5 0.5
9 0 1 0 0 0 1 0 0 0 1 10.80301 0.1060009 15.373 1 1.5 0.5
9 0 1 0 0 0 1 0 0 0 1 8.803005 5.106001 -13.627 1 0.5 1.5
9 0 1 0 0 0 1 0 0 0 1 8.303005 -13.894 -7.127003 0.5 0.5 3
9 0 1 0 0 0 1 0 0 0 1 8.303005 -13.894 7.872997 0.5 0.5 3
9 0 1 0 0 0 1 0 0 0 1 4.303005 0.1060009 -5.127003 0.5 1.5 1
9 0 1 0 0 0 1 0 0 0 1 4.303005 -16.894 -4.127003 0.5 0.5 3
9 0 1 0 0 0 1 0 0 0 1 4.803005 -17.894 -0.6270027 1 0.5 1.5
9 0 1 0 0 0 1 0 0 0 1 3.803005 12.106 -0.6270027 1 1.5 0.5
9 0 1 0 0 0 1 0 0 0 1 3.803005 -11.894 -0.6270027 1 1.5 0.5
9 0 1 0 0 0 1 0 0 0 1 2.303005 11.106 12.873 0.5 1.5 1
9 0 1 0 0 0 1 0 0 0 1 0.3030052 -12.894 12.873 1.5 0.5 1
9 0 1 0 0 0 1 0 0 0 1 -0.1969948 -14.894 10.373 3 0.5 0.5
9 0 1 0 0 0 1 0 0 0 1 -3.696995 15.606 -7.627003 0.5 1 1.5
9 0 1 0 0 0 1 0 0 0 1 -3.696995 15.606 7.372997 0.5 1 1.5
9 0 1 0 0 0 1 0 0 0 1 -6.196995 16.106 -0.6270027 1 1.5 0.5
9 0 1 0 0 0 1 0 0 0 1 -6.196995 -15.894 -0.6270027 1 1.5 0.5
9 0 1 0 0 0 1 0 0 0 1 -7.696995 -12.894 8.872997 0.5 0.5 3
9 0 1 0 0 0 1 0 0 0 1 -8.696995 14.606 -6.627003 0.5 1 1.5
9 0 1 0 0 0 1 0 0 0 1 -9.696995 -0.8939991 13.873 0.5 0.5 3
9 0 1 0 0 0 1 0 0 0 1 -11.69699 7.106001 -11.127 0.5 1.5 1
9 0 1 0 0 0 1 0 0 0 1 -17.69699 0.1060009 6.872997 0.5 1.5 1
9 0 1 0 0 0 1 0 0 0 1 7.303005 4.106001 5.372997 0.5 0.5 2.5
9 0 1 0 0 0 1 0 0 0 1 7.303005 -11.894 11.373 0.5 0.5 2.5
9 0 1 0 0 0 1 0 0 0 1 6.303005 10.106 12.373 0.5 0.5 2.5
9 0 1 0 0 0 1 0 0 0 1 5.303005 -16.894 2.372997 0.5 0.5 2.5
9 0 1 0 0 0 1 0 0 0 1 4.303005 17.106 -3.627003 0.5 0.5 2.5
9 0 1 0 0 0 1 0 0 0 1 4.303005 2.106001 5.372997 0.5 0.5 2.5
9 0 1 0 0 0 1 0 0 0 1 3.303005 2.106001 15.373 0.5 0.5 2.5
9 0 1 0 0 0 1 0 0 0 1 3.303005 -1.893999 15.373 0.5 0.5 2.5
9 0 1 0 0 0 1 0 0 0 1 3.303005 -3.893999 0.3729973 2.5 0.5 0.5
9 0 1 0 0 0 1 0 0 0 1 0.3030052 13.106 -12.627 2.5 0.5 0.5
9 0 1 0 0 0 1 0 0 0 1 0.3030052 13.106 12.373 2.5 0.5 0.5
9 0 1 0 0 0 1 0 0 0 1 0.3030052 6.106001 -18.627 2.5 0.5 0.5
9 0 1 0 0 0 1 0 0 0 1 0.3030052 -12.894 -12.627 2.5 0.5 0.5
9 0 1 0 0 0 1 0 0 0 1 -4.696995 -16.894 -3.627003 0.5 0.5 2.5
9 0 1 0 0 0 1 0 0 0 1 -4.696995 -17.894 -0.6270027 0.5 0.5 2.5
9 0 1 0 0 0 1 0 0 0 1 -3.696995 4.106001 0.3729973 2.5 0.5 0.5
9 0 1 0 0 0 1 0 0 0 1 -10.69699 -9.893999 3.372997 0.5 0.5 2.5
9 0 1 0 0 0 1 0 0 0 1 16.30301 -0.3939991 -9.127003 0.5 1 1
9 0 1 0 0 0 1 0 0 0 1 13.30301 -12.894 -0.1270027 0.5 0.5 2
9 0 1 0 0 0 1 0 0 0 1 10.30301 9.106001 2.872997 0.5 0.5 2
9 0 1 0 0 0 1 0 0 0 1 10.80301 -0.3939991 -15.627 1 1 0.5
9 0 1 0 0 0 1 0 0 0 1 9.303005 15.606 -5.127003 0.5 1 1
9 0 1 0 0 0 1 0 0 0 1 9.803005 -4.893999 13.873 1 0.5 1
9 0 1 0 0 0 1 0 0 0 1 9.303005 -14.894 -6.127003 0.5 0.5 2
9 0 1 0 0 0 1 0 0 0 1 8.303005 5.106001 -6.127003 0.5 0.5 2
9 0 1 0 0 0 1 0 0 0 1 8.803005 5.106001 13.873 1 0.5 1
9 0 1 0 0 0 1 0 0 0 1 8.303005 0.1060009 15.873 0.5 0.5 2
9 0 1 0 0 0 1 0 0 0 1 6.803005 16.606 -0.6270027 1 1 0.5
9 0 1 0 0 0 1 0 0 0 1 6.303005 -9.893999 13.873 0.5 0.5 2
9 0 1 0 0 0 1 0 0 0 1 4.303005 18.106 -0.1270027 0.5 0.5 2
9 0 1 0 0 0 1 0 0 0 1 4.303005 -1.893999 5.872997 0.5 0.5 2
9 0 1 0 0 0 1 0 0 0 1 4.303005 -14.894 0.8729973 0.5 0.5 2
9 0 1 0 0 0 1 0 0 0 1 2.303005 -13.394 10.873 0.5 1 1
9 0 1 0 0 0 1 0 0 0 1 1.803005 2.106001 3.372997 2 0.5 0.5
9 0 1 0 0 0 1 0 0 0 1 -0.6969948 3.106001 -12.127 0.5 0.5 2
9 0 1 0 0 0 1 0 0 0 1 -0.1969948 15.106 0.3729973 2 0.5 0.5
9 0 1 0 0 0 1 0 0 0 1 -1.696995 -7.893999 0.8729973 0.5 0.5 2
9 0 1 0 0 0 1 0 0 0 1 -2.696995 9.106001 0.8729973 0.5 0.5 2
9 0 1 0 0 0 1 0 0 0 1 -3.696995 11.606 -0.6270027 0.5 2 0.5
9 0 1 0 0 0 1 0 0 0 1 -4.696995 17.106 -4.127003 0.5 0.5 2
9 0 1 0 0 0 1 0 0 0 1 -4.696995 13.606 -0.6270027 0.5 2 0.5
9 0 1 0 0 0 1 0 0 0 1 -4.696995 -13.394 -0.6270027 0.5 2 0.5
9 0 1 0 0 0 1 0 0 0 1 -5.696995 3.106001 4.872997 0.5 0.5 2
9 0 1 0 0 0 1 0 0 0 1 -5.696995 -9.393999 14.873 0.5 1 1
9 0 1 0 0 0 1 0 0 0 1 -7.696995 13.106 9.872997 0.5 0.5 2
9 0 1 0 0 0 1 0 0 0 1 -9.196995 8.606001 1.372997 1 1 0.5
9 0 1 0 0 0 1 0 0 0 1 -10.69699 6.606001 -12.627 0.5 2 0.5
9 0 1 0 0 0 1 0 0 0 1 -10.19699 -5.393999 -13.627 1 1 0.5
9 0 1 0 0 0 1 0 0 0 1 -11.19699 -0.3939991 15.373 1 1 0.5
9 0 1 0 0 0 1 0 0 0 1 -12.69699 -12.894 2.872997 0.5 0.5 2
9 0 1 0 0 0 1 0 0 0 1 -13.69699 0.6060009 -13.127 0.5 1 1
9 0 1 0 0 0 1 0 0 0 1 -13.19699 -4.893999 -10.127 1 0.5 1
9 0 1 0 0 0 1 0 0 0 1 -15.69699 -8.893999 -5.127003 0.5 0.5 2
9 0 1 0 0 0 1 0 0 0 1 -15.69699 -8.893999 4.872997 0.5 0.5 2
9 0 1 0 0 0 1 0 0 0 1 18.30301 0.1060009 -6.627003 0.5 1.5 0.5
9 0 1 0 0 0 1 0 0 0 1 18.30301 0.1060009 6.372997 0.5 1.5 0.5
9 0 1 0 0 0 1 0 0 0 1 16.30301 -8.893999 -4.627003 0.5 0.5 1.5
9 0 1 0 0 0 1 0 0 0 1 15.30301 1.106001 -7.627003 0.5 0.5 1.5
9 0 1 0 0 0 1 0 0 0 1 14.30301 5.106001 -9.627003 0.5 0.5 1.5
9 0 1 0 0 0 1 0 0 0 1 13.30301 0.1060009 -13.627 0.5 1.5 0.5
9 0 1 0 0 0 1 0 0 0 1 13.30301 0.1060009 13.373 0.5 1.5 0.5
9 0 1 0 0 0 1 0 0 0 1 11.30301 -5.893999 -12.627 0.5 1.5 0.5
9 0 1 0 0 0 1 0 0 0 1 11.30301 -11.894 1.372997 0.5 1.5 0.5
9 0 1 0 0 0 1 0 0 0 1 10.30301 6.106001 -13.627 0.5 1.5 0.5
9 0 1 0 0 0 1 0 0 0 1 10.30301 6.106001 13.373 0.5 1.5 0.5
9 0 1 0 0 0 1 0 0 0 1 9.303005 9.106001 1.372997 0.5 1.5 0.5
9 0 1 0 0 0 1 0 0 0 1 9.303005 -8.893999 1.372997 0.5 1.5 0.5
9 0 1 0 0 0 1 0 0 0 1 8.303005 14.106 8.372997 0.5 0.5 1.5
9 0 1 0 0 0 1 0 0 0 1 8.303005 7.106001 1.372997 0.5 1.5 0.5
9 0 1 0 0 0 1 0 0 0 1 8.303005 -6.893999 1.372997 0.5 1.5 0.5
9 0 1 0 0 0 1 0 0 0 1 7.303005 4.106001 12.373 0.5 0.5 1.5
9 0 1 0 0 0 1 0 0 0 1 6.303005 -3.893999 -4.627003 0.5 0.5 1.5
9 0 1 0 0 0 1 0 0 0 1 5.303005 14.106 -0.6270027 0.5 1.5 0.5
9 0 1 0 0 0 1 0 0 0 1 5.303005 4.106001 0.3729973 1.5 0.5 0.5
9 0 1 0 0 0 1 0 0 0 1 4.303005 2.106001 -15.627 0.5 0.5 1.5
9 0 1 0 0 0 1 0 0 0 1 3.303005 13.106 1.372997 0.5 0.5 1.5
9 0 1 0 0 0 1 0 0 0 1 3.303005 -16.894 5.372997 0.5 0.5 1.5
9 0 1 0 0 0 1 0 0 0 1 3.303005 -7.893999 0.3729973 1.5 0.5 0.5
9 0 1 0 0 0 1 0 0 0 1 1.303005 -6.893999 -0.6270027 0.5 1.5 0.5
9 0 1 0 0 0 1 0 0 0 1 -1.696995 15.106 2.372997 0.5 0.5 1.5
9 0 1 0 0 0 1 0 0 0 1 -2.696995 -10.894 3.372997 0.5 1.5 0.5
9 0 1 0 0 0 1 0 0 0 1 -6.696995 -10.894 -13.627 0.5 0.5 1.5
9 0 1 0 0 0 1 0 0 0 1 -7.696995 13.106 -10.627 0.5 0.5 1.5
9 0 1 0 0 0 1 0 0 0 1 -7.696995 -4.893999 -13.627 0.5 0.5 1.5
9 0 1 0 0 0 1 0 0 0 1 -9.696995 8.106001 3.372997 0.5 0.5 1.5
9 0 1 0 0 0 1 0 0 0 1 -9.696995 0.1060009 -15.627 0.5 0.5 1.5
9 0 1 0 0 0 1 0 0 0 1 -10.69699 11.106 1.372997 0.5 1.5 0.5
9 0 1 0 0 0 1 0 0 0 1 -10.69699 9.106001 -10.627 0.5 0.5 1.5
9 0 1 0 0 0 1 0 0 0 1 -10.69699 0.1060009 -15.627 0.5 1.5 0.5
9 0 1 0 0 0 1 0 0 0 1 -11.69699 13.106 1.372997 0.5 1.5 0.5
9 0 1 0 0 0 1 0 0 0 1 -11.69699 -12.894 1.372997 0.5 1.5 0.5
9 0 1 0 0 0 1 0 0 0 1 -13.69699 0.1060009 13.373 0.5 1.5 0.5
9 0 1 0 0 0 1 0 0 0 1 -15.69699 0.1060009 10.373 0.5 1.5 0.5
9 0 1 0 0 0 1 0 0 0 1 -16.69699 -4.893999 -5.627003 0.5 0.5 1.5
