9 0 1 0 0 0 1 0 0 0 1 0 -0.5 0 3.5 4 18.5
9 0 1 0 0 0 1 0 0 0 1 -4 0 0 0.5 3.5 18.5
9 0 1 0 0 0 1 0 0 0 1 4.5 0 0 1 1.5 18.5
9 0 1 0 0 0 1 0 0 0 1 0 4.5 0 2.5 1 10.5
9 0 1 0 0 0 1 0 0 0 1 0 -5 0 1.5 0.5 18.5
9 0 1 0 0 0 1 0 0 0 1 -5 0 0 0.5 2.5 10.5
9 0 1 0 0 0 1 0 0 0 1 4 2.5 0 0.5 1 18.5
9 0 1 0 0 0 1 0 0 0 1 4 -2.5 0 0.5 1 18.5
9 0 1 0 0 0 1 0 0 0 1 0 4.5 -14.5 1.5 1 4
9 0 1 0 0 0 1 0 0 0 1 0 4.5 14.5 1.5 1 4
9 0 1 0 0 0 1 0 0 0 1 3 4 0 0.5 0.5 18.5
9 0 1 0 0 0 1 0 0 0 1 -3 4 0 0.5 0.5 18.5
9 0 1 0 0 0 1 0 0 0 1 -5 0 -14.5 0.5 1.5 4
9 0 1 0 0 0 1 0 0 0 1 -5 0 14.5 0.5 1.5 4
9 0 1 0 0 0 1 0 0 0 1 5 2 0.5 0.5 0.5 11
9 0 1 0 0 0 1 0 0 0 1 5 -2 -0.5 0.5 0.5 11
9 0 1 0 0 0 1 0 0 0 1 2 -5 0.5 0.5 0.5 11
9 0 1 0 0 0 1 0 0 0 1 -2 -5 -0.5 0.5 0.5 11
9 0 1 0 0 0 1 0 0 0 1 4 4 -29 0.5 0.5 9.5
9 0 1 0 0 0 1 0 0 0 1 4 4 29 0.5 0.5 9.5
9 0 1 0 0 0 1 0 0 0 1 4 -4 -29 0.5 0.5 9.5
9 0 1 0 0 0 1 0 0 0 1 4 -4 29 0.5 0.5 9.5
9 0 1 0 0 0 1 0 0 0 1 -4 4 -29 0.5 0.5 9.5
9 0 1 0 0 0 1 0 0 0 1 -4 4 29 0.5 0.5 9.5
9 0 1 0 0 0 1 0 0 0 1 -4 -4 -29 0.5 0.5 9.5
9 0 1 0 0 0 1 0 0 0 1 -4 -4 29 0.5 0.5 9.5
9 0 1 0 0 0 1 0 0 0 1 6 0 0 0.5 0.5 5.5
9 0 1 0 0 0 1 0 0 0 1 4 4 0 0.5 0.5 5.5
9 0 1 0 0 0 1 0 0 0 1 4 -4 0 0.5 0.5 5.5
9 0 1 0 0 0 1 0 0 0 1 0 6 0 0.5 0.5 5.5
9 0 1 0 0 0 1 0 0 0 1 0 -6 0 0.5 0.5 5.5
9 0 1 0 0 0 1 0 0 0 1 -4 4 0 0.5 0.5 5.5
9 0 1 0 0 0 1 0 0 0 1 -4 -4 0 0.5 0.5 5.5
9 0 1 0 0 0 1 0 0 0 1 -6 0 0 0.5 0.5 5.5
9 0 1 0 0 0 1 0 0 0 1 2 4 -14.5 0.5 0.5 4
9 0 1 0 0 0 1 0 0 0 1 2 4 14.5 0.5 0.5 4
9 0 1 0 0 0 1 0 0 0 1 -2 4 -14.5 0.5 0.5 4
9 0 1 0 0 0 1 0 0 0 1 -2 4 14.5 0.5 0.5 4
9 0 1 0 0 0 1 0 0 0 1 5 3 1.5 0.5 0.5 2
9 0 1 0 0 0 1 0 0 0 1 5 -3 -1.5 0.5 0.5 2
9 0 1 0 0 0 1 0 0 0 1 3 5 -1.5 0.5 0.5 2
9 0 1 0 0 0 1 0 0 0 1 3 -5 1.5 0.5 0.5 2
9 0 1 0 0 0 1 0 0 0 1 -3 5 1.5 0.5 0.5 2
9 0 1 0 0 0 1 0 0 0 1 -3 -5 -1.5 0.5 0.5 2
9 0 1 0 0 0 1 0 0 0 1 -5 3 -1.5 0.5 0.5 2
9 0 1 0 0 0 1 0 0 0 1 -5 -3 1.5 0.5 0.5 2
