9 0 -1 0 0 0 1 0 0 0 -1 -40 -10 0 3.35 0.5 3.35
9 0 -1 0 0 0 1 0 0 0 -1 -20 -10 -40 3.35 0.5 3.35
9 0 -1 0 0 0 1 0 0 0 -1 -40 -10 -20 3.35 0.5 3.35
9 0 -1 0 0 0 1 0 0 0 -1 -20 -10 -60 3.35 0.5 3.35
9 0 -1 0 0 0 1 0 0 0 -1 -20 -10 -20 3.35 0.5 3.35
9 0 -1 0 0 0 1 0 0 0 -1 -20 -10 0 3.35 0.5 3.35
9 0 -1 0 0 0 1 0 0 0 -1 -80 -10 0 3.35 0.5 3.35
9 0 -1 0 0 0 1 0 0 0 -1 -100 -10 -20 3.35 0.5 3.35
9 0 -1 0 0 0 1 0 0 0 -1 -80 -10 -40 3.35 0.5 3.35
9 0 -1 0 0 0 1 0 0 0 -1 -40 -10 -40 3.35 0.5 3.35
9 0 -1 0 0 0 1 0 0 0 -1 -60 -10 -20 3.35 0.5 3.35
9 0 -1 0 0 0 1 0 0 0 -1 -80 -10 -20 3.35 0.5 3.35
9 0 -1 0 0 0 1 0 0 0 -1 -100 -10 -40 3.35 0.5 3.35
9 0 -1 0 0 0 1 0 0 0 -1 -40 -10 -60 3.35 0.5 3.35
9 0 -1 0 0 0 1 0 0 0 -1 -60 -10 -40 3.35 0.5 3.35
9 0 -1 0 0 0 1 0 0 0 -1 -80 -10 -60 3.35 0.5 3.35
9 0 1 0 0 0 1 0 0 0 1 -6.416794 -54.5 -29.9661 0.5 32 27.5
9 0 1 0 0 0 1 0 0 0 1 -7.916794 -29.5 -69.4661 1 16 10
9 0 1 0 0 0 1 0 0 0 1 -7.916794 -29.5 9.533899 1 16 10
9 0 1 0 0 0 1 0 0 0 1 -40.41679 -4.5 -68.9661 48.5 2 1.5
9 0 1 0 0 0 1 0 0 0 1 -40.41679 -4.5 9.033899 48.5 2 1.5
9 0 1 0 0 0 1 0 0 0 1 -40.41679 -49 -87.9661 48.5 5.5 0.5
9 0 1 0 0 0 1 0 0 0 1 -5.916794 -78 -69.4661 1 15.5 7
9 0 1 0 0 0 1 0 0 0 1 -5.916794 -78 9.533899 1 15.5 7
9 0 1 0 0 0 1 0 0 0 1 -47.91679 -49.5 28.0339 41 5 0.5
9 0 1 0 0 0 1 0 0 0 1 -144.9168 -48 -47.9661 7 25.5 0.5
9 0 1 0 0 0 1 0 0 0 1 -144.9168 -48 -11.9661 7 25.5 0.5
9 0 1 0 0 0 1 0 0 0 1 -40.41679 -36 -86.9661 48.5 3.5 0.5
9 0 1 0 0 0 1 0 0 0 1 -40.41679 -37 27.0339 48.5 3.5 0.5
9 0 1 0 0 0 1 0 0 0 1 -7.916794 -51 -82.9661 1 21.5 3.5
9 0 1 0 0 0 1 0 0 0 1 -7.916794 -51 22.5339 1 24.5 3
9 0 1 0 0 0 1 0 0 0 1 -5.416794 -27.5 -29.9661 0.5 5 26.5
9 0 1 0 0 0 1 0 0 0 1 -40.41679 -5.5 -71.4661 48.5 1 1
9 0 1 0 0 0 1 0 0 0 1 -40.41679 -5.5 11.5339 48.5 1 1
9 0 1 0 0 0 1 0 0 0 1 -135.4168 -35.5 -12.4661 2.5 19 1
9 0 1 0 0 0 1 0 0 0 1 -50.41679 -32 -85.9661 37.5 2.5 0.5
9 0 1 0 0 0 1 0 0 0 1 -45.41679 -33 26.0339 31.5 2.5 0.5
9 0 1 0 0 0 1 0 0 0 1 -39.41679 -22.5 23.0339 32.5 2 0.5
9 0 1 0 0 0 1 0 0 0 1 0.5832062 -53 28.0339 7.5 8.5 0.5
9 0 1 0 0 0 1 0 0 0 1 -48.41679 -20 -81.9661 41.5 1.5 0.5
9 0 1 0 0 0 1 0 0 0 1 -48.41679 -20 22.0339 41.5 1.5 0.5
9 0 1 0 0 0 1 0 0 0 1 -47.91679 -18 -80.9661 41 1.5 0.5
9 0 1 0 0 0 1 0 0 0 1 -47.91679 -18 21.0339 41 1.5 0.5
9 0 1 0 0 0 1 0 0 0 1 -47.91679 -22 -82.9661 41 1.5 0.5
9 0 1 0 0 0 1 0 0 0 1 -47.91679 -25 -83.9661 41 1.5 0.5
9 0 1 0 0 0 1 0 0 0 1 -47.91679 -25 24.0339 41 1.5 0.5
9 0 1 0 0 0 1 0 0 0 1 -0.4167938 -102 -60.4661 6.5 0.5 9
9 0 1 0 0 0 1 0 0 0 1 -0.4167938 -102 0.5338993 6.5 0.5 9
9 0 1 0 0 0 1 0 0 0 1 -0.4167938 -102 -39.9661 6.5 0.5 8.5
9 0 1 0 0 0 1 0 0 0 1 -0.4167938 -102 -19.9661 6.5 0.5 8.5
9 0 1 0 0 0 1 0 0 0 1 -7.916794 -10 -66.9661 1 3.5 7.5
9 0 1 0 0 0 1 0 0 0 1 -7.916794 -10 7.033899 1 3.5 7.5
9 0 1 0 0 0 1 0 0 0 1 -135.4168 -36.5 -47.9661 2.5 20 0.5
9 0 1 0 0 0 1 0 0 0 1 -55.91679 -28 -84.9661 33 1.5 0.5
9 0 1 0 0 0 1 0 0 0 1 -55.91679 -28 25.0339 33 1.5 0.5
9 0 1 0 0 0 1 0 0 0 1 -40.41679 -2 -68.4661 48.5 0.5 1
9 0 1 0 0 0 1 0 0 0 1 -40.41679 -2 8.533899 48.5 0.5 1
9 0 1 0 0 0 1 0 0 0 1 -108.4168 -4 -29.9661 0.5 2.5 18.5
9 0 1 0 0 0 1 0 0 0 1 -48.41679 -16.5 -79.9661 41.5 1 0.5
9 0 1 0 0 0 1 0 0 0 1 -47.91679 -16.5 20.0339 41 1 0.5
9 0 1 0 0 0 1 0 0 0 1 -5.916794 -14.5 -39.9661 1 8 2.5
9 0 1 0 0 0 1 0 0 0 1 -5.916794 -14.5 -19.9661 1 8 2.5
9 0 1 0 0 0 1 0 0 0 1 -52.91679 -40.5 -86.9661 38 1 0.5
9 0 1 0 0 0 1 0 0 0 1 -0.4167938 -58.5 -87.9661 8.5 4 0.5
9 0 1 0 0 0 1 0 0 0 1 -7.916794 -74 -59.9661 1 28.5 0.5
9 0 1 0 0 0 1 0 0 0 1 -7.916794 -74 0.03389931 1 28.5 0.5
9 0 1 0 0 0 1 0 0 0 1 -5.916794 -97 -66.4661 1 3.5 4
9 0 1 0 0 0 1 0 0 0 1 -5.916794 -97 6.533899 1 3.5 4
9 0 1 0 0 0 1 0 0 0 1 -19.91679 -47.5 26.5339 2 7 1
9 0 1 0 0 0 1 0 0 0 1 -7.916794 -54 26.5339 1 13.5 1
9 0 1 0 0 0 1 0 0 0 1 -19.91679 -48 -86.4661 2 6.5 1
9 0 1 0 0 0 1 0 0 0 1 -88.41679 -4 -57.4661 0.5 2.5 10
9 0 1 0 0 0 1 0 0 0 1 -88.41679 -4 -2.466101 0.5 2.5 10
9 0 1 0 0 0 1 0 0 0 1 -136.4168 -32 -46.9661 1.5 16.5 0.5
9 0 1 0 0 0 1 0 0 0 1 -40.41679 -4 -70.9661 48.5 0.5 0.5
9 0 1 0 0 0 1 0 0 0 1 -40.41679 -4 11.0339 48.5 0.5 0.5
9 0 1 0 0 0 1 0 0 0 1 -40.41679 -6 -72.9661 48.5 0.5 0.5
9 0 1 0 0 0 1 0 0 0 1 -40.41679 -6 13.0339 48.5 0.5 0.5
9 0 1 0 0 0 1 0 0 0 1 -40.41679 -10 -75.9661 48.5 0.5 0.5
9 0 1 0 0 0 1 0 0 0 1 -40.41679 -10 16.0339 48.5 0.5 0.5
9 0 1 0 0 0 1 0 0 0 1 -66.91679 -41.5 27.0339 24 1 0.5
9 0 1 0 0 0 1 0 0 0 1 -98.41679 -4 -47.9661 9.5 2.5 0.5
9 0 1 0 0 0 1 0 0 0 1 -98.41679 -4 -11.9661 9.5 2.5 0.5
9 0 1 0 0 0 1 0 0 0 1 -48.91679 -7 -73.9661 40 0.5 0.5
9 0 1 0 0 0 1 0 0 0 1 -48.91679 -7 14.0339 40 0.5 0.5
9 0 1 0 0 0 1 0 0 0 1 -6.416794 -94 -39.9661 0.5 7.5 2.5
9 0 1 0 0 0 1 0 0 0 1 -6.416794 -94 -19.9661 0.5 7.5 2.5
9 0 1 0 0 0 1 0 0 0 1 -7.916794 -77 -81.4661 1 4.5 2
9 0 1 0 0 0 1 0 0 0 1 -56.91679 -15 -78.9661 33 0.5 0.5
9 0 1 0 0 0 1 0 0 0 1 -56.41679 -13 -77.9661 32.5 0.5 0.5
9 0 1 0 0 0 1 0 0 0 1 -56.41679 -13 18.0339 32.5 0.5 0.5
9 0 1 0 0 0 1 0 0 0 1 -57.41679 -15 19.0339 32.5 0.5 0.5
9 0 1 0 0 0 1 0 0 0 1 -60.41679 -24 -82.9661 30.5 0.5 0.5
9 0 1 0 0 0 1 0 0 0 1 -7.916794 -54 -86.9661 1 14.5 0.5
9 0 1 0 0 0 1 0 0 0 1 -20.91679 -11 -76.9661 29 0.5 0.5
9 0 1 0 0 0 1 0 0 0 1 -20.41679 -11 17.0339 28.5 0.5 0.5
9 0 1 0 0 0 1 0 0 0 1 -5.916794 -78.5 17.0339 1 14 0.5
9 0 1 0 0 0 1 0 0 0 1 -146.4168 -76 -47.9661 5.5 2.5 0.5
9 0 1 0 0 0 1 0 0 0 1 -146.4168 -76 -11.9661 5.5 2.5 0.5
9 0 1 0 0 0 1 0 0 0 1 -80.91679 -23 23.0339 9 1.5 0.5
9 0 1 0 0 0 1 0 0 0 1 -83.41679 -32.5 26.0339 6.5 2 0.5
9 0 1 0 0 0 1 0 0 0 1 -6.416794 -41 -57.9661 0.5 25.5 0.5
9 0 1 0 0 0 1 0 0 0 1 -7.916794 -25.5 -80.9661 1 4 1.5
9 0 1 0 0 0 1 0 0 0 1 -7.916794 -79.5 21.0339 1 4 1.5
9 0 1 0 0 0 1 0 0 0 1 -19.91679 -38 -85.9661 3 3.5 0.5
9 0 1 0 0 0 1 0 0 0 1 -69.91679 -27 24.0339 21 0.5 0.5
9 0 1 0 0 0 1 0 0 0 1 -136.4168 -58 -12.4661 1.5 3.5 1
9 0 1 0 0 0 1 0 0 0 1 -0.4167938 -7 -53.9661 6.5 0.5 1.5
9 0 1 0 0 0 1 0 0 0 1 -0.4167938 -7 -45.9661 6.5 0.5 1.5
9 0 1 0 0 0 1 0 0 0 1 -0.4167938 -7 -33.9661 6.5 0.5 1.5
9 0 1 0 0 0 1 0 0 0 1 -0.4167938 -7 -25.9661 6.5 0.5 1.5
9 0 1 0 0 0 1 0 0 0 1 -0.4167938 -7 -13.9661 6.5 0.5 1.5
9 0 1 0 0 0 1 0 0 0 1 -0.4167938 -7 -5.966101 6.5 0.5 1.5
9 0 1 0 0 0 1 0 0 0 1 -132.4168 -23 -12.4661 0.5 9.5 1
9 0 1 0 0 0 1 0 0 0 1 -71.91679 -12 17.0339 18 0.5 0.5
9 0 1 0 0 0 1 0 0 0 1 -74.41679 -22 22.0339 17.5 0.5 0.5
9 0 1 0 0 0 1 0 0 0 1 -6.416794 -75.5 -76.9661 0.5 17 0.5
9 0 1 0 0 0 1 0 0 0 1 -14.91679 -27.5 -84.9661 8 1 0.5
9 0 1 0 0 0 1 0 0 0 1 -43.91679 -35 -85.9661 16 0.5 0.5
9 0 1 0 0 0 1 0 0 0 1 -132.4168 -29.5 -47.9661 0.5 16 0.5
9 0 1 0 0 0 1 0 0 0 1 -74.41679 -12 -76.9661 15.5 0.5 0.5
9 0 1 0 0 0 1 0 0 0 1 -138.4168 -32 -12.9661 0.5 15.5 0.5
9 0 1 0 0 0 1 0 0 0 1 0.5832062 -24.5 24.0339 7.5 1 0.5
9 0 1 0 0 0 1 0 0 0 1 -7.916794 -24 21.0339 1 2.5 1.5
9 0 1 0 0 0 1 0 0 0 1 -19.91679 -38 26.0339 3 2.5 0.5
9 0 1 0 0 0 1 0 0 0 1 -153.9168 -18 -29.9661 3 0.5 2.5
9 0 1 0 0 0 1 0 0 0 1 7.083206 -102 -62.4661 1 0.5 7
9 0 1 0 0 0 1 0 0 0 1 -15.91679 -27.5 25.0339 7 1 0.5
9 0 1 0 0 0 1 0 0 0 1 7.083206 -102 2.033899 1 0.5 6.5
9 0 1 0 0 0 1 0 0 0 1 -78.91679 -27 -83.9661 13 0.5 0.5
9 0 1 0 0 0 1 0 0 0 1 -6.416794 -32 -1.966101 0.5 12.5 0.5
9 0 1 0 0 0 1 0 0 0 1 -5.916794 -95 -72.4661 1 1.5 2
9 0 1 0 0 0 1 0 0 0 1 -5.916794 -95 12.5339 1 1.5 2
9 0 1 0 0 0 1 0 0 0 1 -78.41679 -9 15.0339 11.5 0.5 0.5
9 0 1 0 0 0 1 0 0 0 1 -10.41679 -32 26.0339 3.5 1.5 0.5
9 0 1 0 0 0 1 0 0 0 1 -32.41679 -41 27.0339 10.5 0.5 0.5
9 0 1 0 0 0 1 0 0 0 1 -81.41679 -22 -81.9661 10.5 0.5 0.5
9 0 1 0 0 0 1 0 0 0 1 -136.4168 -60 -47.9661 1.5 3.5 0.5
9 0 1 0 0 0 1 0 0 0 1 -153.4168 -49 7.033899 3.5 1.5 0.5
9 0 1 0 0 0 1 0 0 0 1 -5.416794 -23.5 -57.4661 0.5 5 1
9 0 1 0 0 0 1 0 0 0 1 -5.416794 -24.5 -2.466101 0.5 5 1
9 0 1 0 0 0 1 0 0 0 1 -138.4168 -27 -46.9661 0.5 9.5 0.5
9 0 1 0 0 0 1 0 0 0 1 7.083206 -102 -39.9661 1 0.5 4.5
9 0 1 0 0 0 1 0 0 0 1 7.083206 -102 -19.9661 1 0.5 4.5
9 0 1 0 0 0 1 0 0 0 1 3.583206 -27.5 25.0339 4.5 1 0.5
9 0 1 0 0 0 1 0 0 0 1 -7.916794 -47 -77.9661 1 1.5 1.5
9 0 1 0 0 0 1 0 0 0 1 -7.916794 -47 -61.9661 1 1.5 1.5
9 0 1 0 0 0 1 0 0 0 1 -7.916794 -47 2.033899 1 1.5 1.5
9 0 1 0 0 0 1 0 0 0 1 -7.916794 -47 18.0339 1 1.5 1.5
9 0 1 0 0 0 1 0 0 0 1 -17.91679 -14 -78.9661 9 0.5 0.5
9 0 1 0 0 0 1 0 0 0 1 -80.91679 -14 18.0339 9 0.5 0.5
9 0 1 0 0 0 1 0 0 0 1 -140.9168 -21 -47.9661 3 1.5 0.5
9 0 1 0 0 0 1 0 0 0 1 -140.9168 -21 -11.9661 3 1.5 0.5
9 0 1 0 0 0 1 0 0 0 1 -17.41679 -14 19.0339 8.5 0.5 0.5
9 0 1 0 0 0 1 0 0 0 1 -67.41679 -42 -86.9661 8.5 0.5 0.5
9 0 1 0 0 0 1 0 0 0 1 2.083206 -6 -29.4661 4 0.5 1
9 0 1 0 0 0 1 0 0 0 1 -7.916794 -58.5 28.0339 1 4 0.5
9 0 1 0 0 0 1 0 0 0 1 -7.916794 -77.5 23.5339 1 2 1
9 0 1 0 0 0 1 0 0 0 1 -7.916794 -83.5 -80.4661 1 2 1
9 0 1 0 0 0 1 0 0 0 1 0.5832062 -7 -73.9661 7.5 0.5 0.5
9 0 1 0 0 0 1 0 0 0 1 0.5832062 -7 14.0339 7.5 0.5 0.5
9 0 1 0 0 0 1 0 0 0 1 0.5832062 -14 -78.9661 7.5 0.5 0.5
9 0 1 0 0 0 1 0 0 0 1 0.5832062 -14 19.0339 7.5 0.5 0.5
9 0 1 0 0 0 1 0 0 0 1 0.5832062 -21 -82.9661 7.5 0.5 0.5
9 0 1 0 0 0 1 0 0 0 1 0.5832062 -21 23.0339 7.5 0.5 0.5
9 0 1 0 0 0 1 0 0 0 1 0.5832062 -24 -83.9661 7.5 0.5 0.5
9 0 1 0 0 0 1 0 0 0 1 0.5832062 -27 -84.9661 7.5 0.5 0.5
9 0 1 0 0 0 1 0 0 0 1 0.5832062 -30 -85.9661 7.5 0.5 0.5
9 0 1 0 0 0 1 0 0 0 1 0.5832062 -40 -86.9661 7.5 0.5 0.5
9 0 1 0 0 0 1 0 0 0 1 0.5832062 -41 27.0339 7.5 0.5 0.5
9 0 1 0 0 0 1 0 0 0 1 0.5832062 -67 27.0339 7.5 0.5 0.5
9 0 1 0 0 0 1 0 0 0 1 0.5832062 -68 -86.9661 7.5 0.5 0.5
9 0 1 0 0 0 1 0 0 0 1 -1.416794 -63 -87.9661 7.5 0.5 0.5
9 0 1 0 0 0 1 0 0 0 1 -82.41679 -9 -74.9661 7.5 0.5 0.5
9 0 1 0 0 0 1 0 0 0 1 -154.4168 -20 -39.9661 2.5 0.5 1.5
9 0 1 0 0 0 1 0 0 0 1 -154.4168 -20 -19.9661 2.5 0.5 1.5
9 0 1 0 0 0 1 0 0 0 1 -154.4168 -46 -65.9661 2.5 1.5 0.5
9 0 1 0 0 0 1 0 0 0 1 -154.4168 -46 6.033899 2.5 1.5 0.5
9 0 1 0 0 0 1 0 0 0 1 -154.4168 -56 -67.9661 2.5 1.5 0.5
9 0 1 0 0 0 1 0 0 0 1 -154.4168 -63 7.033899 2.5 1.5 0.5
9 0 1 0 0 0 1 0 0 0 1 -154.4168 -66 -65.9661 2.5 1.5 0.5
9 0 1 0 0 0 1 0 0 0 1 -154.4168 -66 6.033899 2.5 1.5 0.5
9 0 1 0 0 0 1 0 0 0 1 -154.4168 -92 -39.9661 2.5 0.5 1.5
9 0 1 0 0 0 1 0 0 0 1 -154.4168 -93 -36.9661 2.5 0.5 1.5
9 0 1 0 0 0 1 0 0 0 1 -154.4168 -93 -22.9661 2.5 0.5 1.5
9 0 1 0 0 0 1 0 0 0 1 -154.4168 -94 -29.9661 2.5 0.5 1.5
9 0 1 0 0 0 1 0 0 0 1 -5.916794 -101 -65.9661 1 0.5 3.5
9 0 1 0 0 0 1 0 0 0 1 -5.916794 -101 6.033899 1 0.5 3.5
9 0 1 0 0 0 1 0 0 0 1 -7.916794 -37 26.0339 1 3.5 0.5
9 0 1 0 0 0 1 0 0 0 1 -7.916794 -76 -83.9661 1 3.5 0.5
9 0 1 0 0 0 1 0 0 0 1 -153.4168 -48.5 -66.9661 3.5 1 0.5
9 0 1 0 0 0 1 0 0 0 1 -0.4167938 -8 -44.9661 6.5 0.5 0.5
9 0 1 0 0 0 1 0 0 0 1 -0.4167938 -8 -24.9661 6.5 0.5 0.5
9 0 1 0 0 0 1 0 0 0 1 -0.4167938 -8 -4.966101 6.5 0.5 0.5
9 0 1 0 0 0 1 0 0 0 1 -0.4167938 -101 -54.9661 6.5 0.5 0.5
9 0 1 0 0 0 1 0 0 0 1 -0.4167938 -101 -44.9661 6.5 0.5 0.5
9 0 1 0 0 0 1 0 0 0 1 -0.4167938 -101 -34.9661 6.5 0.5 0.5
9 0 1 0 0 0 1 0 0 0 1 -0.4167938 -101 -24.9661 6.5 0.5 0.5
9 0 1 0 0 0 1 0 0 0 1 -0.4167938 -101 -14.9661 6.5 0.5 0.5
9 0 1 0 0 0 1 0 0 0 1 -0.4167938 -101 -4.966101 6.5 0.5 0.5
9 0 1 0 0 0 1 0 0 0 1 -13.41679 -24 -82.9661 6.5 0.5 0.5
9 0 1 0 0 0 1 0 0 0 1 -132.4168 -39 -11.9661 0.5 6.5 0.5
9 0 1 0 0 0 1 0 0 0 1 -134.4168 -21 -46.9661 0.5 6.5 0.5
9 0 1 0 0 0 1 0 0 0 1 2.083206 -17 21.0339 6 0.5 0.5
9 0 1 0 0 0 1 0 0 0 1 -5.916794 -21 -43.4661 1 1.5 1
9 0 1 0 0 0 1 0 0 0 1 -5.916794 -21 -36.4661 1 1.5 1
9 0 1 0 0 0 1 0 0 0 1 -5.916794 -21 -23.4661 1 1.5 1
9 0 1 0 0 0 1 0 0 0 1 -5.916794 -21 -16.4661 1 1.5 1
9 0 1 0 0 0 1 0 0 0 1 -5.916794 -61 -63.4661 1 1.5 1
9 0 1 0 0 0 1 0 0 0 1 -5.916794 -61 3.533899 1 1.5 1
9 0 1 0 0 0 1 0 0 0 1 -0.9167938 -62 28.0339 6 0.5 0.5
9 0 1 0 0 0 1 0 0 0 1 -7.916794 -7.5 -57.9661 1 1 1.5
9 0 1 0 0 0 1 0 0 0 1 -7.916794 -7.5 -1.966101 1 1 1.5
9 0 1 0 0 0 1 0 0 0 1 -7.916794 -12.5 -75.9661 1 1 1.5
9 0 1 0 0 0 1 0 0 0 1 -7.916794 -12 15.5339 1 1.5 1
9 0 1 0 0 0 1 0 0 0 1 -7.916794 -28 -83.4661 1 1.5 1
9 0 1 0 0 0 1 0 0 0 1 -10.91679 -31 -85.9661 2 1.5 0.5
9 0 1 0 0 0 1 0 0 0 1 -136.9168 -63 -12.4661 1 1.5 1
9 0 1 0 0 0 1 0 0 0 1 -153.9168 -40.5 -63.9661 3 1 0.5
9 0 1 0 0 0 1 0 0 0 1 -153.9168 -40.5 4.033899 3 1 0.5
9 0 1 0 0 0 1 0 0 0 1 2.583206 -17 -80.9661 5.5 0.5 0.5
9 0 1 0 0 0 1 0 0 0 1 -85.41679 -14 -77.9661 5.5 0.5 0.5
9 0 1 0 0 0 1 0 0 0 1 -5.916794 -62 -73.9661 1 0.5 2.5
9 0 1 0 0 0 1 0 0 0 1 -5.916794 -62 14.0339 1 0.5 2.5
9 0 1 0 0 0 1 0 0 0 1 -11.91679 -13 -77.9661 5 0.5 0.5
9 0 1 0 0 0 1 0 0 0 1 -11.91679 -13 18.0339 5 0.5 0.5
9 0 1 0 0 0 1 0 0 0 1 -11.91679 -29 -84.9661 5 0.5 0.5
9 0 1 0 0 0 1 0 0 0 1 -39.91679 -27 24.0339 5 0.5 0.5
9 0 1 0 0 0 1 0 0 0 1 -85.91679 -30 25.0339 5 0.5 0.5
9 0 1 0 0 0 1 0 0 0 1 -105.9168 -39 21.0339 1 2.5 0.5
9 0 1 0 0 0 1 0 0 0 1 -154.4168 -19 -38.4661 2.5 0.5 1
9 0 1 0 0 0 1 0 0 0 1 -154.4168 -22 -45.4661 2.5 0.5 1
9 0 1 0 0 0 1 0 0 0 1 -154.4168 -22 -14.4661 2.5 0.5 1
9 0 1 0 0 0 1 0 0 0 1 -154.4168 -55.5 8.033899 2.5 1 0.5
9 0 1 0 0 0 1 0 0 0 1 -154.4168 -63.5 -66.9661 2.5 1 0.5
9 0 1 0 0 0 1 0 0 0 1 -154.4168 -71.5 -63.9661 2.5 1 0.5
9 0 1 0 0 0 1 0 0 0 1 -154.4168 -71.5 4.033899 2.5 1 0.5
9 0 1 0 0 0 1 0 0 0 1 -154.4168 -90 -45.4661 2.5 0.5 1
9 0 1 0 0 0 1 0 0 0 1 -154.4168 -90 -14.4661 2.5 0.5 1
9 0 1 0 0 0 1 0 0 0 1 -154.4168 -92 -20.4661 2.5 0.5 1
9 0 1 0 0 0 1 0 0 0 1 -5.416794 -88 -76.9661 0.5 4.5 0.5
9 0 1 0 0 0 1 0 0 0 1 -23.41679 -34 -84.9661 0.5 4.5 0.5
9 0 1 0 0 0 1 0 0 0 1 -23.41679 -34 25.0339 0.5 4.5 0.5
9 0 1 0 0 0 1 0 0 0 1 -53.41679 -27 -83.9661 4.5 0.5 0.5
9 0 1 0 0 0 1 0 0 0 1 -89.41679 -50 -87.9661 0.5 4.5 0.5
9 0 1 0 0 0 1 0 0 0 1 -89.41679 -50 28.0339 0.5 4.5 0.5
9 0 1 0 0 0 1 0 0 0 1 -114.4168 -40 18.0339 1.5 1.5 0.5
9 0 1 0 0 0 1 0 0 0 1 -135.4168 -25 -58.9661 0.5 1.5 1.5
9 0 1 0 0 0 1 0 0 0 1 -135.4168 -25 -0.9661007 0.5 1.5 1.5
9 0 1 0 0 0 1 0 0 0 1 4.083206 -76 25.0339 4 0.5 0.5
9 0 1 0 0 0 1 0 0 0 1 -5.416794 -33 -43.4661 0.5 0.5 4
9 0 1 0 0 0 1 0 0 0 1 -5.916794 -7.5 -43.4661 1 1 1
9 0 1 0 0 0 1 0 0 0 1 -5.916794 -7.5 -36.4661 1 1 1
9 0 1 0 0 0 1 0 0 0 1 -5.916794 -7.5 -23.4661 1 1 1
9 0 1 0 0 0 1 0 0 0 1 -5.916794 -7.5 -16.4661 1 1 1
9 0 1 0 0 0 1 0 0 0 1 -5.916794 -17.5 -1.966101 1 2 0.5
9 0 1 0 0 0 1 0 0 0 1 -5.916794 -22 -54.4661 1 0.5 2
9 0 1 0 0 0 1 0 0 0 1 -5.916794 -22 -5.466101 1 0.5 2
9 0 1 0 0 0 1 0 0 0 1 -5.916794 -62 -66.4661 1 0.5 2
9 0 1 0 0 0 1 0 0 0 1 -5.916794 -88.5 -78.4661 1 1 1
9 0 1 0 0 0 1 0 0 0 1 -5.916794 -88.5 18.5339 1 1 1
9 0 1 0 0 0 1 0 0 0 1 -5.916794 -97.5 -71.4661 1 1 1
9 0 1 0 0 0 1 0 0 0 1 -5.916794 -97.5 11.5339 1 1 1
9 0 1 0 0 0 1 0 0 0 1 -7.916794 -10.5 -58.9661 1 2 0.5
9 0 1 0 0 0 1 0 0 0 1 -7.916794 -10.5 -0.9661007 1 2 0.5
9 0 1 0 0 0 1 0 0 0 1 -7.916794 -19.5 -79.9661 1 2 0.5
9 0 1 0 0 0 1 0 0 0 1 -7.916794 -19.5 20.0339 1 2 0.5
9 0 1 0 0 0 1 0 0 0 1 -7.916794 -50.5 -78.9661 1 2 0.5
9 0 1 0 0 0 1 0 0 0 1 -7.916794 -50.5 -60.9661 1 2 0.5
9 0 1 0 0 0 1 0 0 0 1 -7.916794 -50.5 1.033899 1 2 0.5
9 0 1 0 0 0 1 0 0 0 1 -7.916794 -50.5 19.0339 1 2 0.5
9 0 1 0 0 0 1 0 0 0 1 -7.916794 -69.5 26.0339 1 2 0.5
9 0 1 0 0 0 1 0 0 0 1 -7.916794 -84.5 20.5339 1 1 1
9 0 1 0 0 0 1 0 0 0 1 -12.91679 -29 25.0339 4 0.5 0.5
9 0 1 0 0 0 1 0 0 0 1 -71.91679 -30 25.0339 4 0.5 0.5
9 0 1 0 0 0 1 0 0 0 1 -95.41679 -50.5 -85.9661 0.5 4 0.5
9 0 1 0 0 0 1 0 0 0 1 -102.9168 -37.5 -81.9661 1 2 0.5
9 0 1 0 0 0 1 0 0 0 1 -105.9168 -38.5 -80.9661 1 2 0.5
9 0 1 0 0 0 1 0 0 0 1 -106.9168 -51.5 22.0339 1 2 0.5
9 0 1 0 0 0 1 0 0 0 1 -108.9168 -39.5 -79.9661 1 2 0.5
9 0 1 0 0 0 1 0 0 0 1 -108.9168 -39.5 20.0339 1 2 0.5
9 0 1 0 0 0 1 0 0 0 1 -111.9168 -39.5 -78.9661 1 2 0.5
9 0 1 0 0 0 1 0 0 0 1 -133.9168 -15.5 -12.4661 1 1 1
9 0 1 0 0 0 1 0 0 0 1 -135.9168 -27.5 1.533899 1 1 1
9 0 1 0 0 0 1 0 0 0 1 -0.4167938 -22 23.0339 3.5 0.5 0.5
9 0 1 0 0 0 1 0 0 0 1 -5.416794 -33 -30.9661 0.5 0.5 3.5
9 0 1 0 0 0 1 0 0 0 1 -12.41679 -15 -78.9661 3.5 0.5 0.5
9 0 1 0 0 0 1 0 0 0 1 -12.41679 -15 19.0339 3.5 0.5 0.5
9 0 1 0 0 0 1 0 0 0 1 -16.41679 -33 -84.9661 0.5 3.5 0.5
9 0 1 0 0 0 1 0 0 0 1 -16.41679 -33 25.0339 0.5 3.5 0.5
9 0 1 0 0 0 1 0 0 0 1 -56.41679 -14 -78.9661 3.5 0.5 0.5
9 0 1 0 0 0 1 0 0 0 1 -92.41679 -51 -86.9661 0.5 3.5 0.5
9 0 1 0 0 0 1 0 0 0 1 -92.41679 -51 27.0339 0.5 3.5 0.5
9 0 1 0 0 0 1 0 0 0 1 -95.41679 -51 26.0339 0.5 3.5 0.5
9 0 1 0 0 0 1 0 0 0 1 -153.4168 -36 -61.9661 3.5 0.5 0.5
9 0 1 0 0 0 1 0 0 0 1 5.083206 -13 -77.9661 3 0.5 0.5
9 0 1 0 0 0 1 0 0 0 1 5.083206 -13 18.0339 3 0.5 0.5
9 0 1 0 0 0 1 0 0 0 1 5.083206 -72 -85.9661 3 0.5 0.5
9 0 1 0 0 0 1 0 0 0 1 5.083206 -76 -84.9661 3 0.5 0.5
9 0 1 0 0 0 1 0 0 0 1 -5.416794 -33 -17.4661 0.5 0.5 3
9 0 1 0 0 0 1 0 0 0 1 -5.916794 -22 -45.9661 1 0.5 1.5
9 0 1 0 0 0 1 0 0 0 1 -5.916794 -22 -33.9661 1 0.5 1.5
9 0 1 0 0 0 1 0 0 0 1 -5.916794 -22 -25.9661 1 0.5 1.5
9 0 1 0 0 0 1 0 0 0 1 -5.916794 -22 -13.9661 1 0.5 1.5
9 0 1 0 0 0 1 0 0 0 1 -3.916794 -27 25.0339 3 0.5 0.5
9 0 1 0 0 0 1 0 0 0 1 -5.916794 -62 6.033899 1 0.5 1.5
9 0 1 0 0 0 1 0 0 0 1 -6.416794 -87.5 -43.9661 0.5 1 1.5
9 0 1 0 0 0 1 0 0 0 1 -6.416794 -87.5 -23.9661 0.5 1 1.5
9 0 1 0 0 0 1 0 0 0 1 -6.416794 -87.5 -3.966101 0.5 1 1.5
9 0 1 0 0 0 1 0 0 0 1 -7.916794 -10 -74.9661 1 1.5 0.5
9 0 1 0 0 0 1 0 0 0 1 -7.916794 -46 -74.9661 1 0.5 1.5
9 0 1 0 0 0 1 0 0 0 1 -7.916794 -46 -64.9661 1 0.5 1.5
9 0 1 0 0 0 1 0 0 0 1 -7.916794 -46 5.033899 1 0.5 1.5
9 0 1 0 0 0 1 0 0 0 1 -7.916794 -46 15.0339 1 0.5 1.5
9 0 1 0 0 0 1 0 0 0 1 -7.916794 -74 -84.9661 1 1.5 0.5
9 0 1 0 0 0 1 0 0 0 1 -19.91679 -10 -74.9661 1 1.5 0.5
9 0 1 0 0 0 1 0 0 0 1 -19.91679 -10 15.0339 1 1.5 0.5
9 0 1 0 0 0 1 0 0 0 1 -19.91679 -11 -75.9661 3 0.5 0.5
9 0 1 0 0 0 1 0 0 0 1 -19.91679 -11 16.0339 3 0.5 0.5
9 0 1 0 0 0 1 0 0 0 1 -22.41679 -43 -86.4661 0.5 1.5 1
9 0 1 0 0 0 1 0 0 0 1 -22.41679 -43 26.5339 0.5 1.5 1
9 0 1 0 0 0 1 0 0 0 1 -24.41679 -29.5 24.0339 0.5 3 0.5
9 0 1 0 0 0 1 0 0 0 1 -83.91679 -25 23.0339 3 0.5 0.5
9 0 1 0 0 0 1 0 0 0 1 -88.91679 -32 -85.9661 1 1.5 0.5
9 0 1 0 0 0 1 0 0 0 1 -98.41679 -51.5 -84.9661 0.5 3 0.5
9 0 1 0 0 0 1 0 0 0 1 -99.91679 -37 23.0339 1 1.5 0.5
9 0 1 0 0 0 1 0 0 0 1 -100.9168 -40 23.0339 1 1.5 0.5
9 0 1 0 0 0 1 0 0 0 1 -102.9168 -38 22.0339 1 1.5 0.5
9 0 1 0 0 0 1 0 0 0 1 -103.9168 -41 -81.9661 1 1.5 0.5
9 0 1 0 0 0 1 0 0 0 1 -104.9168 -53 -82.9661 1 1.5 0.5
9 0 1 0 0 0 1 0 0 0 1 -106.9168 -51 -81.9661 1 1.5 0.5
9 0 1 0 0 0 1 0 0 0 1 -110.9168 -39 19.0339 1 1.5 0.5
9 0 1 0 0 0 1 0 0 0 1 -112.4168 -50.5 -79.9661 0.5 3 0.5
9 0 1 0 0 0 1 0 0 0 1 -112.4168 -51.5 20.0339 0.5 3 0.5
9 0 1 0 0 0 1 0 0 0 1 -112.9168 -38 -77.9661 1 1.5 0.5
9 0 1 0 0 0 1 0 0 0 1 -115.9168 -39 17.0339 1 1.5 0.5
9 0 1 0 0 0 1 0 0 0 1 -115.9168 -52 -78.9661 1 1.5 0.5
9 0 1 0 0 0 1 0 0 0 1 -115.9168 -52 19.0339 1 1.5 0.5
9 0 1 0 0 0 1 0 0 0 1 -129.4168 -8 -30.4661 0.5 0.5 3
9 0 1 0 0 0 1 0 0 0 1 -134.4168 -56 -12.4661 0.5 1.5 1
9 0 1 0 0 0 1 0 0 0 1 -136.4168 -24 -57.4661 0.5 1.5 1
9 0 1 0 0 0 1 0 0 0 1 -136.4168 -24 -2.466101 0.5 1.5 1
9 0 1 0 0 0 1 0 0 0 1 -135.9168 -27 -60.9661 1 1.5 0.5
9 0 1 0 0 0 1 0 0 0 1 -136.4168 -28.5 -61.9661 1.5 1 0.5
9 0 1 0 0 0 1 0 0 0 1 -136.9168 -50 -46.9661 1 1.5 0.5
9 0 1 0 0 0 1 0 0 0 1 -136.9168 -65 -47.9661 1 1.5 0.5
9 0 1 0 0 0 1 0 0 0 1 -137.4168 -66 -12.4661 0.5 1.5 1
9 0 1 0 0 0 1 0 0 0 1 -137.9168 -24 -56.9661 1 0.5 1.5
9 0 1 0 0 0 1 0 0 0 1 -137.9168 -24 -2.966101 1 0.5 1.5
9 0 1 0 0 0 1 0 0 0 1 -137.4168 -26.5 -59.9661 1.5 1 0.5
9 0 1 0 0 0 1 0 0 0 1 -137.4168 -26.5 0.03389931 1.5 1 0.5
9 0 1 0 0 0 1 0 0 0 1 -139.9168 -75 -47.9661 1 1.5 0.5
9 0 1 0 0 0 1 0 0 0 1 -139.9168 -75 -11.9661 1 1.5 0.5
9 0 1 0 0 0 1 0 0 0 1 -152.9168 -36 2.033899 3 0.5 0.5
9 0 1 0 0 0 1 0 0 0 1 -153.9168 -31 -57.9661 3 0.5 0.5
9 0 1 0 0 0 1 0 0 0 1 -6.416794 -62 17.0339 0.5 2.5 0.5
9 0 1 0 0 0 1 0 0 0 1 -6.416794 -87 -54.9661 0.5 0.5 2.5
9 0 1 0 0 0 1 0 0 0 1 -6.416794 -87 -34.9661 0.5 0.5 2.5
9 0 1 0 0 0 1 0 0 0 1 -6.416794 -87 -14.9661 0.5 0.5 2.5
9 0 1 0 0 0 1 0 0 0 1 -9.416794 -12 17.0339 2.5 0.5 0.5
9 0 1 0 0 0 1 0 0 0 1 -15.41679 -41 27.0339 2.5 0.5 0.5
9 0 1 0 0 0 1 0 0 0 1 -50.41679 -22 22.0339 2.5 0.5 0.5
9 0 1 0 0 0 1 0 0 0 1 -89.41679 -37 -86.9661 0.5 2.5 0.5
9 0 1 0 0 0 1 0 0 0 1 -89.41679 -38 27.0339 0.5 2.5 0.5
9 0 1 0 0 0 1 0 0 0 1 -94.41679 -36 25.0339 0.5 2.5 0.5
9 0 1 0 0 0 1 0 0 0 1 -97.41679 -37 -83.9661 0.5 2.5 0.5
9 0 1 0 0 0 1 0 0 0 1 -97.41679 -37 24.0339 0.5 2.5 0.5
9 0 1 0 0 0 1 0 0 0 1 -98.41679 -41 24.0339 0.5 2.5 0.5
9 0 1 0 0 0 1 0 0 0 1 -98.41679 -52 25.0339 0.5 2.5 0.5
9 0 1 0 0 0 1 0 0 0 1 -100.4168 -38 -82.9661 0.5 2.5 0.5
9 0 1 0 0 0 1 0 0 0 1 -101.4168 -41 -82.9661 0.5 2.5 0.5
9 0 1 0 0 0 1 0 0 0 1 -101.4168 -52 -83.9661 0.5 2.5 0.5
9 0 1 0 0 0 1 0 0 0 1 -101.4168 -52 24.0339 0.5 2.5 0.5
9 0 1 0 0 0 1 0 0 0 1 -109.4168 -50 -80.9661 0.5 2.5 0.5
9 0 1 0 0 0 1 0 0 0 1 -109.4168 -51 21.0339 0.5 2.5 0.5
9 0 1 0 0 0 1 0 0 0 1 -121.4168 -52 17.0339 0.5 2.5 0.5
9 0 1 0 0 0 1 0 0 0 1 -124.4168 -52 16.0339 0.5 2.5 0.5
9 0 1 0 0 0 1 0 0 0 1 -154.4168 -19 -21.9661 2.5 0.5 0.5
9 0 1 0 0 0 1 0 0 0 1 -154.4168 -21 -16.9661 2.5 0.5 0.5
9 0 1 0 0 0 1 0 0 0 1 -154.4168 -24 -49.9661 2.5 0.5 0.5
9 0 1 0 0 0 1 0 0 0 1 -154.4168 -35 -60.9661 2.5 0.5 0.5
9 0 1 0 0 0 1 0 0 0 1 -154.4168 -69 5.033899 2.5 0.5 0.5
9 0 1 0 0 0 1 0 0 0 1 -154.4168 -74 3.033899 2.5 0.5 0.5
9 0 1 0 0 0 1 0 0 0 1 -154.4168 -77 1.033899 2.5 0.5 0.5
9 0 1 0 0 0 1 0 0 0 1 -154.4168 -84 -54.9661 2.5 0.5 0.5
9 0 1 0 0 0 1 0 0 0 1 -154.4168 -87 -50.9661 2.5 0.5 0.5
9 0 1 0 0 0 1 0 0 0 1 -154.4168 -87 -8.966101 2.5 0.5 0.5
9 0 1 0 0 0 1 0 0 0 1 -154.4168 -88 -49.9661 2.5 0.5 0.5
9 0 1 0 0 0 1 0 0 0 1 -154.4168 -89 -11.9661 2.5 0.5 0.5
9 0 1 0 0 0 1 0 0 0 1 -154.4168 -91 -42.9661 2.5 0.5 0.5
9 0 1 0 0 0 1 0 0 0 1 -154.4168 -91 -16.9661 2.5 0.5 0.5
9 0 1 0 0 0 1 0 0 0 1 5.083206 -79 24.0339 2 0.5 0.5
9 0 1 0 0 0 1 0 0 0 1 4.083206 -6 -30.9661 2 0.5 0.5
9 0 1 0 0 0 1 0 0 0 1 -1.916794 -25 -83.9661 2 0.5 0.5
9 0 1 0 0 0 1 0 0 0 1 -5.916794 -9.5 -42.9661 1 1 0.5
9 0 1 0 0 0 1 0 0 0 1 -5.916794 -9.5 -36.9661 1 1 0.5
9 0 1 0 0 0 1 0 0 0 1 -5.916794 -9.5 -22.9661 1 1 0.5
9 0 1 0 0 0 1 0 0 0 1 -5.916794 -20.5 -55.9661 1 1 0.5
9 0 1 0 0 0 1 0 0 0 1 -5.916794 -20.5 -3.966101 1 1 0.5
9 0 1 0 0 0 1 0 0 0 1 -6.416794 -20.5 -56.9661 0.5 2 0.5
9 0 1 0 0 0 1 0 0 0 1 -6.416794 -20.5 -2.966101 0.5 2 0.5
9 0 1 0 0 0 1 0 0 0 1 -5.916794 -60.5 -75.9661 1 1 0.5
9 0 1 0 0 0 1 0 0 0 1 -5.916794 -60.5 16.0339 1 1 0.5
9 0 1 0 0 0 1 0 0 0 1 -5.916794 -90.5 -77.9661 1 1 0.5
9 0 1 0 0 0 1 0 0 0 1 -5.916794 -90.5 18.0339 1 1 0.5
9 0 1 0 0 0 1 0 0 0 1 -5.916794 -94.5 -74.9661 1 1 0.5
9 0 1 0 0 0 1 0 0 0 1 -5.916794 -94.5 15.0339 1 1 0.5
9 0 1 0 0 0 1 0 0 0 1 -6.416794 -100.5 -43.4661 0.5 1 1
9 0 1 0 0 0 1 0 0 0 1 -6.416794 -100.5 -36.4661 0.5 1 1
9 0 1 0 0 0 1 0 0 0 1 -6.416794 -100.5 -23.4661 0.5 1 1
9 0 1 0 0 0 1 0 0 0 1 -6.416794 -100.5 -16.4661 0.5 1 1
9 0 1 0 0 0 1 0 0 0 1 -7.916794 -9.5 15.0339 1 1 0.5
9 0 1 0 0 0 1 0 0 0 1 -7.916794 -20.5 -80.9661 1 1 0.5
9 0 1 0 0 0 1 0 0 0 1 -7.916794 -20.5 21.0339 1 1 0.5
9 0 1 0 0 0 1 0 0 0 1 -7.916794 -25.5 -82.9661 1 1 0.5
9 0 1 0 0 0 1 0 0 0 1 -7.916794 -25.5 23.0339 1 1 0.5
9 0 1 0 0 0 1 0 0 0 1 -7.916794 -82.5 -81.9661 1 1 0.5
9 0 1 0 0 0 1 0 0 0 1 -7.916794 -86.5 -79.9661 1 1 0.5
9 0 1 0 0 0 1 0 0 0 1 -7.916794 -86.5 20.0339 1 1 0.5
9 0 1 0 0 0 1 0 0 0 1 -15.41679 -28.5 -83.9661 0.5 2 0.5
9 0 1 0 0 0 1 0 0 0 1 -15.41679 -28.5 24.0339 0.5 2 0.5
9 0 1 0 0 0 1 0 0 0 1 -23.41679 -36.5 -85.9661 0.5 2 0.5
9 0 1 0 0 0 1 0 0 0 1 -24.41679 -30.5 -84.4661 0.5 1 1
9 0 1 0 0 0 1 0 0 0 1 -44.91679 -14 -78.9661 2 0.5 0.5
9 0 1 0 0 0 1 0 0 0 1 -81.91679 -14 -78.9661 2 0.5 0.5
9 0 1 0 0 0 1 0 0 0 1 -89.91679 -18.5 -80.9661 1 1 0.5
9 0 1 0 0 0 1 0 0 0 1 -89.91679 -29.5 -84.9661 1 1 0.5
9 0 1 0 0 0 1 0 0 0 1 -90.91679 -19.5 21.0339 1 1 0.5
9 0 1 0 0 0 1 0 0 0 1 -91.41679 -35.5 26.0339 0.5 2 0.5
9 0 1 0 0 0 1 0 0 0 1 -92.91679 -21.5 21.0339 1 1 0.5
9 0 1 0 0 0 1 0 0 0 1 -94.41679 -35.5 -84.9661 0.5 2 0.5
9 0 1 0 0 0 1 0 0 0 1 -95.41679 -38.5 -84.9661 0.5 2 0.5
9 0 1 0 0 0 1 0 0 0 1 -95.41679 -38.5 25.0339 0.5 2 0.5
9 0 1 0 0 0 1 0 0 0 1 -96.41679 -52.5 -85.9661 0.5 2 0.5
9 0 1 0 0 0 1 0 0 0 1 -98.41679 -40.5 -83.9661 0.5 2 0.5
9 0 1 0 0 0 1 0 0 0 1 -101.9168 -35.5 22.0339 1 1 0.5
9 0 1 0 0 0 1 0 0 0 1 -103.9168 -40.5 22.0339 1 1 0.5
9 0 1 0 0 0 1 0 0 0 1 -104.4168 -52.5 23.0339 0.5 2 0.5
9 0 1 0 0 0 1 0 0 0 1 -107.4168 -37.5 -79.9661 0.5 2 0.5
9 0 1 0 0 0 1 0 0 0 1 -107.4168 -37.5 20.0339 0.5 2 0.5
9 0 1 0 0 0 1 0 0 0 1 -106.9168 -41.5 -80.9661 1 1 0.5
9 0 1 0 0 0 1 0 0 0 1 -109.9168 -36.5 -78.9661 1 1 0.5
9 0 1 0 0 0 1 0 0 0 1 -110.4168 -52.5 -80.9661 0.5 2 0.5
9 0 1 0 0 0 1 0 0 0 1 -112.4168 -37.5 18.0339 0.5 2 0.5
9 0 1 0 0 0 1 0 0 0 1 -112.4168 -40.5 19.0339 0.5 2 0.5
9 0 1 0 0 0 1 0 0 0 1 -113.4168 -52.5 -79.9661 0.5 2 0.5
9 0 1 0 0 0 1 0 0 0 1 -114.4168 -39.5 -77.9661 0.5 2 0.5
9 0 1 0 0 0 1 0 0 0 1 -115.9168 -38.5 -76.9661 1 1 0.5
9 0 1 0 0 0 1 0 0 0 1 -117.9168 -40.5 -76.9661 1 1 0.5
9 0 1 0 0 0 1 0 0 0 1 -117.9168 -40.5 17.0339 1 1 0.5
9 0 1 0 0 0 1 0 0 0 1 -118.4168 -50.5 -77.9661 0.5 2 0.5
9 0 1 0 0 0 1 0 0 0 1 -118.4168 -51.5 18.0339 0.5 2 0.5
9 0 1 0 0 0 1 0 0 0 1 -120.9168 -38.5 -74.9661 1 1 0.5
9 0 1 0 0 0 1 0 0 0 1 -120.9168 -38.5 15.0339 1 1 0.5
9 0 1 0 0 0 1 0 0 0 1 -121.4168 -51.5 -76.9661 0.5 2 0.5
9 0 1 0 0 0 1 0 0 0 1 -129.9168 -10 -40.4661 1 0.5 1
9 0 1 0 0 0 1 0 0 0 1 -129.9168 -10 -19.4661 1 0.5 1
9 0 1 0 0 0 1 0 0 0 1 -129.9168 -13.5 -47.9661 1 1 0.5
9 0 1 0 0 0 1 0 0 0 1 -129.9168 -13.5 -11.9661 1 1 0.5
9 0 1 0 0 0 1 0 0 0 1 -130.4168 -52.5 14.0339 0.5 2 0.5
9 0 1 0 0 0 1 0 0 0 1 -133.9168 -15.5 -47.9661 1 1 0.5
9 0 1 0 0 0 1 0 0 0 1 -134.4168 -58.5 -47.9661 0.5 2 0.5
9 0 1 0 0 0 1 0 0 0 1 -135.9168 -16 -12.4661 1 0.5 1
9 0 1 0 0 0 1 0 0 0 1 -136.9168 -24.5 -58.9661 1 1 0.5
9 0 1 0 0 0 1 0 0 0 1 -136.9168 -29.5 -62.9661 1 1 0.5
9 0 1 0 0 0 1 0 0 0 1 -136.9168 -29 2.033899 2 0.5 0.5
9 0 1 0 0 0 1 0 0 0 1 -138.9168 -18.5 -47.9661 1 1 0.5
9 0 1 0 0 0 1 0 0 0 1 -138.9168 -18.5 -11.9661 1 1 0.5
9 0 1 0 0 0 1 0 0 0 1 -139.4168 -23.5 -55.4661 0.5 1 1
9 0 1 0 0 0 1 0 0 0 1 -139.9168 -23.5 -4.966101 1 1 0.5
9 0 1 0 0 0 1 0 0 0 1 -139.9168 -36.5 -65.9661 1 1 0.5
9 0 1 0 0 0 1 0 0 0 1 -139.9168 -36.5 6.033899 1 1 0.5
9 0 1 0 0 0 1 0 0 0 1 -141.9168 -38.5 -65.9661 1 1 0.5
9 0 1 0 0 0 1 0 0 0 1 -143.4168 -38.5 -64.9661 0.5 2 0.5
9 0 1 0 0 0 1 0 0 0 1 -143.4168 -38.5 5.033899 0.5 2 0.5
9 0 1 0 0 0 1 0 0 0 1 -144.4168 -37.5 -63.9661 0.5 2 0.5
9 0 1 0 0 0 1 0 0 0 1 -144.9168 -21.5 -47.9661 1 1 0.5
9 0 1 0 0 0 1 0 0 0 1 -144.9168 -21.5 -11.9661 1 1 0.5
9 0 1 0 0 0 1 0 0 0 1 -151.4168 -51.5 -66.9661 0.5 2 0.5
9 0 1 0 0 0 1 0 0 0 1 -152.9168 -25 -8.966101 2 0.5 0.5
9 0 1 0 0 0 1 0 0 0 1 -152.9168 -28 -4.966101 2 0.5 0.5
9 0 1 0 0 0 1 0 0 0 1 -154.9168 -84 -4.966101 2 0.5 0.5
9 0 1 0 0 0 1 0 0 0 1 -5.416794 -17 -57.9661 0.5 1.5 0.5
9 0 1 0 0 0 1 0 0 0 1 -5.416794 -30 -56.9661 0.5 1.5 0.5
9 0 1 0 0 0 1 0 0 0 1 -6.416794 -87 -78.9661 0.5 0.5 1.5
9 0 1 0 0 0 1 0 0 0 1 -6.416794 -87 19.0339 0.5 0.5 1.5
9 0 1 0 0 0 1 0 0 0 1 -6.416794 -89 -56.9661 0.5 1.5 0.5
9 0 1 0 0 0 1 0 0 0 1 -6.416794 -100 2.033899 0.5 1.5 0.5
9 0 1 0 0 0 1 0 0 0 1 -13.41679 -40 -86.9661 1.5 0.5 0.5
9 0 1 0 0 0 1 0 0 0 1 -16.41679 -10 -59.9661 0.5 0.5 1.5
9 0 1 0 0 0 1 0 0 0 1 -16.41679 -10 -39.9661 0.5 0.5 1.5
9 0 1 0 0 0 1 0 0 0 1 -16.41679 -10 -19.9661 0.5 0.5 1.5
9 0 1 0 0 0 1 0 0 0 1 -16.41679 -10 0.03389931 0.5 0.5 1.5
9 0 1 0 0 0 1 0 0 0 1 -23.41679 -37 26.0339 0.5 1.5 0.5
9 0 1 0 0 0 1 0 0 0 1 -24.41679 -31 25.0339 0.5 1.5 0.5
9 0 1 0 0 0 1 0 0 0 1 -25.41679 -24 -82.9661 1.5 0.5 0.5
9 0 1 0 0 0 1 0 0 0 1 -31.41679 -14 -78.9661 1.5 0.5 0.5
9 0 1 0 0 0 1 0 0 0 1 -36.41679 -10 -59.9661 0.5 0.5 1.5
9 0 1 0 0 0 1 0 0 0 1 -36.41679 -10 -39.9661 0.5 0.5 1.5
9 0 1 0 0 0 1 0 0 0 1 -36.41679 -10 -19.9661 0.5 0.5 1.5
9 0 1 0 0 0 1 0 0 0 1 -36.41679 -10 0.03389931 0.5 0.5 1.5
9 0 1 0 0 0 1 0 0 0 1 -56.41679 -10 -39.9661 0.5 0.5 1.5
9 0 1 0 0 0 1 0 0 0 1 -56.41679 -10 -19.9661 0.5 0.5 1.5
9 0 1 0 0 0 1 0 0 0 1 -55.41679 -30 25.0339 1.5 0.5 0.5
9 0 1 0 0 0 1 0 0 0 1 -68.41679 -14 -78.9661 1.5 0.5 0.5
9 0 1 0 0 0 1 0 0 0 1 -76.41679 -10 -59.9661 0.5 0.5 1.5
9 0 1 0 0 0 1 0 0 0 1 -76.41679 -10 -39.9661 0.5 0.5 1.5
9 0 1 0 0 0 1 0 0 0 1 -76.41679 -10 -19.9661 0.5 0.5 1.5
9 0 1 0 0 0 1 0 0 0 1 -76.41679 -10 0.03389931 0.5 0.5 1.5
9 0 1 0 0 0 1 0 0 0 1 -78.41679 -14 -77.9661 1.5 0.5 0.5
9 0 1 0 0 0 1 0 0 0 1 -82.41679 -20 21.0339 1.5 0.5 0.5
9 0 1 0 0 0 1 0 0 0 1 -91.41679 -35 -85.9661 0.5 1.5 0.5
9 0 1 0 0 0 1 0 0 0 1 -92.41679 -38 -85.9661 0.5 1.5 0.5
9 0 1 0 0 0 1 0 0 0 1 -92.41679 -39 26.0339 0.5 1.5 0.5
9 0 1 0 0 0 1 0 0 0 1 -93.41679 -34 25.0339 0.5 1.5 0.5
9 0 1 0 0 0 1 0 0 0 1 -93.41679 -42 26.0339 0.5 1.5 0.5
9 0 1 0 0 0 1 0 0 0 1 -94.41679 -23 21.0339 1.5 0.5 0.5
9 0 1 0 0 0 1 0 0 0 1 -95.41679 -24 -80.9661 0.5 1.5 0.5
9 0 1 0 0 0 1 0 0 0 1 -96.41679 -10 -39.9661 0.5 0.5 1.5
9 0 1 0 0 0 1 0 0 0 1 -96.41679 -10 -19.9661 0.5 0.5 1.5
9 0 1 0 0 0 1 0 0 0 1 -96.41679 -35 -83.9661 0.5 1.5 0.5
9 0 1 0 0 0 1 0 0 0 1 -96.41679 -35 24.0339 0.5 1.5 0.5
9 0 1 0 0 0 1 0 0 0 1 -96.41679 -41 -84.9661 0.5 1.5 0.5
9 0 1 0 0 0 1 0 0 0 1 -96.41679 -42 25.0339 0.5 1.5 0.5
9 0 1 0 0 0 1 0 0 0 1 -99.41679 -36 -82.9661 0.5 1.5 0.5
9 0 1 0 0 0 1 0 0 0 1 -99.41679 -43 -83.9661 0.5 1.5 0.5
9 0 1 0 0 0 1 0 0 0 1 -101.4168 -35 -81.9661 0.5 1.5 0.5
9 0 1 0 0 0 1 0 0 0 1 -106.4168 -26 -76.9661 0.5 1.5 0.5
9 0 1 0 0 0 1 0 0 0 1 -110.4168 -53 21.0339 0.5 1.5 0.5
9 0 1 0 0 0 1 0 0 0 1 -113.4168 -53 20.0339 0.5 1.5 0.5
9 0 1 0 0 0 1 0 0 0 1 -114.4168 -36 -76.9661 0.5 1.5 0.5
9 0 1 0 0 0 1 0 0 0 1 -115.4168 -41 -77.9661 0.5 1.5 0.5
9 0 1 0 0 0 1 0 0 0 1 -119.4168 -53 -77.9661 0.5 1.5 0.5
9 0 1 0 0 0 1 0 0 0 1 -123.4168 -50 16.0339 0.5 1.5 0.5
9 0 1 0 0 0 1 0 0 0 1 -124.4168 -52 -75.9661 0.5 1.5 0.5
9 0 1 0 0 0 1 0 0 0 1 -127.4168 -52 15.0339 0.5 1.5 0.5
9 0 1 0 0 0 1 0 0 0 1 -130.4168 -52 -73.9661 0.5 1.5 0.5
9 0 1 0 0 0 1 0 0 0 1 -132.4168 -50 13.0339 0.5 1.5 0.5
9 0 1 0 0 0 1 0 0 0 1 -133.4168 -52 -72.9661 0.5 1.5 0.5
9 0 1 0 0 0 1 0 0 0 1 -134.4168 -59 -11.9661 0.5 1.5 0.5
9 0 1 0 0 0 1 0 0 0 1 -137.4168 -53 -46.9661 0.5 1.5 0.5
9 0 1 0 0 0 1 0 0 0 1 -137.4168 -68 -47.9661 0.5 1.5 0.5
9 0 1 0 0 0 1 0 0 0 1 -137.4168 -25 -0.9661007 1.5 0.5 0.5
9 0 1 0 0 0 1 0 0 0 1 -137.4168 -30 3.033899 1.5 0.5 0.5
9 0 1 0 0 0 1 0 0 0 1 -138.4168 -28 1.033899 1.5 0.5 0.5
9 0 1 0 0 0 1 0 0 0 1 -138.4168 -33 5.033899 1.5 0.5 0.5
9 0 1 0 0 0 1 0 0 0 1 -141.4168 -38 6.033899 0.5 1.5 0.5
9 0 1 0 0 0 1 0 0 0 1 -150.4168 -24 -48.9661 1.5 0.5 0.5
9 0 1 0 0 0 1 0 0 0 1 -150.4168 -24 -10.9661 1.5 0.5 0.5
9 0 1 0 0 0 1 0 0 0 1 -151.4168 -25 -49.9661 0.5 0.5 1.5
9 0 1 0 0 0 1 0 0 0 1 -151.4168 -52 7.033899 0.5 1.5 0.5
9 0 1 0 0 0 1 0 0 0 1 -151.4168 -42 5.033899 1.5 0.5 0.5
9 0 1 0 0 0 1 0 0 0 1 -153.4168 -35 1.033899 1.5 0.5 0.5
9 0 1 0 0 0 1 0 0 0 1 -153.4168 -54 -67.9661 1.5 0.5 0.5
9 0 1 0 0 0 1 0 0 0 1 -153.4168 -86 -7.966101 1.5 0.5 0.5
