9 0 1 0 0 0 1 0 0 0 1 -0.08900023 -22.525 2.366 2.5 6 2
9 0 1 0 0 0 1 0 0 0 1 -0.08900023 -6.525002 -0.1339998 1.5 21 0.5
9 0 1 0 0 0 1 0 0 0 1 -0.08900023 -28.025 4.866 1.5 11.5 0.5
9 0 1 0 0 0 1 0 0 0 1 0.4109998 -1.025002 0.8660002 1 15.5 0.5
9 0 1 0 0 0 1 0 0 0 1 -0.08900023 -19.525 -2.134 1.5 3 1.5
9 0 1 0 0 0 1 0 0 0 1 -0.08900023 -36.025 3.866 1.5 7.5 0.5
9 0 1 0 0 0 1 0 0 0 1 -0.08900023 -48.025 2.866 0.5 19.5 0.5
9 0 1 0 0 0 1 0 0 0 1 -0.08900023 -1.025002 -1.134 0.5 15.5 0.5
9 0 1 0 0 0 1 0 0 0 1 -0.08900023 -28.525 6.366 0.5 7 1
9 0 1 0 0 0 1 0 0 0 1 2.911 -23.525 1.366 0.5 5 1
9 0 1 0 0 0 1 0 0 0 1 -0.08900023 -62.025 3.866 0.5 9.5 0.5
9 0 1 0 0 0 1 0 0 0 1 1.911 -20.525 -0.6339998 0.5 4 1
9 0 1 0 0 0 1 0 0 0 1 -0.08900023 -82.525 5.366 0.5 4 1
9 0 1 0 0 0 1 0 0 0 1 -1.089 6.474998 0.8660002 0.5 8 0.5
9 0 1 0 0 0 1 0 0 0 1 0.9109998 -9.025002 -1.134 0.5 7.5 0.5
9 0 1 0 0 0 1 0 0 0 1 0.9109998 -29.525 5.866 0.5 7 0.5
9 0 1 0 0 0 1 0 0 0 1 -0.08900023 -58.525 1.866 0.5 7 0.5
9 0 1 0 0 0 1 0 0 0 1 -0.08900023 -95.525 6.866 0.5 7 0.5
9 0 1 0 0 0 1 0 0 0 1 -2.089 -20.025 -0.6339998 0.5 3.5 1
9 0 1 0 0 0 1 0 0 0 1 0.4109998 -18.025 -4.634 1 1.5 1
9 0 1 0 0 0 1 0 0 0 1 -0.08900023 -34.025 1.866 0.5 5.5 0.5
9 0 1 0 0 0 1 0 0 0 1 -1.089 -11.025 0.8660002 0.5 5.5 0.5
9 0 1 0 0 0 1 0 0 0 1 -0.08900023 -71.025 4.866 0.5 4.5 0.5
9 0 1 0 0 0 1 0 0 0 1 -1.089 -32.025 5.866 0.5 4.5 0.5
9 0 1 0 0 0 1 0 0 0 1 1.411 -29.525 2.366 1 1 1
9 0 1 0 0 0 1 0 0 0 1 -0.08900023 -100.525 7.866 0.5 4 0.5
9 0 1 0 0 0 1 0 0 0 1 -1.589 -29.525 2.366 1 1 1
9 0 1 0 0 0 1 0 0 0 1 -3.089 -22.525 1.366 0.5 2 1
9 0 1 0 0 0 1 0 0 0 1 -0.08900023 -25.025 7.866 0.5 3.5 0.5
9 0 1 0 0 0 1 0 0 0 1 -0.08900023 -90.025 5.866 0.5 3.5 0.5
9 0 1 0 0 0 1 0 0 0 1 1.911 -17.525 -3.134 0.5 1 1.5
9 0 1 0 0 0 1 0 0 0 1 -0.08900023 -42.525 4.866 0.5 3 0.5
9 0 1 0 0 0 1 0 0 0 1 0.4109998 -45.025 3.866 1 1.5 0.5
9 0 1 0 0 0 1 0 0 0 1 -0.08900023 -23.025 -1.634 1.5 0.5 1
9 0 1 0 0 0 1 0 0 0 1 0.9109998 11.975 -1.134 0.5 2.5 0.5
9 0 1 0 0 0 1 0 0 0 1 -0.08900023 -16.025 -6.134 0.5 2.5 0.5
9 0 1 0 0 0 1 0 0 0 1 -0.08900023 -59.525 5.366 0.5 1 1
9 0 1 0 0 0 1 0 0 0 1 -1.089 -17.525 -4.634 0.5 1 1
9 0 1 0 0 0 1 0 0 0 1 -2.089 -25.525 -0.1339998 0.5 2 0.5
9 0 1 0 0 0 1 0 0 0 1 -3.089 -26.525 0.8660002 0.5 2 0.5
9 0 1 0 0 0 1 0 0 0 1 1.911 -26.025 -0.1339998 0.5 1.5 0.5
9 0 1 0 0 0 1 0 0 0 1 1.911 -30.025 4.866 0.5 0.5 1.5
9 0 1 0 0 0 1 0 0 0 1 0.9109998 -58.025 3.866 0.5 0.5 1.5
9 0 1 0 0 0 1 0 0 0 1 -0.08900023 -21.025 -4.134 0.5 1.5 0.5
9 0 1 0 0 0 1 0 0 0 1 -0.08900023 -23.025 8.866 0.5 1.5 0.5
9 0 1 0 0 0 1 0 0 0 1 -0.08900023 -24.025 -1.134 1.5 0.5 0.5
9 0 1 0 0 0 1 0 0 0 1 -2.089 -17.025 -3.134 0.5 0.5 1.5
9 0 1 0 0 0 1 0 0 0 1 -2.089 -30.025 4.866 0.5 0.5 1.5
