9 0 1 0 0 0 1 0 0 0 1 -0.0001006126 -0.2450333 0.7441998 1.5 4.5 1
9 0 1 0 0 0 1 0 0 0 1 -0.0001006126 6.754967 -3.2558 0.5 1.5 3
9 0 1 0 0 0 1 0 0 0 1 -0.0001006126 -6.745033 -5.7558 1.5 1 1.5
9 0 1 0 0 0 1 0 0 0 1 -0.0001006126 0.2549667 -12.2558 0.5 4 1
9 0 1 0 0 0 1 0 0 0 1 -0.0001006126 -6.245033 -1.7558 0.5 1.5 1.5
9 0 1 0 0 0 1 0 0 0 1 -0.0001006126 5.754967 -7.7558 1.5 0.5 1.5
9 0 1 0 0 0 1 0 0 0 1 -0.0001006126 3.754967 -10.7558 1.5 1.5 0.5
9 0 1 0 0 0 1 0 0 0 1 1.999899 0.2549667 0.2441998 0.5 4 0.5
9 0 1 0 0 0 1 0 0 0 1 -2.000101 0.2549667 0.2441998 0.5 4 0.5
9 0 1 0 0 0 1 0 0 0 1 -0.0001006126 -4.245033 -11.2558 1.5 0.5 1
9 0 1 0 0 0 1 0 0 0 1 -0.0001006126 -5.245033 -9.2558 1.5 0.5 1
9 0 1 0 0 0 1 0 0 0 1 -0.0001006126 1.754967 2.2442 0.5 2.5 0.5
9 0 1 0 0 0 1 0 0 0 1 0.9998994 6.254967 -5.2558 0.5 1 1
9 0 1 0 0 0 1 0 0 0 1 -0.0001006126 -0.2450333 -15.2558 0.5 0.5 2
9 0 1 0 0 0 1 0 0 0 1 -1.000101 6.254967 -5.2558 0.5 1 1
9 0 1 0 0 0 1 0 0 0 1 0.9998994 2.754967 -11.7558 0.5 1.5 0.5
9 0 1 0 0 0 1 0 0 0 1 -0.0001006126 4.754967 -0.7558002 0.5 0.5 1.5
9 0 1 0 0 0 1 0 0 0 1 -0.0001006126 6.754967 -6.7558 1.5 0.5 0.5
9 0 1 0 0 0 1 0 0 0 1 -0.0001006126 4.754967 -9.7558 1.5 0.5 0.5
9 0 1 0 0 0 1 0 0 0 1 -0.0001006126 3.754967 -0.7558002 1.5 0.5 0.5
9 0 1 0 0 0 1 0 0 0 1 -1.000101 2.754967 -11.7558 0.5 1.5 0.5
9 0 1 0 0 0 1 0 0 0 1 -0.0001006126 -3.245033 -10.7558 1.5 0.5 0.5
9 0 1 0 0 0 1 0 0 0 1 -0.0001006126 -4.245033 -0.7558002 1.5 0.5 0.5
9 0 1 0 0 0 1 0 0 0 1 -0.0001006126 -6.245033 -7.7558 1.5 0.5 0.5
