9 0 1 0 0 0 1 0 0 0 1 11.66 -10.75999 -14.79 2 5 1
9 0 1 0 0 0 1 0 0 0 1 -11.34 -10.75999 -14.79 2 5 1
9 0 1 0 0 0 1 0 0 0 1 0.1599998 -24.75999 8.209999 3.5 2 1
9 0 1 0 0 0 1 0 0 0 1 0.1599998 -31.25999 -1.290001 3.5 0.5 3.5
9 0 1 0 0 0 1 0 0 0 1 0.1599998 4.240005 -23.29 2.5 4 0.5
9 0 1 0 0 0 1 0 0 0 1 9.16 -12.25999 -16.29 1.5 6.5 0.5
9 0 1 0 0 0 1 0 0 0 1 -8.84 -12.25999 -16.29 1.5 6.5 0.5
9 0 1 0 0 0 1 0 0 0 1 -8.34 -24.75999 1.209999 1 2 2
9 0 1 0 0 0 1 0 0 0 1 7.16 -14.75999 -17.29 1.5 5 0.5
9 0 1 0 0 0 1 0 0 0 1 -7.34 -12.75999 -17.29 1 7 0.5
9 0 1 0 0 0 1 0 0 0 1 8.66 -25.25999 0.2099991 1 1.5 2
9 0 1 0 0 0 1 0 0 0 1 18.16 -8.759995 -4.290001 0.5 1 5.5
9 0 1 0 0 0 1 0 0 0 1 -14.84 -9.259995 -14.29 1.5 3.5 0.5
9 0 1 0 0 0 1 0 0 0 1 9.16 -15.75999 -14.79 0.5 5 1
9 0 1 0 0 0 1 0 0 0 1 15.16 -8.759995 -14.29 1.5 3 0.5
9 0 1 0 0 0 1 0 0 0 1 0.1599998 6.240005 -24.29 1.5 3 0.5
9 0 1 0 0 0 1 0 0 0 1 0.1599998 -15.75999 -20.29 4.5 1 0.5
9 0 1 0 0 0 1 0 0 0 1 -8.34 -26.75999 -1.790001 1 2 1
9 0 1 0 0 0 1 0 0 0 1 0.1599998 -12.25999 -21.29 1.5 2.5 0.5
9 0 1 0 0 0 1 0 0 0 1 -8.84 -13.25999 -15.29 0.5 7.5 0.5
9 0 1 0 0 0 1 0 0 0 1 8.16 -27.75999 -1.290001 0.5 1 3.5
9 0 1 0 0 0 1 0 0 0 1 0.1599998 -19.75999 -19.29 3.5 1 0.5
9 0 1 0 0 0 1 0 0 0 1 14.66 -14.75999 -8.290001 1 1 1.5
9 0 1 0 0 0 1 0 0 0 1 8.66 -22.75999 2.709999 1 1 1.5
9 0 1 0 0 0 1 0 0 0 1 8.66 -7.259995 -17.29 2 1.5 0.5
9 0 1 0 0 0 1 0 0 0 1 6.66 -7.759995 -18.29 1 3 0.5
9 0 1 0 0 0 1 0 0 0 1 5.16 -18.75999 -18.79 1.5 1 1
9 0 1 0 0 0 1 0 0 0 1 0.1599998 -6.759995 -22.29 1.5 2 0.5
9 0 1 0 0 0 1 0 0 0 1 -0.3400002 -24.25999 9.709999 2 1.5 0.5
9 0 1 0 0 0 1 0 0 0 1 -5.34 -18.25999 -18.79 1 1.5 1
9 0 1 0 0 0 1 0 0 0 1 -6.34 -7.759995 -18.29 1 3 0.5
9 0 1 0 0 0 1 0 0 0 1 -14.34 -15.25999 -8.790001 1 1.5 1
9 0 1 0 0 0 1 0 0 0 1 -17.84 -9.259995 -3.790001 0.5 0.5 6
9 0 1 0 0 0 1 0 0 0 1 -18.84 -6.259995 -4.790001 0.5 1.5 2
9 0 1 0 0 0 1 0 0 0 1 14.66 -12.25999 -13.29 1 0.5 2.5
9 0 1 0 0 0 1 0 0 0 1 11.16 -17.75999 -17.29 2.5 1 0.5
9 0 1 0 0 0 1 0 0 0 1 7.16 -24.25999 4.209999 0.5 2.5 1
9 0 1 0 0 0 1 0 0 0 1 -9.84 -25.75999 -1.290001 0.5 1 2.5
9 0 1 0 0 0 1 0 0 0 1 -10.84 -17.75999 -17.29 2.5 1 0.5
9 0 1 0 0 0 1 0 0 0 1 17.16 -7.259995 -13.29 0.5 1.5 1.5
9 0 1 0 0 0 1 0 0 0 1 16.16 -14.25999 -4.290001 0.5 0.5 4.5
9 0 1 0 0 0 1 0 0 0 1 13.16 -17.25999 -8.290001 0.5 1.5 1.5
9 0 1 0 0 0 1 0 0 0 1 0.1599998 -1.259995 -23.29 1.5 1.5 0.5
9 0 1 0 0 0 1 0 0 0 1 0.1599998 -6.259995 18.71 1.5 1.5 0.5
9 0 1 0 0 0 1 0 0 0 1 0.1599998 -27.25999 7.709999 4.5 0.5 0.5
9 0 1 0 0 0 1 0 0 0 1 -12.84 -18.25999 -8.290001 0.5 1.5 1.5
9 0 1 0 0 0 1 0 0 0 1 -15.84 -13.25999 -8.290001 0.5 1.5 1.5
9 0 1 0 0 0 1 0 0 0 1 14.66 -16.25999 -6.790001 1 0.5 2
9 0 1 0 0 0 1 0 0 0 1 11.66 -16.25999 -14.79 1 0.5 2
9 0 1 0 0 0 1 0 0 0 1 7.16 -16.75999 -16.29 0.5 4 0.5
9 0 1 0 0 0 1 0 0 0 1 5.16 -24.75999 7.209999 0.5 2 1
9 0 1 0 0 0 1 0 0 0 1 0.6599998 -30.25999 -8.790001 2 0.5 1
9 0 1 0 0 0 1 0 0 0 1 -0.3400002 -31.25999 -5.790001 2 0.5 1
9 0 1 0 0 0 1 0 0 0 1 -4.34 -23.75999 8.209999 1 1 1
9 0 1 0 0 0 1 0 0 0 1 -5.34 -24.75999 6.709999 1 2 0.5
9 0 1 0 0 0 1 0 0 0 1 -7.34 -23.75999 4.709999 1 2 0.5
9 0 1 0 0 0 1 0 0 0 1 -8.84 -8.759995 -17.29 0.5 4 0.5
9 0 1 0 0 0 1 0 0 0 1 -9.34 -17.75999 -14.29 1 2 0.5
9 0 1 0 0 0 1 0 0 0 1 -10.84 -8.759995 -16.29 0.5 4 0.5
9 0 1 0 0 0 1 0 0 0 1 -11.34 -16.75999 -15.79 1 1 1
9 0 1 0 0 0 1 0 0 0 1 -16.84 -8.759995 -12.79 0.5 1 2
9 0 1 0 0 0 1 0 0 0 1 14.16 -13.25999 -12.29 0.5 0.5 3.5
9 0 1 0 0 0 1 0 0 0 1 8.16 -17.25999 -15.29 0.5 3.5 0.5
9 0 1 0 0 0 1 0 0 0 1 5.16 -14.25999 -18.29 0.5 3.5 0.5
9 0 1 0 0 0 1 0 0 0 1 3.16 2.740005 -22.29 0.5 3.5 0.5
9 0 1 0 0 0 1 0 0 0 1 2.16 -3.259995 -22.29 0.5 3.5 0.5
9 0 1 0 0 0 1 0 0 0 1 -4.84 -13.25999 -18.29 0.5 3.5 0.5
9 0 1 0 0 0 1 0 0 0 1 -5.84 -17.25999 -17.29 0.5 3.5 0.5
9 0 1 0 0 0 1 0 0 0 1 -9.84 -18.25999 -18.29 3.5 0.5 0.5
9 0 1 0 0 0 1 0 0 0 1 -15.84 -15.25999 -3.290001 0.5 0.5 3.5
9 0 1 0 0 0 1 0 0 0 1 -16.84 -12.25999 -3.290001 0.5 0.5 3.5
9 0 1 0 0 0 1 0 0 0 1 18.16 -6.259995 -7.790001 0.5 1.5 1
9 0 1 0 0 0 1 0 0 0 1 18.16 -6.759995 1.709999 0.5 1 1.5
9 0 1 0 0 0 1 0 0 0 1 16.16 -12.25999 -8.790001 0.5 1.5 1
9 0 1 0 0 0 1 0 0 0 1 13.16 -13.75999 -12.29 0.5 1 1.5
9 0 1 0 0 0 1 0 0 0 1 10.16 -24.75999 -0.2900009 0.5 1 1.5
9 0 1 0 0 0 1 0 0 0 1 9.16 -7.759995 -15.29 0.5 3 0.5
9 0 1 0 0 0 1 0 0 0 1 9.16 -26.75999 -3.290001 0.5 1 1.5
9 0 1 0 0 0 1 0 0 0 1 8.16 -25.25999 3.209999 0.5 1.5 1
9 0 1 0 0 0 1 0 0 0 1 9.66 -18.25999 -18.29 3 0.5 0.5
9 0 1 0 0 0 1 0 0 0 1 7.16 -28.75999 -4.290001 0.5 1 1.5
9 0 1 0 0 0 1 0 0 0 1 6.16 -24.25999 6.209999 0.5 1.5 1
9 0 1 0 0 0 1 0 0 0 1 4.16 -24.25999 8.209999 0.5 1.5 1
9 0 1 0 0 0 1 0 0 0 1 4.16 -16.75999 -19.29 1.5 1 0.5
9 0 1 0 0 0 1 0 0 0 1 0.1599998 -32.25999 -2.790001 1.5 0.5 1
9 0 1 0 0 0 1 0 0 0 1 -2.84 5.240005 -23.29 0.5 3 0.5
9 0 1 0 0 0 1 0 0 0 1 -2.84 0.2400055 -22.29 0.5 3 0.5
9 0 1 0 0 0 1 0 0 0 1 -2.34 -13.25999 -20.29 1 1.5 0.5
9 0 1 0 0 0 1 0 0 0 1 -3.84 -31.25999 -1.790001 0.5 0.5 3
9 0 1 0 0 0 1 0 0 0 1 -6.34 -24.25999 5.709999 1 1.5 0.5
9 0 1 0 0 0 1 0 0 0 1 -7.84 -27.75999 0.7099991 0.5 1 1.5
9 0 1 0 0 0 1 0 0 0 1 -8.84 -2.759995 -16.29 0.5 3 0.5
9 0 1 0 0 0 1 0 0 0 1 -8.34 -22.25999 2.709999 1 0.5 1.5
9 0 1 0 0 0 1 0 0 0 1 -9.84 -23.75999 0.7099991 0.5 1 1.5
9 0 1 0 0 0 1 0 0 0 1 -12.34 -14.25999 -13.29 1 1.5 0.5
9 0 1 0 0 0 1 0 0 0 1 -14.84 -11.75999 -12.29 0.5 1 1.5
9 0 1 0 0 0 1 0 0 0 1 -14.84 -15.25999 -6.790001 0.5 1.5 1
9 0 1 0 0 0 1 0 0 0 1 -15.84 -10.75999 -12.29 0.5 1 1.5
9 0 1 0 0 0 1 0 0 0 1 17.16 -11.25999 -2.290001 0.5 0.5 2.5
9 0 1 0 0 0 1 0 0 0 1 11.16 -8.259995 -16.29 0.5 2.5 0.5
9 0 1 0 0 0 1 0 0 0 1 3.16 5.740005 -23.29 0.5 2.5 0.5
9 0 1 0 0 0 1 0 0 0 1 0.1599998 -31.25999 2.709999 2.5 0.5 0.5
9 0 1 0 0 0 1 0 0 0 1 -3.84 -17.25999 -19.29 0.5 2.5 0.5
9 0 1 0 0 0 1 0 0 0 1 -7.84 -18.25999 -15.29 0.5 2.5 0.5
9 0 1 0 0 0 1 0 0 0 1 16.16 -9.759995 -12.79 0.5 1 1
9 0 1 0 0 0 1 0 0 0 1 15.66 -6.259995 -15.29 2 0.5 0.5
9 0 1 0 0 0 1 0 0 0 1 14.66 -10.75999 -15.29 1 1 0.5
9 0 1 0 0 0 1 0 0 0 1 13.16 -18.75999 -5.790001 0.5 1 1
9 0 1 0 0 0 1 0 0 0 1 12.16 -18.75999 -8.790001 0.5 1 1
9 0 1 0 0 0 1 0 0 0 1 11.66 -17.25999 -15.79 1 0.5 1
9 0 1 0 0 0 1 0 0 0 1 10.16 -17.25999 -14.79 0.5 1.5 1
9 0 1 0 0 0 1 0 0 0 1 10.16 -25.75999 -2.790001 0.5 1 1
9 0 1 0 0 0 1 0 0 0 1 8.66 -5.259995 -16.79 1 0.5 1
9 0 1 0 0 0 1 0 0 0 1 4.16 -31.25999 -1.790001 0.5 0.5 2
9 0 1 0 0 0 1 0 0 0 1 3.16 -13.75999 -19.29 0.5 2 0.5
9 0 1 0 0 0 1 0 0 0 1 2.16 -12.75999 -20.29 0.5 2 0.5
9 0 1 0 0 0 1 0 0 0 1 -0.3400002 -9.759995 -22.29 1 1 0.5
9 0 1 0 0 0 1 0 0 0 1 -1.84 -4.759995 -22.29 0.5 2 0.5
9 0 1 0 0 0 1 0 0 0 1 -0.3400002 -23.25999 10.71 2 0.5 0.5
9 0 1 0 0 0 1 0 0 0 1 -0.3400002 -28.25999 7.709999 2 0.5 0.5
9 0 1 0 0 0 1 0 0 0 1 -3.84 4.240005 -22.29 0.5 2 0.5
9 0 1 0 0 0 1 0 0 0 1 -3.84 0.2400055 -21.29 0.5 2 0.5
9 0 1 0 0 0 1 0 0 0 1 -4.34 -25.75999 7.709999 1 1 0.5
9 0 1 0 0 0 1 0 0 0 1 -4.34 -29.75999 -7.290001 1 1 0.5
9 0 1 0 0 0 1 0 0 0 1 -6.84 -18.75999 -16.29 0.5 2 0.5
9 0 1 0 0 0 1 0 0 0 1 -7.84 -6.759995 -18.29 0.5 2 0.5
9 0 1 0 0 0 1 0 0 0 1 -7.84 -24.75999 3.709999 0.5 2 0.5
9 0 1 0 0 0 1 0 0 0 1 -7.84 -27.75999 -3.790001 0.5 1 1
9 0 1 0 0 0 1 0 0 0 1 -7.84 -29.25999 -1.790001 0.5 0.5 2
9 0 1 0 0 0 1 0 0 0 1 -9.84 -7.759995 -17.29 0.5 2 0.5
9 0 1 0 0 0 1 0 0 0 1 -9.34 -24.25999 -1.290001 2 0.5 0.5
9 0 1 0 0 0 1 0 0 0 1 -11.84 -7.759995 -16.29 0.5 2 0.5
9 0 1 0 0 0 1 0 0 0 1 -11.84 -16.25999 -12.79 0.5 0.5 2
9 0 1 0 0 0 1 0 0 0 1 -11.84 -19.75999 -8.790001 0.5 1 1
9 0 1 0 0 0 1 0 0 0 1 -13.84 -12.75999 -12.79 0.5 1 1
9 0 1 0 0 0 1 0 0 0 1 -13.84 -16.75999 -6.790001 0.5 1 1
9 0 1 0 0 0 1 0 0 0 1 -13.84 -17.75999 -4.790001 0.5 1 1
9 0 1 0 0 0 1 0 0 0 1 -14.34 -13.75999 -14.29 1 1 0.5
9 0 1 0 0 0 1 0 0 0 1 -15.34 -6.259995 -15.29 2 0.5 0.5
9 0 1 0 0 0 1 0 0 0 1 -16.84 -11.25999 -6.790001 0.5 0.5 2
9 0 1 0 0 0 1 0 0 0 1 -17.84 -7.759995 -8.790001 0.5 1 1
9 0 1 0 0 0 1 0 0 0 1 -18.84 -6.759995 -7.790001 0.5 1 1
9 0 1 0 0 0 1 0 0 0 1 -18.84 -6.759995 -1.790001 0.5 1 1
9 0 1 0 0 0 1 0 0 0 1 -18.34 -8.259995 -6.790001 1 0.5 1
9 0 1 0 0 0 1 0 0 0 1 17.16 -10.25999 -6.290001 0.5 0.5 1.5
9 0 1 0 0 0 1 0 0 0 1 16.16 -13.25999 -6.290001 0.5 0.5 1.5
9 0 1 0 0 0 1 0 0 0 1 15.16 -11.25999 -12.29 0.5 0.5 1.5
9 0 1 0 0 0 1 0 0 0 1 15.16 -15.25999 -5.290001 0.5 0.5 1.5
9 0 1 0 0 0 1 0 0 0 1 12.16 -14.25999 -13.29 0.5 1.5 0.5
9 0 1 0 0 0 1 0 0 0 1 11.16 -5.259995 -15.29 1.5 0.5 0.5
9 0 1 0 0 0 1 0 0 0 1 9.16 -10.25999 -17.29 0.5 1.5 0.5
9 0 1 0 0 0 1 0 0 0 1 8.16 -6.259995 -18.29 0.5 1.5 0.5
9 0 1 0 0 0 1 0 0 0 1 9.16 -23.25999 0.7099991 1.5 0.5 0.5
9 0 1 0 0 0 1 0 0 0 1 8.16 -23.25999 4.709999 0.5 1.5 0.5
9 0 1 0 0 0 1 0 0 0 1 7.16 -17.25999 -18.29 1.5 0.5 0.5
9 0 1 0 0 0 1 0 0 0 1 5.16 -29.25999 -7.290001 0.5 0.5 1.5
9 0 1 0 0 0 1 0 0 0 1 4.16 1.740005 -21.29 0.5 1.5 0.5
9 0 1 0 0 0 1 0 0 0 1 3.16 -9.259995 17.71 1.5 0.5 0.5
9 0 1 0 0 0 1 0 0 0 1 0.1599998 -12.25999 16.71 1.5 0.5 0.5
9 0 1 0 0 0 1 0 0 0 1 0.1599998 -15.25999 15.71 1.5 0.5 0.5
9 0 1 0 0 0 1 0 0 0 1 0.1599998 -20.25999 -20.29 1.5 0.5 0.5
9 0 1 0 0 0 1 0 0 0 1 0.1599998 -27.25999 8.709999 1.5 0.5 0.5
9 0 1 0 0 0 1 0 0 0 1 -1.84 7.740005 -24.29 0.5 1.5 0.5
9 0 1 0 0 0 1 0 0 0 1 -2.84 -9.259995 17.71 1.5 0.5 0.5
9 0 1 0 0 0 1 0 0 0 1 -8.84 -27.25999 0.7099991 0.5 0.5 1.5
9 0 1 0 0 0 1 0 0 0 1 -9.84 -17.25999 -15.29 0.5 1.5 0.5
9 0 1 0 0 0 1 0 0 0 1 -10.84 -5.259995 -15.29 1.5 0.5 0.5
9 0 1 0 0 0 1 0 0 0 1 -12.84 -19.25999 -5.290001 0.5 0.5 1.5
9 0 1 0 0 0 1 0 0 0 1 -15.84 -14.25999 -5.290001 0.5 0.5 1.5
9 0 1 0 0 0 1 0 0 0 1 -16.84 -6.259995 -14.29 0.5 1.5 0.5
