9 0 1 0 0 0 1 0 0 0 1 0.2729988 -22.428 -1.979 6 0.5 9
9 0 1 0 0 0 1 0 0 0 1 -0.2270012 -13.428 12.021 5.5 4.5 1
9 0 1 0 0 0 1 0 0 0 1 7.772999 -13.428 9.521 1.5 4.5 1.5
9 0 1 0 0 0 1 0 0 0 1 10.773 -14.428 1.521 0.5 5.5 3.5
9 0 1 0 0 0 1 0 0 0 1 10.773 -11.928 -14.979 1.5 6 1
9 0 1 0 0 0 1 0 0 0 1 -11.227 -11.928 -14.979 1.5 6 1
9 0 1 0 0 0 1 0 0 0 1 -7.727001 -13.928 9.521 1 5 1.5
9 0 1 0 0 0 1 0 0 0 1 -10.227 -15.428 4.021 0.5 3.5 4
9 0 1 0 0 0 1 0 0 0 1 -11.227 -16.428 -6.979 0.5 2.5 5
9 0 1 0 0 0 1 0 0 0 1 0.2729988 -13.428 13.521 3 3.5 0.5
9 0 1 0 0 0 1 0 0 0 1 0.2729988 -18.928 11.021 5 1 1
9 0 1 0 0 0 1 0 0 0 1 -8.727001 -12.928 -16.479 2 5 0.5
9 0 1 0 0 0 1 0 0 0 1 8.772999 -11.928 -16.479 1.5 6 0.5
9 0 1 0 0 0 1 0 0 0 1 5.772999 -13.428 11.021 0.5 4.5 2
9 0 1 0 0 0 1 0 0 0 1 -5.727001 -15.428 10.021 1 4.5 1
9 0 1 0 0 0 1 0 0 0 1 9.772999 -14.428 7.521 0.5 3.5 2.5
9 0 1 0 0 0 1 0 0 0 1 -0.2270012 6.071999 -23.479 2.5 3 0.5
9 0 1 0 0 0 1 0 0 0 1 -9.227001 -13.928 8.521 0.5 5 1.5
9 0 1 0 0 0 1 0 0 0 1 10.773 -18.928 -5.479 0.5 2 3.5
9 0 1 0 0 0 1 0 0 0 1 -6.727001 -22.428 -2.979 1 0.5 7
9 0 1 0 0 0 1 0 0 0 1 7.272999 -11.428 -17.479 1 6.5 0.5
9 0 1 0 0 0 1 0 0 0 1 14.273 -8.928001 -14.479 2 3 0.5
9 0 1 0 0 0 1 0 0 0 1 0.2729988 -11.928 -20.479 2 3 0.5
9 0 1 0 0 0 1 0 0 0 1 0.2729988 -7.928001 12.021 3 1 1
9 0 1 0 0 0 1 0 0 0 1 -0.2270012 -5.428001 -22.479 1.5 3.5 0.5
9 0 1 0 0 0 1 0 0 0 1 -11.227 -10.428 -1.479 0.5 3.5 1.5
9 0 1 0 0 0 1 0 0 0 1 -14.227 -9.428001 -14.479 1.5 3.5 0.5
9 0 1 0 0 0 1 0 0 0 1 7.272999 -22.428 -3.979 1 0.5 5
9 0 1 0 0 0 1 0 0 0 1 -8.727001 -13.928 -15.479 1 5 0.5
9 0 1 0 0 0 1 0 0 0 1 11.773 -11.928 -13.479 1.5 3 0.5
9 0 1 0 0 0 1 0 0 0 1 -0.2270012 -20.928 10.521 4.5 1 0.5
9 0 1 0 0 0 1 0 0 0 1 -6.727001 -12.428 -17.479 1 4.5 0.5
9 0 1 0 0 0 1 0 0 0 1 -6.727001 -13.428 11.521 1 4.5 0.5
9 0 1 0 0 0 1 0 0 0 1 10.773 -11.928 6.021 0.5 4 1
9 0 1 0 0 0 1 0 0 0 1 4.272999 -13.928 10.521 1 4 0.5
9 0 1 0 0 0 1 0 0 0 1 0.2729988 -9.928001 -21.479 1 4 0.5
9 0 1 0 0 0 1 0 0 0 1 0.2729988 -22.428 8.021 4 0.5 1
9 0 1 0 0 0 1 0 0 0 1 -10.227 -9.928001 6.021 0.5 2 2
9 0 1 0 0 0 1 0 0 0 1 -12.727 -10.928 -13.479 2 2 0.5
9 0 1 0 0 0 1 0 0 0 1 10.773 -7.428001 2.521 0.5 1.5 2.5
9 0 1 0 0 0 1 0 0 0 1 10.773 -17.428 -11.479 0.5 1.5 2.5
9 0 1 0 0 0 1 0 0 0 1 7.772999 -14.428 11.521 1.5 2.5 0.5
9 0 1 0 0 0 1 0 0 0 1 8.772999 -11.928 -15.479 0.5 7 0.5
9 0 1 0 0 0 1 0 0 0 1 8.772999 -13.928 7.521 0.5 7 0.5
9 0 1 0 0 0 1 0 0 0 1 -0.2270012 -13.928 -19.479 3.5 1 0.5
9 0 1 0 0 0 1 0 0 0 1 11.773 -14.428 -10.979 0.5 1.5 2
9 0 1 0 0 0 1 0 0 0 1 9.772999 -19.928 3.021 0.5 1 3
9 0 1 0 0 0 1 0 0 0 1 -0.2270012 -20.928 -10.979 0.5 1 3
9 0 1 0 0 0 1 0 0 0 1 -8.227001 -15.928 7.521 0.5 6 0.5
9 0 1 0 0 0 1 0 0 0 1 -8.727001 -6.428001 -16.979 1 1.5 1
9 0 1 0 0 0 1 0 0 0 1 -10.227 -13.928 9.021 0.5 3 1
9 0 1 0 0 0 1 0 0 0 1 -10.227 -19.928 1.021 0.5 1 3
9 0 1 0 0 0 1 0 0 0 1 -11.227 -12.928 -5.979 0.5 1 3
9 0 1 0 0 0 1 0 0 0 1 -3.727001 -13.428 13.521 1 2.5 0.5
9 0 1 0 0 0 1 0 0 0 1 -4.227001 -12.928 10.521 0.5 5 0.5
9 0 1 0 0 0 1 0 0 0 1 -10.727 -15.428 -13.479 1 2.5 0.5
9 0 1 0 0 0 1 0 0 0 1 16.773 -6.428001 -13.479 0.5 1.5 1.5
9 0 1 0 0 0 1 0 0 0 1 6.772999 -21.428 -10.479 1.5 0.5 1.5
9 0 1 0 0 0 1 0 0 0 1 5.772999 -19.428 9.521 1.5 1.5 0.5
9 0 1 0 0 0 1 0 0 0 1 -0.2270012 -18.428 12.521 4.5 0.5 0.5
9 0 1 0 0 0 1 0 0 0 1 -9.227001 -14.428 -14.479 0.5 4.5 0.5
9 0 1 0 0 0 1 0 0 0 1 -10.227 -18.428 -17.479 1.5 0.5 1.5
9 0 1 0 0 0 1 0 0 0 1 14.273 -6.928001 -15.479 2 1 0.5
9 0 1 0 0 0 1 0 0 0 1 10.273 -18.428 -15.979 1 0.5 2
9 0 1 0 0 0 1 0 0 0 1 9.272999 -6.928001 -17.479 1 2 0.5
9 0 1 0 0 0 1 0 0 0 1 6.272999 -6.928001 -18.479 1 2 0.5
9 0 1 0 0 0 1 0 0 0 1 6.272999 -7.928001 10.021 1 1 1
9 0 1 0 0 0 1 0 0 0 1 4.772999 -12.928 -18.479 0.5 4 0.5
9 0 1 0 0 0 1 0 0 0 1 -0.2270012 -18.928 -13.979 0.5 1 2
9 0 1 0 0 0 1 0 0 0 1 0.2729988 -6.428001 11.521 4 0.5 0.5
9 0 1 0 0 0 1 0 0 0 1 -5.727001 -8.928001 10.521 1 2 0.5
9 0 1 0 0 0 1 0 0 0 1 -7.727001 -7.928001 9.021 1 1 1
9 0 1 0 0 0 1 0 0 0 1 -11.227 -19.428 -5.979 0.5 0.5 4
9 0 1 0 0 0 1 0 0 0 1 -14.727 -6.928001 -15.479 2 1 0.5
9 0 1 0 0 0 1 0 0 0 1 -0.2270012 -22.428 -11.479 3.5 0.5 0.5
9 0 1 0 0 0 1 0 0 0 1 -6.227001 -13.428 12.521 0.5 3.5 0.5
9 0 1 0 0 0 1 0 0 0 1 -6.227001 -18.428 8.521 0.5 3.5 0.5
9 0 1 0 0 0 1 0 0 0 1 14.273 -10.428 -13.479 1 1.5 0.5
9 0 1 0 0 0 1 0 0 0 1 13.773 -12.928 -14.479 1.5 1 0.5
9 0 1 0 0 0 1 0 0 0 1 12.773 -15.428 -14.979 0.5 1.5 1
9 0 1 0 0 0 1 0 0 0 1 11.773 -16.928 -12.479 0.5 1 1.5
9 0 1 0 0 0 1 0 0 0 1 11.273 -7.428001 -16.479 1 1.5 0.5
9 0 1 0 0 0 1 0 0 0 1 10.773 -13.928 -2.479 0.5 3 0.5
9 0 1 0 0 0 1 0 0 0 1 11.773 -17.428 -16.979 1.5 0.5 1
9 0 1 0 0 0 1 0 0 0 1 10.273 -5.428001 -15.479 1 0.5 1.5
9 0 1 0 0 0 1 0 0 0 1 9.772999 -9.428001 8.021 0.5 1.5 1
9 0 1 0 0 0 1 0 0 0 1 8.772999 -2.928001 -16.479 0.5 3 0.5
9 0 1 0 0 0 1 0 0 0 1 8.272999 -7.428001 8.521 1 1.5 0.5
9 0 1 0 0 0 1 0 0 0 1 7.772999 -19.428 8.021 0.5 1.5 1
9 0 1 0 0 0 1 0 0 0 1 4.272999 -13.428 13.521 1 1.5 0.5
9 0 1 0 0 0 1 0 0 0 1 1.772999 -21.428 -12.979 1.5 0.5 1
9 0 1 0 0 0 1 0 0 0 1 -0.2270012 2.071999 -23.479 1.5 1 0.5
9 0 1 0 0 0 1 0 0 0 1 -6.227001 -7.928001 9.521 0.5 3 0.5
9 0 1 0 0 0 1 0 0 0 1 -6.727001 -21.428 -10.479 1 0.5 1.5
9 0 1 0 0 0 1 0 0 0 1 -7.227001 -20.428 8.021 0.5 1.5 1
9 0 1 0 0 0 1 0 0 0 1 -8.227001 -10.928 -17.479 0.5 3 0.5
9 0 1 0 0 0 1 0 0 0 1 -8.227001 -13.928 11.521 0.5 3 0.5
9 0 1 0 0 0 1 0 0 0 1 -9.227001 -13.928 10.521 0.5 3 0.5
9 0 1 0 0 0 1 0 0 0 1 -8.227001 -17.428 -17.979 1.5 0.5 1
9 0 1 0 0 0 1 0 0 0 1 -9.227001 -17.928 6.521 0.5 3 0.5
9 0 1 0 0 0 1 0 0 0 1 -10.727 -5.428001 -15.479 1 0.5 1.5
9 0 1 0 0 0 1 0 0 0 1 -11.227 -7.428001 1.021 0.5 1.5 1
9 0 1 0 0 0 1 0 0 0 1 -17.227 -5.928001 -13.479 0.5 1 1.5
9 0 1 0 0 0 1 0 0 0 1 10.773 -11.428 7.521 0.5 2.5 0.5
9 0 1 0 0 0 1 0 0 0 1 9.772999 -16.428 4.521 0.5 2.5 0.5
9 0 1 0 0 0 1 0 0 0 1 8.772999 -16.428 -14.479 0.5 2.5 0.5
9 0 1 0 0 0 1 0 0 0 1 6.772999 -22.428 3.521 0.5 0.5 2.5
9 0 1 0 0 0 1 0 0 0 1 1.772999 -4.428001 -22.479 0.5 2.5 0.5
9 0 1 0 0 0 1 0 0 0 1 -5.227001 -10.428 -18.479 0.5 2.5 0.5
9 0 1 0 0 0 1 0 0 0 1 -3.227001 -21.428 -12.479 2.5 0.5 0.5
9 0 1 0 0 0 1 0 0 0 1 -6.227001 -7.428001 -18.479 0.5 2.5 0.5
9 0 1 0 0 0 1 0 0 0 1 -8.227001 -2.428001 -16.479 0.5 2.5 0.5
9 0 1 0 0 0 1 0 0 0 1 -11.227 -8.428001 -16.479 0.5 2.5 0.5
9 0 1 0 0 0 1 0 0 0 1 -16.227 -8.428001 -14.479 0.5 2.5 0.5
9 0 1 0 0 0 1 0 0 0 1 10.773 -15.928 -3.979 0.5 1 1
9 0 1 0 0 0 1 0 0 0 1 9.772999 -16.928 -13.479 0.5 2 0.5
9 0 1 0 0 0 1 0 0 0 1 9.772999 -18.428 7.021 0.5 0.5 2
9 0 1 0 0 0 1 0 0 0 1 9.272999 -17.428 -17.979 1 0.5 1
9 0 1 0 0 0 1 0 0 0 1 7.772999 -15.928 -15.479 0.5 2 0.5
9 0 1 0 0 0 1 0 0 0 1 7.272999 -10.928 11.521 1 1 0.5
9 0 1 0 0 0 1 0 0 0 1 6.772999 -13.928 12.521 0.5 2 0.5
9 0 1 0 0 0 1 0 0 0 1 6.772999 -19.928 8.521 0.5 2 0.5
9 0 1 0 0 0 1 0 0 0 1 5.772999 -14.928 -17.479 0.5 2 0.5
9 0 1 0 0 0 1 0 0 0 1 6.272999 -18.428 11.021 1 0.5 1
9 0 1 0 0 0 1 0 0 0 1 4.772999 -7.928001 11.021 0.5 1 1
9 0 1 0 0 0 1 0 0 0 1 2.772999 7.071999 -23.479 0.5 2 0.5
9 0 1 0 0 0 1 0 0 0 1 1.772999 -6.928001 -21.479 0.5 2 0.5
9 0 1 0 0 0 1 0 0 0 1 0.2729988 -8.928001 13.521 1 1 0.5
9 0 1 0 0 0 1 0 0 0 1 -0.2270012 -15.928 -16.979 0.5 1 1
9 0 1 0 0 0 1 0 0 0 1 -1.227001 -7.928001 -21.479 0.5 2 0.5
9 0 1 0 0 0 1 0 0 0 1 0.2729988 -17.428 13.521 2 0.5 0.5
9 0 1 0 0 0 1 0 0 0 1 0.2729988 -20.428 11.521 2 0.5 0.5
9 0 1 0 0 0 1 0 0 0 1 -3.727001 -7.928001 11.521 1 1 0.5
9 0 1 0 0 0 1 0 0 0 1 -4.727001 -20.928 9.521 1 1 0.5
9 0 1 0 0 0 1 0 0 0 1 -7.227001 -5.928001 -17.979 0.5 1 1
9 0 1 0 0 0 1 0 0 0 1 -9.227001 -6.928001 -15.479 0.5 2 0.5
9 0 1 0 0 0 1 0 0 0 1 -9.227001 -7.928001 8.021 0.5 1 1
9 0 1 0 0 0 1 0 0 0 1 -10.227 -18.428 -13.979 0.5 0.5 2
9 0 1 0 0 0 1 0 0 0 1 -11.227 -10.928 -3.979 0.5 1 1
9 0 1 0 0 0 1 0 0 0 1 -11.227 -15.928 -12.479 0.5 2 0.5
9 0 1 0 0 0 1 0 0 0 1 -11.727 -17.428 -16.979 1 0.5 1
9 0 1 0 0 0 1 0 0 0 1 -13.227 -14.928 -14.979 0.5 1 1
9 0 1 0 0 0 1 0 0 0 1 12.773 -9.428001 -15.479 0.5 1.5 0.5
9 0 1 0 0 0 1 0 0 0 1 10.773 -5.428001 1.521 0.5 0.5 1.5
9 0 1 0 0 0 1 0 0 0 1 10.773 -10.428 -16.479 0.5 1.5 0.5
9 0 1 0 0 0 1 0 0 0 1 9.772999 -13.428 10.521 0.5 1.5 0.5
9 0 1 0 0 0 1 0 0 0 1 8.772999 -10.428 -17.479 0.5 1.5 0.5
9 0 1 0 0 0 1 0 0 0 1 7.772999 -4.428001 -16.479 0.5 1.5 0.5
9 0 1 0 0 0 1 0 0 0 1 6.772999 -16.428 -16.479 0.5 1.5 0.5
9 0 1 0 0 0 1 0 0 0 1 2.772999 -15.428 -19.479 1.5 0.5 0.5
9 0 1 0 0 0 1 0 0 0 1 1.772999 -12.428 -19.479 1.5 0.5 0.5
9 0 1 0 0 0 1 0 0 0 1 -0.2270012 7.571999 -24.479 0.5 1.5 0.5
9 0 1 0 0 0 1 0 0 0 1 -0.2270012 -5.428001 11.521 1.5 0.5 0.5
9 0 1 0 0 0 1 0 0 0 1 -2.227001 -3.428001 -22.479 0.5 1.5 0.5
9 0 1 0 0 0 1 0 0 0 1 -2.227001 -13.428 -20.479 0.5 1.5 0.5
9 0 1 0 0 0 1 0 0 0 1 -3.227001 -15.428 -19.479 1.5 0.5 0.5
9 0 1 0 0 0 1 0 0 0 1 -4.227001 -15.428 -18.479 0.5 1.5 0.5
9 0 1 0 0 0 1 0 0 0 1 -5.227001 -16.428 -18.479 0.5 0.5 1.5
9 0 1 0 0 0 1 0 0 0 1 -7.227001 -13.428 12.521 0.5 1.5 0.5
9 0 1 0 0 0 1 0 0 0 1 -9.227001 -9.428001 -17.479 0.5 1.5 0.5
9 0 1 0 0 0 1 0 0 0 1 -10.227 -17.428 -0.4790001 0.5 1.5 0.5
9 0 1 0 0 0 1 0 0 0 1 -10.227 -19.428 5.521 0.5 0.5 1.5
9 0 1 0 0 0 1 0 0 0 1 -11.227 -10.428 0.5209999 0.5 1.5 0.5
9 0 1 0 0 0 1 0 0 0 1 -11.227 -15.428 -1.479 0.5 1.5 0.5
9 0 1 0 0 0 1 0 0 0 1 -12.227 -14.428 -13.479 0.5 1.5 0.5
9 0 1 0 0 0 1 0 0 0 1 -15.227 -10.428 -13.479 0.5 1.5 0.5
