9 0 1 0 0 0 1 0 0 0 1 0 14.5 -4.263 6 3 5
9 0 1 0 0 0 1 0 0 0 1 0 34.5 -6.263 3 2 4
9 0 1 0 0 0 1 0 0 0 1 0 9.5 -10.263 6 3 1
9 0 1 0 0 0 1 0 0 0 1 0 0 -0.7630005 2 1.5 5.5
9 0 1 0 0 0 1 0 0 0 1 0 14 6.737 1 2.5 6
9 0 1 0 0 0 1 0 0 0 1 0 26.5 -6.263 2 6 1
9 0 1 0 0 0 1 0 0 0 1 0 9 11.237 2 2.5 1.5
9 0 1 0 0 0 1 0 0 0 1 0 4.5 -10.263 3 2 1
9 0 1 0 0 0 1 0 0 0 1 2.5 14 2.237 1.5 2.5 1.5
9 0 1 0 0 0 1 0 0 0 1 -2.5 14 2.237 1.5 2.5 1.5
9 0 1 0 0 0 1 0 0 0 1 0 12 -12.263 1 5.5 1
9 0 1 0 0 0 1 0 0 0 1 -6.5 14.5 -5.763 0.5 3 3.5
9 0 1 0 0 0 1 0 0 0 1 0 10 -8.763 7 1.5 0.5
9 0 1 0 0 0 1 0 0 0 1 6.5 14.5 -5.263 0.5 3 3
9 0 1 0 0 0 1 0 0 0 1 4.5 35.5 -6.263 1.5 1 2
9 0 1 0 0 0 1 0 0 0 1 0 26.5 -7.763 1 6 0.5
9 0 1 0 0 0 1 0 0 0 1 0 26.5 -4.763 1 6 0.5
9 0 1 0 0 0 1 0 0 0 1 0 4.5 11.237 1 2 1.5
9 0 1 0 0 0 1 0 0 0 1 0 0.5 7.737 1 1 3
9 0 1 0 0 0 1 0 0 0 1 -4.5 35.5 -6.263 1.5 1 2
9 0 1 0 0 0 1 0 0 0 1 0 11 -7.263 6 0.5 1
9 0 1 0 0 0 1 0 0 0 1 0 15 -10.263 1 2.5 1
9 0 1 0 0 0 1 0 0 0 1 0 35 -10.763 3 1.5 0.5
9 0 1 0 0 0 1 0 0 0 1 0 35 -1.763 3 1.5 0.5
9 0 1 0 0 0 1 0 0 0 1 0 17 2.237 3 0.5 1.5
9 0 1 0 0 0 1 0 0 0 1 0 1.5 -9.263 1 1 2
9 0 1 0 0 0 1 0 0 0 1 0 40.5 -6.263 2 1 1
9 0 1 0 0 0 1 0 0 0 1 1.5 14 11.237 0.5 2.5 1.5
9 0 1 0 0 0 1 0 0 0 1 -1.5 14 11.237 0.5 2.5 1.5
9 0 1 0 0 0 1 0 0 0 1 0 11 6.237 1 0.5 3.5
9 0 1 0 0 0 1 0 0 0 1 0 11.5 13.237 1 3 0.5
9 0 1 0 0 0 1 0 0 0 1 0 2 -0.2630005 1 0.5 3
9 0 1 0 0 0 1 0 0 0 1 0 -2 -0.2630005 1 0.5 3
9 0 1 0 0 0 1 0 0 0 1 0 5 -11.763 2 1.5 0.5
9 0 1 0 0 0 1 0 0 0 1 5 14 1.237 1 2.5 0.5
9 0 1 0 0 0 1 0 0 0 1 -4.5 14 1.737 0.5 2.5 1
9 0 1 0 0 0 1 0 0 0 1 7.5 14 -6.763 0.5 1.5 1.5
9 0 1 0 0 0 1 0 0 0 1 2.5 17 -10.763 1.5 0.5 1.5
9 0 1 0 0 0 1 0 0 0 1 -2.5 17 -10.763 1.5 0.5 1.5
9 0 1 0 0 0 1 0 0 0 1 -7.5 14 -6.763 0.5 1.5 1.5
9 0 1 0 0 0 1 0 0 0 1 2.5 31.5 -6.263 0.5 1 2
9 0 1 0 0 0 1 0 0 0 1 0 -0.5 -7.263 1 1 1
9 0 1 0 0 0 1 0 0 0 1 0 -1 6.737 1 0.5 2
9 0 1 0 0 0 1 0 0 0 1 0 32 -9.263 2 0.5 1
9 0 1 0 0 0 1 0 0 0 1 0 32 -3.263 2 0.5 1
9 0 1 0 0 0 1 0 0 0 1 -2.5 31.5 -6.263 0.5 1 2
9 0 1 0 0 0 1 0 0 0 1 -1.5 14 4.237 0.5 3.5 0.5
9 0 1 0 0 0 1 0 0 0 1 -2.5 10 -7.763 3.5 0.5 0.5
9 0 1 0 0 0 1 0 0 0 1 6.5 14.5 -8.763 0.5 3 0.5
9 0 1 0 0 0 1 0 0 0 1 6.5 9.5 -9.763 0.5 3 0.5
9 0 1 0 0 0 1 0 0 0 1 2 13 4.237 1 1.5 0.5
9 0 1 0 0 0 1 0 0 0 1 0 17 11.237 1 0.5 1.5
9 0 1 0 0 0 1 0 0 0 1 0 2 10.237 1 0.5 1.5
9 0 1 0 0 0 1 0 0 0 1 -6.5 9.5 -9.763 0.5 3 0.5
9 0 1 0 0 0 1 0 0 0 1 4.5 14 2.237 0.5 2.5 0.5
9 0 1 0 0 0 1 0 0 0 1 -5.5 14 1.237 0.5 2.5 0.5
9 0 1 0 0 0 1 0 0 0 1 6.5 14.5 -1.763 0.5 2 0.5
9 0 1 0 0 0 1 0 0 0 1 4 6 -10.263 1 0.5 1
9 0 1 0 0 0 1 0 0 0 1 1.5 0.5 -7.263 0.5 1 1
9 0 1 0 0 0 1 0 0 0 1 0 40.5 -7.763 1 1 0.5
9 0 1 0 0 0 1 0 0 0 1 0 40.5 -4.763 1 1 0.5
9 0 1 0 0 0 1 0 0 0 1 0 35.5 -11.763 1 1 0.5
9 0 1 0 0 0 1 0 0 0 1 0 35.5 -0.7630005 1 1 0.5
9 0 1 0 0 0 1 0 0 0 1 0 30.5 -8.763 1 1 0.5
9 0 1 0 0 0 1 0 0 0 1 0 30.5 -3.763 1 1 0.5
9 0 1 0 0 0 1 0 0 0 1 0 17 4.737 1 0.5 1
9 0 1 0 0 0 1 0 0 0 1 0 10 8.737 1 0.5 1
9 0 1 0 0 0 1 0 0 0 1 -1.5 0.5 -7.263 0.5 1 1
9 0 1 0 0 0 1 0 0 0 1 -3.5 5.5 -10.263 0.5 1 1
9 0 1 0 0 0 1 0 0 0 1 -6.5 14.5 -1.763 0.5 2 0.5
9 0 1 0 0 0 1 0 0 0 1 3.5 4 -9.763 0.5 1.5 0.5
9 0 1 0 0 0 1 0 0 0 1 1.5 31 -7.763 0.5 1.5 0.5
9 0 1 0 0 0 1 0 0 0 1 1.5 31 -4.763 0.5 1.5 0.5
9 0 1 0 0 0 1 0 0 0 1 1.5 16 4.237 0.5 1.5 0.5
9 0 1 0 0 0 1 0 0 0 1 2.5 11 3.237 1.5 0.5 0.5
9 0 1 0 0 0 1 0 0 0 1 2.5 7 -11.763 1.5 0.5 0.5
9 0 1 0 0 0 1 0 0 0 1 -1.5 31 -7.763 0.5 1.5 0.5
9 0 1 0 0 0 1 0 0 0 1 -1.5 31 -4.763 0.5 1.5 0.5
9 0 1 0 0 0 1 0 0 0 1 -2.5 13 4.237 0.5 1.5 0.5
9 0 1 0 0 0 1 0 0 0 1 -2.5 11 3.237 1.5 0.5 0.5
9 0 1 0 0 0 1 0 0 0 1 -2.5 7 -11.763 1.5 0.5 0.5
