9 0 1 0 0 0 1 0 0 0 1 0.2370005 -1.055 -0.125 1.5 6 1.5
9 0 1 0 0 0 1 0 0 0 1 0.2370005 -44.055 4.875 2.5 4 0.5
9 0 1 0 0 0 1 0 0 0 1 0.2370005 -29.555 4.875 2.5 2.5 0.5
9 0 1 0 0 0 1 0 0 0 1 -5.763 -37.555 4.875 2.5 2.5 0.5
9 0 1 0 0 0 1 0 0 0 1 5.737 -37.055 4.875 2 3 0.5
9 0 1 0 0 0 1 0 0 0 1 0.2370005 -12.055 0.375 1.5 2 1
9 0 1 0 0 0 1 0 0 0 1 0.2370005 -1.055 1.875 0.5 6 0.5
9 0 1 0 0 0 1 0 0 0 1 -1.763 1.945 0.375 0.5 3 1
9 0 1 0 0 0 1 0 0 0 1 -4.763 -33.555 4.875 1.5 1.5 0.5
9 0 1 0 0 0 1 0 0 0 1 -0.2629995 -16.055 0.875 1 2 0.5
9 0 1 0 0 0 1 0 0 0 1 -0.2629995 8.445 0.375 2 0.5 1
9 0 1 0 0 0 1 0 0 0 1 3.737 -31.555 4.875 1 1.5 0.5
9 0 1 0 0 0 1 0 0 0 1 0.2370005 -24.055 2.875 1.5 1 0.5
9 0 1 0 0 0 1 0 0 0 1 -1.763 -4.055 -0.125 0.5 3 0.5
9 0 1 0 0 0 1 0 0 0 1 -3.263 -30.555 4.875 1 1.5 0.5
9 0 1 0 0 0 1 0 0 0 1 5.237 -47.555 4.875 2.5 0.5 0.5
9 0 1 0 0 0 1 0 0 0 1 0.2370005 2.445 -2.125 0.5 2.5 0.5
9 0 1 0 0 0 1 0 0 0 1 -4.763 -47.555 4.875 2.5 0.5 0.5
9 0 1 0 0 0 1 0 0 0 1 8.237 -38.055 4.875 0.5 2 0.5
9 0 1 0 0 0 1 0 0 0 1 2.237 -0.05500031 -0.125 0.5 2 0.5
9 0 1 0 0 0 1 0 0 0 1 -0.2629995 -21.055 1.875 1 1 0.5
9 0 1 0 0 0 1 0 0 0 1 10.237 -44.555 4.875 0.5 1.5 0.5
9 0 1 0 0 0 1 0 0 0 1 5.237 -33.555 4.875 1.5 0.5 0.5
9 0 1 0 0 0 1 0 0 0 1 0.2370005 -5.555 -2.125 0.5 1.5 0.5
9 0 1 0 0 0 1 0 0 0 1 0.2370005 -15.555 1.875 0.5 1.5 0.5
9 0 1 0 0 0 1 0 0 0 1 0.2370005 9.445 -0.125 1.5 0.5 0.5
9 0 1 0 0 0 1 0 0 0 1 0.2370005 8.445 -1.125 1.5 0.5 0.5
9 0 1 0 0 0 1 0 0 0 1 -0.7629995 -5.555 1.875 0.5 1.5 0.5
9 0 1 0 0 0 1 0 0 0 1 0.2370005 -48.555 4.875 1.5 0.5 0.5
9 0 1 0 0 0 1 0 0 0 1 -8.763 -38.555 4.875 0.5 1.5 0.5
