9 0 1 0 0 0 1 0 0 0 1 0 -4 0 27.5 0.5 18.5
9 0 1 0 0 0 1 0 0 0 1 0 9 -22 17.5 13.5 0.5
9 0 1 0 0 0 1 0 0 0 1 0 9 22 17.5 13.5 0.5
9 0 1 0 0 0 1 0 0 0 1 28 0 -40 0.5 3.5 18.5
9 0 1 0 0 0 1 0 0 0 1 28 0 0 0.5 3.5 18.5
9 0 1 0 0 0 1 0 0 0 1 28 0 40 0.5 3.5 18.5
9 0 1 0 0 0 1 0 0 0 1 0 28 -40 3.5 0.5 18.5
9 0 1 0 0 0 1 0 0 0 1 0 28 40 3.5 0.5 18.5
9 0 1 0 0 0 1 0 0 0 1 -28 0 -40 0.5 3.5 18.5
9 0 1 0 0 0 1 0 0 0 1 -28 0 0 0.5 3.5 18.5
9 0 1 0 0 0 1 0 0 0 1 -28 0 40 0.5 3.5 18.5
9 0 1 0 0 0 1 0 0 0 1 0 -16 -22 4.5 11.5 0.5
9 0 1 0 0 0 1 0 0 0 1 0 -16 22 4.5 11.5 0.5
9 0 1 0 0 0 1 0 0 0 1 -21 0 -22 3.5 14.5 0.5
9 0 1 0 0 0 1 0 0 0 1 -21 0 22 3.5 14.5 0.5
9 0 1 0 0 0 1 0 0 0 1 22 0 -22 4.5 10.5 0.5
9 0 1 0 0 0 1 0 0 0 1 22 0 22 4.5 10.5 0.5
9 0 1 0 0 0 1 0 0 0 1 0 -28 -50 3.5 0.5 8.5
9 0 1 0 0 0 1 0 0 0 1 0 -28 -30 3.5 0.5 8.5
9 0 1 0 0 0 1 0 0 0 1 0 -28 30 3.5 0.5 8.5
9 0 1 0 0 0 1 0 0 0 1 0 -28 50 3.5 0.5 8.5
9 0 1 0 0 0 1 0 0 0 1 11 -19 -22 6.5 3.5 0.5
9 0 1 0 0 0 1 0 0 0 1 11 -19 22 6.5 3.5 0.5
9 0 1 0 0 0 1 0 0 0 1 -11 -19 -22 6.5 3.5 0.5
9 0 1 0 0 0 1 0 0 0 1 -11 -19 22 6.5 3.5 0.5
9 0 1 0 0 0 1 0 0 0 1 0 25 -22 7.5 2.5 0.5
9 0 1 0 0 0 1 0 0 0 1 0 25 22 7.5 2.5 0.5
9 0 1 0 0 0 1 0 0 0 1 0 -4 -20 12.5 0.5 1.5
9 0 1 0 0 0 1 0 0 0 1 0 -4 20 12.5 0.5 1.5
9 0 1 0 0 0 1 0 0 0 1 8 31.5 -40 0.5 1 18.5
9 0 1 0 0 0 1 0 0 0 1 8 31.5 40 0.5 1 18.5
9 0 1 0 0 0 1 0 0 0 1 -8 31.5 -40 0.5 1 18.5
9 0 1 0 0 0 1 0 0 0 1 -8 31.5 40 0.5 1 18.5
9 0 1 0 0 0 1 0 0 0 1 0 30.5 58 7.5 2 0.5
9 0 1 0 0 0 1 0 0 0 1 -26 0 -22 1.5 7.5 0.5
9 0 1 0 0 0 1 0 0 0 1 -26 0 22 1.5 7.5 0.5
9 0 1 0 0 0 1 0 0 0 1 19.5 -13 -22 4 2.5 0.5
9 0 1 0 0 0 1 0 0 0 1 19.5 -13 22 4 2.5 0.5
9 0 1 0 0 0 1 0 0 0 1 27 7 -40 0.5 0.5 18.5
9 0 1 0 0 0 1 0 0 0 1 27 7 40 0.5 0.5 18.5
9 0 1 0 0 0 1 0 0 0 1 27 -7 -40 0.5 0.5 18.5
9 0 1 0 0 0 1 0 0 0 1 27 -7 40 0.5 0.5 18.5
9 0 1 0 0 0 1 0 0 0 1 7 27 -40.5 0.5 0.5 18
9 0 1 0 0 0 1 0 0 0 1 7 27 40.5 0.5 0.5 18
9 0 1 0 0 0 1 0 0 0 1 -7 27 -40.5 0.5 0.5 18
9 0 1 0 0 0 1 0 0 0 1 -7 27 40.5 0.5 0.5 18
9 0 1 0 0 0 1 0 0 0 1 -27 7 -40.5 0.5 0.5 18
9 0 1 0 0 0 1 0 0 0 1 -27 7 40.5 0.5 0.5 18
9 0 1 0 0 0 1 0 0 0 1 -27 -7 -40.5 0.5 0.5 18
9 0 1 0 0 0 1 0 0 0 1 -27 -7 40.5 0.5 0.5 18
9 0 1 0 0 0 1 0 0 0 1 20 14 -22 2.5 3.5 0.5
9 0 1 0 0 0 1 0 0 0 1 20 14 22 2.5 3.5 0.5
9 0 1 0 0 0 1 0 0 0 1 28 -4 6 0.5 0.5 12.5
9 0 1 0 0 0 1 0 0 0 1 -28 -4 -6 0.5 0.5 12.5
9 0 1 0 0 0 1 0 0 0 1 8.5 -24 -22 4 1.5 0.5
9 0 1 0 0 0 1 0 0 0 1 8.5 -24 22 4 1.5 0.5
9 0 1 0 0 0 1 0 0 0 1 -7.5 -24.5 -22 3 2 0.5
9 0 1 0 0 0 1 0 0 0 1 -7.5 -24.5 22 3 2 0.5
9 0 1 0 0 0 1 0 0 0 1 -16.5 -10 -22 1 5.5 0.5
9 0 1 0 0 0 1 0 0 0 1 -16.5 -10 22 1 5.5 0.5
9 0 1 0 0 0 1 0 0 0 1 10 0 34 0.5 0.5 8.5
9 0 1 0 0 0 1 0 0 0 1 7 -27 -50 0.5 0.5 8.5
9 0 1 0 0 0 1 0 0 0 1 7 -27 -30 0.5 0.5 8.5
9 0 1 0 0 0 1 0 0 0 1 7 -27 30 0.5 0.5 8.5
9 0 1 0 0 0 1 0 0 0 1 7 -27 50 0.5 0.5 8.5
9 0 1 0 0 0 1 0 0 0 1 0 10 34 0.5 0.5 8.5
9 0 1 0 0 0 1 0 0 0 1 0 -10 34 0.5 0.5 8.5
9 0 1 0 0 0 1 0 0 0 1 -7 -27 -50 0.5 0.5 8.5
9 0 1 0 0 0 1 0 0 0 1 -7 -27 -30 0.5 0.5 8.5
9 0 1 0 0 0 1 0 0 0 1 -7 -27 30 0.5 0.5 8.5
9 0 1 0 0 0 1 0 0 0 1 -7 -27 50 0.5 0.5 8.5
9 0 1 0 0 0 1 0 0 0 1 -10 0 34 0.5 0.5 8.5
9 0 1 0 0 0 1 0 0 0 1 -19.5 16.5 -22 2 2 0.5
9 0 1 0 0 0 1 0 0 0 1 -19.5 16.5 22 2 2 0.5
9 0 1 0 0 0 1 0 0 0 1 -19.5 -16.5 -22 2 2 0.5
9 0 1 0 0 0 1 0 0 0 1 -19.5 -16.5 22 2 2 0.5
9 0 1 0 0 0 1 0 0 0 1 10 24 -22 2.5 1.5 0.5
9 0 1 0 0 0 1 0 0 0 1 10 24 22 2.5 1.5 0.5
9 0 1 0 0 0 1 0 0 0 1 0 32 -58 7.5 0.5 0.5
9 0 1 0 0 0 1 0 0 0 1 0 32 -22 7.5 0.5 0.5
9 0 1 0 0 0 1 0 0 0 1 0 32 22 7.5 0.5 0.5
9 0 1 0 0 0 1 0 0 0 1 -10 24 -22 2.5 1.5 0.5
9 0 1 0 0 0 1 0 0 0 1 -10 24 22 2.5 1.5 0.5
9 0 1 0 0 0 1 0 0 0 1 27 0 -22 0.5 6.5 0.5
9 0 1 0 0 0 1 0 0 0 1 27 0 22 0.5 6.5 0.5
9 0 1 0 0 0 1 0 0 0 1 19.5 -17 -22 2 1.5 0.5
9 0 1 0 0 0 1 0 0 0 1 19.5 -17 22 2 1.5 0.5
9 0 1 0 0 0 1 0 0 0 1 16.5 -7.5 -22 1 3 0.5
9 0 1 0 0 0 1 0 0 0 1 16.5 -7.5 22 1 3 0.5
9 0 1 0 0 0 1 0 0 0 1 0 32 -40 1.5 0.5 1.5
9 0 1 0 0 0 1 0 0 0 1 0 32 40 1.5 0.5 1.5
9 0 1 0 0 0 1 0 0 0 1 26 10 -45.5 0.5 0.5 4
9 0 1 0 0 0 1 0 0 0 1 26 -10 -38.5 0.5 0.5 4
9 0 1 0 0 0 1 0 0 0 1 23.5 12.5 -22 1 2 0.5
9 0 1 0 0 0 1 0 0 0 1 23.5 12.5 22 1 2 0.5
9 0 1 0 0 0 1 0 0 0 1 10 26 -38.5 0.5 0.5 4
9 0 1 0 0 0 1 0 0 0 1 10 -26 -45.5 0.5 0.5 4
9 0 1 0 0 0 1 0 0 0 1 -10 26 -45.5 0.5 0.5 4
9 0 1 0 0 0 1 0 0 0 1 -10 -26 -38.5 0.5 0.5 4
9 0 1 0 0 0 1 0 0 0 1 -12.5 -23.5 -22 2 1 0.5
9 0 1 0 0 0 1 0 0 0 1 -12.5 -23.5 22 2 1 0.5
9 0 1 0 0 0 1 0 0 0 1 -26 10 -38.5 0.5 0.5 4
9 0 1 0 0 0 1 0 0 0 1 -26 -10 -45.5 0.5 0.5 4
9 0 1 0 0 0 1 0 0 0 1 26 10 42 0.5 0.5 3.5
9 0 1 0 0 0 1 0 0 0 1 26 -10 38 0.5 0.5 3.5
9 0 1 0 0 0 1 0 0 0 1 10 26 38 0.5 0.5 3.5
9 0 1 0 0 0 1 0 0 0 1 10 -26 42 0.5 0.5 3.5
9 0 1 0 0 0 1 0 0 0 1 -10 26 42 0.5 0.5 3.5
9 0 1 0 0 0 1 0 0 0 1 -10 -26 38 0.5 0.5 3.5
9 0 1 0 0 0 1 0 0 0 1 -26 10 38 0.5 0.5 3.5
9 0 1 0 0 0 1 0 0 0 1 -26 -10 42 0.5 0.5 3.5
9 0 1 0 0 0 1 0 0 0 1 26 10 51.5 0.5 0.5 3
9 0 1 0 0 0 1 0 0 0 1 26 -10 28.5 0.5 0.5 3
9 0 1 0 0 0 1 0 0 0 1 19 14 31.5 0.5 0.5 3
9 0 1 0 0 0 1 0 0 0 1 19 14 48.5 0.5 0.5 3
9 0 1 0 0 0 1 0 0 0 1 19 -14 35.5 0.5 0.5 3
9 0 1 0 0 0 1 0 0 0 1 19 -14 52.5 0.5 0.5 3
9 0 1 0 0 0 1 0 0 0 1 19 18.5 -22 1.5 1 0.5
9 0 1 0 0 0 1 0 0 0 1 19 18.5 22 1.5 1 0.5
9 0 1 0 0 0 1 0 0 0 1 14 19 35.5 0.5 0.5 3
9 0 1 0 0 0 1 0 0 0 1 14 19 52.5 0.5 0.5 3
9 0 1 0 0 0 1 0 0 0 1 14 -19 31.5 0.5 0.5 3
9 0 1 0 0 0 1 0 0 0 1 14 -19 48.5 0.5 0.5 3
9 0 1 0 0 0 1 0 0 0 1 10 26 28.5 0.5 0.5 3
9 0 1 0 0 0 1 0 0 0 1 10 -26 51.5 0.5 0.5 3
9 0 1 0 0 0 1 0 0 0 1 7.5 -26 -22 3 0.5 0.5
9 0 1 0 0 0 1 0 0 0 1 7.5 -26 22 3 0.5 0.5
9 0 1 0 0 0 1 0 0 0 1 -10 26 51.5 0.5 0.5 3
9 0 1 0 0 0 1 0 0 0 1 -10 -26 28.5 0.5 0.5 3
9 0 1 0 0 0 1 0 0 0 1 -14 19 31.5 0.5 0.5 3
9 0 1 0 0 0 1 0 0 0 1 -14 19 48.5 0.5 0.5 3
9 0 1 0 0 0 1 0 0 0 1 -14 -19 35.5 0.5 0.5 3
9 0 1 0 0 0 1 0 0 0 1 -14 -19 52.5 0.5 0.5 3
9 0 1 0 0 0 1 0 0 0 1 -19 14 35.5 0.5 0.5 3
9 0 1 0 0 0 1 0 0 0 1 -19 14 52.5 0.5 0.5 3
9 0 1 0 0 0 1 0 0 0 1 -19 -14 31.5 0.5 0.5 3
9 0 1 0 0 0 1 0 0 0 1 -19 -14 48.5 0.5 0.5 3
9 0 1 0 0 0 1 0 0 0 1 -26 10 28.5 0.5 0.5 3
9 0 1 0 0 0 1 0 0 0 1 -25.5 9 -22 1 1.5 0.5
9 0 1 0 0 0 1 0 0 0 1 -25.5 9 22 1 1.5 0.5
9 0 1 0 0 0 1 0 0 0 1 -25.5 -9 -22 1 1.5 0.5
9 0 1 0 0 0 1 0 0 0 1 -25.5 -9 22 1 1.5 0.5
9 0 1 0 0 0 1 0 0 0 1 -26 -10 51.5 0.5 0.5 3
9 0 1 0 0 0 1 0 0 0 1 10 26 -24 0.5 0.5 2.5
9 0 1 0 0 0 1 0 0 0 1 6 28 58 2.5 0.5 0.5
9 0 1 0 0 0 1 0 0 0 1 -6 28 58 2.5 0.5 0.5
9 0 1 0 0 0 1 0 0 0 1 26 -10 -24.5 0.5 0.5 2
9 0 1 0 0 0 1 0 0 0 1 24.5 -11.5 -22 1 1 0.5
9 0 1 0 0 0 1 0 0 0 1 24.5 -11.5 22 1 1 0.5
9 0 1 0 0 0 1 0 0 0 1 18.5 -19.5 -22 1 1 0.5
9 0 1 0 0 0 1 0 0 0 1 18.5 -19.5 22 1 1 0.5
9 0 1 0 0 0 1 0 0 0 1 13.5 23.5 -22 1 1 0.5
9 0 1 0 0 0 1 0 0 0 1 13.5 23.5 22 1 1 0.5
9 0 1 0 0 0 1 0 0 0 1 13.5 -23.5 -22 1 1 0.5
9 0 1 0 0 0 1 0 0 0 1 13.5 -23.5 22 1 1 0.5
9 0 1 0 0 0 1 0 0 0 1 -10 -26 -24.5 0.5 0.5 2
9 0 1 0 0 0 1 0 0 0 1 -13.5 23.5 -22 1 1 0.5
9 0 1 0 0 0 1 0 0 0 1 -13.5 23.5 22 1 1 0.5
9 0 1 0 0 0 1 0 0 0 1 -18.5 19.5 -22 1 1 0.5
9 0 1 0 0 0 1 0 0 0 1 -18.5 19.5 22 1 1 0.5
9 0 1 0 0 0 1 0 0 0 1 -18.5 -19.5 -22 1 1 0.5
9 0 1 0 0 0 1 0 0 0 1 -18.5 -19.5 22 1 1 0.5
9 0 1 0 0 0 1 0 0 0 1 -26 10 -24.5 0.5 0.5 2
9 0 1 0 0 0 1 0 0 0 1 26 10 -32 0.5 0.5 1.5
9 0 1 0 0 0 1 0 0 0 1 26 10 30 0.5 0.5 1.5
9 0 1 0 0 0 1 0 0 0 1 26 -10 -52 0.5 0.5 1.5
9 0 1 0 0 0 1 0 0 0 1 26 -10 50 0.5 0.5 1.5
9 0 1 0 0 0 1 0 0 0 1 10 26 -52 0.5 0.5 1.5
9 0 1 0 0 0 1 0 0 0 1 10 26 50 0.5 0.5 1.5
9 0 1 0 0 0 1 0 0 0 1 10 -26 -32 0.5 0.5 1.5
9 0 1 0 0 0 1 0 0 0 1 10 -26 24 0.5 0.5 1.5
9 0 1 0 0 0 1 0 0 0 1 10 -26 30 0.5 0.5 1.5
9 0 1 0 0 0 1 0 0 0 1 9 26 22 1.5 0.5 0.5
9 0 1 0 0 0 1 0 0 0 1 -10 26 -32 0.5 0.5 1.5
9 0 1 0 0 0 1 0 0 0 1 -9 26 -22 1.5 0.5 0.5
9 0 1 0 0 0 1 0 0 0 1 -9 26 22 1.5 0.5 0.5
9 0 1 0 0 0 1 0 0 0 1 -10 26 30 0.5 0.5 1.5
9 0 1 0 0 0 1 0 0 0 1 -10 -26 -52 0.5 0.5 1.5
9 0 1 0 0 0 1 0 0 0 1 -10 -26 50 0.5 0.5 1.5
9 0 1 0 0 0 1 0 0 0 1 -22 16 -22 0.5 1.5 0.5
9 0 1 0 0 0 1 0 0 0 1 -22 16 22 0.5 1.5 0.5
9 0 1 0 0 0 1 0 0 0 1 -22 -16 -22 0.5 1.5 0.5
9 0 1 0 0 0 1 0 0 0 1 -22 -16 22 0.5 1.5 0.5
9 0 1 0 0 0 1 0 0 0 1 -26 10 -52 0.5 0.5 1.5
9 0 1 0 0 0 1 0 0 0 1 -26 10 50 0.5 0.5 1.5
9 0 1 0 0 0 1 0 0 0 1 -26 -10 -32 0.5 0.5 1.5
9 0 1 0 0 0 1 0 0 0 1 -26 -10 24 0.5 0.5 1.5
9 0 1 0 0 0 1 0 0 0 1 -26 -10 30 0.5 0.5 1.5
