9 0 1 0 0 0 1 0 0 0 1 0 14 -7.5 4.5 6.5 1
9 0 1 0 0 0 1 0 0 0 1 5.5 26.5 -7.5 2 5 1
9 0 1 0 0 0 1 0 0 0 1 -4.5 24.5 -7.5 2 4 1
9 0 1 0 0 0 1 0 0 0 1 -0.5 -9 -7.5 3 1.5 1
9 0 1 0 0 0 1 0 0 0 1 -8.5 -0.5 -7.5 1 4 1
9 0 1 0 0 0 1 0 0 0 1 9 0 -7.5 1.5 2.5 1
9 0 1 0 0 0 1 0 0 0 1 8.5 30 -7.5 1 1.5 1
9 0 1 0 0 0 1 0 0 0 1 8.5 -3.5 -8 1 1 1.5
9 0 1 0 0 0 1 0 0 0 1 5.5 20 -7.5 1 1.5 1
9 0 1 0 0 0 1 0 0 0 1 3 23.5 -7.5 0.5 3 1
9 0 1 0 0 0 1 0 0 0 1 -7 25.5 -7.5 0.5 3 1
9 0 1 0 0 0 1 0 0 0 1 2 8.5 -9 2.5 1 0.5
9 0 1 0 0 0 1 0 0 0 1 0.5 -8 -9 5 0.5 0.5
9 0 1 0 0 0 1 0 0 0 1 -5 18 -7.5 0.5 2.5 1
9 0 1 0 0 0 1 0 0 0 1 -8 -0.5 -9 0.5 5 0.5
9 0 1 0 0 0 1 0 0 0 1 -10 0 -7.5 0.5 2.5 1
9 0 1 0 0 0 1 0 0 0 1 9 -1 -9 1.5 1.5 0.5
9 0 1 0 0 0 1 0 0 0 1 8.5 4 -8.5 1 0.5 2
9 0 1 0 0 0 1 0 0 0 1 6.5 6.5 -7.5 1 1 1
9 0 1 0 0 0 1 0 0 0 1 6.5 -6.5 -7.5 1 1 1
9 0 1 0 0 0 1 0 0 0 1 3.5 -8.5 -7.5 1 1 1
9 0 1 0 0 0 1 0 0 0 1 -6.5 -6.5 -7.5 1 1 1
9 0 1 0 0 0 1 0 0 0 1 8 27 -7.5 0.5 1.5 1
9 0 1 0 0 0 1 0 0 0 1 7.5 5 -8 1 0.5 1.5
9 0 1 0 0 0 1 0 0 0 1 5 17 -7.5 0.5 1.5 1
9 0 1 0 0 0 1 0 0 0 1 -1 -9.5 -9 1.5 1 0.5
9 0 1 0 0 0 1 0 0 0 1 -5 7.5 -8 0.5 1 1.5
9 0 1 0 0 0 1 0 0 0 1 -6 6.5 -8 0.5 1 1.5
9 0 1 0 0 0 1 0 0 0 1 -8 27 -7.5 0.5 1.5 1
9 0 1 0 0 0 1 0 0 0 1 -9.5 1 -9 1 1.5 0.5
9 0 1 0 0 0 1 0 0 0 1 8.5 3 -7.5 1 0.5 1
9 0 1 0 0 0 1 0 0 0 1 7.5 -5 -7.5 1 0.5 1
9 0 1 0 0 0 1 0 0 0 1 5 7.5 -7.5 0.5 1 1
9 0 1 0 0 0 1 0 0 0 1 5 -7.5 -7.5 0.5 1 1
9 0 1 0 0 0 1 0 0 0 1 4.5 32 -7.5 1 0.5 1
9 0 1 0 0 0 1 0 0 0 1 -2.5 8 -9 2 0.5 0.5
9 0 1 0 0 0 1 0 0 0 1 -4 -8.5 -7.5 0.5 1 1
9 0 1 0 0 0 1 0 0 0 1 -5 -7.5 -7.5 0.5 1 1
9 0 1 0 0 0 1 0 0 0 1 -6 19.5 -7.5 0.5 1 1
9 0 1 0 0 0 1 0 0 0 1 -7 5.5 -7.5 0.5 1 1
9 0 1 0 0 0 1 0 0 0 1 -8 4.5 -7.5 0.5 1 1
9 0 1 0 0 0 1 0 0 0 1 -7.5 -5 -7.5 1 0.5 1
9 0 1 0 0 0 1 0 0 0 1 8 2 -9 0.5 1.5 0.5
