9 0 1 0 0 0 1 0 0 0 1 -0.1450005 5.007 15.688 5.5 7.5 1.5
9 0 1 0 0 0 1 0 0 0 1 -0.6450005 2.507 18.188 4 4 1
9 0 1 0 0 0 1 0 0 0 1 6.355 3.507 14.688 1 7 1.5
9 0 1 0 0 0 1 0 0 0 1 0.3549995 14.507 15.188 5 2 1
9 0 1 0 0 0 1 0 0 0 1 -7.145 6.007 14.188 1.5 6.5 1
9 0 1 0 0 0 1 0 0 0 1 -0.1450005 -2.493 13.688 5.5 3 0.5
9 0 1 0 0 0 1 0 0 0 1 -9.145 7.007 12.688 1.5 8.5 0.5
9 0 1 0 0 0 1 0 0 0 1 0.3549995 -3.493 16.188 3 1 2
9 0 1 0 0 0 1 0 0 0 1 -0.1450005 -7.993 2.688 4.5 0.5 2.5
9 0 1 0 0 0 1 0 0 0 1 9.855 7.007 12.188 0.5 8.5 1
9 0 1 0 0 0 1 0 0 0 1 8.855 6.507 13.188 0.5 9 1
9 0 1 0 0 0 1 0 0 0 1 0.3549995 8.507 17.688 4 2 0.5
9 0 1 0 0 0 1 0 0 0 1 7.855 6.007 14.188 0.5 6.5 1
9 0 1 0 0 0 1 0 0 0 1 -6.645 2.507 15.688 1 6 0.5
9 0 1 0 0 0 1 0 0 0 1 10.855 5.007 11.188 0.5 4.5 1
9 0 1 0 0 0 1 0 0 0 1 -6.645 -1.993 13.688 1 1.5 1.5
9 0 1 0 0 0 1 0 0 0 1 6.355 -1.493 12.688 2 2 0.5
9 0 1 0 0 0 1 0 0 0 1 4.355 2.507 17.688 1 4 0.5
9 0 1 0 0 0 1 0 0 0 1 -9.645 3.507 11.688 1 4 0.5
9 0 1 0 0 0 1 0 0 0 1 0.8549995 -6.993 9.688 2.5 0.5 1.5
9 0 1 0 0 0 1 0 0 0 1 -7.145 15.007 13.688 1.5 2.5 0.5
9 0 1 0 0 0 1 0 0 0 1 -9.145 8.007 13.688 0.5 7.5 0.5
9 0 1 0 0 0 1 0 0 0 1 -0.1450005 2.507 19.688 3.5 1 0.5
9 0 1 0 0 0 1 0 0 0 1 -0.1450005 -5.993 13.188 3.5 0.5 1
9 0 1 0 0 0 1 0 0 0 1 5.855 4.007 16.688 0.5 6.5 0.5
9 0 1 0 0 0 1 0 0 0 1 0.3549995 6.507 -15.312 3 1 0.5
9 0 1 0 0 0 1 0 0 0 1 0.3549995 -1.993 18.188 3 0.5 1
9 0 1 0 0 0 1 0 0 0 1 0.3549995 -4.993 15.188 3 0.5 1
9 0 1 0 0 0 1 0 0 0 1 0.3549995 17.007 14.688 6 0.5 0.5
9 0 1 0 0 0 1 0 0 0 1 -6.145 3.007 16.688 0.5 5.5 0.5
9 0 1 0 0 0 1 0 0 0 1 7.355 15.007 13.688 1 2.5 0.5
9 0 1 0 0 0 1 0 0 0 1 -4.645 -2.993 12.688 1 2.5 0.5
9 0 1 0 0 0 1 0 0 0 1 -11.145 6.507 10.688 0.5 5 0.5
9 0 1 0 0 0 1 0 0 0 1 -0.1450005 13.007 16.688 4.5 0.5 0.5
9 0 1 0 0 0 1 0 0 0 1 -5.145 5.007 13.688 0.5 4.5 0.5
9 0 1 0 0 0 1 0 0 0 1 -4.145 -3.993 14.688 1.5 1.5 0.5
9 0 1 0 0 0 1 0 0 0 1 8.855 -0.493 11.188 0.5 2 1
9 0 1 0 0 0 1 0 0 0 1 -5.145 2.507 17.688 0.5 4 0.5
9 0 1 0 0 0 1 0 0 0 1 -3.645 -6.993 8.188 2 0.5 1
9 0 1 0 0 0 1 0 0 0 1 -10.145 11.507 11.688 0.5 4 0.5
9 0 1 0 0 0 1 0 0 0 1 -0.1450005 7.007 18.688 3.5 0.5 0.5
9 0 1 0 0 0 1 0 0 0 1 5.855 13.507 14.688 0.5 3 0.5
9 0 1 0 0 0 1 0 0 0 1 6.355 -3.993 13.688 1 0.5 1.5
9 0 1 0 0 0 1 0 0 0 1 4.355 2.007 13.688 1 1.5 0.5
9 0 1 0 0 0 1 0 0 0 1 3.855 2.507 18.688 0.5 3 0.5
9 0 1 0 0 0 1 0 0 0 1 4.355 -3.993 14.688 1 1.5 0.5
9 0 1 0 0 0 1 0 0 0 1 3.355 5.007 -14.312 1 1.5 0.5
9 0 1 0 0 0 1 0 0 0 1 -3.645 5.007 -14.312 1 1.5 0.5
9 0 1 0 0 0 1 0 0 0 1 -5.645 14.007 14.688 1 1.5 0.5
9 0 1 0 0 0 1 0 0 0 1 -8.145 -2.493 12.688 0.5 1 1.5
9 0 1 0 0 0 1 0 0 0 1 9.855 1.007 10.688 0.5 2.5 0.5
9 0 1 0 0 0 1 0 0 0 1 7.855 3.007 12.688 0.5 2.5 0.5
9 0 1 0 0 0 1 0 0 0 1 7.855 -0.993 11.688 0.5 2.5 0.5
9 0 1 0 0 0 1 0 0 0 1 3.855 -2.993 12.688 0.5 2.5 0.5
9 0 1 0 0 0 1 0 0 0 1 -0.1450005 7.007 -16.312 2.5 0.5 0.5
9 0 1 0 0 0 1 0 0 0 1 -10.145 2.007 10.688 0.5 2.5 0.5
9 0 1 0 0 0 1 0 0 0 1 12.855 0.507 5.188 0.5 1 1
9 0 1 0 0 0 1 0 0 0 1 11.855 8.507 10.188 0.5 1 1
9 0 1 0 0 0 1 0 0 0 1 9.855 10.507 13.688 0.5 2 0.5
9 0 1 0 0 0 1 0 0 0 1 7.855 -3.993 -1.812 0.5 0.5 2
9 0 1 0 0 0 1 0 0 0 1 6.855 11.507 14.188 0.5 1 1
9 0 1 0 0 0 1 0 0 0 1 4.355 -6.993 8.188 1 0.5 1
9 0 1 0 0 0 1 0 0 0 1 3.355 -7.993 6.188 1 0.5 1
9 0 1 0 0 0 1 0 0 0 1 -3.645 1.507 13.688 1 1 0.5
9 0 1 0 0 0 1 0 0 0 1 -3.645 -4.493 -7.312 1 1 0.5
9 0 1 0 0 0 1 0 0 0 1 -3.645 -7.993 6.188 1 0.5 1
9 0 1 0 0 0 1 0 0 0 1 -6.145 10.507 15.688 0.5 2 0.5
9 0 1 0 0 0 1 0 0 0 1 -6.645 0.507 12.688 1 1 0.5
9 0 1 0 0 0 1 0 0 0 1 -8.645 16.507 12.688 1 1 0.5
9 0 1 0 0 0 1 0 0 0 1 -9.145 -0.493 10.688 0.5 2 0.5
9 0 1 0 0 0 1 0 0 0 1 10.855 10.007 11.688 0.5 0.5 1.5
9 0 1 0 0 0 1 0 0 0 1 10.855 2.007 12.688 0.5 1.5 0.5
9 0 1 0 0 0 1 0 0 0 1 8.855 3.007 11.688 0.5 1.5 0.5
9 0 1 0 0 0 1 0 0 0 1 7.855 -1.993 13.688 0.5 1.5 0.5
9 0 1 0 0 0 1 0 0 0 1 6.855 -0.993 16.688 0.5 1.5 0.5
9 0 1 0 0 0 1 0 0 0 1 2.855 14.007 16.688 1.5 0.5 0.5
9 0 1 0 0 0 1 0 0 0 1 2.855 11.007 17.688 1.5 0.5 0.5
9 0 1 0 0 0 1 0 0 0 1 -0.1450005 -7.993 -0.3120003 1.5 0.5 0.5
9 0 1 0 0 0 1 0 0 0 1 -3.145 -2.993 16.688 0.5 0.5 1.5
9 0 1 0 0 0 1 0 0 0 1 -3.145 14.007 16.688 1.5 0.5 0.5
9 0 1 0 0 0 1 0 0 0 1 -6.145 -3.993 13.688 0.5 0.5 1.5
9 0 1 0 0 0 1 0 0 0 1 -7.145 -2.993 11.688 0.5 1.5 0.5
9 0 1 0 0 0 1 0 0 0 1 -8.145 0.006999969 11.688 0.5 1.5 0.5
9 0 1 0 0 0 1 0 0 0 1 -11.145 3.007 9.688 0.5 1.5 0.5
9 0 1 0 0 0 1 0 0 0 1 -13.145 2.007 5.688 0.5 1.5 0.5
