9 0 1 0 0 0 1 0 0 0 1 0.04299927 6.98 14.6 5 6 0.5
9 0 1 0 0 0 1 0 0 0 1 14.543 5.98 0.1000004 0.5 3 5
9 0 1 0 0 0 1 0 0 0 1 -14.457 5.48 0.1000004 0.5 1.5 6
9 0 1 0 0 0 1 0 0 0 1 -13.457 7.98 7.1 0.5 5 1
9 0 1 0 0 0 1 0 0 0 1 13.543 9.48 -6.9 0.5 4.5 1
9 0 1 0 0 0 1 0 0 0 1 12.543 10.48 -8.9 0.5 4.5 1
9 0 1 0 0 0 1 0 0 0 1 -13.457 9.48 -6.9 0.5 4.5 1
9 0 1 0 0 0 1 0 0 0 1 13.543 7.98 7.1 0.5 4 1
9 0 1 0 0 0 1 0 0 0 1 7.042999 6.98 13.6 1 4 0.5
9 0 1 0 0 0 1 0 0 0 1 8.542999 7.48 12.6 0.5 7.5 0.5
9 0 1 0 0 0 1 0 0 0 1 -6.457001 7.48 13.6 0.5 7.5 0.5
9 0 1 0 0 0 1 0 0 0 1 -8.457001 7.48 12.6 0.5 7.5 0.5
9 0 1 0 0 0 1 0 0 0 1 12.543 8.48 8.6 0.5 6.5 0.5
9 0 1 0 0 0 1 0 0 0 1 -12.457 8.48 8.6 0.5 6.5 0.5
9 0 1 0 0 0 1 0 0 0 1 14.543 1.48 1.1 0.5 1.5 2
9 0 1 0 0 0 1 0 0 0 1 -14.457 8.98 -4.4 0.5 2 1.5
9 0 1 0 0 0 1 0 0 0 1 0.04299927 7.48 15.6 1 2.5 0.5
9 0 1 0 0 0 1 0 0 0 1 -10.457 7.98 11.6 0.5 5 0.5
9 0 1 0 0 0 1 0 0 0 1 -12.457 9.98 -9.4 0.5 5 0.5
9 0 1 0 0 0 1 0 0 0 1 -14.457 7.98 3.6 0.5 1 2.5
9 0 1 0 0 0 1 0 0 0 1 14.543 9.48 -5.4 0.5 4.5 0.5
9 0 1 0 0 0 1 0 0 0 1 10.543 7.48 11.6 0.5 4.5 0.5
9 0 1 0 0 0 1 0 0 0 1 -15.457 5.48 0.6000004 0.5 1.5 1.5
9 0 1 0 0 0 1 0 0 0 1 15.543 4.98 0.1000004 0.5 2 1
9 0 1 0 0 0 1 0 0 0 1 14.543 9.48 -1.4 0.5 0.5 3.5
9 0 1 0 0 0 1 0 0 0 1 0.5429993 -3.52 -12.4 3.5 0.5 0.5
9 0 1 0 0 0 1 0 0 0 1 -0.4570007 13.48 14.6 3.5 0.5 0.5
9 0 1 0 0 0 1 0 0 0 1 -7.457001 7.48 13.6 0.5 3.5 0.5
9 0 1 0 0 0 1 0 0 0 1 11.543 6.98 10.6 0.5 3 0.5
9 0 1 0 0 0 1 0 0 0 1 5.542999 6.98 14.6 0.5 3 0.5
9 0 1 0 0 0 1 0 0 0 1 0.04299927 -7.52 0.6000004 1 0.5 1.5
9 0 1 0 0 0 1 0 0 0 1 0.04299927 0.4799995 14.6 3 0.5 0.5
9 0 1 0 0 0 1 0 0 0 1 -5.457001 6.98 14.6 0.5 3 0.5
9 0 1 0 0 0 1 0 0 0 1 -11.457 6.98 10.6 0.5 3 0.5
9 0 1 0 0 0 1 0 0 0 1 -12.457 13.98 -8.4 0.5 3 0.5
9 0 1 0 0 0 1 0 0 0 1 -12.457 7.98 9.6 0.5 3 0.5
9 0 1 0 0 0 1 0 0 0 1 -14.457 2.98 -3.4 0.5 1 1.5
9 0 1 0 0 0 1 0 0 0 1 -14.457 2.98 3.6 0.5 1 1.5
9 0 1 0 0 0 1 0 0 0 1 14.543 6.48 5.6 0.5 2.5 0.5
9 0 1 0 0 0 1 0 0 0 1 12.543 7.48 9.6 0.5 2.5 0.5
9 0 1 0 0 0 1 0 0 0 1 11.543 13.48 9.6 0.5 2.5 0.5
9 0 1 0 0 0 1 0 0 0 1 11.543 2.48 9.6 0.5 2.5 0.5
9 0 1 0 0 0 1 0 0 0 1 9.542999 3.48 11.6 0.5 2.5 0.5
9 0 1 0 0 0 1 0 0 0 1 -9.457001 3.48 11.6 0.5 2.5 0.5
9 0 1 0 0 0 1 0 0 0 1 13.543 2.98 -5.9 0.5 1 1
9 0 1 0 0 0 1 0 0 0 1 13.543 -0.02000046 -3.9 0.5 1 1
9 0 1 0 0 0 1 0 0 0 1 11.543 14.98 -10.4 0.5 2 0.5
9 0 1 0 0 0 1 0 0 0 1 10.543 1.98 10.6 0.5 2 0.5
9 0 1 0 0 0 1 0 0 0 1 9.542999 10.98 11.6 0.5 2 0.5
9 0 1 0 0 0 1 0 0 0 1 7.542999 1.98 12.6 0.5 2 0.5
9 0 1 0 0 0 1 0 0 0 1 6.542999 12.98 13.6 0.5 2 0.5
9 0 1 0 0 0 1 0 0 0 1 6.042999 1.98 13.6 1 1 0.5
9 0 1 0 0 0 1 0 0 0 1 0.04299927 -3.52 8.6 2 0.5 0.5
9 0 1 0 0 0 1 0 0 0 1 -4.957001 -1.02 -12.4 1 1 0.5
9 0 1 0 0 0 1 0 0 0 1 -7.457001 1.98 12.6 0.5 2 0.5
9 0 1 0 0 0 1 0 0 0 1 -10.457 1.98 10.6 0.5 2 0.5
9 0 1 0 0 0 1 0 0 0 1 -11.457 1.98 9.6 0.5 2 0.5
9 0 1 0 0 0 1 0 0 0 1 -13.457 -0.02000046 -3.9 0.5 1 1
9 0 1 0 0 0 1 0 0 0 1 -14.457 12.98 -5.4 0.5 2 0.5
9 0 1 0 0 0 1 0 0 0 1 14.543 -0.5200005 0.6000004 0.5 0.5 1.5
9 0 1 0 0 0 1 0 0 0 1 13.543 2.48 6.6 0.5 1.5 0.5
9 0 1 0 0 0 1 0 0 0 1 12.543 4.48 -8.4 0.5 1.5 0.5
9 0 1 0 0 0 1 0 0 0 1 4.542999 -1.52 -12.4 0.5 1.5 0.5
9 0 1 0 0 0 1 0 0 0 1 -5.457001 1.48 13.6 0.5 1.5 0.5
9 0 1 0 0 0 1 0 0 0 1 -11.457 15.48 -10.4 0.5 1.5 0.5
9 0 1 0 0 0 1 0 0 0 1 -13.457 3.48 -6.4 0.5 1.5 0.5
