9 0 1 0 0 0 1 0 0 0 1 1.907349E-06 -14.5 -7.999998 13.5 13 0.5
9 0 1 0 0 0 1 0 0 0 1 1.907349E-06 -14.5 8.000002 13.5 13 0.5
9 0 1 0 0 0 1 0 0 0 1 1.907349E-06 -38 1.907349E-06 3.5 4.5 2.5
9 0 1 0 0 0 1 0 0 0 1 0.5000019 -29 8.000002 12 1.5 0.5
9 0 1 0 0 0 1 0 0 0 1 -0.4999981 -29 -7.999998 12 1.5 0.5
9 0 1 0 0 0 1 0 0 0 1 1.907349E-06 -38 -2.999998 2.5 4.5 0.5
9 0 1 0 0 0 1 0 0 0 1 1.907349E-06 -38 3.000002 2.5 4.5 0.5
9 0 1 0 0 0 1 0 0 0 1 14.5 -9 -7.999998 1 7.5 0.5
9 0 1 0 0 0 1 0 0 0 1 14.5 -9 8.000002 1 7.5 0.5
9 0 1 0 0 0 1 0 0 0 1 -14.5 -9 -7.999998 1 7.5 0.5
9 0 1 0 0 0 1 0 0 0 1 -14.5 -9 8.000002 1 7.5 0.5
9 0 1 0 0 0 1 0 0 0 1 16 -6 -7.999998 0.5 4.5 0.5
9 0 1 0 0 0 1 0 0 0 1 16 -6 8.000002 0.5 4.5 0.5
9 0 1 0 0 0 1 0 0 0 1 4.000002 -38 1.907349E-06 0.5 4.5 0.5
9 0 1 0 0 0 1 0 0 0 1 1.907349E-06 -38 -3.999998 0.5 4.5 0.5
9 0 1 0 0 0 1 0 0 0 1 1.907349E-06 -38 4.000002 0.5 4.5 0.5
9 0 1 0 0 0 1 0 0 0 1 -3.999998 -38 1.907349E-06 0.5 4.5 0.5
9 0 1 0 0 0 1 0 0 0 1 -16 -6 -7.999998 0.5 4.5 0.5
9 0 1 0 0 0 1 0 0 0 1 -16 -6 8.000002 0.5 4.5 0.5
9 0 1 0 0 0 1 0 0 0 1 14 -19 -7.999998 0.5 2.5 0.5
9 0 1 0 0 0 1 0 0 0 1 14 -19 8.000002 0.5 2.5 0.5
9 0 1 0 0 0 1 0 0 0 1 -14 -19 -7.999998 0.5 2.5 0.5
9 0 1 0 0 0 1 0 0 0 1 -14 -19 8.000002 0.5 2.5 0.5
9 0 1 0 0 0 1 0 0 0 1 17 -3 -7.999998 0.5 1.5 0.5
9 0 1 0 0 0 1 0 0 0 1 17 -3 8.000002 0.5 1.5 0.5
9 0 1 0 0 0 1 0 0 0 1 -17 -3 -7.999998 0.5 1.5 0.5
9 0 1 0 0 0 1 0 0 0 1 -17 -3 8.000002 0.5 1.5 0.5
