9 0 1 0 0 0 1 0 0 0 1 -0.4490013 -23.249 -3.572 9 4 6.5
9 0 1 0 0 0 1 0 0 0 1 0.05099869 -16.249 0.9280005 7.5 3 5
9 0 1 0 0 0 1 0 0 0 1 0.05099869 -24.749 5.428 6.5 5.5 2.5
9 0 1 0 0 0 1 0 0 0 1 -1.449001 -21.749 -12.572 6 3.5 2.5
9 0 1 0 0 0 1 0 0 0 1 -0.4490013 -28.749 -2.572 5 1.5 5.5
9 0 1 0 0 0 1 0 0 0 1 10.051 -23.749 -4.572 1.5 3.5 3.5
9 0 1 0 0 0 1 0 0 0 1 -10.949 -24.749 -2.572 1.5 3.5 3.5
9 0 1 0 0 0 1 0 0 0 1 0.05099869 -21.249 -17.072 4.5 2 2
9 0 1 0 0 0 1 0 0 0 1 0.05099869 -16.749 -6.072 3.5 2.5 2
9 0 1 0 0 0 1 0 0 0 1 0.05099869 -24.749 8.928 2.5 6.5 1
9 0 1 0 0 0 1 0 0 0 1 6.550999 -21.749 -12.072 2 3.5 2
9 0 1 0 0 0 1 0 0 0 1 -7.949001 -10.249 0.9280005 0.5 9 3
9 0 1 0 0 0 1 0 0 0 1 0.05099869 -26.749 -12.572 3.5 1.5 2.5
9 0 1 0 0 0 1 0 0 0 1 0.05099869 -30.749 0.9280005 3.5 0.5 7
9 0 1 0 0 0 1 0 0 0 1 8.050999 -11.249 0.9280005 0.5 8 3
9 0 1 0 0 0 1 0 0 0 1 -7.449001 -24.749 4.928 1 5.5 2
9 0 1 0 0 0 1 0 0 0 1 0.05099869 -16.249 6.928 3.5 3 1
9 0 1 0 0 0 1 0 0 0 1 11.051 -26.249 0.9280005 2.5 2 2
9 0 1 0 0 0 1 0 0 0 1 7.550999 -24.249 4.428 1 5 1.5
9 0 1 0 0 0 1 0 0 0 1 -0.4490013 -18.249 -9.072 7 1 1
9 0 1 0 0 0 1 0 0 0 1 -7.449001 -28.249 -0.5719995 2 1 3.5
9 0 1 0 0 0 1 0 0 0 1 6.550999 -28.249 -0.07199955 2 1 3
9 0 1 0 0 0 1 0 0 0 1 0.05099869 -24.249 -17.072 2.5 1 2
9 0 1 0 0 0 1 0 0 0 1 9.550999 -19.249 -6.572 1 1 4.5
9 0 1 0 0 0 1 0 0 0 1 -9.949001 -22.749 -8.072 0.5 4.5 2
9 0 1 0 0 0 1 0 0 0 1 -10.949 -26.249 2.428 1.5 2 1.5
9 0 1 0 0 0 1 0 0 0 1 12.051 -23.749 -3.572 0.5 3.5 2.5
9 0 1 0 0 0 1 0 0 0 1 9.050999 -18.749 1.428 0.5 5.5 1.5
9 0 1 0 0 0 1 0 0 0 1 -5.449001 -18.249 -6.072 2 1 2
9 0 1 0 0 0 1 0 0 0 1 -8.449001 -22.249 -11.072 1 4 1
9 0 1 0 0 0 1 0 0 0 1 5.550999 -20.749 -15.572 1 2.5 1.5
9 0 1 0 0 0 1 0 0 0 1 -3.949001 -26.749 8.928 1.5 2.5 1
9 0 1 0 0 0 1 0 0 0 1 9.550999 -23.749 -9.072 1 3.5 1
9 0 1 0 0 0 1 0 0 0 1 3.550999 -24.249 8.428 1 7 0.5
9 0 1 0 0 0 1 0 0 0 1 0.05099869 -13.749 -5.572 4.5 0.5 1.5
9 0 1 0 0 0 1 0 0 0 1 -12.949 -24.749 -1.572 0.5 2.5 2.5
9 0 1 0 0 0 1 0 0 0 1 6.050999 -18.249 -6.072 1.5 1 2
9 0 1 0 0 0 1 0 0 0 1 7.550999 -27.749 -5.072 3 0.5 2
9 0 1 0 0 0 1 0 0 0 1 -0.4490013 -17.749 -11.572 4 0.5 1.5
9 0 1 0 0 0 1 0 0 0 1 -1.449001 -28.249 -9.072 3 1 1
9 0 1 0 0 0 1 0 0 0 1 7.050999 -7.749001 4.928 0.5 5.5 1
9 0 1 0 0 0 1 0 0 0 1 -8.949001 -25.749 4.428 0.5 3.5 1.5
9 0 1 0 0 0 1 0 0 0 1 -10.449 -20.249 -3.572 1 1 2.5
9 0 1 0 0 0 1 0 0 0 1 11.051 -22.749 -0.07199955 1.5 1.5 1
9 0 1 0 0 0 1 0 0 0 1 9.050999 -24.749 3.928 0.5 4.5 1
9 0 1 0 0 0 1 0 0 0 1 5.550999 -29.749 -1.572 1 0.5 4.5
9 0 1 0 0 0 1 0 0 0 1 5.050999 -16.249 6.428 1.5 3 0.5
9 0 1 0 0 0 1 0 0 0 1 -0.4490013 -13.749 8.428 1 4.5 0.5
9 0 1 0 0 0 1 0 0 0 1 -4.449001 -15.749 -5.572 1 1.5 1.5
9 0 1 0 0 0 1 0 0 0 1 -4.949001 -16.249 6.428 1.5 3 0.5
9 0 1 0 0 0 1 0 0 0 1 -10.949 -22.749 -7.072 0.5 4.5 1
9 0 1 0 0 0 1 0 0 0 1 7.550999 -26.249 6.428 1 4 0.5
9 0 1 0 0 0 1 0 0 0 1 4.050999 -17.249 -6.072 0.5 2 2
9 0 1 0 0 0 1 0 0 0 1 -5.449001 -21.249 -16.072 1 2 1
9 0 1 0 0 0 1 0 0 0 1 -5.449001 -25.749 -12.072 2 0.5 2
9 0 1 0 0 0 1 0 0 0 1 -8.449001 -18.749 -6.072 1 0.5 4
9 0 1 0 0 0 1 0 0 0 1 6.050999 -25.749 -11.572 2.5 0.5 1.5
9 0 1 0 0 0 1 0 0 0 1 0.05099869 -27.749 10.428 1.5 2.5 0.5
9 0 1 0 0 0 1 0 0 0 1 0.05099869 -21.749 -19.572 2.5 1.5 0.5
9 0 1 0 0 0 1 0 0 0 1 -8.949001 -11.749 1.428 0.5 7.5 0.5
9 0 1 0 0 0 1 0 0 0 1 13.051 -24.749 -2.072 0.5 3.5 1
9 0 1 0 0 0 1 0 0 0 1 3.550999 -26.749 9.428 1 3.5 0.5
9 0 1 0 0 0 1 0 0 0 1 0.05099869 -26.249 -15.572 3.5 1 0.5
9 0 1 0 0 0 1 0 0 0 1 -3.449001 -20.749 8.428 1 3.5 0.5
9 0 1 0 0 0 1 0 0 0 1 -7.949001 -21.749 -13.072 0.5 3.5 1
9 0 1 0 0 0 1 0 0 0 1 11.051 -26.249 3.428 1.5 2 0.5
9 0 1 0 0 0 1 0 0 0 1 9.050999 -23.249 -11.072 0.5 3 1
9 0 1 0 0 0 1 0 0 0 1 10.051 -28.249 -2.072 1.5 1 1
9 0 1 0 0 0 1 0 0 0 1 5.550999 -27.249 8.428 1 3 0.5
9 0 1 0 0 0 1 0 0 0 1 3.050999 -28.249 -9.072 1.5 1 1
9 0 1 0 0 0 1 0 0 0 1 0.05099869 -28.749 -12.072 1.5 0.5 2
9 0 1 0 0 0 1 0 0 0 1 -6.949001 -7.249001 5.428 0.5 6 0.5
9 0 1 0 0 0 1 0 0 0 1 -1.449001 -18.749 -15.572 6 0.5 0.5
9 0 1 0 0 0 1 0 0 0 1 -6.949001 -27.749 -6.072 1.5 0.5 2
9 0 1 0 0 0 1 0 0 0 1 8.050999 -2.249001 1.428 0.5 1 2.5
9 0 1 0 0 0 1 0 0 0 1 -4.449001 -30.749 6.428 1 0.5 2.5
9 0 1 0 0 0 1 0 0 0 1 -10.449 -28.749 -0.5719995 1 0.5 2.5
9 0 1 0 0 0 1 0 0 0 1 0.05099869 -15.749 -8.572 1.5 1.5 0.5
9 0 1 0 0 0 1 0 0 0 1 -5.949001 -29.749 -1.572 0.5 0.5 4.5
9 0 1 0 0 0 1 0 0 0 1 10.551 -23.249 1.928 1 1 1
9 0 1 0 0 0 1 0 0 0 1 8.050999 -18.749 -6.072 0.5 0.5 4
9 0 1 0 0 0 1 0 0 0 1 5.550999 -15.249 -4.572 1 2 0.5
9 0 1 0 0 0 1 0 0 0 1 4.550999 -30.749 5.928 1 0.5 2
9 0 1 0 0 0 1 0 0 0 1 -5.449001 -26.749 -11.072 2 0.5 1
9 0 1 0 0 0 1 0 0 0 1 -10.449 -23.249 1.928 1 1 1
9 0 1 0 0 0 1 0 0 0 1 -12.949 -26.249 1.928 0.5 2 1
9 0 1 0 0 0 1 0 0 0 1 9.050999 -20.749 -0.5719995 0.5 3.5 0.5
9 0 1 0 0 0 1 0 0 0 1 8.050999 -15.749 4.428 0.5 3.5 0.5
9 0 1 0 0 0 1 0 0 0 1 7.050999 -21.749 -14.572 0.5 3.5 0.5
9 0 1 0 0 0 1 0 0 0 1 -0.9490013 -29.749 -8.572 3.5 0.5 0.5
9 0 1 0 0 0 1 0 0 0 1 -7.949001 -14.749 -2.572 0.5 3.5 0.5
9 0 1 0 0 0 1 0 0 0 1 -7.949001 -15.749 4.428 0.5 3.5 0.5
9 0 1 0 0 0 1 0 0 0 1 -8.949001 -15.749 0.4280005 0.5 3.5 0.5
9 0 1 0 0 0 1 0 0 0 1 -8.949001 -15.749 2.428 0.5 3.5 0.5
9 0 1 0 0 0 1 0 0 0 1 11.551 -19.749 -4.572 1 0.5 1.5
9 0 1 0 0 0 1 0 0 0 1 10.051 -28.749 -0.07199955 1.5 0.5 1
9 0 1 0 0 0 1 0 0 0 1 9.050999 -26.249 5.428 0.5 3 0.5
9 0 1 0 0 0 1 0 0 0 1 7.050999 -19.249 6.428 0.5 3 0.5
9 0 1 0 0 0 1 0 0 0 1 7.050999 -27.749 7.928 0.5 1.5 1
9 0 1 0 0 0 1 0 0 0 1 6.050999 -27.749 -8.072 1.5 0.5 1
9 0 1 0 0 0 1 0 0 0 1 7.550999 -28.749 -3.572 3 0.5 0.5
9 0 1 0 0 0 1 0 0 0 1 5.050999 -17.749 -11.072 1.5 0.5 1
9 0 1 0 0 0 1 0 0 0 1 4.550999 -26.749 -11.572 1 0.5 1.5
9 0 1 0 0 0 1 0 0 0 1 4.050999 -23.749 -16.072 1.5 0.5 1
9 0 1 0 0 0 1 0 0 0 1 1.550999 -16.749 8.428 1 1.5 0.5
9 0 1 0 0 0 1 0 0 0 1 0.05099869 -25.749 -17.072 1.5 0.5 1
9 0 1 0 0 0 1 0 0 0 1 -3.449001 -23.749 -16.572 1 0.5 1.5
9 0 1 0 0 0 1 0 0 0 1 -5.949001 -27.249 8.428 0.5 3 0.5
9 0 1 0 0 0 1 0 0 0 1 -6.949001 -27.749 7.928 0.5 1.5 1
9 0 1 0 0 0 1 0 0 0 1 -9.949001 -21.249 -10.572 0.5 3 0.5
9 0 1 0 0 0 1 0 0 0 1 -11.949 -20.249 -4.572 0.5 1 1.5
9 0 1 0 0 0 1 0 0 0 1 9.050999 -10.749 1.428 0.5 2.5 0.5
9 0 1 0 0 0 1 0 0 0 1 7.050999 -29.749 3.428 0.5 0.5 2.5
9 0 1 0 0 0 1 0 0 0 1 4.050999 -16.749 7.428 0.5 2.5 0.5
9 0 1 0 0 0 1 0 0 0 1 0.05099869 -31.749 7.428 0.5 0.5 2.5
9 0 1 0 0 0 1 0 0 0 1 0.05099869 -13.749 -7.572 2.5 0.5 0.5
9 0 1 0 0 0 1 0 0 0 1 0.05099869 -31.749 -2.572 2.5 0.5 0.5
9 0 1 0 0 0 1 0 0 0 1 -3.949001 -16.749 7.428 0.5 2.5 0.5
9 0 1 0 0 0 1 0 0 0 1 -8.949001 -19.749 3.428 0.5 2.5 0.5
9 0 1 0 0 0 1 0 0 0 1 -8.949001 -20.749 -12.572 0.5 2.5 0.5
9 0 1 0 0 0 1 0 0 0 1 -9.949001 -18.749 -3.572 0.5 0.5 2.5
9 0 1 0 0 0 1 0 0 0 1 -10.949 -20.749 -8.572 0.5 2.5 0.5
9 0 1 0 0 0 1 0 0 0 1 13.051 -23.249 -0.07199955 0.5 1 1
9 0 1 0 0 0 1 0 0 0 1 12.051 -27.749 -3.072 0.5 0.5 2
9 0 1 0 0 0 1 0 0 0 1 10.551 -20.749 -0.07199955 1 0.5 1
9 0 1 0 0 0 1 0 0 0 1 10.551 -27.249 4.428 1 1 0.5
9 0 1 0 0 0 1 0 0 0 1 9.050999 -19.249 -12.072 0.5 1 1
9 0 1 0 0 0 1 0 0 0 1 8.550999 -17.749 -3.072 1 0.5 1
9 0 1 0 0 0 1 0 0 0 1 7.050999 -18.249 -9.072 0.5 1 1
9 0 1 0 0 0 1 0 0 0 1 5.050999 -15.249 -5.572 0.5 2 0.5
9 0 1 0 0 0 1 0 0 0 1 5.050999 -21.249 -17.572 0.5 2 0.5
9 0 1 0 0 0 1 0 0 0 1 5.550999 -24.249 -14.572 1 1 0.5
9 0 1 0 0 0 1 0 0 0 1 5.550999 -28.749 -5.072 1 0.5 1
9 0 1 0 0 0 1 0 0 0 1 5.050999 -27.249 9.428 0.5 2 0.5
9 0 1 0 0 0 1 0 0 0 1 -0.4490013 -16.749 -9.572 2 0.5 0.5
9 0 1 0 0 0 1 0 0 0 1 -2.949001 -30.249 8.928 0.5 1 1
9 0 1 0 0 0 1 0 0 0 1 -4.949001 -20.249 -18.072 0.5 1 1
9 0 1 0 0 0 1 0 0 0 1 -5.949001 -15.249 -4.572 0.5 2 0.5
9 0 1 0 0 0 1 0 0 0 1 -5.449001 -17.749 -11.072 1 0.5 1
9 0 1 0 0 0 1 0 0 0 1 -7.949001 -17.749 -5.072 0.5 0.5 2
9 0 1 0 0 0 1 0 0 0 1 -8.949001 -17.749 -2.072 0.5 0.5 2
9 0 1 0 0 0 1 0 0 0 1 -9.949001 -20.249 -0.07199955 0.5 1 1
9 0 1 0 0 0 1 0 0 0 1 -9.949001 -26.249 4.428 0.5 2 0.5
9 0 1 0 0 0 1 0 0 0 1 -12.949 -27.749 -1.072 0.5 0.5 2
9 0 1 0 0 0 1 0 0 0 1 11.051 -27.749 -4.572 0.5 0.5 1.5
9 0 1 0 0 0 1 0 0 0 1 10.051 -19.749 -0.5719995 0.5 0.5 1.5
9 0 1 0 0 0 1 0 0 0 1 10.051 -21.749 -10.572 0.5 1.5 0.5
9 0 1 0 0 0 1 0 0 0 1 9.050999 -18.749 -1.572 0.5 1.5 0.5
9 0 1 0 0 0 1 0 0 0 1 8.050999 -15.749 -2.572 0.5 1.5 0.5
9 0 1 0 0 0 1 0 0 0 1 8.050999 -17.749 5.428 0.5 1.5 0.5
9 0 1 0 0 0 1 0 0 0 1 7.050999 -19.749 -15.572 0.5 1.5 0.5
9 0 1 0 0 0 1 0 0 0 1 7.050999 -26.749 -10.572 1.5 0.5 0.5
9 0 1 0 0 0 1 0 0 0 1 4.050999 -14.749 -5.572 0.5 0.5 1.5
9 0 1 0 0 0 1 0 0 0 1 5.050999 -25.749 -13.572 1.5 0.5 0.5
9 0 1 0 0 0 1 0 0 0 1 5.050999 -30.749 -4.572 1.5 0.5 0.5
9 0 1 0 0 0 1 0 0 0 1 4.050999 -24.749 -15.572 1.5 0.5 0.5
9 0 1 0 0 0 1 0 0 0 1 0.05099869 -17.749 9.428 1.5 0.5 0.5
9 0 1 0 0 0 1 0 0 0 1 0.05099869 -23.749 -19.572 1.5 0.5 0.5
9 0 1 0 0 0 1 0 0 0 1 -1.949001 -16.749 8.428 0.5 1.5 0.5
9 0 1 0 0 0 1 0 0 0 1 -3.949001 -26.749 -13.572 0.5 0.5 1.5
9 0 1 0 0 0 1 0 0 0 1 -3.949001 -30.749 -4.572 0.5 0.5 1.5
9 0 1 0 0 0 1 0 0 0 1 -3.949001 -24.749 -15.572 1.5 0.5 0.5
9 0 1 0 0 0 1 0 0 0 1 -6.949001 -17.749 6.428 0.5 1.5 0.5
9 0 1 0 0 0 1 0 0 0 1 -6.949001 -20.749 -15.572 0.5 1.5 0.5
9 0 1 0 0 0 1 0 0 0 1 -5.949001 -27.749 -8.572 1.5 0.5 0.5
9 0 1 0 0 0 1 0 0 0 1 -6.949001 -29.749 1.428 0.5 0.5 1.5
9 0 1 0 0 0 1 0 0 0 1 -7.949001 -17.749 5.428 0.5 1.5 0.5
9 0 1 0 0 0 1 0 0 0 1 -8.949001 -27.749 -5.572 0.5 0.5 1.5
9 0 1 0 0 0 1 0 0 0 1 -11.949 -20.749 -1.572 0.5 0.5 1.5
9 0 1 0 0 0 1 0 0 0 1 -11.949 -21.749 -6.572 0.5 1.5 0.5
9 0 1 0 0 0 1 0 0 0 1 -12.949 -21.749 -1.572 0.5 0.5 1.5
