9 0 1 0 0 0 1 0 0 0 1 4.586998 -6.01 37.913 14 4.5 0.5
9 0 1 0 0 0 1 0 0 0 1 38.087 -6.51 -6.586998 0.5 5 12
9 0 1 0 0 0 1 0 0 0 1 -6.913002 -6.51 -38.087 11.5 5 0.5
9 0 1 0 0 0 1 0 0 0 1 -37.913 -6.51 6.913002 0.5 5 11.5
9 0 1 0 0 0 1 0 0 0 1 30.587 -7.01 -18.087 7 5.5 0.5
9 0 1 0 0 0 1 0 0 0 1 18.087 -7.01 30.413 0.5 5.5 7
9 0 1 0 0 0 1 0 0 0 1 -17.913 -7.01 -30.587 0.5 5.5 7
9 0 1 0 0 0 1 0 0 0 1 -30.413 -7.01 17.913 7 5.5 0.5
9 0 1 0 0 0 1 0 0 0 1 27.587 -5.51 17.913 8 4 0.5
9 0 1 0 0 0 1 0 0 0 1 18.087 -5.51 -27.587 0.5 4 8
9 0 1 0 0 0 1 0 0 0 1 -27.413 -5.51 -18.087 8 4 0.5
9 0 1 0 0 0 1 0 0 0 1 -17.913 -6.01 27.913 0.5 4.5 6.5
9 0 1 0 0 0 1 0 0 0 1 37.087 -6.51 -0.08699799 0.5 5 5.5
9 0 1 0 0 0 1 0 0 0 1 0.08699799 -6.51 -37.087 5.5 5 0.5
9 0 1 0 0 0 1 0 0 0 1 -36.913 -7.01 0.413002 0.5 5.5 5
9 0 1 0 0 0 1 0 0 0 1 -0.413002 -6.51 36.913 5 5 0.5
9 0 1 0 0 0 1 0 0 0 1 21.087 -4.01 -16.087 1.5 2.5 2.5
9 0 1 0 0 0 1 0 0 0 1 -15.913 -4.01 -21.087 2.5 2.5 1.5
9 0 1 0 0 0 1 0 0 0 1 17.087 -4.51 20.413 1.5 3 2
9 0 1 0 0 0 1 0 0 0 1 -21.413 -4.51 15.413 1 3 3
9 0 1 0 0 0 1 0 0 0 1 21.587 -4.51 14.913 1 3 2.5
9 0 1 0 0 0 1 0 0 0 1 15.587 -4.01 -21.087 2 2.5 1.5
9 0 1 0 0 0 1 0 0 0 1 -21.413 -4.51 -15.087 1 3 2.5
9 0 1 0 0 0 1 0 0 0 1 -16.913 -4.51 19.913 1.5 3 1.5
9 0 1 0 0 0 1 0 0 0 1 33.087 -13.01 -0.08699799 2.5 0.5 4.5
9 0 1 0 0 0 1 0 0 0 1 0.08699799 -13.01 -33.087 4.5 0.5 2.5
9 0 1 0 0 0 1 0 0 0 1 0.08699799 -13.01 32.913 4.5 0.5 2.5
9 0 1 0 0 0 1 0 0 0 1 -32.913 -13.01 -0.08699799 2.5 0.5 4.5
9 0 1 0 0 0 1 0 0 0 1 -37.913 -6.01 -7.086998 0.5 4.5 2.5
9 0 1 0 0 0 1 0 0 0 1 10.087 -11.51 37.913 10.5 1 0.5
9 0 1 0 0 0 1 0 0 0 1 -13.913 -4.51 21.913 3.5 3 0.5
9 0 1 0 0 0 1 0 0 0 1 13.587 -4.01 21.413 2 2.5 1
9 0 1 0 0 0 1 0 0 0 1 18.587 -4.51 -18.087 1 3 1.5
9 0 1 0 0 0 1 0 0 0 1 -17.913 -4.51 -18.587 1.5 3 1
9 0 1 0 0 0 1 0 0 0 1 -18.913 -4.51 17.413 1.5 3 1
9 0 1 0 0 0 1 0 0 0 1 34.087 -9.01 26.913 2.5 2.5 0.5
9 0 1 0 0 0 1 0 0 0 1 -26.913 -9.01 33.913 0.5 2.5 2.5
9 0 1 0 0 0 1 0 0 0 1 27.587 -11.01 17.913 4 1.5 0.5
9 0 1 0 0 0 1 0 0 0 1 22.087 -4.51 -11.587 0.5 3 2
9 0 1 0 0 0 1 0 0 0 1 19.587 -4.51 16.413 1 3 1
9 0 1 0 0 0 1 0 0 0 1 18.087 -11.01 -27.587 0.5 1.5 4
9 0 1 0 0 0 1 0 0 0 1 -19.413 -4.51 -16.587 1 3 1
9 0 1 0 0 0 1 0 0 0 1 -27.413 -11.01 -18.087 4 1.5 0.5
9 0 1 0 0 0 1 0 0 0 1 -33.413 -9.51 -27.087 2 3 0.5
9 0 1 0 0 0 1 0 0 0 1 -37.913 -12.01 10.413 0.5 0.5 11
9 0 1 0 0 0 1 0 0 0 1 26.087 -13.01 -21.087 1.5 0.5 3.5
9 0 1 0 0 0 1 0 0 0 1 21.087 -13.01 25.913 3.5 0.5 1.5
9 0 1 0 0 0 1 0 0 0 1 -20.913 -13.01 -26.087 3.5 0.5 1.5
9 0 1 0 0 0 1 0 0 0 1 -25.913 -13.01 20.913 1.5 0.5 3.5
9 0 1 0 0 0 1 0 0 0 1 38.087 -12.01 -11.587 0.5 0.5 10
9 0 1 0 0 0 1 0 0 0 1 27.087 -9.01 -33.587 0.5 2.5 2
9 0 1 0 0 0 1 0 0 0 1 12.587 -4.01 -21.587 1 2.5 1
9 0 1 0 0 0 1 0 0 0 1 -12.413 -4.01 -21.587 1 2.5 1
9 0 1 0 0 0 1 0 0 0 1 -11.413 -12.01 -38.087 10 0.5 0.5
9 0 1 0 0 0 1 0 0 0 1 18.087 -4.51 17.913 1.5 3 0.5
9 0 1 0 0 0 1 0 0 0 1 26.587 -13.01 19.413 2 0.5 2
9 0 1 0 0 0 1 0 0 0 1 21.587 -7.51 -16.587 1 1 2
9 0 1 0 0 0 1 0 0 0 1 -16.413 -7.51 -21.587 2 1 1
9 0 1 0 0 0 1 0 0 0 1 -17.913 -11.51 27.413 0.5 1 4
9 0 1 0 0 0 1 0 0 0 1 -19.413 -13.01 26.413 2 0.5 2
9 0 1 0 0 0 1 0 0 0 1 -26.413 -13.01 -19.587 2 0.5 2
9 0 1 0 0 0 1 0 0 0 1 38.087 -9.01 -20.087 0.5 2.5 1.5
9 0 1 0 0 0 1 0 0 0 1 -13.913 -4.01 20.913 1.5 2.5 0.5
9 0 1 0 0 0 1 0 0 0 1 -19.913 -9.01 -38.087 1.5 2.5 0.5
9 0 1 0 0 0 1 0 0 0 1 -37.913 -9.01 19.913 0.5 2.5 1.5
9 0 1 0 0 0 1 0 0 0 1 36.087 -7.51 -0.08699799 0.5 6 0.5
9 0 1 0 0 0 1 0 0 0 1 22.087 -4.51 11.413 0.5 3 1
9 0 1 0 0 0 1 0 0 0 1 20.587 -13.01 -25.087 2 0.5 1.5
9 0 1 0 0 0 1 0 0 0 1 17.087 -4.51 -18.587 0.5 3 1
9 0 1 0 0 0 1 0 0 0 1 16.087 -7.51 -21.587 1.5 1 1
9 0 1 0 0 0 1 0 0 0 1 0.08699799 -7.51 -36.087 0.5 6 0.5
9 0 1 0 0 0 1 0 0 0 1 0.08699799 -7.51 35.913 0.5 6 0.5
9 0 1 0 0 0 1 0 0 0 1 -19.913 -4.51 15.413 0.5 3 1
9 0 1 0 0 0 1 0 0 0 1 -21.913 -4.51 -11.587 0.5 3 1
9 0 1 0 0 0 1 0 0 0 1 -21.913 -4.51 11.413 0.5 3 1
9 0 1 0 0 0 1 0 0 0 1 -35.913 -7.51 -0.08699799 0.5 6 0.5
9 0 1 0 0 0 1 0 0 0 1 23.087 -6.51 -18.087 0.5 5 0.5
9 0 1 0 0 0 1 0 0 0 1 21.087 -4.01 -12.587 0.5 2.5 1
9 0 1 0 0 0 1 0 0 0 1 20.087 -4.01 14.413 0.5 2.5 1
9 0 1 0 0 0 1 0 0 0 1 18.087 -6.51 22.913 0.5 5 0.5
9 0 1 0 0 0 1 0 0 0 1 10.587 -4.01 -22.087 1 2.5 0.5
9 0 1 0 0 0 1 0 0 0 1 -17.913 -6.51 -23.087 0.5 5 0.5
9 0 1 0 0 0 1 0 0 0 1 -22.913 -6.51 17.913 0.5 5 0.5
9 0 1 0 0 0 1 0 0 0 1 -22.413 -13.01 23.913 1 0.5 2.5
9 0 1 0 0 0 1 0 0 0 1 -23.913 -13.01 -22.587 2.5 0.5 1
9 0 1 0 0 0 1 0 0 0 1 37.087 -12.01 -1.086998 0.5 0.5 4.5
9 0 1 0 0 0 1 0 0 0 1 32.087 -13.01 -18.087 4.5 0.5 0.5
9 0 1 0 0 0 1 0 0 0 1 23.087 -13.01 22.913 1.5 0.5 1.5
9 0 1 0 0 0 1 0 0 0 1 20.087 -8.01 37.913 1.5 1.5 0.5
9 0 1 0 0 0 1 0 0 0 1 18.087 -13.01 31.913 0.5 0.5 4.5
9 0 1 0 0 0 1 0 0 0 1 0.08699799 -12.01 36.913 4.5 0.5 0.5
9 0 1 0 0 0 1 0 0 0 1 -0.913002 -12.01 -37.087 4.5 0.5 0.5
9 0 1 0 0 0 1 0 0 0 1 -17.913 -13.01 -32.087 0.5 0.5 4.5
9 0 1 0 0 0 1 0 0 0 1 -18.913 -8.01 34.913 1.5 1.5 0.5
9 0 1 0 0 0 1 0 0 0 1 -31.913 -13.01 17.913 4.5 0.5 0.5
9 0 1 0 0 0 1 0 0 0 1 41.587 -8.51 25.913 1 2 0.5
9 0 1 0 0 0 1 0 0 0 1 28.587 -14.01 -18.587 2 0.5 1
9 0 1 0 0 0 1 0 0 0 1 26.087 -8.51 -40.587 0.5 2 1
9 0 1 0 0 0 1 0 0 0 1 23.587 -13.01 -22.587 1 0.5 2
9 0 1 0 0 0 1 0 0 0 1 19.087 -5.51 18.913 0.5 4 0.5
9 0 1 0 0 0 1 0 0 0 1 17.587 -8.51 21.413 1 1 1
9 0 1 0 0 0 1 0 0 0 1 15.587 -3.51 -19.087 1 2 0.5
9 0 1 0 0 0 1 0 0 0 1 -18.413 -14.01 -28.587 1 0.5 2
9 0 1 0 0 0 1 0 0 0 1 -19.913 -4.51 -14.587 0.5 2 1
9 0 1 0 0 0 1 0 0 0 1 -21.413 -8.01 16.413 1 0.5 2
9 0 1 0 0 0 1 0 0 0 1 -28.413 -14.01 18.413 2 0.5 1
9 0 1 0 0 0 1 0 0 0 1 -40.413 -8.51 -26.087 1 2 0.5
9 0 1 0 0 0 1 0 0 0 1 -18.913 -5.01 18.913 0.5 3.5 0.5
9 0 1 0 0 0 1 0 0 0 1 27.087 -11.51 -30.087 0.5 1 1.5
9 0 1 0 0 0 1 0 0 0 1 22.087 -8.51 15.913 0.5 1 1.5
9 0 1 0 0 0 1 0 0 0 1 19.087 -4.51 -16.087 0.5 3 0.5
9 0 1 0 0 0 1 0 0 0 1 20.087 -13.51 27.913 1.5 1 0.5
9 0 1 0 0 0 1 0 0 0 1 18.087 -4.51 16.913 0.5 3 0.5
9 0 1 0 0 0 1 0 0 0 1 19.087 -13.01 -27.587 1.5 0.5 1
9 0 1 0 0 0 1 0 0 0 1 15.087 -4.51 19.913 0.5 3 0.5
9 0 1 0 0 0 1 0 0 0 1 14.087 -7.01 21.413 1.5 0.5 1
9 0 1 0 0 0 1 0 0 0 1 11.087 -4.51 21.913 0.5 3 0.5
9 0 1 0 0 0 1 0 0 0 1 -10.913 -4.51 -22.087 0.5 3 0.5
9 0 1 0 0 0 1 0 0 0 1 -15.913 -4.51 -19.087 0.5 3 0.5
9 0 1 0 0 0 1 0 0 0 1 -16.913 -4.51 17.913 0.5 3 0.5
9 0 1 0 0 0 1 0 0 0 1 -15.913 -8.51 21.913 1.5 1 0.5
9 0 1 0 0 0 1 0 0 0 1 -17.913 -4.51 -17.087 0.5 3 0.5
9 0 1 0 0 0 1 0 0 0 1 -21.913 -8.51 -16.087 0.5 1 1.5
9 0 1 0 0 0 1 0 0 0 1 5.086998 -4.01 -38.087 0.5 2.5 0.5
9 0 1 0 0 0 1 0 0 0 1 -2.913002 -11.01 37.913 2.5 0.5 0.5
9 0 1 0 0 0 1 0 0 0 1 -14.913 -4.01 19.913 0.5 2.5 0.5
9 0 1 0 0 0 1 0 0 0 1 -17.913 -4.01 34.913 0.5 2.5 0.5
9 0 1 0 0 0 1 0 0 0 1 -18.913 -4.01 15.913 0.5 2.5 0.5
9 0 1 0 0 0 1 0 0 0 1 -21.913 -13.01 -24.087 2.5 0.5 0.5
9 0 1 0 0 0 1 0 0 0 1 -28.913 -12.01 -27.087 2.5 0.5 0.5
9 0 1 0 0 0 1 0 0 0 1 36.087 -13.01 -2.586998 0.5 0.5 2
9 0 1 0 0 0 1 0 0 0 1 33.087 -7.51 25.413 0.5 1 1
9 0 1 0 0 0 1 0 0 0 1 26.087 -7.51 -32.587 0.5 1 1
9 0 1 0 0 0 1 0 0 0 1 22.087 -9.51 -17.587 0.5 1 1
9 0 1 0 0 0 1 0 0 0 1 20.087 -7.01 -16.587 0.5 0.5 2
9 0 1 0 0 0 1 0 0 0 1 18.587 -14.01 29.413 1 0.5 1
9 0 1 0 0 0 1 0 0 0 1 15.587 -8.01 21.413 1 0.5 1
9 0 1 0 0 0 1 0 0 0 1 13.587 -7.01 -21.587 1 0.5 1
9 0 1 0 0 0 1 0 0 0 1 3.586998 -13.01 36.413 1 0.5 1
9 0 1 0 0 0 1 0 0 0 1 -2.413002 -13.01 -36.087 2 0.5 0.5
9 0 1 0 0 0 1 0 0 0 1 -13.413 -7.01 -21.587 1 0.5 1
9 0 1 0 0 0 1 0 0 0 1 -16.413 -7.01 -20.087 2 0.5 0.5
9 0 1 0 0 0 1 0 0 0 1 -17.413 -8.01 20.413 1 0.5 1
9 0 1 0 0 0 1 0 0 0 1 -17.413 -9.01 -21.587 1 0.5 1
9 0 1 0 0 0 1 0 0 0 1 -21.413 -9.01 17.413 1 0.5 1
9 0 1 0 0 0 1 0 0 0 1 -22.913 -7.51 -48.587 0.5 1 1
9 0 1 0 0 0 1 0 0 0 1 -23.913 -13.01 22.413 0.5 0.5 2
9 0 1 0 0 0 1 0 0 0 1 -25.413 -7.51 32.913 1 1 0.5
9 0 1 0 0 0 1 0 0 0 1 -25.913 -8.51 41.913 0.5 2 0.5
9 0 1 0 0 0 1 0 0 0 1 -27.913 -13.01 20.413 0.5 0.5 2
9 0 1 0 0 0 1 0 0 0 1 -29.913 -13.01 -30.587 0.5 0.5 2
9 0 1 0 0 0 1 0 0 0 1 -32.913 -7.51 -25.587 0.5 1 1
9 0 1 0 0 0 1 0 0 0 1 -32.413 -10.51 -18.087 1 1 0.5
9 0 1 0 0 0 1 0 0 0 1 -35.913 -13.01 2.413002 0.5 0.5 2
9 0 1 0 0 0 1 0 0 0 1 -48.413 -7.51 22.913 1 1 0.5
9 0 1 0 0 0 1 0 0 0 1 47.087 -8.01 24.913 0.5 1.5 0.5
9 0 1 0 0 0 1 0 0 0 1 35.087 -8.01 18.913 0.5 1.5 0.5
9 0 1 0 0 0 1 0 0 0 1 33.087 -10.01 17.913 1.5 0.5 0.5
9 0 1 0 0 0 1 0 0 0 1 33.087 -12.01 26.913 1.5 0.5 0.5
9 0 1 0 0 0 1 0 0 0 1 27.087 -12.01 -33.087 0.5 0.5 1.5
9 0 1 0 0 0 1 0 0 0 1 27.087 -14.01 17.913 1.5 0.5 0.5
9 0 1 0 0 0 1 0 0 0 1 25.087 -8.01 -46.087 0.5 1.5 0.5
9 0 1 0 0 0 1 0 0 0 1 24.087 -7.01 -51.087 0.5 0.5 1.5
9 0 1 0 0 0 1 0 0 0 1 22.087 -3.01 9.913002 0.5 1.5 0.5
9 0 1 0 0 0 1 0 0 0 1 21.087 -8.01 15.913 0.5 0.5 1.5
9 0 1 0 0 0 1 0 0 0 1 19.087 -8.01 -35.087 0.5 1.5 0.5
9 0 1 0 0 0 1 0 0 0 1 18.087 -10.01 -33.087 0.5 0.5 1.5
9 0 1 0 0 0 1 0 0 0 1 16.087 -7.01 -20.087 1.5 0.5 0.5
9 0 1 0 0 0 1 0 0 0 1 16.087 -9.01 -22.087 1.5 0.5 0.5
9 0 1 0 0 0 1 0 0 0 1 -17.913 -14.01 26.913 0.5 0.5 1.5
9 0 1 0 0 0 1 0 0 0 1 -24.913 -8.01 46.913 0.5 1.5 0.5
9 0 1 0 0 0 1 0 0 0 1 -26.913 -12.01 33.913 0.5 0.5 1.5
9 0 1 0 0 0 1 0 0 0 1 -26.913 -14.01 -18.087 1.5 0.5 0.5
9 0 1 0 0 0 1 0 0 0 1 -30.913 -13.01 29.913 1.5 0.5 0.5
9 0 1 0 0 0 1 0 0 0 1 -34.913 -8.01 -19.087 0.5 1.5 0.5
9 0 1 0 0 0 1 0 0 0 1 -45.913 -8.01 -25.087 0.5 1.5 0.5
9 0 1 0 0 0 1 0 0 0 1 -50.913 -7.01 -24.087 1.5 0.5 0.5
