9 0 1 0 0 0 1 0 0 0 1 2.882999 8.5 14.7 1 2.5 0.5
9 0 1 0 0 0 1 0 0 0 1 -0.6170006 6 14.7 2.5 1 0.5
9 0 1 0 0 0 1 0 0 0 1 -0.1170006 19.5 18.7 5 0.5 0.5
9 0 1 0 0 0 1 0 0 0 1 -0.1170006 17.5 15.7 4 0.5 0.5
9 0 1 0 0 0 1 0 0 0 1 -3.617001 10.5 14.7 0.5 2.5 0.5
9 0 1 0 0 0 1 0 0 0 1 -3.617001 20.5 19.7 2.5 0.5 0.5
9 0 1 0 0 0 1 0 0 0 1 -3.617001 18.5 16.7 2.5 0.5 0.5
9 0 1 0 0 0 1 0 0 0 1 3.882999 20.5 19.7 2 0.5 0.5
9 0 1 0 0 0 1 0 0 0 1 3.882999 18.5 16.7 2 0.5 0.5
9 0 1 0 0 0 1 0 0 0 1 -2.617001 8.5 14.7 0.5 1.5 0.5
