8192 0 1 0 0 0 0.7942249 0.607624 0 -0.607624 0.7942249 -15.06386 5.284819 -4.748419 1.170465 6.465181 7.001581
8192 0 1 0 0 0 0.8747711 0.4845364 0 -0.4845364 0.8747711 15.33708 5.284819 -4.748419 1.170465 6.465181 7.001581
9 0 1 0 0 0 1 0 0 0 1 6.938894E-15 9.147153 -15.24122 9.775747 8.206625 1.170464
8192 0 -1.192093E-07 0.1092288 -0.9940166 7.450581E-09 0.9940166 0.1092288 0.9999999 7.450581E-09 -1.192093E-07 -0.2342581 -2.518 13.74365 0.6701156 4.456903 6.517831
8192 0 0 -0.8785529 -0.4776451 -5.960464E-08 0.4776451 -0.8785529 1 -5.960464E-08 0 -0.2342581 -5.70811 -7.941705 0.2213514 8.616215 9.341726
8192 0 -2.384186E-07 0.9580446 -0.2866193 8.940697E-08 0.2866192 0.9580446 1 8.940697E-08 -2.384186E-07 -0.2342581 -9.569801 7.371256 0.1 4.456903 6.517831
8192 0 -0.6174227 0.3419602 -0.7084154 0.02001852 0.9071071 0.4204237 0.7863767 0.2453977 -0.566914 11.25177 -1.733817 9.030367 0.3990225 4.456903 6.517831
8192 0 0.6174225 0.3419602 -0.7084157 -0.02001844 0.9071071 0.4204236 0.786377 -0.2453976 0.5669138 -11.25177 -1.733817 9.030367 0.3990225 4.456903 6.517831
