9 0 1 0 0 0 1 0 0 0 1 26 34.051 -13.75 1.5 5 2
9 0 1 0 0 0 1 0 0 0 1 -26 34.051 -13.75 1.5 5 2
9 0 1 0 0 0 1 0 0 0 1 21 18.051 14.25 0.5 5 5
9 0 1 0 0 0 1 0 0 0 1 -21 16.551 12.75 0.5 4.5 5.5
9 0 1 0 0 0 1 0 0 0 1 -2 57.551 -58.25 3.5 6.5 0.5
9 0 1 0 0 0 1 0 0 0 1 22 14.051 -9.25 0.5 6 3.5
9 0 1 0 0 0 1 0 0 0 1 -22 14.051 -9.25 0.5 6 3.5
9 0 1 0 0 0 1 0 0 0 1 23 34.551 -12.25 1.5 13.5 0.5
9 0 1 0 0 0 1 0 0 0 1 -23 34.551 -12.25 1.5 13.5 0.5
9 0 1 0 0 0 1 0 0 0 1 0 -2.449001 15.25 2.5 0.5 8
9 0 1 0 0 0 1 0 0 0 1 0 -3.449001 9.75 4.5 0.5 2.5
9 0 1 0 0 0 1 0 0 0 1 0 22.551 -43.75 5.5 0.5 2
9 0 1 0 0 0 1 0 0 0 1 24 25.551 -16.75 0.5 2.5 4
9 0 1 0 0 0 1 0 0 0 1 22.5 12.051 14.75 2 1 2.5
9 0 1 0 0 0 1 0 0 0 1 -24 25.551 -16.75 0.5 2.5 4
9 0 1 0 0 0 1 0 0 0 1 0 47.551 -57.25 6.5 1.5 0.5
9 0 1 0 0 0 1 0 0 0 1 -3 58.551 -59.25 1.5 5.5 0.5
9 0 1 0 0 0 1 0 0 0 1 0 -5.949001 -13.25 2.5 3 0.5
9 0 1 0 0 0 1 0 0 0 1 -23 12.051 14.75 1.5 1 2.5
9 0 1 0 0 0 1 0 0 0 1 25 11.551 -18.75 3.5 0.5 2
9 0 1 0 0 0 1 0 0 0 1 21 18.551 -28.25 2.5 0.5 2.5
9 0 1 0 0 0 1 0 0 0 1 -21 18.551 -28.25 2.5 0.5 2.5
9 0 1 0 0 0 1 0 0 0 1 26 31.051 -17.75 1.5 1 2
9 0 1 0 0 0 1 0 0 0 1 24.5 17.051 -24.25 3 2 0.5
9 0 1 0 0 0 1 0 0 0 1 22.5 25.051 12.75 2 1 1.5
9 0 1 0 0 0 1 0 0 0 1 21 16.051 7.75 0.5 4 1.5
9 0 1 0 0 0 1 0 0 0 1 3 45.551 -53.75 1.5 0.5 4
9 0 1 0 0 0 1 0 0 0 1 -21 23.051 13.25 0.5 2 3
9 0 1 0 0 0 1 0 0 0 1 -26 31.051 -17.75 1.5 1 2
9 0 1 0 0 0 1 0 0 0 1 -24.5 17.051 -24.25 3 2 0.5
9 0 1 0 0 0 1 0 0 0 1 -24.5 11.551 -18.75 3 0.5 2
9 0 1 0 0 0 1 0 0 0 1 5.5 54.551 -57.25 1 5.5 0.5
9 0 1 0 0 0 1 0 0 0 1 25 15.551 0.75 3.5 0.5 1.5
9 0 1 0 0 0 1 0 0 0 1 5 16.551 26.75 1.5 3.5 0.5
9 0 1 0 0 0 1 0 0 0 1 3 60.551 -58.25 1.5 3.5 0.5
9 0 1 0 0 0 1 0 0 0 1 0 16.551 27.75 1.5 3.5 0.5
9 0 1 0 0 0 1 0 0 0 1 -5 16.551 26.75 1.5 3.5 0.5
9 0 1 0 0 0 1 0 0 0 1 -25 15.551 0.75 3.5 0.5 1.5
9 0 1 0 0 0 1 0 0 0 1 25 44.051 -12.75 0.5 5 1
9 0 1 0 0 0 1 0 0 0 1 20.5 19.551 20.25 1 2.5 1
9 0 1 0 0 0 1 0 0 0 1 -3.5 48.551 -58.25 2 2.5 0.5
9 0 1 0 0 0 1 0 0 0 1 -4.5 51.551 -57.25 2 2.5 0.5
9 0 1 0 0 0 1 0 0 0 1 -20.5 19.551 20.25 1 2.5 1
9 0 1 0 0 0 1 0 0 0 1 -25 44.051 -12.75 0.5 5 1
9 0 1 0 0 0 1 0 0 0 1 0 21.051 -43.25 1.5 1 1.5
9 0 1 0 0 0 1 0 0 0 1 -23 25.051 12.75 1.5 1 1.5
9 0 1 0 0 0 1 0 0 0 1 -24 36.551 -13.25 0.5 8.5 0.5
9 0 1 0 0 0 1 0 0 0 1 24 36.051 -13.25 0.5 8 0.5
9 0 1 0 0 0 1 0 0 0 1 23.5 10.051 5.75 2 2 0.5
9 0 1 0 0 0 1 0 0 0 1 17.5 19.551 -32.75 2 0.5 2
9 0 1 0 0 0 1 0 0 0 1 -17.5 19.551 -32.75 2 0.5 2
9 0 1 0 0 0 1 0 0 0 1 -23 28.051 -13.25 0.5 8 0.5
9 0 1 0 0 0 1 0 0 0 1 -23.5 20.051 9.25 2 1 1
9 0 1 0 0 0 1 0 0 0 1 -23.5 10.051 5.75 2 2 0.5
9 0 1 0 0 0 1 0 0 0 1 26 39.551 -16.25 1.5 0.5 2.5
9 0 1 0 0 0 1 0 0 0 1 23 27.551 -13.25 0.5 7.5 0.5
9 0 1 0 0 0 1 0 0 0 1 23 20.551 9.75 1.5 2.5 0.5
9 0 1 0 0 0 1 0 0 0 1 22 16.551 -3.25 0.5 1.5 2.5
9 0 1 0 0 0 1 0 0 0 1 21 17.551 -26.25 2.5 0.5 1.5
9 0 1 0 0 0 1 0 0 0 1 4 -2.449001 16.75 1.5 0.5 2.5
9 0 1 0 0 0 1 0 0 0 1 -4 -2.449001 16.75 1.5 0.5 2.5
9 0 1 0 0 0 1 0 0 0 1 -22 16.551 -3.25 0.5 1.5 2.5
9 0 1 0 0 0 1 0 0 0 1 -21 17.551 -26.25 2.5 0.5 1.5
9 0 1 0 0 0 1 0 0 0 1 -26 39.551 -16.25 1.5 0.5 2.5
9 0 1 0 0 0 1 0 0 0 1 8 21.551 -40.75 3.5 0.5 1
9 0 1 0 0 0 1 0 0 0 1 4.5 -5.449001 -4.25 1 3.5 0.5
9 0 1 0 0 0 1 0 0 0 1 4.5 -5.449001 4.75 1 3.5 0.5
9 0 1 0 0 0 1 0 0 0 1 0 31.551 -46.75 3.5 0.5 1
9 0 1 0 0 0 1 0 0 0 1 -8 21.551 -40.75 3.5 0.5 1
9 0 1 0 0 0 1 0 0 0 1 24.5 29.551 -20.75 1 0.5 3
9 0 1 0 0 0 1 0 0 0 1 23 23.051 -11.25 1.5 2 0.5
9 0 1 0 0 0 1 0 0 0 1 22 10.551 -14.75 0.5 1.5 2
9 0 1 0 0 0 1 0 0 0 1 24.5 6.050999 -5.25 3 1 0.5
9 0 1 0 0 0 1 0 0 0 1 8 -2.449001 0.25 0.5 0.5 6
9 0 1 0 0 0 1 0 0 0 1 3 -3.949001 -10.75 0.5 1 3
9 0 1 0 0 0 1 0 0 0 1 0.5 -4.449001 8.75 2 0.5 1.5
9 0 1 0 0 0 1 0 0 0 1 -3 -3.949001 -10.75 0.5 1 3
9 0 1 0 0 0 1 0 0 0 1 -4 -5.949001 -4.75 0.5 3 1
9 0 1 0 0 0 1 0 0 0 1 -5 -2.949001 5.25 1.5 1 1
9 0 1 0 0 0 1 0 0 0 1 -6 57.051 -57.25 1.5 2 0.5
9 0 1 0 0 0 1 0 0 0 1 -8 -2.449001 0.25 0.5 0.5 6
9 0 1 0 0 0 1 0 0 0 1 -22 10.551 -14.75 0.5 1.5 2
9 0 1 0 0 0 1 0 0 0 1 -23 23.051 -11.25 1.5 2 0.5
9 0 1 0 0 0 1 0 0 0 1 -24.5 6.050999 -5.25 3 1 0.5
9 0 1 0 0 0 1 0 0 0 1 -8 56.551 -56.25 0.5 5.5 0.5
9 0 1 0 0 0 1 0 0 0 1 26 48.051 -14.25 0.5 1 2.5
9 0 1 0 0 0 1 0 0 0 1 25 16.551 -0.75 2.5 0.5 1
9 0 1 0 0 0 1 0 0 0 1 23 23.551 11.25 2.5 0.5 1
9 0 1 0 0 0 1 0 0 0 1 17.5 19.551 21.75 1 2.5 0.5
9 0 1 0 0 0 1 0 0 0 1 3.5 51.551 -57.25 1 2.5 0.5
9 0 1 0 0 0 1 0 0 0 1 0 -3.449001 -14.75 2.5 0.5 1
9 0 1 0 0 0 1 0 0 0 1 -12 20.551 -37.75 2.5 0.5 1
9 0 1 0 0 0 1 0 0 0 1 -17.5 19.551 21.75 1 2.5 0.5
9 0 1 0 0 0 1 0 0 0 1 -21 18.051 18.75 0.5 5 0.5
9 0 1 0 0 0 1 0 0 0 1 -21 15.051 6.75 0.5 5 0.5
9 0 1 0 0 0 1 0 0 0 1 -26 48.051 -14.25 0.5 1 2.5
9 0 1 0 0 0 1 0 0 0 1 -25 16.551 -0.75 2.5 0.5 1
9 0 1 0 0 0 1 0 0 0 1 23 22.551 -15.25 1.5 0.5 1.5
9 0 1 0 0 0 1 0 0 0 1 14 20.551 -36.25 1.5 0.5 1.5
9 0 1 0 0 0 1 0 0 0 1 11 62.551 -54.25 0.5 4.5 0.5
9 0 1 0 0 0 1 0 0 0 1 9 56.551 -55.25 0.5 4.5 0.5
9 0 1 0 0 0 1 0 0 0 1 8 57.551 -56.25 0.5 4.5 0.5
9 0 1 0 0 0 1 0 0 0 1 0 23.551 -44.25 1.5 0.5 1.5
9 0 1 0 0 0 1 0 0 0 1 0 13.551 -37.25 1.5 1.5 0.5
9 0 1 0 0 0 1 0 0 0 1 -9 56.551 -55.25 0.5 4.5 0.5
9 0 1 0 0 0 1 0 0 0 1 -11 61.551 -54.25 0.5 4.5 0.5
9 0 1 0 0 0 1 0 0 0 1 -24 29.551 -20.25 0.5 1.5 1.5
9 0 1 0 0 0 1 0 0 0 1 25.5 30.551 -20.75 2 0.5 1
9 0 1 0 0 0 1 0 0 0 1 25.5 21.551 -13.75 2 0.5 1
9 0 1 0 0 0 1 0 0 0 1 23.5 20.051 8.75 2 1 0.5
9 0 1 0 0 0 1 0 0 0 1 23.5 10.551 -17.75 2 0.5 1
9 0 1 0 0 0 1 0 0 0 1 22 7.050999 -7.75 0.5 1 2
9 0 1 0 0 0 1 0 0 0 1 23.5 4.550999 2.25 2 0.5 1
9 0 1 0 0 0 1 0 0 0 1 22.5 24.551 15.25 2 0.5 1
9 0 1 0 0 0 1 0 0 0 1 5.5 63.051 -58.25 1 2 0.5
9 0 1 0 0 0 1 0 0 0 1 0.5 -7.949001 -14.25 2 1 0.5
9 0 1 0 0 0 1 0 0 0 1 -6 61.051 -58.25 0.5 4 0.5
9 0 1 0 0 0 1 0 0 0 1 -5.5 -2.949001 -4.75 1 1 1
9 0 1 0 0 0 1 0 0 0 1 -10 63.051 -55.25 0.5 4 0.5
9 0 1 0 0 0 1 0 0 0 1 -22.5 22.051 9.75 2 1 0.5
9 0 1 0 0 0 1 0 0 0 1 -23.5 23.551 11.25 2 0.5 1
9 0 1 0 0 0 1 0 0 0 1 -23.5 10.551 -17.75 2 0.5 1
9 0 1 0 0 0 1 0 0 0 1 -23.5 4.550999 -2.75 2 0.5 1
9 0 1 0 0 0 1 0 0 0 1 -23.5 4.550999 2.25 2 0.5 1
9 0 1 0 0 0 1 0 0 0 1 -25.5 29.551 -22.75 2 0.5 1
9 0 1 0 0 0 1 0 0 0 1 -25.5 21.551 -13.75 2 0.5 1
9 0 1 0 0 0 1 0 0 0 1 24 28.551 -20.25 0.5 0.5 3.5
9 0 1 0 0 0 1 0 0 0 1 25 5.550999 -4.25 3.5 0.5 0.5
9 0 1 0 0 0 1 0 0 0 1 25 4.550999 -2.25 3.5 0.5 0.5
9 0 1 0 0 0 1 0 0 0 1 14 66.55099 -52.25 0.5 3.5 0.5
9 0 1 0 0 0 1 0 0 0 1 10 63.551 -55.25 0.5 3.5 0.5
9 0 1 0 0 0 1 0 0 0 1 7 60.551 -57.25 0.5 3.5 0.5
9 0 1 0 0 0 1 0 0 0 1 4 -5.449001 -5.25 0.5 3.5 0.5
9 0 1 0 0 0 1 0 0 0 1 0 12.551 -36.25 3.5 0.5 0.5
9 0 1 0 0 0 1 0 0 0 1 0 5.550999 -30.25 3.5 0.5 0.5
9 0 1 0 0 0 1 0 0 0 1 0 -0.4490013 -22.25 3.5 0.5 0.5
9 0 1 0 0 0 1 0 0 0 1 -14 66.55099 -52.25 0.5 3.5 0.5
9 0 1 0 0 0 1 0 0 0 1 -25 5.550999 -4.25 3.5 0.5 0.5
9 0 1 0 0 0 1 0 0 0 1 26.5 40.551 -17.25 1 0.5 1.5
9 0 1 0 0 0 1 0 0 0 1 27 10.051 5.75 1.5 1 0.5
9 0 1 0 0 0 1 0 0 0 1 26 33.051 -16.25 1.5 1 0.5
9 0 1 0 0 0 1 0 0 0 1 23 20.551 -24.75 0.5 1.5 1
9 0 1 0 0 0 1 0 0 0 1 23 22.051 -10.25 1.5 1 0.5
9 0 1 0 0 0 1 0 0 0 1 22 20.551 -10.75 0.5 0.5 3
9 0 1 0 0 0 1 0 0 0 1 21 23.551 15.25 0.5 0.5 3
9 0 1 0 0 0 1 0 0 0 1 20 12.051 16.75 0.5 1 1.5
9 0 1 0 0 0 1 0 0 0 1 19 19.051 20.75 0.5 3 0.5
9 0 1 0 0 0 1 0 0 0 1 11 20.551 -37.75 1.5 0.5 1
9 0 1 0 0 0 1 0 0 0 1 5 -2.949001 5.75 1.5 1 0.5
9 0 1 0 0 0 1 0 0 0 1 3 50.051 -62.25 1.5 1 0.5
9 0 1 0 0 0 1 0 0 0 1 4.5 21.551 -42.25 3 0.5 0.5
9 0 1 0 0 0 1 0 0 0 1 0 22.051 -46.25 1.5 1 0.5
9 0 1 0 0 0 1 0 0 0 1 -2 21.051 -42.25 0.5 1 1.5
9 0 1 0 0 0 1 0 0 0 1 -2.5 51.551 -59.25 1 1.5 0.5
9 0 1 0 0 0 1 0 0 0 1 -0.5 19.551 -40.25 3 0.5 0.5
9 0 1 0 0 0 1 0 0 0 1 -6.5 60.551 -57.25 1 1.5 0.5
9 0 1 0 0 0 1 0 0 0 1 -7 51.051 -56.25 0.5 3 0.5
9 0 1 0 0 0 1 0 0 0 1 -9 -2.449001 0.25 0.5 0.5 3
9 0 1 0 0 0 1 0 0 0 1 -10 57.051 -54.25 0.5 3 0.5
9 0 1 0 0 0 1 0 0 0 1 -12 61.051 -53.25 0.5 3 0.5
9 0 1 0 0 0 1 0 0 0 1 -13 67.05099 -53.25 0.5 3 0.5
9 0 1 0 0 0 1 0 0 0 1 -14 20.551 -35.75 1.5 0.5 1
9 0 1 0 0 0 1 0 0 0 1 -18.5 20.551 20.75 1 1.5 0.5
9 0 1 0 0 0 1 0 0 0 1 -20 12.551 17.25 0.5 1.5 1
9 0 1 0 0 0 1 0 0 0 1 -21 22.551 17.25 0.5 1.5 1
9 0 1 0 0 0 1 0 0 0 1 -21 11.551 15.25 0.5 0.5 3
9 0 1 0 0 0 1 0 0 0 1 -22 20.551 -10.75 0.5 0.5 3
9 0 1 0 0 0 1 0 0 0 1 -22 7.550999 -8.75 0.5 0.5 3
9 0 1 0 0 0 1 0 0 0 1 -23 20.551 -24.75 0.5 1.5 1
9 0 1 0 0 0 1 0 0 0 1 -23 24.551 15.25 1.5 0.5 1
9 0 1 0 0 0 1 0 0 0 1 -23 22.551 -14.75 1.5 0.5 1
9 0 1 0 0 0 1 0 0 0 1 -23 22.051 -10.25 1.5 1 0.5
9 0 1 0 0 0 1 0 0 0 1 -25 29.551 -18.75 0.5 0.5 3
9 0 1 0 0 0 1 0 0 0 1 -26.5 40.551 -17.25 1 0.5 1.5
9 0 1 0 0 0 1 0 0 0 1 -26 32.551 -16.75 1.5 0.5 1
9 0 1 0 0 0 1 0 0 0 1 -26 30.551 -20.75 1.5 0.5 1
9 0 1 0 0 0 1 0 0 0 1 -27 10.051 5.75 1.5 1 0.5
9 0 1 0 0 0 1 0 0 0 1 15 67.55099 -51.25 0.5 2.5 0.5
9 0 1 0 0 0 1 0 0 0 1 12 61.551 -53.25 0.5 2.5 0.5
9 0 1 0 0 0 1 0 0 0 1 10 56.551 -54.25 0.5 2.5 0.5
9 0 1 0 0 0 1 0 0 0 1 10 21.551 -39.25 2.5 0.5 0.5
9 0 1 0 0 0 1 0 0 0 1 7 50.551 -56.25 0.5 2.5 0.5
9 0 1 0 0 0 1 0 0 0 1 0 27.551 -44.25 2.5 0.5 0.5
9 0 1 0 0 0 1 0 0 0 1 -4 -3.449001 -8.25 0.5 0.5 2.5
9 0 1 0 0 0 1 0 0 0 1 -4 -6.449001 4.75 0.5 2.5 0.5
9 0 1 0 0 0 1 0 0 0 1 -5 62.551 -59.25 0.5 2.5 0.5
9 0 1 0 0 0 1 0 0 0 1 -5 -6.449001 -4.25 0.5 2.5 0.5
9 0 1 0 0 0 1 0 0 0 1 -5 21.551 -42.25 2.5 0.5 0.5
9 0 1 0 0 0 1 0 0 0 1 -15 67.55099 -51.25 0.5 2.5 0.5
9 0 1 0 0 0 1 0 0 0 1 -26 20.551 -13.25 2.5 0.5 0.5
9 0 1 0 0 0 1 0 0 0 1 26.5 29.551 -22.75 1 0.5 1
9 0 1 0 0 0 1 0 0 0 1 25 25.051 12.25 0.5 1 1
9 0 1 0 0 0 1 0 0 0 1 25 20.051 9.75 0.5 2 0.5
9 0 1 0 0 0 1 0 0 0 1 25.5 22.551 -21.25 2 0.5 0.5
9 0 1 0 0 0 1 0 0 0 1 23.5 49.051 -12.25 1 1 0.5
9 0 1 0 0 0 1 0 0 0 1 23 25.051 -26.25 0.5 2 0.5
9 0 1 0 0 0 1 0 0 0 1 23.5 22.551 10.75 2 0.5 0.5
9 0 1 0 0 0 1 0 0 0 1 23.5 13.551 12.75 2 0.5 0.5
9 0 1 0 0 0 1 0 0 0 1 20.5 16.051 19.75 1 1 0.5
9 0 1 0 0 0 1 0 0 0 1 20 14.051 18.25 0.5 1 1
9 0 1 0 0 0 1 0 0 0 1 20.5 11.551 7.25 1 0.5 1
9 0 1 0 0 0 1 0 0 0 1 20.5 16.551 -25.25 2 0.5 0.5
9 0 1 0 0 0 1 0 0 0 1 17.5 18.551 -29.75 1 0.5 1
9 0 1 0 0 0 1 0 0 0 1 18.5 3.550999 -2.25 2 0.5 0.5
9 0 1 0 0 0 1 0 0 0 1 14.5 19.551 -33.75 1 0.5 1
9 0 1 0 0 0 1 0 0 0 1 13 68.05099 -53.25 0.5 2 0.5
9 0 1 0 0 0 1 0 0 0 1 13 62.051 -52.25 0.5 2 0.5
9 0 1 0 0 0 1 0 0 0 1 6.5 22.551 -43.75 1 0.5 1
9 0 1 0 0 0 1 0 0 0 1 6.5 -2.449001 -4.75 1 0.5 1
9 0 1 0 0 0 1 0 0 0 1 4.5 -3.449001 -6.75 1 0.5 1
9 0 1 0 0 0 1 0 0 0 1 3.5 -2.449001 20.25 1 0.5 1
9 0 1 0 0 0 1 0 0 0 1 3.5 59.551 -62.25 2 0.5 0.5
9 0 1 0 0 0 1 0 0 0 1 -0.5 50.051 -63.25 1 1 0.5
9 0 1 0 0 0 1 0 0 0 1 -0.5 50.051 -58.25 1 1 0.5
9 0 1 0 0 0 1 0 0 0 1 0.5 20.551 -41.25 2 0.5 0.5
9 0 1 0 0 0 1 0 0 0 1 -3.5 -2.449001 20.25 1 0.5 1
9 0 1 0 0 0 1 0 0 0 1 -6.5 22.551 -43.75 1 0.5 1
9 0 1 0 0 0 1 0 0 0 1 -9.5 21.551 -39.25 2 0.5 0.5
9 0 1 0 0 0 1 0 0 0 1 -16.5 18.551 -30.75 1 0.5 1
9 0 1 0 0 0 1 0 0 0 1 -20 11.051 7.25 0.5 1 1
9 0 1 0 0 0 1 0 0 0 1 -18.5 3.550999 -2.25 2 0.5 0.5
9 0 1 0 0 0 1 0 0 0 1 -20.5 16.051 19.75 1 1 0.5
9 0 1 0 0 0 1 0 0 0 1 -22 23.051 -13.25 0.5 2 0.5
9 0 1 0 0 0 1 0 0 0 1 -20.5 16.551 -25.25 2 0.5 0.5
9 0 1 0 0 0 1 0 0 0 1 -22.5 20.051 7.75 1 1 0.5
9 0 1 0 0 0 1 0 0 0 1 -25 44.051 -22.75 0.5 1 1
9 0 1 0 0 0 1 0 0 0 1 -25 25.051 12.25 0.5 1 1
9 0 1 0 0 0 1 0 0 0 1 -23.5 22.551 10.75 2 0.5 0.5
9 0 1 0 0 0 1 0 0 0 1 -23.5 18.551 9.75 2 0.5 0.5
9 0 1 0 0 0 1 0 0 0 1 -25.5 38.051 -16.25 1 1 0.5
9 0 1 0 0 0 1 0 0 0 1 28 17.551 -24.25 0.5 1.5 0.5
9 0 1 0 0 0 1 0 0 0 1 26 46.551 -13.25 0.5 0.5 1.5
9 0 1 0 0 0 1 0 0 0 1 27 10.551 -17.25 1.5 0.5 0.5
9 0 1 0 0 0 1 0 0 0 1 27 4.550999 1.75 1.5 0.5 0.5
9 0 1 0 0 0 1 0 0 0 1 26 38.551 -16.25 1.5 0.5 0.5
9 0 1 0 0 0 1 0 0 0 1 26 32.551 -17.25 1.5 0.5 0.5
9 0 1 0 0 0 1 0 0 0 1 25 34.551 -27.25 1.5 0.5 0.5
9 0 1 0 0 0 1 0 0 0 1 25 19.551 -24.25 1.5 0.5 0.5
9 0 1 0 0 0 1 0 0 0 1 23 29.551 -27.25 0.5 1.5 0.5
9 0 1 0 0 0 1 0 0 0 1 23 21.551 -9.25 1.5 0.5 0.5
9 0 1 0 0 0 1 0 0 0 1 22 13.551 -13.25 0.5 1.5 0.5
9 0 1 0 0 0 1 0 0 0 1 22 13.551 -5.25 0.5 1.5 0.5
9 0 1 0 0 0 1 0 0 0 1 23 4.550999 -3.25 1.5 0.5 0.5
9 0 1 0 0 0 1 0 0 0 1 22 26.551 11.75 1.5 0.5 0.5
9 0 1 0 0 0 1 0 0 0 1 21 12.551 10.75 0.5 0.5 1.5
9 0 1 0 0 0 1 0 0 0 1 22 12.551 17.75 1.5 0.5 0.5
9 0 1 0 0 0 1 0 0 0 1 21 22.551 19.75 1.5 0.5 0.5
9 0 1 0 0 0 1 0 0 0 1 20 10.551 7.75 0.5 0.5 1.5
9 0 1 0 0 0 1 0 0 0 1 16 68.55099 -50.25 0.5 1.5 0.5
9 0 1 0 0 0 1 0 0 0 1 16 18.551 -31.25 1.5 0.5 0.5
9 0 1 0 0 0 1 0 0 0 1 9 -2.449001 -0.25 0.5 0.5 1.5
9 0 1 0 0 0 1 0 0 0 1 5 -3.449001 7.75 0.5 0.5 1.5
9 0 1 0 0 0 1 0 0 0 1 3 -2.449001 8.75 0.5 0.5 1.5
9 0 1 0 0 0 1 0 0 0 1 2 55.551 -58.25 0.5 1.5 0.5
9 0 1 0 0 0 1 0 0 0 1 3 21.551 -41.25 1.5 0.5 0.5
9 0 1 0 0 0 1 0 0 0 1 3 -3.449001 12.75 1.5 0.5 0.5
9 0 1 0 0 0 1 0 0 0 1 0 33.551 -48.25 0.5 1.5 0.5
9 0 1 0 0 0 1 0 0 0 1 0 -5.449001 -14.25 0.5 1.5 0.5
9 0 1 0 0 0 1 0 0 0 1 0 21.551 -47.25 1.5 0.5 0.5
9 0 1 0 0 0 1 0 0 0 1 0 21.551 -45.25 1.5 0.5 0.5
9 0 1 0 0 0 1 0 0 0 1 0 -2.449001 23.75 1.5 0.5 0.5
9 0 1 0 0 0 1 0 0 0 1 -1 17.551 -39.25 1.5 0.5 0.5
9 0 1 0 0 0 1 0 0 0 1 -3 -2.449001 8.75 0.5 0.5 1.5
9 0 1 0 0 0 1 0 0 0 1 -3 59.551 -63.25 1.5 0.5 0.5
9 0 1 0 0 0 1 0 0 0 1 -4 -2.449001 -5.25 0.5 0.5 1.5
9 0 1 0 0 0 1 0 0 0 1 -5 54.551 -57.25 1.5 0.5 0.5
9 0 1 0 0 0 1 0 0 0 1 -9 64.55099 -56.25 0.5 1.5 0.5
9 0 1 0 0 0 1 0 0 0 1 -9 18.551 25.75 0.5 1.5 0.5
9 0 1 0 0 0 1 0 0 0 1 -12 68.55099 -54.25 0.5 1.5 0.5
9 0 1 0 0 0 1 0 0 0 1 -13 62.551 -52.25 0.5 1.5 0.5
9 0 1 0 0 0 1 0 0 0 1 -14 63.551 -51.25 0.5 1.5 0.5
9 0 1 0 0 0 1 0 0 0 1 -15 19.551 -33.25 0.5 0.5 1.5
9 0 1 0 0 0 1 0 0 0 1 -16 68.55099 -50.25 0.5 1.5 0.5
9 0 1 0 0 0 1 0 0 0 1 -19 17.551 20.75 0.5 1.5 0.5
9 0 1 0 0 0 1 0 0 0 1 -20 14.551 18.75 0.5 1.5 0.5
9 0 1 0 0 0 1 0 0 0 1 -21 25.551 12.75 0.5 0.5 1.5
9 0 1 0 0 0 1 0 0 0 1 -22 13.551 -13.25 0.5 1.5 0.5
9 0 1 0 0 0 1 0 0 0 1 -22 13.551 -5.25 0.5 1.5 0.5
9 0 1 0 0 0 1 0 0 0 1 -22 6.550999 -7.25 0.5 0.5 1.5
9 0 1 0 0 0 1 0 0 0 1 -22 26.551 11.75 1.5 0.5 0.5
9 0 1 0 0 0 1 0 0 0 1 -22 21.551 8.75 1.5 0.5 0.5
9 0 1 0 0 0 1 0 0 0 1 -23 13.551 12.75 1.5 0.5 0.5
9 0 1 0 0 0 1 0 0 0 1 -23 7.550999 5.75 1.5 0.5 0.5
9 0 1 0 0 0 1 0 0 0 1 -25 40.551 -19.25 0.5 1.5 0.5
9 0 1 0 0 0 1 0 0 0 1 -26 49.551 -19.25 0.5 0.5 1.5
9 0 1 0 0 0 1 0 0 0 1 -26 46.551 -13.25 0.5 0.5 1.5
9 0 1 0 0 0 1 0 0 0 1 -25 22.551 -21.25 1.5 0.5 0.5
9 0 1 0 0 0 1 0 0 0 1 -25 19.551 -24.25 1.5 0.5 0.5
9 0 1 0 0 0 1 0 0 0 1 -26 33.551 -16.25 1.5 0.5 0.5
9 0 1 0 0 0 1 0 0 0 1 -28 17.551 -24.25 0.5 1.5 0.5
9 0 1 0 0 0 1 0 0 0 1 -28 11.551 -18.25 0.5 0.5 1.5
9 0 1 0 0 0 1 0 0 0 1 -27 10.551 -17.25 1.5 0.5 0.5
9 0 1 0 0 0 1 0 0 0 1 -27 4.550999 -2.25 1.5 0.5 0.5
9 0 1 0 0 0 1 0 0 0 1 -27 4.550999 1.75 1.5 0.5 0.5
