9 0 1 0 0 0 1 0 0 0 1 0.05400085 0 0.132 5 1.5 2
9 0 1 0 0 0 1 0 0 0 1 6.554001 0 -0.368 1.5 1.5 1.5
9 0 1 0 0 0 1 0 0 0 1 -6.445999 0 -0.368 1.5 1.5 1.5
9 0 1 0 0 0 1 0 0 0 1 0.05400085 2 -0.368 9 0.5 0.5
9 0 1 0 0 0 1 0 0 0 1 -0.4459991 -2 -0.368 8.5 0.5 0.5
9 0 1 0 0 0 1 0 0 0 1 1.054001 2 0.632 4 0.5 0.5
9 0 1 0 0 0 1 0 0 0 1 -1.445999 -2 0.632 3.5 0.5 0.5
9 0 1 0 0 0 1 0 0 0 1 8.554001 0 0.132 0.5 1.5 1
9 0 1 0 0 0 1 0 0 0 1 -6.445999 0.5 1.632 1.5 1 0.5
9 0 1 0 0 0 1 0 0 0 1 -8.445999 0 0.132 0.5 1.5 1
9 0 1 0 0 0 1 0 0 0 1 6.054001 -0.5 1.632 1 1 0.5
