9 0 1 0 0 0 1 0 0 0 1 0 14.5 4.5 32.5 7 19
9 0 1 0 0 0 1 0 0 0 1 0 9.5 -24.5 32.5 2 10
9 0 1 0 0 0 1 0 0 0 1 0 25 0 32.5 0.5 34.5
9 0 1 0 0 0 1 0 0 0 1 0 10.5 29 32.5 3 5.5
9 0 1 0 0 0 1 0 0 0 1 24.5 16.5 -24.5 8 5 10
9 0 1 0 0 0 1 0 0 0 1 -24.5 16.5 -24.5 8 5 10
9 0 1 0 0 0 1 0 0 0 1 0 34 -27 38.5 0.5 11.5
9 0 1 0 0 0 1 0 0 0 1 0 34 27 38.5 0.5 11.5
9 0 1 0 0 0 1 0 0 0 1 -1.5 2 -27 37 0.5 11.5
9 0 1 0 0 0 1 0 0 0 1 23.5 17.5 29 9 4 5.5
9 0 1 0 0 0 1 0 0 0 1 -23.5 17.5 29 9 4 5.5
9 0 1 0 0 0 1 0 0 0 1 -7 2 27 31.5 0.5 11.5
9 0 1 0 0 0 1 0 0 0 1 20 29.5 0 4.5 1 34.5
9 0 1 0 0 0 1 0 0 0 1 20 6.5 0 4.5 1 34.5
9 0 1 0 0 0 1 0 0 0 1 0 29.5 0 4.5 1 34.5
9 0 1 0 0 0 1 0 0 0 1 0 6.5 0 4.5 1 34.5
9 0 1 0 0 0 1 0 0 0 1 -20 29.5 0 4.5 1 34.5
9 0 1 0 0 0 1 0 0 0 1 -20 6.5 0 4.5 1 34.5
9 0 1 0 0 0 1 0 0 0 1 0 17.5 29 5.5 4 5.5
9 0 1 0 0 0 1 0 0 0 1 0 28.5 -38 38.5 5 0.5
9 0 1 0 0 0 1 0 0 0 1 0 7.5 -38 38.5 5 0.5
9 0 1 0 0 0 1 0 0 0 1 0 29 38 38.5 4.5 0.5
9 0 1 0 0 0 1 0 0 0 1 0 7 38 38.5 4.5 0.5
9 0 1 0 0 0 1 0 0 0 1 31.5 32.5 18 4 1 16.5
9 0 1 0 0 0 1 0 0 0 1 31.5 3.5 -18 4 1 16.5
9 0 1 0 0 0 1 0 0 0 1 -31.5 32.5 -18 4 1 16.5
9 0 1 0 0 0 1 0 0 0 1 -31.5 3.5 18 4 1 16.5
9 0 1 0 0 0 1 0 0 0 1 10 29.5 25 5.5 1 9.5
9 0 1 0 0 0 1 0 0 0 1 10 6.5 -25 5.5 1 9.5
9 0 1 0 0 0 1 0 0 0 1 -10 29.5 -25 5.5 1 9.5
9 0 1 0 0 0 1 0 0 0 1 -10 6.5 25 5.5 1 9.5
9 0 1 0 0 0 1 0 0 0 1 10 34 -8.5 14.5 0.5 7
9 0 1 0 0 0 1 0 0 0 1 10 2 8.5 14.5 0.5 7
9 0 1 0 0 0 1 0 0 0 1 -10 34 8.5 14.5 0.5 7
9 0 1 0 0 0 1 0 0 0 1 -10 2 -8.5 14.5 0.5 7
9 0 1 0 0 0 1 0 0 0 1 10 32.5 -18 2.5 1 16.5
9 0 1 0 0 0 1 0 0 0 1 10 3.5 18 2.5 1 16.5
9 0 1 0 0 0 1 0 0 0 1 -10 32.5 18 2.5 1 16.5
9 0 1 0 0 0 1 0 0 0 1 -10 3.5 -18 2.5 1 16.5
9 0 1 0 0 0 1 0 0 0 1 31.5 2 27 7 0.5 11.5
9 0 1 0 0 0 1 0 0 0 1 27 34 8.5 11.5 0.5 7
9 0 1 0 0 0 1 0 0 0 1 27 2 -8.5 11.5 0.5 7
9 0 1 0 0 0 1 0 0 0 1 -27 34 -8.5 11.5 0.5 7
9 0 1 0 0 0 1 0 0 0 1 -27 2 8.5 11.5 0.5 7
9 0 1 0 0 0 1 0 0 0 1 0 36.5 -38 38.5 2 0.5
9 0 1 0 0 0 1 0 0 0 1 0 36.5 -2 38.5 2 0.5
9 0 1 0 0 0 1 0 0 0 1 0 36.5 2 38.5 2 0.5
9 0 1 0 0 0 1 0 0 0 1 0 36.5 38 38.5 2 0.5
9 0 1 0 0 0 1 0 0 0 1 28.5 6.5 25 4 1 9.5
9 0 1 0 0 0 1 0 0 0 1 -28.5 6.5 -25 4 1 9.5
9 0 1 0 0 0 1 0 0 0 1 27.5 18 38 11 6.5 0.5
9 0 1 0 0 0 1 0 0 0 1 -27.5 18 38 11 6.5 0.5
9 0 1 0 0 0 1 0 0 0 1 28 29.5 -25 3.5 1 9.5
9 0 1 0 0 0 1 0 0 0 1 -28 29.5 25 3.5 1 9.5
9 0 1 0 0 0 1 0 0 0 1 26.5 18 -38 12 5.5 0.5
9 0 1 0 0 0 1 0 0 0 1 -26.5 18 -38 12 5.5 0.5
9 0 1 0 0 0 1 0 0 0 1 38 36.5 -20 0.5 2 17.5
9 0 1 0 0 0 1 0 0 0 1 38 36.5 20 0.5 2 17.5
9 0 1 0 0 0 1 0 0 0 1 -38 36.5 -20 0.5 2 17.5
9 0 1 0 0 0 1 0 0 0 1 -38 36.5 20 0.5 2 17.5
9 0 1 0 0 0 1 0 0 0 1 37 26 -19.5 1.5 0.5 18
9 0 1 0 0 0 1 0 0 0 1 37 26 19.5 1.5 0.5 18
9 0 1 0 0 0 1 0 0 0 1 37 18 -19.5 1.5 0.5 18
9 0 1 0 0 0 1 0 0 0 1 37 18 19.5 1.5 0.5 18
9 0 1 0 0 0 1 0 0 0 1 37 10 -19.5 1.5 0.5 18
9 0 1 0 0 0 1 0 0 0 1 37 10 19.5 1.5 0.5 18
9 0 1 0 0 0 1 0 0 0 1 -37 26 -19.5 1.5 0.5 18
9 0 1 0 0 0 1 0 0 0 1 -37 26 19.5 1.5 0.5 18
9 0 1 0 0 0 1 0 0 0 1 -37 18 -19.5 1.5 0.5 18
9 0 1 0 0 0 1 0 0 0 1 -37 18 19.5 1.5 0.5 18
9 0 1 0 0 0 1 0 0 0 1 -37 10 -19.5 1.5 0.5 18
9 0 1 0 0 0 1 0 0 0 1 -37 10 19.5 1.5 0.5 18
9 0 1 0 0 0 1 0 0 0 1 0 18 38 3.5 6.5 0.5
9 0 1 0 0 0 1 0 0 0 1 37 2 -27 1.5 0.5 11.5
9 0 1 0 0 0 1 0 0 0 1 10 18 30 1.5 1.5 3.5
9 0 1 0 0 0 1 0 0 0 1 -10 18 30 1.5 1.5 3.5
9 0 1 0 0 0 1 0 0 0 1 37 34 -8.5 1.5 0.5 7
9 0 1 0 0 0 1 0 0 0 1 37 2 8.5 1.5 0.5 7
9 0 1 0 0 0 1 0 0 0 1 -31.5 34 3 7 0.5 1.5
9 0 1 0 0 0 1 0 0 0 1 -31.5 2 -3 7 0.5 1.5
9 0 1 0 0 0 1 0 0 0 1 30 34 -3 5.5 0.5 1.5
9 0 1 0 0 0 1 0 0 0 1 30 2 3 5.5 0.5 1.5
9 0 1 0 0 0 1 0 0 0 1 10 34 3 5.5 0.5 1.5
9 0 1 0 0 0 1 0 0 0 1 10 2 -3 5.5 0.5 1.5
9 0 1 0 0 0 1 0 0 0 1 -10 34 -3 5.5 0.5 1.5
9 0 1 0 0 0 1 0 0 0 1 -10 2 3 5.5 0.5 1.5
9 0 1 0 0 0 1 0 0 0 1 -37 34 10 1.5 0.5 5.5
9 0 1 0 0 0 1 0 0 0 1 -37 2 -10 1.5 0.5 5.5
9 0 1 0 0 0 1 0 0 0 1 0 18 42.5 1.5 0.5 4
9 0 1 0 0 0 1 0 0 0 1 10 18 36 1.5 0.5 2.5
9 0 1 0 0 0 1 0 0 0 1 -10 18 36 1.5 0.5 2.5
9 0 1 0 0 0 1 0 0 0 1 14 14 29 0.5 0.5 5.5
9 0 1 0 0 0 1 0 0 0 1 6 14 29 0.5 0.5 5.5
9 0 1 0 0 0 1 0 0 0 1 9 23 -38 5.5 0.5 0.5
9 0 1 0 0 0 1 0 0 0 1 9 13 -38 5.5 0.5 0.5
9 0 1 0 0 0 1 0 0 0 1 -6 14 29 0.5 0.5 5.5
9 0 1 0 0 0 1 0 0 0 1 -9 23 -38 5.5 0.5 0.5
9 0 1 0 0 0 1 0 0 0 1 -14 14 29 0.5 0.5 5.5
9 0 1 0 0 0 1 0 0 0 1 10 16.5 38 2.5 1 0.5
9 0 1 0 0 0 1 0 0 0 1 -10 16.5 38 2.5 1 0.5
9 0 1 0 0 0 1 0 0 0 1 -9.5 13 -38 5 0.5 0.5
9 0 1 0 0 0 1 0 0 0 1 10 20 38 1.5 1.5 0.5
9 0 1 0 0 0 1 0 0 0 1 -10 20 38 1.5 1.5 0.5
9 0 1 0 0 0 1 0 0 0 1 0 19 42.5 0.5 0.5 4
9 0 1 0 0 0 1 0 0 0 1 0 17 42.5 0.5 0.5 4
9 0 1 0 0 0 1 0 0 0 1 25.5 29.5 -15 1 1 0.5
9 0 1 0 0 0 1 0 0 0 1 25.5 6.5 15 1 1 0.5
9 0 1 0 0 0 1 0 0 0 1 15 29.5 14.5 0.5 1 1
9 0 1 0 0 0 1 0 0 0 1 15 6.5 -14.5 0.5 1 1
9 0 1 0 0 0 1 0 0 0 1 12.5 18.5 38 1 1 0.5
9 0 1 0 0 0 1 0 0 0 1 10 19 35.5 0.5 0.5 2
9 0 1 0 0 0 1 0 0 0 1 10 17 35.5 0.5 0.5 2
9 0 1 0 0 0 1 0 0 0 1 7.5 18.5 38 1 1 0.5
9 0 1 0 0 0 1 0 0 0 1 5.5 29.5 15 1 1 0.5
9 0 1 0 0 0 1 0 0 0 1 5.5 6.5 -15 1 1 0.5
9 0 1 0 0 0 1 0 0 0 1 -5 29.5 -14.5 0.5 1 1
9 0 1 0 0 0 1 0 0 0 1 -5 6.5 14.5 0.5 1 1
9 0 1 0 0 0 1 0 0 0 1 -7.5 18.5 38 1 1 0.5
9 0 1 0 0 0 1 0 0 0 1 -10 19 35.5 0.5 0.5 2
9 0 1 0 0 0 1 0 0 0 1 -10 17 35.5 0.5 0.5 2
9 0 1 0 0 0 1 0 0 0 1 -12.5 18.5 38 1 1 0.5
9 0 1 0 0 0 1 0 0 0 1 -14.5 29.5 -15 1 1 0.5
9 0 1 0 0 0 1 0 0 0 1 -14.5 6.5 15 1 1 0.5
9 0 1 0 0 0 1 0 0 0 1 -25 29.5 14.5 0.5 1 1
9 0 1 0 0 0 1 0 0 0 1 -25 6.5 -14.5 0.5 1 1
9 0 1 0 0 0 1 0 0 0 1 10 15 38 1.5 0.5 0.5
9 0 1 0 0 0 1 0 0 0 1 1 19 44 0.5 0.5 1.5
9 0 1 0 0 0 1 0 0 0 1 1 17 44 0.5 0.5 1.5
9 0 1 0 0 0 1 0 0 0 1 -1 19 44 0.5 0.5 1.5
9 0 1 0 0 0 1 0 0 0 1 -1 17 44 0.5 0.5 1.5
9 0 1 0 0 0 1 0 0 0 1 -10 15 38 1.5 0.5 0.5
