9 0 1 0 0 0 1 0 0 0 1 -0.5 2.5 -7 16.5 1 1.5
9 0 1 0 0 0 1 0 0 0 1 -0.5 2.5 7 16.5 1 1.5
9 0 1 0 0 0 1 0 0 0 1 9.5 18 2 6.5 0.5 5.5
9 0 1 0 0 0 1 0 0 0 1 -10 18 2 6 0.5 5.5
9 0 1 0 0 0 1 0 0 0 1 9.5 12 -6 6.5 3.5 0.5
9 0 1 0 0 0 1 0 0 0 1 17.5 54.5 2 0.5 4 5.5
9 0 1 0 0 0 1 0 0 0 1 -10 12 -6 6 3.5 0.5
9 0 1 0 0 0 1 0 0 0 1 10.5 56 -9 7.5 2.5 0.5
9 0 1 0 0 0 1 0 0 0 1 -10.5 56 -9 7.5 2.5 0.5
9 0 1 0 0 0 1 0 0 0 1 10 40 7 7 2.5 0.5
9 0 1 0 0 0 1 0 0 0 1 -10 40 7 7 2.5 0.5
9 0 1 0 0 0 1 0 0 0 1 -0.5 2 -4.5 16.5 0.5 1
9 0 1 0 0 0 1 0 0 0 1 -0.5 2 4.5 16.5 0.5 1
9 0 1 0 0 0 1 0 0 0 1 9.5 20.5 7 6.5 2 0.5
9 0 1 0 0 0 1 0 0 0 1 -10 20.5 7 6 2 0.5
9 0 1 0 0 0 1 0 0 0 1 4.5 17 1.5 1.5 0.5 6
9 0 1 0 0 0 1 0 0 0 1 -0.5 4 -8 16.5 0.5 0.5
9 0 1 0 0 0 1 0 0 0 1 -0.5 4 8 16.5 0.5 0.5
9 0 1 0 0 0 1 0 0 0 1 4.5 6.5 0 1.5 1 2.5
9 0 1 0 0 0 1 0 0 0 1 4.5 12 -5 1.5 4.5 0.5
9 0 1 0 0 0 1 0 0 0 1 17.5 56 -6 0.5 2.5 2.5
9 0 1 0 0 0 1 0 0 0 1 15.5 16.5 1.5 0.5 1 6
9 0 1 0 0 0 1 0 0 0 1 -5 17 1.5 1 0.5 6
9 0 1 0 0 0 1 0 0 0 1 -15 17 1.5 1 0.5 6
9 0 1 0 0 0 1 0 0 0 1 -5 6.5 0 1 1 2.5
9 0 1 0 0 0 1 0 0 0 1 -5 12 -5 1 4.5 0.5
9 0 1 0 0 0 1 0 0 0 1 5.5 12 0 2.5 1.5 0.5
9 0 1 0 0 0 1 0 0 0 1 -10.5 58 7 7.5 0.5 0.5
9 0 1 0 0 0 1 0 0 0 1 10 58 7 7 0.5 0.5
9 0 1 0 0 0 1 0 0 0 1 -0.5 6.5 0 0.5 1 3.5
9 0 1 0 0 0 1 0 0 0 1 -15.5 16 1 0.5 0.5 6.5
9 0 1 0 0 0 1 0 0 0 1 14.5 17 1.5 0.5 0.5 6
9 0 1 0 0 0 1 0 0 0 1 -0.5 12.5 -5.5 0.5 3 1
9 0 1 0 0 0 1 0 0 0 1 -0.5 12.5 5.5 0.5 3 1
9 0 1 0 0 0 1 0 0 0 1 -6 12 0 2 1.5 0.5
9 0 1 0 0 0 1 0 0 0 1 -0.5 17.5 0 0.5 1 2.5
9 0 1 0 0 0 1 0 0 0 1 4 16 5.5 1 0.5 2
9 0 1 0 0 0 1 0 0 0 1 -17.5 54 7 0.5 3.5 0.5
9 0 1 0 0 0 1 0 0 0 1 4.5 7.5 -4 1.5 1 0.5
9 0 1 0 0 0 1 0 0 0 1 5.5 12 -1 2.5 0.5 0.5
9 0 1 0 0 0 1 0 0 0 1 5.5 12 1 2.5 0.5 0.5
9 0 1 0 0 0 1 0 0 0 1 -3.5 23 7 0.5 2.5 0.5
9 0 1 0 0 0 1 0 0 0 1 -14.5 -2 0 0.5 0.5 2.5
9 0 1 0 0 0 1 0 0 0 1 16 56.5 7 1 1 0.5
9 0 1 0 0 0 1 0 0 0 1 16 43.5 7 1 1 0.5
9 0 1 0 0 0 1 0 0 0 1 16 36.5 7 1 1 0.5
9 0 1 0 0 0 1 0 0 0 1 4 56.5 7 1 1 0.5
9 0 1 0 0 0 1 0 0 0 1 4 43.5 7 1 1 0.5
9 0 1 0 0 0 1 0 0 0 1 4 36.5 7 1 1 0.5
9 0 1 0 0 0 1 0 0 0 1 4 23.5 7 1 1 0.5
9 0 1 0 0 0 1 0 0 0 1 -0.5 16.5 -3.5 0.5 1 1
9 0 1 0 0 0 1 0 0 0 1 -0.5 8.5 -4.5 0.5 1 1
9 0 1 0 0 0 1 0 0 0 1 -4 56.5 7 1 1 0.5
9 0 1 0 0 0 1 0 0 0 1 -4 43.5 7 1 1 0.5
9 0 1 0 0 0 1 0 0 0 1 -4 36.5 7 1 1 0.5
9 0 1 0 0 0 1 0 0 0 1 -4.5 16 5.5 0.5 0.5 2
9 0 1 0 0 0 1 0 0 0 1 -5 7.5 -4 1 1 0.5
9 0 1 0 0 0 1 0 0 0 1 -6 12 -1 2 0.5 0.5
9 0 1 0 0 0 1 0 0 0 1 -6 12 1 2 0.5 0.5
9 0 1 0 0 0 1 0 0 0 1 -16 56.5 7 1 1 0.5
9 0 1 0 0 0 1 0 0 0 1 -16 43.5 7 1 1 0.5
9 0 1 0 0 0 1 0 0 0 1 -16 36.5 7 1 1 0.5
9 0 1 0 0 0 1 0 0 0 1 4.5 16 -4 1.5 0.5 0.5
9 0 1 0 0 0 1 0 0 0 1 3.5 15 6 0.5 0.5 1.5
9 0 1 0 0 0 1 0 0 0 1 4.5 7 -3 1.5 0.5 0.5
9 0 1 0 0 0 1 0 0 0 1 -0.5 16 4 0.5 1.5 0.5
9 0 1 0 0 0 1 0 0 0 1 -0.5 12 0 0.5 1.5 0.5
9 0 1 0 0 0 1 0 0 0 1 -0.5 8 4 0.5 0.5 1.5
