8192 0 1 0 0 0 0.7071067 0.7071068 0 -0.7071068 0.7071067 132.9967 -0.006441663 9.995837 93.75327 3.434059 3.434059
8192 0 1 0 0 0 0.7071067 0.7071068 0 -0.7071068 0.7071067 220 -0.006442476 9.995836 6.750005 6.05962 6.059619
9 0 1 0 0 0 1 0 0 0 1 12.72757 5.711859 9.994942 4.257891 2.718753 9.24506
9 0 1 0 0 0 1 0 0 0 1 12.72757 -5.72565 9.994942 4.257892 2.718754 9.24506
9 0 1 0 0 0 1 0 0 0 1 24.17296 -4.194396 9.994942 1.187501 1.187501 9.24506
9 0 1 0 0 0 1 0 0 0 1 24.17296 4.180605 9.994942 1.187502 1.1875 9.24506
8192 0 -1 -3.345525E-08 -8.076812E-08 3.345525E-08 0.7071067 -0.7071069 8.076812E-08 -0.7071069 -0.7071071 32.85472 -0.006898399 9.999882 4.888719 3.669418 3.669418
9 0 1 0 0 0 1 0 0 0 1 10.29253 8.465305 9.994942 9.542533 0.1 9.24506
9 0 1 0 0 0 1 0 0 0 1 10.29253 -8.465305 9.994942 9.542533 0.1 9.24506
8192 0 -0.1577981 0.9874715 0 -0.9874715 -0.1577981 0 0 0 1 21.16704 -7.303145 10.00286 0.3791944 1.948729 9.247147
8192 0 -0.7660446 0.6427875 0 -0.6427875 -0.7660446 0 0 0 1 25.65244 -4.742957 10.00286 0.3962689 1.948729 9.247147
9 0 1 0 0 0 1 0 0 0 1 27.40105 0 10.00286 0.3739473 1.948729 9.247147
8192 0 -0.7660446 -0.6427875 0 0.6427875 -0.7660446 0 0 0 1 25.60571 4.703745 10.00286 0.4572712 1.948729 9.247147
8192 0 -0.1815567 -0.9833805 0 0.9833805 -0.1815567 0 0 0 1 21.34661 7.29378 10.00286 0.3579511 1.948729 9.247147
