9 0 1 0 0 0 1 0 0 0 1 3.742707 3.672395 9.974179 0.7404425 0.6595893 9.224182
9 0 1 0 0 0 1 0 0 0 1 6.745374 0.01280576 11.4375 0.09999874 2.392917 10.6875
9 0 1 0 0 0 1 0 0 0 1 3.742707 -3.658507 9.974179 0.7404435 0.6713139 9.224181
9 0 1 0 0 0 1 0 0 0 1 0.002264827 -6.730303 11.4375 2.392917 0.1 10.6875
9 0 1 0 0 0 1 0 0 0 1 -3.78514 -3.658509 9.974179 0.7874068 0.6713127 9.224182
9 0 1 0 0 0 1 0 0 0 1 -6.740844 0.01280278 11.4375 0.1000013 2.392917 10.6875
9 0 1 0 0 0 1 0 0 0 1 -3.78514 3.672395 9.974179 0.7874056 0.6595893 9.224181
9 0 1 0 0 0 1 0 0 0 1 0.002264827 6.755915 11.4375 2.392917 0.1 10.6875
9 0 1 0 0 0 1 0 0 0 1 1.665335E-14 2.775558E-14 20.84267 4.63081 4.722199 0.1000006
