9 0 1 0 0 0 1 0 0 0 1 2.229398E-07 19.19124 2.567391E-14 4.328927 0.1 4.328927
9 0 1 0 0 0 1 0 0 0 1 -9.313199E-08 10.03126 -5.38104 1.412237 9.218739 0.1000011
9 0 1 0 0 0 1 0 0 0 1 5.38104 10.03126 -9.313226E-08 0.1 9.218738 1.412237
9 0 1 0 0 0 1 0 0 0 1 9.313253E-08 10.03126 5.38104 1.412238 9.218739 0.09999892
9 0 1 0 0 0 1 0 0 0 1 -5.38104 10.03126 9.313224E-08 0.1 9.218738 1.412237
8192 0 0.8347234 -0.5506694 -2.513132E-08 -0.5506694 -0.8347235 -8.373267E-08 2.513132E-08 8.373267E-08 -1 -5.933047 41.67709 -0.001531839 14.77024 4.298842 1.124752
8192 0 0.7071067 -0.7071068 0 0.7071068 0.7071067 0 0 0 1 -15.30311 47.26446 -7.176859E-07 1.969463 1.969463 13.53408
8192 0 -1.192093E-07 0.7071069 -0.7071068 1 -1.192093E-07 -2.980232E-08 -2.980232E-08 -0.7071068 -0.7071069 5 30.14463 3.660267E-14 4.553301 4.25 4.553301
