9 0 1 0 0 0 1 0 0 0 1 4.524436 4.524438 10 1.009849 0.9609812 9.25
9 0 1 0 0 0 1 0 0 0 1 4.524438 -4.524436 10 0.9609812 1.00985 9.25
9 0 1 0 0 0 1 0 0 0 1 -4.524436 -4.524438 10 1.009849 0.9609812 9.25
9 0 1 0 0 0 1 0 0 0 1 -4.524438 4.524436 10 0.9609815 1.009849 9.25
9 0 1 0 0 0 1 0 0 0 1 0 -10.099 10 9.493252 2.59627 1.249998
9 0 1 0 0 0 1 0 0 0 1 0 -31.69442 10 20.39199 4.39363 1.249998
8192 0 -0.3420202 -0.9396927 -7.161255E-08 -0.9396927 0.3420201 -5.014365E-08 7.161255E-08 5.014365E-08 -1 14.34966 -24.61162 10 6.454697 6.624907 1.249998
8192 0 -0.8660258 -0.5000001 -8.444393E-08 -0.5000001 0.8660254 -2.262668E-08 8.444393E-08 2.262668E-08 -1 10.48873 -18.16701 10 2.735424 12.57259 1.249998
8192 0 0.5 0.8660254 0 -0.8660254 0.5 0 0 0 1 8.745991 -5.0495 10 9.493252 2.59627 1.249998
8192 0 0.5 0.8660254 0 -0.8660254 0.5 0 0 0 1 27.44817 -15.84721 10 20.39199 4.39363 1.249998
8192 0 0.6427876 -0.7660445 -3.694646E-08 -0.7660445 -0.6427877 -7.923195E-08 3.694646E-08 7.923195E-08 -1 28.48912 0.1213645 10 6.454697 6.624907 1.249998
9 0 1 0 0 0 1 0 0 0 1 20.97746 -2.775487E-06 10 12.57259 2.735425 1.249998
8192 0 -0.5000001 0.8660254 0 -0.8660254 -0.5000001 0 0 0 1 8.745991 5.0495 10 9.493252 2.59627 1.249998
8192 0 -0.5000001 0.8660254 0 -0.8660254 -0.5000001 0 0 0 1 27.44817 15.84721 10 20.39199 4.39363 1.249998
8192 0 0.9848077 0.1736482 7.619398E-09 0.1736482 -0.9848078 -8.709011E-08 -7.619398E-09 8.709011E-08 -1 14.13946 24.73298 10 6.454697 6.624907 1.249998
8192 0 0.8660254 -0.5000001 -2.262668E-08 -0.5000001 -0.8660258 -8.444393E-08 2.262668E-08 8.444393E-08 -1 10.48873 18.16701 10 2.735424 12.57259 1.249998
9 0 1 0 0 0 1 0 0 0 1 0 10.099 10 9.493252 2.59627 1.249998
9 0 1 0 0 0 1 0 0 0 1 3.881446E-15 31.69442 10 20.39199 4.39363 1.249998
8192 0 0.3420201 0.9396927 5.014365E-08 0.9396927 -0.3420202 -7.161255E-08 -5.014365E-08 7.161255E-08 -1 -14.34966 24.61162 10 6.454697 6.624907 1.249998
8192 0 0.8660254 0.5000001 2.262668E-08 0.5000001 -0.8660258 -8.444393E-08 -2.262668E-08 8.444393E-08 -1 -10.48873 18.16701 10 2.735424 12.57259 1.249998
8192 0 -0.5000001 -0.8660254 0 0.8660254 -0.5000001 0 0 0 1 -8.745991 5.0495 10 9.493252 2.59627 1.249998
8192 0 -0.5000001 -0.8660254 0 0.8660254 -0.5000001 0 0 0 1 -27.44817 15.84721 10 20.39199 4.39363 1.249998
8192 0 -0.6427877 0.7660445 -7.923195E-08 0.7660445 0.6427876 3.694646E-08 7.923195E-08 -3.694646E-08 -1 -28.48912 -0.1213645 10 6.454697 6.624907 1.249998
9 0 1 0 0 0 1 0 0 0 1 -20.97746 2.775487E-06 10 12.57259 2.735422 1.249998
8192 0 0.5 -0.8660254 0 0.8660254 0.5 0 0 0 1 -8.745991 -5.0495 10 9.493252 2.59627 1.249998
8192 0 0.5 -0.8660254 0 0.8660254 0.5 0 0 0 1 -27.44817 -15.84721 10 20.39199 4.39363 1.249998
8192 0 -0.9848078 -0.1736482 -8.709011E-08 -0.1736482 0.9848077 -7.619398E-09 8.709011E-08 7.619398E-09 -1 -14.13946 -24.73298 10 6.454697 6.624907 1.249998
8192 0 -0.8660258 0.5000001 -8.444393E-08 0.5000001 0.8660254 2.262668E-08 8.444393E-08 -2.262668E-08 -1 -10.48873 -18.16701 10 2.735424 12.57259 1.249998
