9 0 1 0 0 0 1 0 0 0 1 4.800625 -139.3624 -0.125 6.5 1.5 1.5
9 0 1 0 0 0 1 0 0 0 1 -3.199375 -6.862442 -0.125 1.5 5 1.5
9 0 1 0 0 0 1 0 0 0 1 -2.699375 -13.86244 -0.125 1 2 1.5
9 0 1 0 0 0 1 0 0 0 1 -1.199375 -12.86244 -0.125 0.5 11 0.5
9 0 1 0 0 0 1 0 0 0 1 -4.199375 -138.3624 -0.125 2.5 0.5 1.5
9 0 1 0 0 0 1 0 0 0 1 4.800625 -139.3624 1.875 6.5 0.5 0.5
9 0 1 0 0 0 1 0 0 0 1 -2.199375 -17.86244 -0.125 0.5 2 1.5
9 0 1 0 0 0 1 0 0 0 1 -3.199375 -7.362442 1.875 0.5 5.5 0.5
9 0 1 0 0 0 1 0 0 0 1 6.300625 -141.3624 -0.125 5 0.5 0.5
9 0 1 0 0 0 1 0 0 0 1 -2.699375 -139.3624 -0.125 1 0.5 1.5
9 0 1 0 0 0 1 0 0 0 1 -6.199375 -137.3624 -0.125 2.5 0.5 0.5
9 0 1 0 0 0 1 0 0 0 1 -3.199375 -17.36244 -0.125 0.5 1.5 0.5
9 0 1 0 0 0 1 0 0 0 1 -4.199375 -13.36244 -0.125 0.5 1.5 0.5
9 0 1 0 0 0 1 0 0 0 1 -5.199375 -139.3624 -0.125 1.5 0.5 0.5
