9 0 1 0 0 0 1 0 0 0 1 -0.003098903 0.07303995 -11.75648 19.11119 19.04943 0.9725051
9 0 1 0 0 0 1 0 0 0 1 -3.72529E-07 0.0870574 -7.085586 3.172636 3.069937 2.282971
9 0 1 0 0 0 1 0 0 0 1 -5.139008 -0.01024135 1.576687 0.3679553 3.167236 1.9083
9 0 1 0 0 0 1 0 0 0 1 5.161738 -0.01024135 1.576687 0.3493282 3.167236 1.9083
8192 0 -0.9091444 0 0.4164809 0 1 0 -0.4164809 0 -0.9091444 4.858895 -0.01024135 -2.986688 0.8722906 3.167236 0.8500762
8192 0 0.9091445 0 0.4164809 0 1 0 -0.4164809 0 0.9091445 -4.868268 -0.01024135 -2.990981 0.879638 3.167236 0.8500768
