9 0 1 0 0 0 1 0 0 0 1 0 -5.376988 -16.67336 2.656018 0.1 11.32945
8192 0 0.8871295 -0.4615206 0 0.4615206 0.8871295 0 0 0 1 -4.310343 -4.291069 -20.4563 0.7606045 0.1197377 7.546504
8192 0 0.9519377 -0.3062859 0.001856785 0.3050747 0.9486784 0.08329959 -0.02727498 -0.07872957 0.9965228 -4.23455 -5.647227 -7.018712 1.005497 0.1 1.846431
9 0 1 0 0 0 1 0 0 0 1 0 1.885699E-08 -19.6026 4.45554 3.75 8.400209
8192 0 -0.9519378 -0.3062859 0.001856858 -0.3050747 0.9486783 0.08329962 -0.02727506 0.07872957 -0.9965229 4.23455 -5.647227 -7.018713 1.005497 0.1 1.846432
8192 0 -0.8871294 -0.4615206 -8.492009E-08 -0.4615206 0.8871295 -2.076825E-08 8.492009E-08 2.076825E-08 -1 4.310343 -4.291069 -20.4563 0.7606045 0.1197377 7.546504
8192 0 -0.9519378 0.3062859 0.001856784 -0.3050748 -0.9486784 0.0832996 0.02727498 0.07872958 0.9965228 4.23455 5.647227 -7.018712 1.005497 0.1 1.846431
8192 0 0.9519377 0.3062859 0.001856783 0.3050747 -0.9486781 0.08329959 0.02727498 -0.07872957 -0.9965227 -4.23455 5.647227 -7.018712 1.005497 0.1 1.846431
8192 0 0.8871295 0.4615206 2.076825E-08 0.4615206 -0.8871294 -8.492009E-08 -2.076825E-08 8.492009E-08 -1 -4.310343 4.291069 -20.4563 0.7606045 0.1197377 7.546504
9 0 1 0 0 0 1 0 0 0 1 0 5.376988 -16.67336 2.656018 0.1 11.32945
8192 0 -0.8871294 0.4615204 0 -0.4615204 -0.8871294 0 0 0 1 4.310343 4.291069 -20.4563 0.7606045 0.1197377 7.546504
8192 0 1 0 0 0 0.7382889 0.6744847 0 -0.6744847 0.7382889 0 -4.774174 -44.24318 8.069754 1.299695 2.676684
8192 0 1 0 0 0 0.9977216 -0.06746653 0 0.06746653 0.9977216 0 -6.364951 -39.70283 7.694126 1.298919 2.676684
8192 0 1 0 0 0 0.6746062 -0.7381778 0 0.7381778 0.6746062 0 -4.187467 -35.24613 7.07374 1.301607 2.676684
9 0 1 0 0 0 1 0 0 0 1 0 0.220734 -33.61873 6.471288 2.676685 1.364876
8192 0 1 0 0 0 -0.7119871 -0.7021925 0 0.7021925 -0.7119871 0 4.59878 -35.49108 6.494898 1.356264 2.676684
8192 0 1 0 0 0 -0.9896982 -0.1431706 0 0.1431706 -0.9896982 0 7.566206 -38.33623 6.40457 0.5881466 0.9907411
8192 0 1 0 0 0 -0.2560891 -0.9666532 0 0.9666532 -0.2560891 0 -1.881642 -47.27588 8.141376 0.7096854 0.9907411
9 0 1 0 0 0 1 0 0 0 1 0 1.885699E-08 -21.41466 1.75 2.191572 9.9417
