9 0 1 0 0 0 1 0 0 0 1 -0.3011503 -21.54555 3.794476 5 5 2
9 0 1 0 0 0 1 0 0 0 1 0.1988497 -26.54555 9.794476 2.5 3 4
9 0 1 0 0 0 1 0 0 0 1 -0.8011503 -23.04555 -12.70552 3.5 3.5 1.5
9 0 1 0 0 0 1 0 0 0 1 -7.30115 -22.54555 -3.205524 1 3 5
9 0 1 0 0 0 1 0 0 0 1 0.1988497 -28.04555 2.294476 2.5 1.5 3.5
9 0 1 0 0 0 1 0 0 0 1 7.19885 -21.54555 -3.705524 0.5 5 4.5
9 0 1 0 0 0 1 0 0 0 1 5.69885 -21.54555 2.294476 1 4 2.5
9 0 1 0 0 0 1 0 0 0 1 0.1988497 -32.54555 -12.20552 1.5 6 1
9 0 1 0 0 0 1 0 0 0 1 0.1988497 -21.54555 6.794476 4.5 2 1
9 0 1 0 0 0 1 0 0 0 1 0.1988497 -15.54555 3.294476 4.5 1 1.5
9 0 1 0 0 0 1 0 0 0 1 4.19885 -23.04555 -11.70552 1.5 2.5 1.5
9 0 1 0 0 0 1 0 0 0 1 8.19885 -22.04555 -2.205524 0.5 2.5 4
9 0 1 0 0 0 1 0 0 0 1 -0.3011503 -30.54555 11.29448 2 1 2.5
9 0 1 0 0 0 1 0 0 0 1 -4.80115 -21.04555 1.294476 1.5 6.5 0.5
9 0 1 0 0 0 1 0 0 0 1 -4.30115 -22.04555 -10.70552 2 4.5 0.5
9 0 1 0 0 0 1 0 0 0 1 -6.80115 -17.54555 -2.705524 0.5 2 4.5
9 0 1 0 0 0 1 0 0 0 1 -6.30115 -21.54555 3.294476 1 3 1.5
9 0 1 0 0 0 1 0 0 0 1 -0.3011503 -27.54555 14.79448 2 2 1
9 0 1 0 0 0 1 0 0 0 1 -0.3011503 -29.54555 -2.205524 4 1 1
9 0 1 0 0 0 1 0 0 0 1 0.1988497 -22.54555 10.29448 1.5 1 2.5
9 0 1 0 0 0 1 0 0 0 1 0.1988497 -23.54555 -14.70552 2.5 3 0.5
9 0 1 0 0 0 1 0 0 0 1 -5.80115 -21.54555 -0.2055244 0.5 7 1
9 0 1 0 0 0 1 0 0 0 1 -6.30115 -22.04555 -9.205524 1 3.5 1
9 0 1 0 0 0 1 0 0 0 1 6.19885 -22.04555 -1.205524 0.5 6.5 1
9 0 1 0 0 0 1 0 0 0 1 -2.80115 -27.54555 4.294476 0.5 1 6.5
9 0 1 0 0 0 1 0 0 0 1 6.69885 -22.54555 -9.205524 1 3 1
9 0 1 0 0 0 1 0 0 0 1 -0.3011503 -38.54555 -9.705524 2 1 1.5
9 0 1 0 0 0 1 0 0 0 1 -0.3011503 -18.04555 6.294476 4 1.5 0.5
9 0 1 0 0 0 1 0 0 0 1 3.69885 -27.54555 1.294476 1 1 2.5
9 0 1 0 0 0 1 0 0 0 1 -0.3011503 -18.54555 -11.70552 5 1 0.5
9 0 1 0 0 0 1 0 0 0 1 7.19885 -21.54555 2.294476 0.5 3 1.5
9 0 1 0 0 0 1 0 0 0 1 -6.80115 -26.54555 -3.205524 0.5 1 4
9 0 1 0 0 0 1 0 0 0 1 -2.80115 -25.04555 8.294476 0.5 1.5 2.5
9 0 1 0 0 0 1 0 0 0 1 -7.80115 -18.04555 -2.705524 0.5 1.5 2.5
9 0 1 0 0 0 1 0 0 0 1 -1.80115 -30.04555 -12.20552 0.5 3.5 1
9 0 1 0 0 0 1 0 0 0 1 4.19885 -20.04555 1.294476 0.5 6.5 0.5
9 0 1 0 0 0 1 0 0 0 1 -4.80115 -22.04555 -9.705524 0.5 6.5 0.5
9 0 1 0 0 0 1 0 0 0 1 5.69885 -16.54555 1.294476 1 1 1.5
9 0 1 0 0 0 1 0 0 0 1 5.69885 -21.54555 5.294476 1 3 0.5
9 0 1 0 0 0 1 0 0 0 1 3.69885 -26.54555 -11.70552 1 1 1.5
9 0 1 0 0 0 1 0 0 0 1 0.1988497 -32.54555 -13.70552 0.5 6 0.5
9 0 1 0 0 0 1 0 0 0 1 -0.3011503 -32.04555 11.29448 2 0.5 1.5
9 0 1 0 0 0 1 0 0 0 1 -4.80115 -22.54555 -12.20552 0.5 3 1
9 0 1 0 0 0 1 0 0 0 1 -4.30115 -27.54555 -0.7055244 1 1 1.5
9 0 1 0 0 0 1 0 0 0 1 6.19885 -22.04555 -7.705524 0.5 5.5 0.5
9 0 1 0 0 0 1 0 0 0 1 5.19885 -23.54555 -9.705524 0.5 5 0.5
9 0 1 0 0 0 1 0 0 0 1 3.69885 -23.04555 -13.70552 1 2.5 0.5
9 0 1 0 0 0 1 0 0 0 1 2.19885 -29.04555 -12.20552 0.5 2.5 1
9 0 1 0 0 0 1 0 0 0 1 0.1988497 -40.54555 -10.70552 0.5 1 2.5
9 0 1 0 0 0 1 0 0 0 1 -2.80115 -29.04555 -11.20552 0.5 2.5 1
9 0 1 0 0 0 1 0 0 0 1 4.19885 -19.04555 -10.70552 1.5 1.5 0.5
9 0 1 0 0 0 1 0 0 0 1 3.19885 -25.04555 7.294476 0.5 1.5 1.5
9 0 1 0 0 0 1 0 0 0 1 0.1988497 -14.04555 2.294476 4.5 0.5 0.5
9 0 1 0 0 0 1 0 0 0 1 0.1988497 -16.04555 5.294476 4.5 0.5 0.5
9 0 1 0 0 0 1 0 0 0 1 0.1988497 -19.04555 -12.70552 4.5 0.5 0.5
9 0 1 0 0 0 1 0 0 0 1 6.19885 -22.54555 -11.20552 0.5 2 1
9 0 1 0 0 0 1 0 0 0 1 5.69885 -26.54555 0.7944756 1 1 1
9 0 1 0 0 0 1 0 0 0 1 1.69885 -28.04555 -1.705524 4 0.5 0.5
9 0 1 0 0 0 1 0 0 0 1 -0.3011503 -30.04555 7.794476 2 0.5 1
9 0 1 0 0 0 1 0 0 0 1 -6.30115 -21.54555 5.294476 1 2 0.5
9 0 1 0 0 0 1 0 0 0 1 7.19885 -27.04555 -3.705524 0.5 0.5 3.5
9 0 1 0 0 0 1 0 0 0 1 0.1988497 -31.04555 -3.705524 3.5 0.5 0.5
9 0 1 0 0 0 1 0 0 0 1 7.19885 -16.04555 -3.205524 0.5 0.5 3
9 0 1 0 0 0 1 0 0 0 1 4.69885 -29.04555 -1.705524 1 0.5 1.5
9 0 1 0 0 0 1 0 0 0 1 4.19885 -20.04555 -12.20552 1.5 0.5 1
9 0 1 0 0 0 1 0 0 0 1 3.19885 -27.54555 5.294476 0.5 1 1.5
9 0 1 0 0 0 1 0 0 0 1 3.19885 -29.04555 -11.20552 0.5 1.5 1
9 0 1 0 0 0 1 0 0 0 1 2.19885 -30.54555 11.29448 0.5 1 1.5
9 0 1 0 0 0 1 0 0 0 1 2.19885 -37.54555 -9.705524 0.5 1 1.5
9 0 1 0 0 0 1 0 0 0 1 0.1988497 -24.54555 14.29448 1.5 1 0.5
9 0 1 0 0 0 1 0 0 0 1 0.1988497 -30.54555 14.29448 1.5 1 0.5
9 0 1 0 0 0 1 0 0 0 1 -1.80115 -23.04555 10.79448 0.5 0.5 3
9 0 1 0 0 0 1 0 0 0 1 -0.3011503 -19.04555 7.294476 3 0.5 0.5
9 0 1 0 0 0 1 0 0 0 1 -0.3011503 -21.04555 8.294476 3 0.5 0.5
9 0 1 0 0 0 1 0 0 0 1 -1.80115 -27.54555 -13.70552 1.5 1 0.5
9 0 1 0 0 0 1 0 0 0 1 -3.30115 -29.04555 0.2944756 1 0.5 1.5
9 0 1 0 0 0 1 0 0 0 1 -4.80115 -21.54555 6.294476 0.5 3 0.5
9 0 1 0 0 0 1 0 0 0 1 -5.80115 -17.04555 2.794476 0.5 1.5 1
9 0 1 0 0 0 1 0 0 0 1 -7.80115 -22.04555 2.794476 0.5 1.5 1
9 0 1 0 0 0 1 0 0 0 1 -7.80115 -26.04555 -4.205524 0.5 0.5 3
9 0 1 0 0 0 1 0 0 0 1 8.19885 -19.04555 -1.705524 0.5 0.5 2.5
9 0 1 0 0 0 1 0 0 0 1 6.19885 -28.04555 -4.705524 0.5 0.5 2.5
9 0 1 0 0 0 1 0 0 0 1 5.19885 -22.04555 6.294476 0.5 2.5 0.5
9 0 1 0 0 0 1 0 0 0 1 2.19885 -34.04555 -11.70552 0.5 2.5 0.5
9 0 1 0 0 0 1 0 0 0 1 -1.80115 -36.04555 -11.70552 0.5 2.5 0.5
9 0 1 0 0 0 1 0 0 0 1 -5.80115 -22.04555 -11.70552 0.5 2.5 0.5
9 0 1 0 0 0 1 0 0 0 1 -5.80115 -29.04555 -3.705524 0.5 0.5 2.5
9 0 1 0 0 0 1 0 0 0 1 8.19885 -23.54555 -6.705524 0.5 2 0.5
9 0 1 0 0 0 1 0 0 0 1 8.19885 -25.04555 -1.205524 0.5 0.5 2
9 0 1 0 0 0 1 0 0 0 1 7.19885 -21.54555 4.294476 0.5 2 0.5
9 0 1 0 0 0 1 0 0 0 1 6.19885 -18.54555 -9.205524 0.5 1 1
9 0 1 0 0 0 1 0 0 0 1 6.19885 -26.54555 -9.205524 0.5 1 1
9 0 1 0 0 0 1 0 0 0 1 5.19885 -14.54555 0.7944756 0.5 1 1
9 0 1 0 0 0 1 0 0 0 1 5.19885 -16.54555 3.794476 0.5 1 1
9 0 1 0 0 0 1 0 0 0 1 5.19885 -26.54555 2.794476 0.5 1 1
9 0 1 0 0 0 1 0 0 0 1 3.19885 -23.54555 -14.70552 0.5 2 0.5
9 0 1 0 0 0 1 0 0 0 1 2.69885 -22.54555 8.294476 1 1 0.5
9 0 1 0 0 0 1 0 0 0 1 1.69885 -27.54555 -13.70552 1 1 0.5
9 0 1 0 0 0 1 0 0 0 1 -0.3011503 -39.04555 -12.20552 1 0.5 1
9 0 1 0 0 0 1 0 0 0 1 -2.80115 -23.54555 -14.70552 0.5 2 0.5
9 0 1 0 0 0 1 0 0 0 1 -3.80115 -27.04555 3.794476 0.5 0.5 2
9 0 1 0 0 0 1 0 0 0 1 -3.80115 -27.54555 -11.20552 0.5 1 1
9 0 1 0 0 0 1 0 0 0 1 -4.30115 -28.04555 1.794476 1 0.5 1
9 0 1 0 0 0 1 0 0 0 1 -5.80115 -17.54555 -9.205524 0.5 1 1
9 0 1 0 0 0 1 0 0 0 1 -5.80115 -25.54555 2.794476 0.5 1 1
9 0 1 0 0 0 1 0 0 0 1 -5.80115 -26.54555 -9.205524 0.5 1 1
9 0 1 0 0 0 1 0 0 0 1 -6.80115 -15.04555 -3.205524 0.5 0.5 2
9 0 1 0 0 0 1 0 0 0 1 -6.80115 -22.54555 -10.70552 0.5 2 0.5
9 0 1 0 0 0 1 0 0 0 1 -6.80115 -28.04555 -4.205524 0.5 0.5 2
9 0 1 0 0 0 1 0 0 0 1 -7.80115 -18.54555 0.7944756 0.5 1 1
9 0 1 0 0 0 1 0 0 0 1 -7.80115 -21.54555 -8.705524 0.5 2 0.5
9 0 1 0 0 0 1 0 0 0 1 8.19885 -22.04555 2.294476 0.5 1.5 0.5
9 0 1 0 0 0 1 0 0 0 1 6.19885 -15.04555 -0.7055244 0.5 0.5 1.5
9 0 1 0 0 0 1 0 0 0 1 6.19885 -16.04555 -6.705524 0.5 1.5 0.5
9 0 1 0 0 0 1 0 0 0 1 5.19885 -28.04555 0.2944756 0.5 0.5 1.5
9 0 1 0 0 0 1 0 0 0 1 3.19885 -29.04555 1.294476 0.5 0.5 1.5
9 0 1 0 0 0 1 0 0 0 1 2.19885 -23.04555 10.29448 0.5 0.5 1.5
9 0 1 0 0 0 1 0 0 0 1 0.1988497 -39.04555 -7.705524 0.5 1.5 0.5
9 0 1 0 0 0 1 0 0 0 1 0.1988497 -18.04555 -12.70552 1.5 0.5 0.5
9 0 1 0 0 0 1 0 0 0 1 0.1988497 -23.04555 13.29448 1.5 0.5 0.5
9 0 1 0 0 0 1 0 0 0 1 0.1988497 -25.04555 15.29448 1.5 0.5 0.5
9 0 1 0 0 0 1 0 0 0 1 0.1988497 -30.04555 -0.7055244 1.5 0.5 0.5
9 0 1 0 0 0 1 0 0 0 1 -0.8011503 -40.04555 -10.70552 0.5 0.5 1.5
9 0 1 0 0 0 1 0 0 0 1 -2.80115 -28.04555 -12.70552 0.5 1.5 0.5
9 0 1 0 0 0 1 0 0 0 1 -2.80115 -29.04555 7.294476 0.5 0.5 1.5
9 0 1 0 0 0 1 0 0 0 1 -2.80115 -22.04555 8.294476 1.5 0.5 0.5
9 0 1 0 0 0 1 0 0 0 1 -3.80115 -25.04555 6.294476 0.5 1.5 0.5
9 0 1 0 0 0 1 0 0 0 1 -4.80115 -16.04555 3.294476 0.5 0.5 1.5
9 0 1 0 0 0 1 0 0 0 1 -3.80115 -17.04555 -10.70552 1.5 0.5 0.5
9 0 1 0 0 0 1 0 0 0 1 -4.80115 -29.04555 -1.705524 0.5 0.5 1.5
9 0 1 0 0 0 1 0 0 0 1 -5.80115 -22.04555 6.294476 0.5 1.5 0.5
9 0 1 0 0 0 1 0 0 0 1 -6.80115 -18.04555 -7.705524 0.5 1.5 0.5
