9 0 1 0 0 0 1 0 0 0 1 -0.1873131 -18.71317 15.72004 5 5.5 0.5
9 0 1 0 0 0 1 0 0 0 1 -0.1873131 -22.21317 -14.27996 3 5 0.5
9 0 1 0 0 0 1 0 0 0 1 -5.687313 -20.71317 14.72004 2.5 5.5 0.5
9 0 1 0 0 0 1 0 0 0 1 8.812687 -24.21317 -12.77996 2 3 1
9 0 1 0 0 0 1 0 0 0 1 -9.687313 -22.71317 13.72004 1.5 2.5 1.5
9 0 1 0 0 0 1 0 0 0 1 4.312687 -20.21317 14.72004 1.5 7 0.5
9 0 1 0 0 0 1 0 0 0 1 -0.6873131 -18.21317 16.72004 4.5 2 0.5
9 0 1 0 0 0 1 0 0 0 1 6.812687 -20.21317 13.72004 1 8 0.5
9 0 1 0 0 0 1 0 0 0 1 14.31269 -25.21317 0.2200375 0.5 3 2
9 0 1 0 0 0 1 0 0 0 1 5.812687 -26.21317 -13.77996 1 3 1
9 0 1 0 0 0 1 0 0 0 1 -6.187313 -23.21317 16.22004 1 3 1
9 0 1 0 0 0 1 0 0 0 1 9.312687 -22.71317 12.22004 0.5 5.5 1
9 0 1 0 0 0 1 0 0 0 1 1.812687 -25.71317 -15.77996 1 2.5 1
9 0 1 0 0 0 1 0 0 0 1 13.31269 -22.21317 -6.279963 0.5 3 1.5
9 0 1 0 0 0 1 0 0 0 1 12.31269 -23.71317 -7.779963 0.5 4.5 1
9 0 1 0 0 0 1 0 0 0 1 8.312687 -23.71317 13.22004 0.5 4.5 1
9 0 1 0 0 0 1 0 0 0 1 -3.687313 -12.21317 14.72004 1.5 3 0.5
9 0 1 0 0 0 1 0 0 0 1 11.31269 -24.21317 -9.779963 0.5 4 1
9 0 1 0 0 0 1 0 0 0 1 10.31269 -23.71317 -10.77996 0.5 4.5 1
9 0 1 0 0 0 1 0 0 0 1 6.812687 -24.21317 14.72004 1 4 0.5
9 0 1 0 0 0 1 0 0 0 1 3.812687 -25.21317 -14.27996 1 4 0.5
9 0 1 0 0 0 1 0 0 0 1 -11.18731 -25.21317 11.72004 1 4 0.5
9 0 1 0 0 0 1 0 0 0 1 -7.687313 -20.71317 13.72004 0.5 6.5 0.5
9 0 1 0 0 0 1 0 0 0 1 13.31269 -27.21317 6.720037 0.5 2 1.5
9 0 1 0 0 0 1 0 0 0 1 12.31269 -26.21317 9.220037 0.5 3 1
9 0 1 0 0 0 1 0 0 0 1 11.31269 -26.21317 10.22004 0.5 3 1
9 0 1 0 0 0 1 0 0 0 1 10.31269 -26.21317 11.72004 0.5 2 1.5
9 0 1 0 0 0 1 0 0 0 1 5.812687 -25.21317 15.72004 1 3 0.5
9 0 1 0 0 0 1 0 0 0 1 -1.687313 -11.21317 15.72004 1.5 2 0.5
9 0 1 0 0 0 1 0 0 0 1 -5.187313 -22.71317 -14.27996 2 1.5 0.5
9 0 1 0 0 0 1 0 0 0 1 -10.68731 -26.21317 13.22004 1.5 1 1
9 0 1 0 0 0 1 0 0 0 1 -11.68731 -22.21317 10.72004 0.5 6 0.5
9 0 1 0 0 0 1 0 0 0 1 14.31269 -26.71317 3.220037 0.5 2.5 1
9 0 1 0 0 0 1 0 0 0 1 -10.18731 -17.71317 12.72004 1 2.5 0.5
9 0 1 0 0 0 1 0 0 0 1 9.312687 -23.71317 -11.27996 0.5 4.5 0.5
9 0 1 0 0 0 1 0 0 0 1 2.312687 -22.71317 -16.27996 1.5 0.5 1.5
9 0 1 0 0 0 1 0 0 0 1 -3.687313 -21.71317 16.72004 1.5 1.5 0.5
9 0 1 0 0 0 1 0 0 0 1 -7.687313 -23.71317 -13.27996 1.5 1.5 0.5
9 0 1 0 0 0 1 0 0 0 1 -9.187313 -23.71317 -12.27996 1 2.5 0.5
9 0 1 0 0 0 1 0 0 0 1 -8.687313 -24.71317 15.72004 1.5 1.5 0.5
9 0 1 0 0 0 1 0 0 0 1 13.31269 -22.21317 5.220037 0.5 2 1
9 0 1 0 0 0 1 0 0 0 1 8.312687 -15.21317 12.72004 0.5 4 0.5
9 0 1 0 0 0 1 0 0 0 1 4.812687 -24.21317 -15.27996 2 1 0.5
9 0 1 0 0 0 1 0 0 0 1 -1.187313 -21.71317 -15.77996 2 0.5 1
9 0 1 0 0 0 1 0 0 0 1 -9.187313 -18.21317 13.72004 1 2 0.5
9 0 1 0 0 0 1 0 0 0 1 5.312687 -17.71317 13.72004 0.5 3.5 0.5
9 0 1 0 0 0 1 0 0 0 1 -10.68731 -17.71317 11.72004 0.5 3.5 0.5
9 0 1 0 0 0 1 0 0 0 1 7.812687 -19.71317 -12.27996 1 1.5 0.5
9 0 1 0 0 0 1 0 0 0 1 9.812687 -27.71317 -12.27996 3 0.5 0.5
9 0 1 0 0 0 1 0 0 0 1 5.312687 -19.21317 15.72004 0.5 3 0.5
9 0 1 0 0 0 1 0 0 0 1 5.812687 -21.71317 -13.27996 1 1.5 0.5
9 0 1 0 0 0 1 0 0 0 1 3.812687 -25.71317 15.72004 1 1.5 0.5
9 0 1 0 0 0 1 0 0 0 1 0.3126869 -25.21317 -15.27996 0.5 3 0.5
9 0 1 0 0 0 1 0 0 0 1 -2.687313 -18.21317 14.72004 0.5 3 0.5
9 0 1 0 0 0 1 0 0 0 1 -5.687313 -17.21317 15.72004 0.5 3 0.5
9 0 1 0 0 0 1 0 0 0 1 14.31269 -23.71317 -4.279963 0.5 0.5 2.5
9 0 1 0 0 0 1 0 0 0 1 9.312687 -25.71317 13.72004 0.5 2.5 0.5
9 0 1 0 0 0 1 0 0 0 1 0.3126869 -27.71317 -14.27996 2.5 0.5 0.5
9 0 1 0 0 0 1 0 0 0 1 -2.687313 -24.71317 15.72004 2.5 0.5 0.5
9 0 1 0 0 0 1 0 0 0 1 -10.68731 -20.71317 -11.27996 0.5 2.5 0.5
9 0 1 0 0 0 1 0 0 0 1 13.31269 -18.21317 3.720037 0.5 2 0.5
9 0 1 0 0 0 1 0 0 0 1 13.31269 -27.21317 -7.279963 0.5 2 0.5
9 0 1 0 0 0 1 0 0 0 1 13.31269 -28.21317 9.220037 0.5 1 1
9 0 1 0 0 0 1 0 0 0 1 12.81269 -29.71317 8.220037 1 0.5 1
9 0 1 0 0 0 1 0 0 0 1 11.31269 -18.21317 10.22004 0.5 1 1
9 0 1 0 0 0 1 0 0 0 1 11.81269 -27.71317 12.22004 1 0.5 1
9 0 1 0 0 0 1 0 0 0 1 10.31269 -17.21317 10.72004 0.5 2 0.5
9 0 1 0 0 0 1 0 0 0 1 9.312687 -15.21317 11.72004 0.5 2 0.5
9 0 1 0 0 0 1 0 0 0 1 10.81269 -31.71317 7.720037 2 0.5 0.5
9 0 1 0 0 0 1 0 0 0 1 7.312687 -10.21317 12.72004 0.5 2 0.5
9 0 1 0 0 0 1 0 0 0 1 7.312687 -33.21317 3.220037 0.5 1 1
9 0 1 0 0 0 1 0 0 0 1 2.312687 -25.21317 14.72004 0.5 2 0.5
9 0 1 0 0 0 1 0 0 0 1 0.8126869 -12.21317 15.72004 1 1 0.5
9 0 1 0 0 0 1 0 0 0 1 1.812687 -15.71317 16.72004 2 0.5 0.5
9 0 1 0 0 0 1 0 0 0 1 -0.1873131 -34.71317 5.220037 1 0.5 1
9 0 1 0 0 0 1 0 0 0 1 -1.187313 -26.21317 -15.27996 1 1 0.5
9 0 1 0 0 0 1 0 0 0 1 -4.187313 -8.213173 14.72004 1 1 0.5
9 0 1 0 0 0 1 0 0 0 1 -5.687313 -13.21317 14.72004 0.5 2 0.5
9 0 1 0 0 0 1 0 0 0 1 -6.687313 -20.21317 -13.27996 0.5 2 0.5
9 0 1 0 0 0 1 0 0 0 1 -6.187313 -26.71317 15.22004 1 0.5 1
9 0 1 0 0 0 1 0 0 0 1 -7.687313 -21.21317 15.72004 0.5 2 0.5
9 0 1 0 0 0 1 0 0 0 1 -7.687313 -24.21317 16.72004 0.5 2 0.5
9 0 1 0 0 0 1 0 0 0 1 -11.68731 -24.21317 13.22004 0.5 1 1
9 0 1 0 0 0 1 0 0 0 1 -11.18731 -28.21317 12.72004 1 1 0.5
9 0 1 0 0 0 1 0 0 0 1 -13.18731 -27.71317 -5.779963 1 0.5 1
9 0 1 0 0 0 1 0 0 0 1 -13.18731 -28.71317 0.7200375 2 0.5 0.5
9 0 1 0 0 0 1 0 0 0 1 13.31269 -28.71317 -9.279963 0.5 0.5 1.5
9 0 1 0 0 0 1 0 0 0 1 12.31269 -27.71317 -10.27996 0.5 0.5 1.5
9 0 1 0 0 0 1 0 0 0 1 12.31269 -19.71317 -9.279963 1.5 0.5 0.5
9 0 1 0 0 0 1 0 0 0 1 11.31269 -21.71317 -11.27996 0.5 1.5 0.5
9 0 1 0 0 0 1 0 0 0 1 10.31269 -20.71317 -12.27996 1.5 0.5 0.5
9 0 1 0 0 0 1 0 0 0 1 8.312687 -20.71317 -13.27996 1.5 0.5 0.5
9 0 1 0 0 0 1 0 0 0 1 4.312687 -23.71317 -16.27996 1.5 0.5 0.5
9 0 1 0 0 0 1 0 0 0 1 -0.6873131 -16.71317 -14.27996 1.5 0.5 0.5
9 0 1 0 0 0 1 0 0 0 1 -2.687313 -20.71317 -15.27996 1.5 0.5 0.5
9 0 1 0 0 0 1 0 0 0 1 -3.687313 -19.71317 -14.27996 0.5 1.5 0.5
9 0 1 0 0 0 1 0 0 0 1 -3.687313 -21.71317 17.72004 0.5 1.5 0.5
9 0 1 0 0 0 1 0 0 0 1 -8.687313 -18.71317 12.72004 0.5 1.5 0.5
9 0 1 0 0 0 1 0 0 0 1 -8.687313 -29.71317 1.720037 0.5 0.5 1.5
9 0 1 0 0 0 1 0 0 0 1 -9.687313 -19.71317 -12.27996 0.5 1.5 0.5
9 0 1 0 0 0 1 0 0 0 1 -9.687313 -25.71317 14.72004 1.5 0.5 0.5
9 0 1 0 0 0 1 0 0 0 1 -11.68731 -16.71317 11.72004 0.5 1.5 0.5
9 0 1 0 0 0 1 0 0 0 1 -13.68731 -22.71317 -7.279963 0.5 1.5 0.5
9 0 1 0 0 0 1 0 0 0 1 -13.68731 -27.71317 7.720037 0.5 1.5 0.5
