9 0 1 0 0 0 1 0 0 0 1 6.131075 -22.15375 5.95775 1 5 10
9 0 1 0 0 0 1 0 0 0 1 -5.868925 -23.15375 5.45775 1 4 10.5
9 0 1 0 0 0 1 0 0 0 1 0.1310749 -32.15375 -10.54225 3 4 1.5
9 0 1 0 0 0 1 0 0 0 1 0.1310749 -27.65375 -8.04225 3 4.5 1
9 0 1 0 0 0 1 0 0 0 1 6.131075 -12.15375 -3.54225 1 5 2.5
9 0 1 0 0 0 1 0 0 0 1 5.631075 -28.15375 6.45775 1.5 1 6.5
9 0 1 0 0 0 1 0 0 0 1 6.131075 -12.65375 14.95775 1 4.5 2
9 0 1 0 0 0 1 0 0 0 1 0.1310749 -23.15375 17.45775 5 3 0.5
9 0 1 0 0 0 1 0 0 0 1 -3.868925 -33.65375 -13.04225 1 3.5 2
9 0 1 0 0 0 1 0 0 0 1 -5.868925 -28.15375 5.95775 1 1 7
9 0 1 0 0 0 1 0 0 0 1 -6.368925 -18.15375 5.45775 0.5 1 11.5
9 0 1 0 0 0 1 0 0 0 1 4.131075 -34.15375 -13.54225 1 2 2.5
9 0 1 0 0 0 1 0 0 0 1 -6.368925 -9.153751 19.45775 1.5 2 1.5
9 0 1 0 0 0 1 0 0 0 1 6.131075 -21.15375 -5.04225 1 4 1
9 0 1 0 0 0 1 0 0 0 1 -6.368925 -12.65375 -5.04225 0.5 3.5 2
9 0 1 0 0 0 1 0 0 0 1 0.1310749 -37.15375 -11.04225 3 1 1
9 0 1 0 0 0 1 0 0 0 1 0.1310749 -22.15375 -7.54225 5 1 0.5
9 0 1 0 0 0 1 0 0 0 1 6.131075 -21.65375 16.45775 1 4.5 0.5
9 0 1 0 0 0 1 0 0 0 1 3.631075 -30.65375 -12.04225 0.5 1.5 3
9 0 1 0 0 0 1 0 0 0 1 -5.368925 -12.15375 18.45775 1.5 1 1.5
9 0 1 0 0 0 1 0 0 0 1 -5.868925 -21.15375 -6.04225 1 2 1
9 0 1 0 0 0 1 0 0 0 1 -3.368925 -33.65375 -16.54225 0.5 2.5 1.5
9 0 1 0 0 0 1 0 0 0 1 5.631075 -16.65375 5.95775 0.5 0.5 7
9 0 1 0 0 0 1 0 0 0 1 -5.868925 -22.65375 16.45775 1 3.5 0.5
9 0 1 0 0 0 1 0 0 0 1 5.131075 -28.15375 -1.54225 1 1 1.5
9 0 1 0 0 0 1 0 0 0 1 4.631075 -29.65375 6.95775 0.5 0.5 6
9 0 1 0 0 0 1 0 0 0 1 0.6310749 -34.15375 -8.54225 1.5 2 0.5
9 0 1 0 0 0 1 0 0 0 1 0.1310749 -26.65375 -9.54225 2 1.5 0.5
9 0 1 0 0 0 1 0 0 0 1 -5.368925 -8.153751 21.45775 1.5 2 0.5
9 0 1 0 0 0 1 0 0 0 1 -3.368925 -31.65375 -10.04225 0.5 2.5 1
9 0 1 0 0 0 1 0 0 0 1 -5.368925 -35.65375 -12.04225 0.5 2.5 1
9 0 1 0 0 0 1 0 0 0 1 -5.868925 -9.653751 -7.54225 1 2.5 0.5
9 0 1 0 0 0 1 0 0 0 1 -7.368925 -4.653751 19.95775 0.5 2.5 1
9 0 1 0 0 0 1 0 0 0 1 -7.368925 -9.653751 -6.04225 0.5 2.5 1
9 0 1 0 0 0 1 0 0 0 1 5.631075 -11.65375 17.45775 1.5 1.5 0.5
9 0 1 0 0 0 1 0 0 0 1 4.631075 -37.65375 -12.54225 1.5 1.5 0.5
9 0 1 0 0 0 1 0 0 0 1 -0.3689251 -28.65375 -20.54225 1.5 1.5 0.5
9 0 1 0 0 0 1 0 0 0 1 -0.3689251 -30.65375 -5.54225 1.5 0.5 1.5
9 0 1 0 0 0 1 0 0 0 1 -6.368925 -15.65375 15.45775 0.5 1.5 1.5
9 0 1 0 0 0 1 0 0 0 1 -3.368925 -28.15375 -8.04225 0.5 2 1
9 0 1 0 0 0 1 0 0 0 1 -2.868925 -19.15375 17.45775 2 1 0.5
9 0 1 0 0 0 1 0 0 0 1 -3.868925 -38.15375 -13.04225 1 1 1
9 0 1 0 0 0 1 0 0 0 1 -4.868925 -15.15375 17.45775 1 2 0.5
9 0 1 0 0 0 1 0 0 0 1 -6.868925 -2.153751 21.95775 1 1 1
9 0 1 0 0 0 1 0 0 0 1 3.631075 -26.65375 -7.54225 0.5 3.5 0.5
9 0 1 0 0 0 1 0 0 0 1 3.631075 -33.65375 -16.54225 0.5 3.5 0.5
9 0 1 0 0 0 1 0 0 0 1 6.131075 -7.653751 14.45775 1 0.5 1.5
9 0 1 0 0 0 1 0 0 0 1 5.631075 -27.65375 13.95775 1.5 0.5 1
9 0 1 0 0 0 1 0 0 0 1 3.631075 -37.65375 -14.04225 0.5 1.5 1
9 0 1 0 0 0 1 0 0 0 1 0.1310749 -25.65375 18.45775 1 1.5 0.5
9 0 1 0 0 0 1 0 0 0 1 0.1310749 -38.65375 -11.54225 3 0.5 0.5
9 0 1 0 0 0 1 0 0 0 1 -4.368925 -9.653751 19.95775 0.5 1.5 1
9 0 1 0 0 0 1 0 0 0 1 -1.868925 -20.65375 -7.54225 3 0.5 0.5
9 0 1 0 0 0 1 0 0 0 1 -6.368925 -8.153751 -5.54225 0.5 1 1.5
9 0 1 0 0 0 1 0 0 0 1 5.631075 -22.65375 -6.54225 0.5 2.5 0.5
9 0 1 0 0 0 1 0 0 0 1 5.631075 -22.65375 17.45775 0.5 2.5 0.5
9 0 1 0 0 0 1 0 0 0 1 5.631075 -37.65375 -11.54225 2.5 0.5 0.5
9 0 1 0 0 0 1 0 0 0 1 -0.3689251 -36.65375 -9.54225 2.5 0.5 0.5
9 0 1 0 0 0 1 0 0 0 1 -3.368925 -29.65375 -13.54225 0.5 0.5 2.5
9 0 1 0 0 0 1 0 0 0 1 -4.368925 -34.65375 -15.54225 0.5 2.5 0.5
9 0 1 0 0 0 1 0 0 0 1 -5.368925 -23.65375 17.45775 0.5 2.5 0.5
9 0 1 0 0 0 1 0 0 0 1 -6.368925 -14.65375 -2.54225 0.5 2.5 0.5
9 0 1 0 0 0 1 0 0 0 1 6.631075 -6.653751 -4.04225 0.5 0.5 2
9 0 1 0 0 0 1 0 0 0 1 5.131075 -27.65375 -4.04225 1 0.5 1
9 0 1 0 0 0 1 0 0 0 1 4.631075 -31.15375 -13.04225 0.5 1 1
9 0 1 0 0 0 1 0 0 0 1 3.631075 -33.15375 -10.04225 0.5 1 1
9 0 1 0 0 0 1 0 0 0 1 0.1310749 -29.15375 -21.54225 1 1 0.5
9 0 1 0 0 0 1 0 0 0 1 0.1310749 -33.15375 -7.54225 1 1 0.5
9 0 1 0 0 0 1 0 0 0 1 0.1310749 -27.65375 -10.54225 2 0.5 0.5
9 0 1 0 0 0 1 0 0 0 1 -1.868925 -33.15375 -8.54225 1 1 0.5
9 0 1 0 0 0 1 0 0 0 1 -3.868925 -24.15375 -7.54225 1 1 0.5
9 0 1 0 0 0 1 0 0 0 1 -5.368925 -24.15375 -6.04225 0.5 1 1
9 0 1 0 0 0 1 0 0 0 1 -5.368925 -27.65375 -3.04225 0.5 0.5 2
9 0 1 0 0 0 1 0 0 0 1 -5.368925 -28.15375 13.95775 0.5 1 1
9 0 1 0 0 0 1 0 0 0 1 -5.868925 -6.653751 19.95775 1 0.5 1
9 0 1 0 0 0 1 0 0 0 1 -6.868925 -2.153751 -10.54225 1 1 0.5
9 0 1 0 0 0 1 0 0 0 1 -7.368925 -3.153751 -9.04225 0.5 1 1
9 0 1 0 0 0 1 0 0 0 1 -6.868925 -4.153751 21.45775 1 1 0.5
9 0 1 0 0 0 1 0 0 0 1 6.631075 -6.653751 13.45775 0.5 0.5 1.5
9 0 1 0 0 0 1 0 0 0 1 6.631075 -27.65375 -1.54225 0.5 0.5 1.5
9 0 1 0 0 0 1 0 0 0 1 5.631075 -34.65375 -12.54225 0.5 1.5 0.5
9 0 1 0 0 0 1 0 0 0 1 3.631075 -34.65375 -17.54225 0.5 1.5 0.5
9 0 1 0 0 0 1 0 0 0 1 -3.368925 -35.65375 -10.54225 0.5 1.5 0.5
9 0 1 0 0 0 1 0 0 0 1 -5.368925 -2.653751 22.45775 0.5 1.5 0.5
9 0 1 0 0 0 1 0 0 0 1 -5.368925 -34.65375 -13.54225 0.5 1.5 0.5
9 0 1 0 0 0 1 0 0 0 1 -5.368925 -10.65375 17.45775 1.5 0.5 0.5
9 0 1 0 0 0 1 0 0 0 1 -5.368925 -11.65375 20.45775 1.5 0.5 0.5
9 0 1 0 0 0 1 0 0 0 1 -5.368925 -13.65375 18.45775 1.5 0.5 0.5
9 0 1 0 0 0 1 0 0 0 1 -6.368925 -16.65375 -4.54225 0.5 0.5 1.5
9 0 1 0 0 0 1 0 0 0 1 -6.368925 -16.65375 4.45775 0.5 0.5 1.5
9 0 1 0 0 0 1 0 0 0 1 -7.368925 -6.653751 -6.54225 0.5 0.5 1.5
