9 0 1 0 0 0 1 0 0 0 1 -0.009270868 -23.58406 -7.49674 3.69107 3.446857 0.1787551
8192 0 -1.192093E-07 -0.1193515 0.9928522 0 0.9928521 0.1193515 -1 0 -1.192093E-07 -0.08770889 -30.80014 11.98787 8.82143 0.9615951 5.60066
8192 0 1 0 0 0 0.9879606 -0.1547058 0 0.1547058 0.9879606 0 -35.68718 24.76096 2.011056 5.869913 1.199116
8192 0 1 0 0 0 0.6807792 0.7324886 0 -0.7324886 0.6807792 0 -44.05146 21.69973 2.306121 5.27151 1.375598
8192 0 1 0 0 0 0.9944902 -0.1048293 0 0.1048293 0.9944902 0 -51.62203 17.88453 2.170095 4.645763 0.9430895
8192 0 1 0 0 0 0.2273691 -0.9738087 0 0.9738087 0.2273691 0 -56.98497 22.17488 1.988642 4.645763 0.898407
9 0 1 0 0 0 1 0 0 0 1 7.448567 -2.638649 -4.278167 0.653248 1.888643 4.072625
8192 0 0.9994107 0 0.03432461 0 1 0 -0.03432461 0 0.9994107 -7.497381 -2.671491 -3.061633 0.5233072 1.921485 4.148895
8192 0 0.9972147 0 0.07458483 0 1 0 -0.07458483 0 0.9972147 -7.639646 -2.571463 15.50757 0.6590067 1.821463 3.052142
8192 0 0.07868981 0 0.9968991 0 1 0 -0.9968991 0 0.07868981 -5.825736 -2.672482 12.91443 0.7845335 1.922482 2.107573
9 0 1 0 0 0 1 0 0 0 1 4.49755 -2.610499 27.78393 4.160987 1.860499 0.5799789
9 0 1 0 0 0 1 0 0 0 1 7.959978 -2.648207 23.63416 0.6830029 1.898207 3.964335
8192 0 -3.576279E-07 0.2400258 -0.9707665 3.72529E-08 0.9707665 0.2400258 1 3.72529E-08 -3.576279E-07 -0.2253811 -14.22815 -5.49466 0.1 5.516718 4.872529
8192 0 1 0 0 0 0.9985938 -0.05301336 0 0.05301336 0.9985938 -6.475983 -39.2965 -2.849031 1.403322 2.184777 3.667059
8192 0 1 0 0 0 0.9985938 -0.05301336 0 0.05301336 0.9985938 0 -40.8723 -9.95661 3.684063 1.803972 3.532646
8192 0 0.8111759 0.5839798 -0.03100233 -0.5830997 0.8036349 -0.1190198 -0.04459058 0.1146234 0.9924077 9.126586 -46.22558 1.246855 2.141227 3.429524 0.3949952
8192 0 -0.8111762 0.5839798 -0.03100243 0.5830997 0.8036349 -0.1190197 -0.04459048 -0.1146235 -0.9924079 -9.166451 -46.28052 1.254992 2.137382 3.361157 0.3949952
8192 0 -0.9999981 0 0.001925141 0 1 0 -0.001925141 0 -0.9999981 6.015818 -22.48429 10.21806 0.6590067 6.952255 5.475751
8192 0 0.9998258 0 -0.01866619 0 1 0 0.01866619 0 0.9998258 -4.528275 -22.55188 10.42776 0.9789155 7.802966 1.702411
8192 0 1 0 0 0 0.9985938 -0.05301336 0 0.05301336 0.9985938 0 -41.01542 -9.643986 1.689672 3.257814 3.532646
9 0 1 0 0 0 1 0 0 0 1 4.347529 -2.142995 -7.98663 3.608162 1.392995 0.3496543
8192 0 1 0 0 0 0.9998397 0.01790175 0 -0.01790175 0.9998397 0 -37.90643 2.496829 2.569652 6.090963 0.1
8192 0 -1.192093E-07 -0.3055236 0.9521846 -1.490116E-08 0.9521845 0.3055236 -1 1.490116E-08 -1.192093E-07 -5.600408 -32.60244 -2.384415 3.529572 3.265697 0.2704114
8192 0 -0.9999981 6.206392E-09 0.001925092 0.0002245619 0.9931735 0.1166465 -0.00191195 0.1166467 -0.9931716 7.917811 -23.33453 16.99932 0.6590067 5.035457 7.095085
8192 0 -0.9983301 0.008137675 0.05719377 -0.0002804068 0.9893347 -0.1456596 -0.05776912 -0.1454324 -0.9876803 7.538728 -22.24689 4.227882 0.6590067 4.142191 6.328259
8192 0 0.9996499 5.820766E-11 0.02645655 0.001186782 0.9989934 -0.04484209 -0.02642992 0.04485779 0.9986437 -7.361692 -22.31503 11.41448 0.9789155 5.022049 10.7519
8192 0 1 0 0 0 0.9999538 -0.009609558 0 0.009609558 0.9999538 0 -25.46099 24.7049 5.503914 4.052926 1.983651
8192 0 1 0 0 0 0.9999538 -0.009609558 0 0.009609558 0.9999538 4.190065 -8.343381 27.88425 3.86019 2.478965 0.7487972
8192 0 1 0 0 0 0.8866745 0.4623942 0 -0.4623942 0.8866745 6.680471 -14.63211 23.19636 1.291702 4.97284 3.54236
8192 0 1 0 0 0 0.9920523 -0.1258263 0 0.1258263 0.9920523 -7.318125 -11.05067 19.06453 0.340795 4.97284 2.869825
9 0 1 0 0 0 1 0 0 0 1 0.1939617 -13.39954 -3.973409 3.156182 7.155413 0.1
8192 0 1 0 0 0 0.9985938 -0.05301336 0 0.05301336 0.9985938 6.517612 -39.2965 -2.849031 1.403322 2.184777 3.667059
8192 0 -1.192093E-07 -0.3055236 0.9521846 -1.490116E-08 0.9521845 0.3055236 -1 1.490116E-08 -1.192093E-07 5.531381 -32.60244 -2.384415 3.529572 3.265697 0.2979329
8192 0 0.9935647 -0.09238333 0.0655331 0.09609317 0.9938007 -0.05591318 -0.05996139 0.06185065 0.9962826 -7.090428 -12.43722 0.1179819 0.340795 6.032588 2.272927
8192 0 1 0 0 0 0.9999538 -0.009609558 0 0.009609558 0.9999538 4.190065 -18.29912 23.50872 3.86019 10.27981 0.7487972
8192 0 0.9919575 0.08580562 -0.09304714 -0.09224202 0.9934646 -0.0672273 0.08667056 0.07526948 0.9933895 6.738606 -13.1542 -1.268052 0.7054962 6.715322 2.272927
8192 0 0.8366603 0 0.5477222 0 1 0 -0.5477222 0 0.8366603 -6.123847 -23.58406 -4.428174 0.1787547 3.446857 3.1226
8192 0 -0.8435003 0 0.5371289 0 1 0 -0.5371289 0 -0.8435003 5.987316 -23.58406 -4.727839 0.1787547 3.446857 3.1226
8192 0 -0.0848403 0 -0.9963945 0 1 0 0.9963945 0 -0.0848403 -4.256115 -2.73143 -7.303916 0.3496547 1.98143 3.608162
8192 0 1 0 0 0 0.9999538 -0.009609558 0 0.009609558 0.9999538 0.5547923 -8.779142 24.28641 0.1314641 2.478965 1.587918
8192 0 0.08715558 -0.00957299 -0.9961488 -4.656613E-10 0.9999538 -0.009609558 0.9961948 0.0008375277 0.08715159 -2.353808 -17.6161 22.30495 0.1 11.33898 2.950959
8192 0 1 0 0 0 0.9999667 -0.008166092 0 0.008166092 0.9999667 0 -45.97997 -1.904271 4.082309 0.5733432 4.376249
8192 0 1 0 0 0 0.9998397 0.01790175 0 -0.01790175 0.9998397 0 -41.36797 3.720222 3.694439 2.615102 0.1
9 0 1 0 0 0 1 0 0 0 1 -0.009270868 -31.80599 -5.764483 3.69107 3.446857 1.911012
