9 0 1 0 0 0 1 0 0 0 1 0 -2.300794 7.257224 2.619554 1.32583 0.2099143
9 0 1 0 0 0 1 0 0 0 1 1.055732E-14 -2.300794 -7.257224 2.619554 1.32583 0.2099143
9 0 1 0 0 0 1 0 0 0 1 -8.785317 -2.300794 -4.868359E-14 1.738007 1.32583 2.619555
9 0 1 0 0 0 1 0 0 0 1 7.257224 -2.300794 -5.22883E-14 0.2099146 1.32583 2.619555
8192 0 0.7071067 0 -0.7071068 0 1 0 0.7071068 0 0.7071067 5.131632 -2.300794 5.131632 2.619554 1.32583 0.2099143
8192 0 -0.7071067 0 0.7071068 0 1 0 -0.7071068 0 -0.7071067 -5.131632 -2.300794 -5.131632 2.619554 1.32583 0.2099143
8192 0 0.7071067 0 0.7071068 0 1 0 -0.7071068 0 0.7071067 -6.611366 -2.300794 6.611366 2.619554 1.32583 2.302573
8192 0 -0.7071067 0 -0.7071068 0 1 0 0.7071068 0 -0.7071067 5.131632 -2.300794 -5.131632 2.619554 1.32583 0.2099143
9 0 1 0 0 0 1 0 0 0 1 -0.1913624 -6.699452 1.366369 4.905813 0.4861522 8.746273
8192 0 -0.717167 -0.2344376 -0.6562853 0.1119014 0.8907616 -0.4404792 0.6878586 -0.3893364 -0.6125909 -7.692766 -1.362951 -10.40136 0.2622083 2.653666 3.672842
8192 0 0.02930439 -0.09375677 -0.9951638 -0.2968832 0.9498481 -0.09822974 0.9544641 0.2983259 -1.192093E-07 0.7876934 -0.3683965 -13.0771 0.5151733 2.456365 5.131855
8192 0 0.6521127 -0.03633615 -0.7572507 -0.1849166 0.9610587 -0.2053582 0.7352243 0.2739449 0.6199995 9.859582 3.114181 -9.777488 0.1 3.056168 5.132087
8192 0 -0.9979956 -0.0005947792 0.0632809 -4.656613E-10 0.9999558 0.009398609 -0.0632837 0.009379771 -0.9979515 -14.01984 3.724923 2.524962 0.1244593 4.057446 4.244524
8192 0 -0.6628608 0.2235845 0.7145809 0.001927808 0.9548807 -0.2969835 -0.7487404 -0.1954811 -0.633384 -10.15036 9.889335 12.15952 0.1 7.192662 4.639354
8192 0 -1.192093E-07 0.2473876 0.9689167 7.450581E-09 0.9689166 -0.2473876 -1 -7.450581E-09 -1.192093E-07 0 11.40877 15.92625 0.1 7.12077 5.930134
8192 0 0.7581304 0.05943815 0.6493884 0.1323638 0.9610804 -0.2424957 -0.638528 0.2697989 0.7207569 8.229344 9.731699 12.39431 0.1 7.581646 4.639354
9 0 1 0 0 0 1 0 0 0 1 13.80629 4.065495 -0.5215452 0.1 3.544141 3.751435
8192 0 0.9214247 0.07015626 -0.3821708 -0.3159461 0.7077985 -0.6318222 0.2261737 0.702922 0.6743487 -14.10546 5.958067 11.1342 0.8148011 2.0913 2.252564
8192 0 0.9198833 0 -0.3921922 0 1 0 0.3921922 0 0.9198833 13.53681 5.676013 -4.548213 0.2070115 4.567445 1.507909
8192 0 0.9077786 -0.0143434 0.4192042 0.4119005 0.2192415 -0.8844609 -0.0792208 0.9755652 0.2049308 11.50745 7.692777 8.237337 0.1 3.371951 7.634795
8192 0 0.927666 -0.03486031 -0.3717802 -0.3582174 0.1980372 -0.9123933 0.1054327 0.9795744 0.1712248 -12.6301 7.8555 7.850867 0.4378237 3.248792 7.634795
8192 0 -0.9350667 -0.04501874 -0.3516019 -0.03654816 0.9988604 -0.03069515 0.3525831 -0.01585161 -0.9356464 -13.23871 5.811045 -4.24492 0.1 4.600284 1.699199
8192 0 -0.7615535 -0.6019455 -0.2402038 -0.5267365 0.7908012 -0.3117405 0.3776042 -0.110883 -0.9193041 -9.572327 -3.395666 -4.706007 0.1244593 4.494232 4.109211
8192 0 -0.6406285 -0.753431 0.1481125 -0.7461693 0.6563622 0.1114457 -0.181182 -0.03912174 -0.9826713 -8.214554 -3.467405 5.357843 0.1280405 5.223297 7.168173
8192 0 -0.1365466 -0.4450005 0.8850591 0.305939 0.8308105 0.4649249 -0.9422083 0.334258 0.02269864 -1.862343 -0.5214511 14.59739 0.1 5.223297 6.112884
8192 0 0.5866388 -0.7062013 0.3964022 0.6447389 0.7034631 0.2990843 -0.490068 0.0801214 0.8679942 7.576072 -3.362482 8.785128 0.1 5.210639 6.295159
8192 0 0.6676286 -0.7235163 -0.1754885 0.7050666 0.6901467 -0.1630298 0.2390675 -0.01488773 0.9708888 8.574938 -3.898617 -2.52867 0.1 5.877415 6.295159
8192 0 0.2377403 -0.7606269 -0.6040913 -0.1802161 0.5765834 -0.7969152 0.9544641 0.2983259 -1.192093E-07 1.987486 -4.282622 -10.32926 0.1 2.456365 7.255497
