9 0 1 0 0 0 1 0 0 0 1 -0.2313499 -6.24795 -0.0002374649 3.5 0.5 1.5
9 0 1 0 0 0 1 0 0 0 1 11.26865 -17.24795 -0.0002374649 2 2.5 0.5
9 0 1 0 0 0 1 0 0 0 1 -11.73135 -17.24795 -0.0002374649 2 2.5 0.5
9 0 1 0 0 0 1 0 0 0 1 7.26865 -10.74795 -0.0002374649 2 2 0.5
9 0 1 0 0 0 1 0 0 0 1 -6.73135 -10.74795 -0.0002374649 2 2 0.5
9 0 1 0 0 0 1 0 0 0 1 14.76865 -15.24795 -0.0002374649 1.5 0.5 0.5
9 0 1 0 0 0 1 0 0 0 1 4.76865 -7.24795 -0.0002374649 0.5 1.5 0.5
9 0 1 0 0 0 1 0 0 0 1 -9.23135 -14.24795 -0.0002374649 0.5 1.5 0.5
9 0 1 0 0 0 1 0 0 0 1 -10.23135 -9.24795 -0.0002374649 1.5 0.5 0.5
9 0 1 0 0 0 1 0 0 0 1 -14.23135 -21.24795 -0.0002374649 0.5 1.5 0.5
