9 0 1 0 0 0 1 0 0 0 1 -12.48111 -27.9461 -3.751013 4.5 1.5 6.5
9 0 1 0 0 0 1 0 0 0 1 2.518887 -26.9461 -16.25101 5.5 4.5 1
9 0 1 0 0 0 1 0 0 0 1 14.01889 -26.9461 -3.251013 5 0.5 8
9 0 1 0 0 0 1 0 0 0 1 3.518887 -28.4461 -14.25101 9.5 2 1
9 0 1 0 0 0 1 0 0 0 1 4.518887 -24.4461 8.748987 8.5 2 1
9 0 1 0 0 0 1 0 0 0 1 12.01889 -16.9461 10.24899 1 4.5 2.5
9 0 1 0 0 0 1 0 0 0 1 3.018887 -19.9461 -16.75101 3 2.5 1.5
9 0 1 0 0 0 1 0 0 0 1 -12.48111 -29.9461 -5.251013 4.5 0.5 4
9 0 1 0 0 0 1 0 0 0 1 12.01889 -28.9461 -7.751013 1 1.5 5.5
9 0 1 0 0 0 1 0 0 0 1 1.018887 -26.9461 -12.25101 15 0.5 1
9 0 1 0 0 0 1 0 0 0 1 3.518887 -26.4461 -17.75101 3.5 4 0.5
9 0 1 0 0 0 1 0 0 0 1 5.018887 -26.9461 7.248987 9 0.5 1.5
9 0 1 0 0 0 1 0 0 0 1 -6.981113 -26.9461 -1.751013 1 0.5 9.5
9 0 1 0 0 0 1 0 0 0 1 -8.481113 -12.9461 13.74899 0.5 1.5 6
9 0 1 0 0 0 1 0 0 0 1 -10.48111 -28.4461 -11.25101 4.5 1 1
9 0 1 0 0 0 1 0 0 0 1 -17.48111 -27.9461 -3.751013 0.5 1.5 5.5
9 0 1 0 0 0 1 0 0 0 1 9.018887 -21.4461 9.748987 2 1 2
9 0 1 0 0 0 1 0 0 0 1 -7.981113 -20.4461 8.748987 2 2 1
9 0 1 0 0 0 1 0 0 0 1 10.51889 -23.9461 -16.25101 2.5 1.5 1
9 0 1 0 0 0 1 0 0 0 1 8.018887 -23.9461 10.24899 5 1.5 0.5
9 0 1 0 0 0 1 0 0 0 1 -0.4811134 -2.946098 10.74899 2.5 0.5 3
9 0 1 0 0 0 1 0 0 0 1 -10.48111 -27.4461 4.248987 2.5 1 1.5
9 0 1 0 0 0 1 0 0 0 1 1.518887 -28.9461 6.248987 4.5 1.5 0.5
9 0 1 0 0 0 1 0 0 0 1 -5.481113 -25.4461 -16.25101 2.5 1 1
9 0 1 0 0 0 1 0 0 0 1 -6.481113 -24.4461 8.248987 2.5 2 0.5
9 0 1 0 0 0 1 0 0 0 1 10.01889 -28.9461 -11.75101 1 1.5 1.5
9 0 1 0 0 0 1 0 0 0 1 9.518887 -28.4461 -15.75101 1.5 3 0.5
9 0 1 0 0 0 1 0 0 0 1 7.518887 -20.9461 -16.25101 1.5 1.5 1
9 0 1 0 0 0 1 0 0 0 1 -5.981113 -28.9461 -12.75101 3 1.5 0.5
9 0 1 0 0 0 1 0 0 0 1 15.01889 -27.9461 -9.251013 2 0.5 2
9 0 1 0 0 0 1 0 0 0 1 14.01889 -29.4461 -12.25101 1 2 1
9 0 1 0 0 0 1 0 0 0 1 10.51889 -18.9461 10.24899 0.5 1.5 2.5
9 0 1 0 0 0 1 0 0 0 1 1.518887 -31.9461 -17.75101 2.5 1.5 0.5
9 0 1 0 0 0 1 0 0 0 1 11.51889 -12.4461 16.24899 0.5 1 3.5
9 0 1 0 0 0 1 0 0 0 1 11.51889 -26.9461 5.248987 6.5 0.5 0.5
9 0 1 0 0 0 1 0 0 0 1 9.018887 -23.9461 -17.75101 2 1.5 0.5
9 0 1 0 0 0 1 0 0 0 1 6.018887 -21.9461 10.74899 1 0.5 3
9 0 1 0 0 0 1 0 0 0 1 5.018887 -22.9461 -18.75101 2 1.5 0.5
9 0 1 0 0 0 1 0 0 0 1 7.018887 -22.9461 11.24899 6 0.5 0.5
9 0 1 0 0 0 1 0 0 0 1 -0.4811134 -19.4461 -16.25101 0.5 3 1
9 0 1 0 0 0 1 0 0 0 1 -8.481113 -10.4461 10.74899 0.5 1 3
9 0 1 0 0 0 1 0 0 0 1 -8.981113 -27.4461 -13.75101 3 1 0.5
9 0 1 0 0 0 1 0 0 0 1 12.01889 -30.9461 -12.75101 1 0.5 2.5
9 0 1 0 0 0 1 0 0 0 1 8.018887 -26.9461 9.248987 5 0.5 0.5
9 0 1 0 0 0 1 0 0 0 1 -4.981113 -26.9461 5.248987 1 0.5 2.5
9 0 1 0 0 0 1 0 0 0 1 -18.48111 -26.9461 -3.251013 0.5 0.5 5
9 0 1 0 0 0 1 0 0 0 1 19.51889 -26.9461 -3.751013 0.5 0.5 4.5
9 0 1 0 0 0 1 0 0 0 1 11.51889 -28.9461 -0.7510128 0.5 1.5 1.5
9 0 1 0 0 0 1 0 0 0 1 7.518887 -28.9461 -12.75101 1.5 1.5 0.5
9 0 1 0 0 0 1 0 0 0 1 2.518887 -16.9461 -16.75101 1.5 0.5 1.5
9 0 1 0 0 0 1 0 0 0 1 1.518887 -36.9461 -18.75101 1.5 1.5 0.5
9 0 1 0 0 0 1 0 0 0 1 1.518887 -31.9461 -16.75101 4.5 0.5 0.5
9 0 1 0 0 0 1 0 0 0 1 -2.481113 -20.9461 -15.75101 1.5 1.5 0.5
9 0 1 0 0 0 1 0 0 0 1 -14.48111 -27.9461 3.248987 1.5 1.5 0.5
9 0 1 0 0 0 1 0 0 0 1 -14.48111 -29.9461 0.2489872 1.5 0.5 1.5
9 0 1 0 0 0 1 0 0 0 1 -12.48111 -26.9461 -10.75101 4.5 0.5 0.5
9 0 1 0 0 0 1 0 0 0 1 12.01889 -21.9461 9.748987 1 0.5 2
9 0 1 0 0 0 1 0 0 0 1 4.018887 -2.946098 8.748987 2 0.5 1
9 0 1 0 0 0 1 0 0 0 1 1.518887 -2.446098 17.74899 0.5 1 2
9 0 1 0 0 0 1 0 0 0 1 -3.481113 -28.4461 -16.25101 0.5 2 1
9 0 1 0 0 0 1 0 0 0 1 -3.981113 -21.9461 8.748987 2 0.5 1
9 0 1 0 0 0 1 0 0 0 1 -8.481113 -16.4461 8.748987 0.5 2 1
9 0 1 0 0 0 1 0 0 0 1 -9.981113 -27.4461 6.248987 2 1 0.5
9 0 1 0 0 0 1 0 0 0 1 -10.98111 -29.9461 -9.751013 4 0.5 0.5
9 0 1 0 0 0 1 0 0 0 1 -0.4811134 -26.9461 -17.75101 0.5 3.5 0.5
9 0 1 0 0 0 1 0 0 0 1 11.51889 -10.9461 8.748987 0.5 1.5 1
9 0 1 0 0 0 1 0 0 0 1 12.01889 -14.9461 13.24899 1 1.5 0.5
9 0 1 0 0 0 1 0 0 0 1 10.51889 -28.9461 -9.251013 0.5 1.5 1
9 0 1 0 0 0 1 0 0 0 1 9.518887 -19.4461 11.24899 0.5 1 1.5
9 0 1 0 0 0 1 0 0 0 1 10.51889 -21.9461 -16.25101 1.5 0.5 1
9 0 1 0 0 0 1 0 0 0 1 9.518887 -30.9461 -14.25101 1.5 0.5 1
9 0 1 0 0 0 1 0 0 0 1 7.518887 -21.4461 -17.75101 1.5 1 0.5
9 0 1 0 0 0 1 0 0 0 1 7.518887 -26.9461 3.748987 1.5 0.5 1
9 0 1 0 0 0 1 0 0 0 1 6.018887 -25.9461 10.24899 3 0.5 0.5
9 0 1 0 0 0 1 0 0 0 1 3.018887 -28.9461 -18.75101 1 1.5 0.5
9 0 1 0 0 0 1 0 0 0 1 2.518887 -20.4461 -18.75101 1.5 1 0.5
9 0 1 0 0 0 1 0 0 0 1 2.518887 -22.9461 12.74899 1.5 0.5 1
9 0 1 0 0 0 1 0 0 0 1 2.018887 -28.9461 7.248987 1 1.5 0.5
9 0 1 0 0 0 1 0 0 0 1 -7.481113 -7.946098 10.74899 0.5 0.5 3
9 0 1 0 0 0 1 0 0 0 1 -6.481113 -27.9461 4.748987 1.5 0.5 1
9 0 1 0 0 0 1 0 0 0 1 -7.481113 -28.9461 1.748987 0.5 1.5 1
9 0 1 0 0 0 1 0 0 0 1 -6.981113 -29.9461 -13.75101 1 1.5 0.5
9 0 1 0 0 0 1 0 0 0 1 -7.481113 -29.9461 -11.25101 1.5 0.5 1
9 0 1 0 0 0 1 0 0 0 1 -10.48111 -20.9461 8.748987 0.5 1.5 1
9 0 1 0 0 0 1 0 0 0 1 18.51889 -27.9461 -4.751013 0.5 0.5 2.5
9 0 1 0 0 0 1 0 0 0 1 17.51889 -27.9461 -7.751013 0.5 0.5 2.5
9 0 1 0 0 0 1 0 0 0 1 13.51889 -28.9461 -13.75101 0.5 2.5 0.5
9 0 1 0 0 0 1 0 0 0 1 8.518887 -27.9461 -16.75101 0.5 2.5 0.5
9 0 1 0 0 0 1 0 0 0 1 -5.481113 -4.946098 10.24899 0.5 0.5 2.5
9 0 1 0 0 0 1 0 0 0 1 -3.481113 -24.9461 -17.75101 2.5 0.5 0.5
9 0 1 0 0 0 1 0 0 0 1 -8.481113 -26.9461 -14.75101 2.5 0.5 0.5
9 0 1 0 0 0 1 0 0 0 1 -19.48111 -26.9461 -1.751013 0.5 0.5 2.5
9 0 1 0 0 0 1 0 0 0 1 15.51889 -29.4461 -11.75101 0.5 2 0.5
9 0 1 0 0 0 1 0 0 0 1 15.01889 -26.9461 6.748987 1 0.5 1
9 0 1 0 0 0 1 0 0 0 1 14.01889 -20.4461 12.24899 1 1 0.5
9 0 1 0 0 0 1 0 0 0 1 14.01889 -24.4461 -15.75101 1 1 0.5
9 0 1 0 0 0 1 0 0 0 1 10.51889 -28.4461 1.748987 0.5 1 1
9 0 1 0 0 0 1 0 0 0 1 9.018887 -20.9461 12.24899 2 0.5 0.5
9 0 1 0 0 0 1 0 0 0 1 8.018887 -26.9461 -10.25101 1 0.5 1
9 0 1 0 0 0 1 0 0 0 1 3.018887 -2.946098 16.74899 1 0.5 1
9 0 1 0 0 0 1 0 0 0 1 1.518887 -22.9461 15.74899 0.5 0.5 2
9 0 1 0 0 0 1 0 0 0 1 1.018887 -15.9461 -16.25101 1 0.5 1
9 0 1 0 0 0 1 0 0 0 1 -2.981113 -26.9461 4.748987 1 0.5 1
9 0 1 0 0 0 1 0 0 0 1 -3.981113 -23.4461 -15.75101 1 1 0.5
9 0 1 0 0 0 1 0 0 0 1 -3.981113 -30.9461 -15.25101 1 0.5 1
9 0 1 0 0 0 1 0 0 0 1 -4.981113 -20.9461 8.748987 1 0.5 1
9 0 1 0 0 0 1 0 0 0 1 -4.981113 -26.9461 -10.25101 1 0.5 1
9 0 1 0 0 0 1 0 0 0 1 -7.481113 -28.4461 -9.251013 0.5 1 1
9 0 1 0 0 0 1 0 0 0 1 -8.981113 -25.4461 -15.75101 1 1 0.5
9 0 1 0 0 0 1 0 0 0 1 -10.98111 -27.9461 -12.75101 2 0.5 0.5
9 0 1 0 0 0 1 0 0 0 1 -11.98111 -28.9461 3.748987 1 0.5 1
9 0 1 0 0 0 1 0 0 0 1 -13.98111 -27.4461 4.248987 1 1 0.5
9 0 1 0 0 0 1 0 0 0 1 11.51889 -9.946098 17.24899 0.5 1.5 0.5
9 0 1 0 0 0 1 0 0 0 1 11.51889 -11.9461 11.24899 0.5 0.5 1.5
9 0 1 0 0 0 1 0 0 0 1 12.51889 -25.9461 -15.75101 1.5 0.5 0.5
9 0 1 0 0 0 1 0 0 0 1 9.518887 -28.9461 3.248987 0.5 1.5 0.5
9 0 1 0 0 0 1 0 0 0 1 8.518887 -28.9461 -11.75101 0.5 1.5 0.5
9 0 1 0 0 0 1 0 0 0 1 8.518887 -28.9461 4.248987 0.5 1.5 0.5
9 0 1 0 0 0 1 0 0 0 1 6.518887 -18.9461 -16.75101 0.5 0.5 1.5
9 0 1 0 0 0 1 0 0 0 1 6.518887 -28.9461 5.248987 0.5 1.5 0.5
9 0 1 0 0 0 1 0 0 0 1 1.518887 -1.946098 9.248987 0.5 0.5 1.5
9 0 1 0 0 0 1 0 0 0 1 -2.481113 -26.9461 9.248987 1.5 0.5 0.5
9 0 1 0 0 0 1 0 0 0 1 -5.481113 -28.9461 -11.75101 0.5 1.5 0.5
9 0 1 0 0 0 1 0 0 0 1 -6.481113 -28.9461 3.248987 0.5 1.5 0.5
9 0 1 0 0 0 1 0 0 0 1 -7.481113 -30.9461 -12.75101 1.5 0.5 0.5
9 0 1 0 0 0 1 0 0 0 1 -9.481113 -23.9461 8.248987 0.5 1.5 0.5
9 0 1 0 0 0 1 0 0 0 1 -9.481113 -26.9461 7.248987 1.5 0.5 0.5
