9 0 1 0 0 0 1 0 0 0 1 41.77057 -45.7013 7.488663 1 9.5 14.5
9 0 1 0 0 0 1 0 0 0 1 -0.2294273 -4.201302 4.988663 10 1 13
9 0 1 0 0 0 1 0 0 0 1 -42.22943 -45.7013 6.488663 1 8.5 14.5
9 0 1 0 0 0 1 0 0 0 1 0.2705727 -88.2013 4.488663 8.5 1 13.5
9 0 1 0 0 0 1 0 0 0 1 -27.72943 -16.7013 5.488663 2.5 2.5 15.5
9 0 1 0 0 0 1 0 0 0 1 -36.72943 -63.2013 6.988663 2.5 2 16
9 0 1 0 0 0 1 0 0 0 1 19.77057 -10.2013 4.488663 3 2 12.5
9 0 1 0 0 0 1 0 0 0 1 7.770573 -86.2013 3.988663 5 1 14
9 0 1 0 0 0 1 0 0 0 1 39.77057 -56.7013 3.988663 1 5.5 12
9 0 1 0 0 0 1 0 0 0 1 4.270573 -78.2013 5.988663 0.5 7 12
9 0 1 0 0 0 1 0 0 0 1 -0.2294273 -2.701302 2.488663 8 0.5 10.5
9 0 1 0 0 0 1 0 0 0 1 36.77057 -52.2013 -0.5113373 2 1 18.5
9 0 1 0 0 0 1 0 0 0 1 -5.229427 -86.7013 -1.511337 8 0.5 8.5
9 0 1 0 0 0 1 0 0 0 1 -36.22943 -67.2013 4.988663 1 2 16
9 0 1 0 0 0 1 0 0 0 1 0.2705727 -81.7013 -20.51134 13.5 1.5 1.5
9 0 1 0 0 0 1 0 0 0 1 43.27057 -46.2013 -0.5113373 0.5 7 8.5
9 0 1 0 0 0 1 0 0 0 1 -15.22943 -6.201302 3.488663 2 1 14.5
9 0 1 0 0 0 1 0 0 0 1 13.27057 -5.701302 2.988663 3.5 0.5 16
9 0 1 0 0 0 1 0 0 0 1 -34.72943 -60.7013 -4.011337 5.5 0.5 10
9 0 1 0 0 0 1 0 0 0 1 -14.22943 -85.7013 4.488663 3 0.5 17.5
9 0 1 0 0 0 1 0 0 0 1 -1.729427 -9.701302 -20.51134 11.5 1.5 1.5
9 0 1 0 0 0 1 0 0 0 1 -31.22943 -17.7013 5.488663 1 1.5 16.5
9 0 1 0 0 0 1 0 0 0 1 -40.72943 -36.2013 3.988663 0.5 4 12
9 0 1 0 0 0 1 0 0 0 1 -40.72943 -55.2013 5.988663 0.5 3 16
9 0 1 0 0 0 1 0 0 0 1 18.27057 -84.2013 5.488663 1.5 1 15.5
9 0 1 0 0 0 1 0 0 0 1 41.77057 -45.7013 -12.01134 1 4.5 5
9 0 1 0 0 0 1 0 0 0 1 38.77057 -28.7013 5.988663 1 1.5 15
9 0 1 0 0 0 1 0 0 0 1 -38.22943 -27.7013 4.988663 1 1.5 15
9 0 1 0 0 0 1 0 0 0 1 17.77057 -7.201302 4.988663 2 1 11
9 0 1 0 0 0 1 0 0 0 1 35.27057 -43.7013 -20.51134 1.5 9.5 1.5
9 0 1 0 0 0 1 0 0 0 1 -35.72943 -45.7013 -20.51134 1.5 9.5 1.5
9 0 1 0 0 0 1 0 0 0 1 -16.72943 -84.7013 5.988663 2.5 0.5 17
9 0 1 0 0 0 1 0 0 0 1 36.77057 -24.7013 2.988663 1 1.5 14
9 0 1 0 0 0 1 0 0 0 1 38.77057 -63.7013 4.488663 1 1.5 13.5
9 0 1 0 0 0 1 0 0 0 1 -19.72943 -8.201302 3.488663 1.5 1 13.5
9 0 1 0 0 0 1 0 0 0 1 5.270573 -81.7013 -4.511337 0.5 3.5 11.5
9 0 1 0 0 0 1 0 0 0 1 -39.72943 -31.7013 6.488663 0.5 2.5 15.5
9 0 1 0 0 0 1 0 0 0 1 15.77057 -85.2013 3.488663 1 1 18.5
9 0 1 0 0 0 1 0 0 0 1 36.77057 -67.2013 5.988663 1 1 16
9 0 1 0 0 0 1 0 0 0 1 30.77057 -75.2013 4.988663 1 1 16
9 0 1 0 0 0 1 0 0 0 1 3.270573 -64.2013 3.988663 0.5 8 4
9 0 1 0 0 0 1 0 0 0 1 -33.22943 -19.2013 2.988663 1 1 16
9 0 1 0 0 0 1 0 0 0 1 -37.22943 -25.2013 4.988663 1 1 16
9 0 1 0 0 0 1 0 0 0 1 -42.22943 -45.7013 -11.51134 1 4.5 3.5
9 0 1 0 0 0 1 0 0 0 1 21.77057 -82.2013 6.488663 1 1 15.5
9 0 1 0 0 0 1 0 0 0 1 -27.22943 -13.7013 6.488663 2 0.5 15.5
9 0 1 0 0 0 1 0 0 0 1 33.27057 -72.2013 3.988663 0.5 2 15
9 0 1 0 0 0 1 0 0 0 1 19.27057 -10.2013 19.98866 2.5 2 3
9 0 1 0 0 0 1 0 0 0 1 -19.22943 -83.7013 5.988663 2 0.5 15
9 0 1 0 0 0 1 0 0 0 1 32.77057 -51.7013 5.488663 2 0.5 14.5
9 0 1 0 0 0 1 0 0 0 1 28.77057 -77.2013 5.488663 1 1 14.5
9 0 1 0 0 0 1 0 0 0 1 -11.22943 -5.701302 4.488663 2 0.5 14.5
9 0 1 0 0 0 1 0 0 0 1 18.27057 -12.7013 3.988663 1.5 0.5 19
9 0 1 0 0 0 1 0 0 0 1 40.27057 -33.7013 5.988663 0.5 2.5 11
9 0 1 0 0 0 1 0 0 0 1 -36.22943 -23.2013 1.488663 1 1 13.5
9 0 1 0 0 0 1 0 0 0 1 33.27057 -19.7013 2.488663 0.5 1.5 17.5
9 0 1 0 0 0 1 0 0 0 1 0.2705727 -87.7013 20.48866 10.5 0.5 2.5
9 0 1 0 0 0 1 0 0 0 1 29.77057 -15.2013 3.988663 1 1 13
9 0 1 0 0 0 1 0 0 0 1 -39.72943 -58.7013 5.988663 0.5 1.5 17
9 0 1 0 0 0 1 0 0 0 1 -8.729427 -86.7013 13.98866 3.5 0.5 7
9 0 1 0 0 0 1 0 0 0 1 -20.72943 -82.7013 6.988663 1.5 0.5 16
9 0 1 0 0 0 1 0 0 0 1 28.27057 -50.7013 1.488663 2.5 0.5 9.5
9 0 1 0 0 0 1 0 0 0 1 -32.72943 -72.7013 1.488663 0.5 1.5 15.5
9 0 1 0 0 0 1 0 0 0 1 -22.22943 -9.201302 6.488663 1 1 11.5
9 0 1 0 0 0 1 0 0 0 1 32.27057 -48.2013 -13.51134 0.5 5 4.5
9 0 1 0 0 0 1 0 0 0 1 32.27057 -73.7013 2.988663 0.5 1.5 15
9 0 1 0 0 0 1 0 0 0 1 -0.2294273 -3.701302 20.48866 9 0.5 2.5
9 0 1 0 0 0 1 0 0 0 1 -33.72943 -62.2013 0.4886627 0.5 1 22.5
9 0 1 0 0 0 1 0 0 0 1 -34.72943 -67.7013 -8.511337 0.5 2.5 8.5
9 0 1 0 0 0 1 0 0 0 1 26.27057 -12.7013 5.488663 1.5 0.5 13.5
9 0 1 0 0 0 1 0 0 0 1 37.77057 -53.7013 1.988663 1 0.5 20
9 0 1 0 0 0 1 0 0 0 1 24.27057 -49.7013 1.988663 2.5 0.5 8
9 0 1 0 0 0 1 0 0 0 1 39.27057 -31.7013 -1.011337 0.5 1.5 13
9 0 1 0 0 0 1 0 0 0 1 14.77057 -6.701302 3.488663 1 0.5 19.5
9 0 1 0 0 0 1 0 0 0 1 -26.72943 -78.7013 3.988663 1.5 0.5 13
9 0 1 0 0 0 1 0 0 0 1 4.270573 -81.7013 -11.51134 0.5 3.5 5.5
9 0 1 0 0 0 1 0 0 0 1 32.27057 -18.2013 3.988663 0.5 1 19
9 0 1 0 0 0 1 0 0 0 1 13.77057 -85.7013 2.988663 1 0.5 19
9 0 1 0 0 0 1 0 0 0 1 -34.72943 -22.2013 1.988663 0.5 1 19
9 0 1 0 0 0 1 0 0 0 1 31.27057 -16.7013 5.488663 0.5 1.5 12.5
9 0 1 0 0 0 1 0 0 0 1 0.2705727 -83.7013 -19.51134 12.5 0.5 1.5
9 0 1 0 0 0 1 0 0 0 1 -39.72943 -62.7013 3.488663 0.5 1.5 12.5
9 0 1 0 0 0 1 0 0 0 1 34.27057 -70.2013 1.488663 0.5 1 18.5
9 0 1 0 0 0 1 0 0 0 1 35.77057 -22.7013 3.988663 1 0.5 18
9 0 1 0 0 0 1 0 0 0 1 27.27057 -78.7013 3.988663 1.5 0.5 12
9 0 1 0 0 0 1 0 0 0 1 16.27057 -12.2013 -6.511337 0.5 4 4.5
9 0 1 0 0 0 1 0 0 0 1 6.270573 -84.2013 0.9886627 0.5 1 18
9 0 1 0 0 0 1 0 0 0 1 4.270573 -74.2013 -8.011337 4.5 2 1
9 0 1 0 0 0 1 0 0 0 1 -21.22943 -24.2013 -8.011337 3 3 1
9 0 1 0 0 0 1 0 0 0 1 -24.22943 -11.7013 3.988663 1 0.5 18
9 0 1 0 0 0 1 0 0 0 1 -30.22943 -76.2013 4.988663 1 1 9
9 0 1 0 0 0 1 0 0 0 1 35.77057 -68.7013 3.488663 1 0.5 17.5
9 0 1 0 0 0 1 0 0 0 1 10.77057 -4.701302 1.488663 1 0.5 17.5
9 0 1 0 0 0 1 0 0 0 1 13.27057 -18.7013 -8.011337 3.5 2.5 1
9 0 1 0 0 0 1 0 0 0 1 1.270573 -37.2013 3.488663 3.5 1 2.5
9 0 1 0 0 0 1 0 0 0 1 -17.22943 -7.701302 5.488663 1 0.5 17.5
9 0 1 0 0 0 1 0 0 0 1 -24.72943 -18.7013 -13.01134 0.5 2.5 7
9 0 1 0 0 0 1 0 0 0 1 34.27057 -21.2013 0.9886627 0.5 1 17
9 0 1 0 0 0 1 0 0 0 1 27.77057 -13.7013 -0.5113373 2 0.5 8.5
9 0 1 0 0 0 1 0 0 0 1 -23.22943 -80.7013 2.988663 1 0.5 17
9 0 1 0 0 0 1 0 0 0 1 -31.22943 -74.7013 4.988663 1 0.5 17
9 0 1 0 0 0 1 0 0 0 1 -33.72943 -71.2013 0.9886627 0.5 1 17
9 0 1 0 0 0 1 0 0 0 1 39.27057 -55.7013 -11.01134 0.5 5.5 3
9 0 1 0 0 0 1 0 0 0 1 37.77057 -26.7013 6.488663 1 0.5 16.5
9 0 1 0 0 0 1 0 0 0 1 37.27057 -65.2013 6.488663 0.5 1 16.5
9 0 1 0 0 0 1 0 0 0 1 20.27057 -83.2013 6.488663 0.5 1 16.5
9 0 1 0 0 0 1 0 0 0 1 9.770573 -87.7013 1.488663 1 0.5 16.5
9 0 1 0 0 0 1 0 0 0 1 19.77057 -48.7013 3.988663 2 0.5 8
9 0 1 0 0 0 1 0 0 0 1 -0.2294273 -89.7013 3.988663 4 0.5 4
9 0 1 0 0 0 1 0 0 0 1 -28.22943 -77.7013 6.988663 1 0.5 16
9 0 1 0 0 0 1 0 0 0 1 -37.72943 -66.2013 5.988663 0.5 1 16
9 0 1 0 0 0 1 0 0 0 1 -38.22943 -60.7013 13.98866 2 0.5 8
9 0 1 0 0 0 1 0 0 0 1 -18.22943 -6.701302 4.488663 1 0.5 15.5
9 0 1 0 0 0 1 0 0 0 1 39.77057 -53.7013 18.98866 1 2.5 3
9 0 1 0 0 0 1 0 0 0 1 24.77057 -79.7013 0.9886627 1 0.5 15
9 0 1 0 0 0 1 0 0 0 1 23.77057 -11.2013 7.488663 1 1 7.5
9 0 1 0 0 0 1 0 0 0 1 12.27057 -11.7013 -21.01134 2.5 1.5 2
9 0 1 0 0 0 1 0 0 0 1 10.77057 -47.2013 3.488663 3 1 2.5
9 0 1 0 0 0 1 0 0 0 1 3.770573 -68.2013 -2.511337 1 3 2.5
9 0 1 0 0 0 1 0 0 0 1 -22.22943 -81.7013 4.988663 1 0.5 15
9 0 1 0 0 0 1 0 0 0 1 -26.72943 -58.2013 -8.011337 2.5 3 1
9 0 1 0 0 0 1 0 0 0 1 -41.72943 -55.2013 5.988663 0.5 1 15
9 0 1 0 0 0 1 0 0 0 1 -38.72943 -30.2013 4.488663 0.5 1 14.5
9 0 1 0 0 0 1 0 0 0 1 17.27057 -14.2013 -7.011337 0.5 1 14
9 0 1 0 0 0 1 0 0 0 1 5.270573 -83.2013 13.98866 0.5 2 7
9 0 1 0 0 0 1 0 0 0 1 -0.2294273 -4.201302 -11.51134 2 1 3.5
9 0 1 0 0 0 1 0 0 0 1 -11.22943 -4.701302 -0.01133728 1 0.5 16
9 0 1 0 0 0 1 0 0 0 1 0.2705727 -13.7013 -14.01134 3.5 0.5 4
9 0 1 0 0 0 1 0 0 0 1 -9.229427 -87.7013 3.988663 1 0.5 14
9 0 1 0 0 0 1 0 0 0 1 -23.22943 -10.7013 3.988663 1 0.5 14
9 0 1 0 0 0 1 0 0 0 1 -26.22943 -12.7013 -1.011337 2 0.5 7
9 0 1 0 0 0 1 0 0 0 1 -32.22943 -63.7013 -20.01134 1 3.5 2
9 0 1 0 0 0 1 0 0 0 1 41.27057 -56.2013 4.488663 0.5 1 13.5
9 0 1 0 0 0 1 0 0 0 1 23.77057 -80.7013 3.488663 1 0.5 13.5
9 0 1 0 0 0 1 0 0 0 1 -26.72943 -19.2013 -14.51134 1.5 1 4.5
9 0 1 0 0 0 1 0 0 0 1 -1.229427 -7.701302 -19.01134 13 0.5 1
9 0 1 0 0 0 1 0 0 0 1 -25.22943 -79.7013 4.988663 1 0.5 13
9 0 1 0 0 0 1 0 0 0 1 0.2705727 -87.2013 -12.51134 2.5 1 2.5
9 0 1 0 0 0 1 0 0 0 1 -8.729427 -47.2013 3.488663 0.5 5 2.5
9 0 1 0 0 0 1 0 0 0 1 -12.72943 -12.2013 -21.51134 2.5 1 2.5
9 0 1 0 0 0 1 0 0 0 1 -30.72943 -61.7013 -13.01134 2.5 0.5 5
9 0 1 0 0 0 1 0 0 0 1 20.27057 -11.7013 -11.51134 3.5 0.5 3.5
9 0 1 0 0 0 1 0 0 0 1 16.27057 -12.2013 -14.01134 0.5 5 3
9 0 1 0 0 0 1 0 0 0 1 37.77057 -46.2013 -21.01134 1 3 2
9 0 1 0 0 0 1 0 0 0 1 35.27057 -55.2013 -20.01134 1.5 2 2
9 0 1 0 0 0 1 0 0 0 1 32.77057 -29.2013 -20.51134 1 4 1.5
9 0 1 0 0 0 1 0 0 0 1 13.77057 -79.2013 -21.01134 3 1 2
9 0 1 0 0 0 1 0 0 0 1 10.77057 -86.2013 -13.01134 2 1 3
9 0 1 0 0 0 1 0 0 0 1 -31.22943 -26.2013 -20.51134 2 2 1.5
9 0 1 0 0 0 1 0 0 0 1 -35.72943 -46.2013 -23.01134 1.5 4 1
9 0 1 0 0 0 1 0 0 0 1 -38.22943 -46.2013 -20.51134 1 4 1.5
9 0 1 0 0 0 1 0 0 0 1 -40.72943 -46.2013 -16.01134 0.5 4 3
9 0 1 0 0 0 1 0 0 0 1 -42.22943 -36.7013 3.988663 1 0.5 12
9 0 1 0 0 0 1 0 0 0 1 -26.22943 -58.7013 4.488663 1 0.5 11.5
9 0 1 0 0 0 1 0 0 0 1 32.27057 -63.7013 -20.51134 1.5 2.5 1.5
9 0 1 0 0 0 1 0 0 0 1 30.27057 -24.7013 -20.51134 1.5 2.5 1.5
9 0 1 0 0 0 1 0 0 0 1 -5.729427 -4.701302 20.48866 4.5 0.5 2.5
9 0 1 0 0 0 1 0 0 0 1 -23.72943 -57.7013 0.4886627 1.5 0.5 7.5
9 0 1 0 0 0 1 0 0 0 1 -29.72943 -67.7013 -20.51134 1.5 2.5 1.5
9 0 1 0 0 0 1 0 0 0 1 28.77057 -50.7013 -8.511337 2 5.5 0.5
9 0 1 0 0 0 1 0 0 0 1 -34.72943 -69.2013 10.98866 0.5 1 11
9 0 1 0 0 0 1 0 0 0 1 -25.22943 -19.7013 4.488663 1 0.5 10.5
9 0 1 0 0 0 1 0 0 0 1 38.27057 -54.7013 2.488663 0.5 0.5 20.5
9 0 1 0 0 0 1 0 0 0 1 41.27057 -33.7013 3.988663 0.5 2.5 4
9 0 1 0 0 0 1 0 0 0 1 6.770573 -86.7013 20.48866 4 0.5 2.5
9 0 1 0 0 0 1 0 0 0 1 -27.22943 -16.7013 21.98866 2 2.5 1
9 0 1 0 0 0 1 0 0 0 1 -31.72943 -73.2013 -7.011337 0.5 1 10
9 0 1 0 0 0 1 0 0 0 1 35.27057 -23.7013 3.488663 0.5 0.5 19.5
9 0 1 0 0 0 1 0 0 0 1 -33.72943 -20.7013 2.488663 0.5 0.5 19.5
9 0 1 0 0 0 1 0 0 0 1 39.77057 -50.7013 1.488663 1 0.5 9.5
9 0 1 0 0 0 1 0 0 0 1 -28.22943 -59.7013 2.488663 1 0.5 9.5
9 0 1 0 0 0 1 0 0 0 1 -43.72943 -42.2013 2.488663 0.5 1 9.5
9 0 1 0 0 0 1 0 0 0 1 43.27057 -40.7013 13.98866 0.5 1.5 6
9 0 1 0 0 0 1 0 0 0 1 43.27057 -50.7013 13.98866 0.5 1.5 6
9 0 1 0 0 0 1 0 0 0 1 40.27057 -46.2013 -18.01134 1.5 3 1
9 0 1 0 0 0 1 0 0 0 1 38.27057 -66.2013 1.988663 0.5 1 9
9 0 1 0 0 0 1 0 0 0 1 33.77057 -52.2013 -13.51134 1 1 4.5
9 0 1 0 0 0 1 0 0 0 1 29.27057 -67.7013 -21.01134 1.5 1.5 2
9 0 1 0 0 0 1 0 0 0 1 27.27057 -21.7013 -21.01134 1.5 1.5 2
9 0 1 0 0 0 1 0 0 0 1 18.27057 -9.201302 -9.511337 1.5 2 1.5
9 0 1 0 0 0 1 0 0 0 1 17.27057 -7.201302 18.98866 1.5 1 3
9 0 1 0 0 0 1 0 0 0 1 15.77057 -47.7013 3.488663 2 0.5 4.5
9 0 1 0 0 0 1 0 0 0 1 -14.22943 -79.2013 -20.51134 3 1 1.5
9 0 1 0 0 0 1 0 0 0 1 -21.22943 -56.7013 2.988663 1 0.5 9
9 0 1 0 0 0 1 0 0 0 1 -23.22943 -21.2013 -13.51134 1 1 4.5
9 0 1 0 0 0 1 0 0 0 1 -28.22943 -21.2013 -19.51134 3 1 1.5
9 0 1 0 0 0 1 0 0 0 1 -33.22943 -31.2013 -20.51134 1 3 1.5
9 0 1 0 0 0 1 0 0 0 1 -33.72943 -58.7013 -20.01134 1.5 1.5 2
9 0 1 0 0 0 1 0 0 0 1 -41.72943 -46.2013 21.98866 0.5 9 1
9 0 1 0 0 0 1 0 0 0 1 31.27057 -73.7013 5.488663 0.5 0.5 17.5
9 0 1 0 0 0 1 0 0 0 1 7.270573 -84.7013 0.4886627 0.5 0.5 17.5
9 0 1 0 0 0 1 0 0 0 1 0.2705727 -54.7013 3.488663 3.5 0.5 2.5
9 0 1 0 0 0 1 0 0 0 1 41.77057 -45.7013 22.48866 1 8.5 0.5
9 0 1 0 0 0 1 0 0 0 1 35.27057 -69.7013 0.9886627 0.5 0.5 17
9 0 1 0 0 0 1 0 0 0 1 30.27057 -16.7013 5.988663 0.5 0.5 17
9 0 1 0 0 0 1 0 0 0 1 15.27057 -17.2013 1.488663 0.5 1 8.5
9 0 1 0 0 0 1 0 0 0 1 -32.72943 -17.7013 4.988663 0.5 0.5 17
9 0 1 0 0 0 1 0 0 0 1 29.27057 -75.7013 6.488663 0.5 0.5 16.5
9 0 1 0 0 0 1 0 0 0 1 28.27057 -14.7013 6.488663 0.5 0.5 16.5
9 0 1 0 0 0 1 0 0 0 1 27.27057 -77.7013 6.488663 0.5 0.5 16.5
9 0 1 0 0 0 1 0 0 0 1 -20.72943 -9.701302 6.488663 0.5 0.5 16.5
9 0 1 0 0 0 1 0 0 0 1 -28.72943 -76.7013 6.488663 0.5 0.5 16.5
9 0 1 0 0 0 1 0 0 0 1 -30.72943 -15.7013 5.488663 0.5 0.5 16.5
9 0 1 0 0 0 1 0 0 0 1 20.27057 -7.701302 5.988663 0.5 0.5 16
9 0 1 0 0 0 1 0 0 0 1 4.270573 -69.2013 3.988663 0.5 2 4
9 0 1 0 0 0 1 0 0 0 1 4.270573 -82.2013 19.98866 0.5 4 2
9 0 1 0 0 0 1 0 0 0 1 5.770573 -4.201302 -9.011337 4 1 1
9 0 1 0 0 0 1 0 0 0 1 -0.2294273 -88.7013 18.98866 8 0.5 1
9 0 1 0 0 0 1 0 0 0 1 -6.229427 -4.201302 -9.011337 4 1 1
9 0 1 0 0 0 1 0 0 0 1 -34.72943 -63.2013 -13.01134 0.5 2 4
9 0 1 0 0 0 1 0 0 0 1 -40.72943 -60.2013 3.988663 0.5 2 4
9 0 1 0 0 0 1 0 0 0 1 -41.72943 -34.2013 3.988663 0.5 2 4
9 0 1 0 0 0 1 0 0 0 1 38.27057 -25.7013 5.488663 0.5 0.5 15.5
9 0 1 0 0 0 1 0 0 0 1 38.27057 -61.7013 6.488663 0.5 0.5 15.5
9 0 1 0 0 0 1 0 0 0 1 30.27057 -76.7013 5.488663 0.5 0.5 15.5
9 0 1 0 0 0 1 0 0 0 1 3.270573 -84.7013 -2.511337 0.5 0.5 15.5
9 0 1 0 0 0 1 0 0 0 1 -32.72943 -61.7013 7.488663 0.5 0.5 15.5
9 0 1 0 0 0 1 0 0 0 1 40.27057 -35.2013 -7.511337 0.5 3 2.5
9 0 1 0 0 0 1 0 0 0 1 27.77057 -13.7013 15.48866 1 0.5 7.5
9 0 1 0 0 0 1 0 0 0 1 17.27057 -85.7013 3.988663 0.5 0.5 15
9 0 1 0 0 0 1 0 0 0 1 12.27057 -22.2013 -0.5113373 0.5 1 7.5
9 0 1 0 0 0 1 0 0 0 1 6.770573 -4.701302 20.48866 3 0.5 2.5
9 0 1 0 0 0 1 0 0 0 1 3.270573 -68.2013 10.48866 0.5 3 2.5
9 0 1 0 0 0 1 0 0 0 1 0.7705727 -77.7013 -9.511337 5 0.5 1.5
9 0 1 0 0 0 1 0 0 0 1 -6.729427 -39.2013 3.488663 1.5 1 2.5
9 0 1 0 0 0 1 0 0 0 1 -11.72943 -5.701302 -14.01134 2.5 0.5 3
9 0 1 0 0 0 1 0 0 0 1 -17.72943 -14.2013 -20.51134 2.5 1 1.5
9 0 1 0 0 0 1 0 0 0 1 -18.72943 -55.7013 -0.01133728 1.5 0.5 5
9 0 1 0 0 0 1 0 0 0 1 -40.72943 -36.2013 18.48866 0.5 3 2.5
9 0 1 0 0 0 1 0 0 0 1 -10.72943 -3.701302 1.488663 0.5 0.5 14.5
9 0 1 0 0 0 1 0 0 0 1 35.77057 -45.7013 -23.01134 1 3.5 1
9 0 1 0 0 0 1 0 0 0 1 28.27057 -48.2013 -7.511337 3.5 2 0.5
9 0 1 0 0 0 1 0 0 0 1 21.27057 -83.7013 3.988663 0.5 0.5 14
9 0 1 0 0 0 1 0 0 0 1 -10.72943 -85.7013 -5.011337 0.5 0.5 14
9 0 1 0 0 0 1 0 0 0 1 -14.22943 -86.7013 -1.011337 1 0.5 7
9 0 1 0 0 0 1 0 0 0 1 -22.72943 -22.2013 -0.01133728 0.5 1 7
9 0 1 0 0 0 1 0 0 0 1 -39.72943 -28.2013 0.9886627 0.5 1 7
9 0 1 0 0 0 1 0 0 0 1 -39.72943 -45.7013 -19.01134 0.5 3.5 2
9 0 1 0 0 0 1 0 0 0 1 27.27057 -70.7013 -20.51134 1.5 1.5 1.5
9 0 1 0 0 0 1 0 0 0 1 18.27057 -13.7013 -7.511337 0.5 0.5 13.5
9 0 1 0 0 0 1 0 0 0 1 19.77057 -15.2013 -20.01134 2 1 2
9 0 1 0 0 0 1 0 0 0 1 17.27057 -16.7013 -13.51134 0.5 1.5 4.5
9 0 1 0 0 0 1 0 0 0 1 10.27057 -3.701302 1.488663 0.5 0.5 13.5
9 0 1 0 0 0 1 0 0 0 1 4.270573 -81.7013 -18.51134 4.5 1.5 0.5
9 0 1 0 0 0 1 0 0 0 1 -20.72943 -75.7013 -20.51134 1.5 1.5 1.5
9 0 1 0 0 0 1 0 0 0 1 -21.72943 -16.7013 -20.51134 1.5 1.5 1.5
9 0 1 0 0 0 1 0 0 0 1 -26.72943 -70.7013 -20.51134 1.5 1.5 1.5
9 0 1 0 0 0 1 0 0 0 1 -42.72943 -54.7013 4.488663 0.5 0.5 13.5
9 0 1 0 0 0 1 0 0 0 1 40.27057 -30.2013 1.488663 0.5 1 6.5
9 0 1 0 0 0 1 0 0 0 1 13.27057 -20.2013 -0.5113373 0.5 1 6.5
9 0 1 0 0 0 1 0 0 0 1 -16.72943 -83.7013 -2.011337 0.5 0.5 13
9 0 1 0 0 0 1 0 0 0 1 39.27057 -61.7013 20.48866 0.5 2.5 2.5
9 0 1 0 0 0 1 0 0 0 1 35.27057 -21.7013 0.4886627 0.5 0.5 12.5
9 0 1 0 0 0 1 0 0 0 1 8.270573 -43.7013 3.488663 0.5 2.5 2.5
9 0 1 0 0 0 1 0 0 0 1 -8.729427 -88.7013 2.488663 0.5 0.5 12.5
9 0 1 0 0 0 1 0 0 0 1 -10.72943 -86.7013 -12.51134 2.5 0.5 2.5
9 0 1 0 0 0 1 0 0 0 1 -14.72943 -6.701302 -13.51134 2.5 0.5 2.5
9 0 1 0 0 0 1 0 0 0 1 -25.72943 -15.7013 -12.51134 0.5 2.5 2.5
9 0 1 0 0 0 1 0 0 0 1 -38.72943 -59.7013 -2.511337 0.5 0.5 12.5
9 0 1 0 0 0 1 0 0 0 1 41.77057 -39.2013 -8.511337 1 2 1.5
9 0 1 0 0 0 1 0 0 0 1 41.27057 -58.7013 3.988663 0.5 1.5 4
9 0 1 0 0 0 1 0 0 0 1 33.77057 -59.2013 -20.51134 1 2 1.5
9 0 1 0 0 0 1 0 0 0 1 32.27057 -19.7013 -5.011337 0.5 0.5 12
9 0 1 0 0 0 1 0 0 0 1 24.27057 -11.7013 -4.011337 1.5 0.5 4
9 0 1 0 0 0 1 0 0 0 1 24.77057 -19.2013 -20.51134 2 1 1.5
9 0 1 0 0 0 1 0 0 0 1 22.77057 -74.2013 -20.51134 2 1 1.5
9 0 1 0 0 0 1 0 0 0 1 16.27057 -15.7013 9.988663 0.5 0.5 12
9 0 1 0 0 0 1 0 0 0 1 17.77057 -77.2013 -20.51134 2 1 1.5
9 0 1 0 0 0 1 0 0 0 1 13.77057 -15.7013 -14.01134 2 0.5 3
9 0 1 0 0 0 1 0 0 0 1 5.270573 -2.701302 16.98866 1.5 0.5 4
9 0 1 0 0 0 1 0 0 0 1 3.270573 -73.2013 -4.011337 0.5 2 3
9 0 1 0 0 0 1 0 0 0 1 4.770573 -81.2013 -17.51134 2 3 0.5
9 0 1 0 0 0 1 0 0 0 1 -19.22943 -8.201302 19.98866 1 1 3
9 0 1 0 0 0 1 0 0 0 1 -19.72943 -84.7013 2.988663 0.5 0.5 12
9 0 1 0 0 0 1 0 0 0 1 -28.72943 -23.2013 -21.01134 1.5 1 2
9 0 1 0 0 0 1 0 0 0 1 -33.72943 -63.7013 -9.011337 0.5 0.5 12
9 0 1 0 0 0 1 0 0 0 1 -33.22943 -60.7013 -16.01134 3 0.5 2
9 0 1 0 0 0 1 0 0 0 1 -38.72943 -65.7013 5.988663 0.5 0.5 12
9 0 1 0 0 0 1 0 0 0 1 -41.72943 -46.2013 -16.51134 0.5 4 1.5
9 0 1 0 0 0 1 0 0 0 1 -41.72943 -57.7013 3.988663 0.5 1.5 4
9 0 1 0 0 0 1 0 0 0 1 -41.72943 -51.2013 -10.01134 1.5 1 2
9 0 1 0 0 0 1 0 0 0 1 19.27057 -82.7013 0.4886627 0.5 0.5 11.5
9 0 1 0 0 0 1 0 0 0 1 13.27057 -6.701302 -6.511337 0.5 0.5 11.5
9 0 1 0 0 0 1 0 0 0 1 -17.72943 -85.7013 4.488663 0.5 0.5 11.5
9 0 1 0 0 0 1 0 0 0 1 -23.72943 -20.7013 2.488663 0.5 0.5 11.5
9 0 1 0 0 0 1 0 0 0 1 39.27057 -31.2013 17.48866 0.5 1 5.5
9 0 1 0 0 0 1 0 0 0 1 14.27057 -18.7013 3.988663 0.5 0.5 11
9 0 1 0 0 0 1 0 0 0 1 9.270573 -27.2013 0.4886627 0.5 1 5.5
9 0 1 0 0 0 1 0 0 0 1 -19.72943 -25.7013 3.988663 0.5 0.5 11
9 0 1 0 0 0 1 0 0 0 1 28.27057 -50.7013 14.48866 1.5 0.5 3.5
9 0 1 0 0 0 1 0 0 0 1 20.27057 -12.7013 -5.511337 0.5 0.5 10.5
9 0 1 0 0 0 1 0 0 0 1 11.27057 -23.7013 3.488663 0.5 0.5 10.5
9 0 1 0 0 0 1 0 0 0 1 10.27057 -25.7013 4.488663 0.5 0.5 10.5
9 0 1 0 0 0 1 0 0 0 1 5.270573 -76.7013 -3.511337 0.5 1.5 3.5
9 0 1 0 0 0 1 0 0 0 1 2.270573 -56.7013 4.488663 0.5 1.5 3.5
9 0 1 0 0 0 1 0 0 0 1 5.270573 -85.7013 -11.51134 3.5 0.5 1.5
9 0 1 0 0 0 1 0 0 0 1 -18.72943 -26.7013 3.488663 0.5 0.5 10.5
9 0 1 0 0 0 1 0 0 0 1 -29.72943 -75.7013 -7.511337 1.5 0.5 3.5
9 0 1 0 0 0 1 0 0 0 1 41.27057 -35.2013 12.98866 0.5 1 5
9 0 1 0 0 0 1 0 0 0 1 41.77057 -52.7013 -8.011337 1 2.5 1
9 0 1 0 0 0 1 0 0 0 1 35.27057 -67.7013 -6.011337 0.5 0.5 10
9 0 1 0 0 0 1 0 0 0 1 27.77057 -53.7013 -7.511337 2 2.5 0.5
9 0 1 0 0 0 1 0 0 0 1 22.77057 -11.2013 19.48866 1 1 2.5
9 0 1 0 0 0 1 0 0 0 1 14.27057 -84.7013 -7.011337 0.5 0.5 10
9 0 1 0 0 0 1 0 0 0 1 15.27057 -22.2013 -8.011337 2.5 1 1
9 0 1 0 0 0 1 0 0 0 1 12.27057 -9.201302 -20.01134 2.5 1 1
9 0 1 0 0 0 1 0 0 0 1 11.27057 -5.701302 -15.01134 2.5 0.5 2
9 0 1 0 0 0 1 0 0 0 1 -7.729427 -50.2013 3.488663 0.5 2 2.5
9 0 1 0 0 0 1 0 0 0 1 -10.72943 -80.2013 -23.01134 2.5 1 1
9 0 1 0 0 0 1 0 0 0 1 -14.22943 -53.7013 3.988663 1 0.5 5
9 0 1 0 0 0 1 0 0 0 1 -15.22943 -6.701302 20.48866 2 0.5 2.5
9 0 1 0 0 0 1 0 0 0 1 -16.72943 -29.2013 -1.011337 0.5 1 5
9 0 1 0 0 0 1 0 0 0 1 -20.72943 -24.7013 2.988663 0.5 0.5 10
9 0 1 0 0 0 1 0 0 0 1 -26.22943 -12.7013 10.98866 1 0.5 5
9 0 1 0 0 0 1 0 0 0 1 -29.72943 -59.7013 -5.011337 0.5 0.5 10
9 0 1 0 0 0 1 0 0 0 1 -30.72943 -58.2013 -15.51134 0.5 2 2.5
9 0 1 0 0 0 1 0 0 0 1 -30.22943 -18.7013 -13.51134 2 0.5 2.5
9 0 1 0 0 0 1 0 0 0 1 -31.72943 -73.7013 12.98866 0.5 0.5 10
9 0 1 0 0 0 1 0 0 0 1 -39.72943 -33.2013 -11.51134 0.5 2 2.5
9 0 1 0 0 0 1 0 0 0 1 -43.72943 -49.7013 1.988663 0.5 0.5 10
9 0 1 0 0 0 1 0 0 0 1 43.27057 -38.7013 2.488663 0.5 0.5 9.5
9 0 1 0 0 0 1 0 0 0 1 -26.72943 -77.7013 -0.5113373 0.5 0.5 9.5
9 0 1 0 0 0 1 0 0 0 1 -34.72943 -70.7013 0.4886627 0.5 0.5 9.5
9 0 1 0 0 0 1 0 0 0 1 -35.72943 -24.7013 -6.511337 0.5 0.5 9.5
9 0 1 0 0 0 1 0 0 0 1 -35.72943 -69.7013 -0.5113373 0.5 0.5 9.5
9 0 1 0 0 0 1 0 0 0 1 41.27057 -35.2013 -4.511337 0.5 1 4.5
9 0 1 0 0 0 1 0 0 0 1 40.27057 -36.7013 3.988663 0.5 0.5 9
9 0 1 0 0 0 1 0 0 0 1 40.27057 -54.7013 -9.011337 0.5 4.5 1
9 0 1 0 0 0 1 0 0 0 1 40.27057 -57.7013 18.98866 0.5 1.5 3
9 0 1 0 0 0 1 0 0 0 1 40.27057 -62.7013 3.988663 0.5 0.5 9
9 0 1 0 0 0 1 0 0 0 1 34.77057 -32.7013 -20.51134 1 1.5 1.5
9 0 1 0 0 0 1 0 0 0 1 22.27057 -17.2013 -20.51134 1.5 1 1.5
9 0 1 0 0 0 1 0 0 0 1 5.270573 -36.2013 2.488663 0.5 3 1.5
9 0 1 0 0 0 1 0 0 0 1 2.270573 -76.7013 -8.011337 4.5 0.5 1
9 0 1 0 0 0 1 0 0 0 1 -5.729427 -2.701302 15.98866 1.5 0.5 3
9 0 1 0 0 0 1 0 0 0 1 -14.72943 -84.7013 -14.01134 1.5 0.5 3
9 0 1 0 0 0 1 0 0 0 1 -16.22943 -54.7013 2.488663 1 0.5 4.5
9 0 1 0 0 0 1 0 0 0 1 -17.72943 -28.2013 -2.511337 0.5 1 4.5
9 0 1 0 0 0 1 0 0 0 1 -17.72943 -77.2013 -20.51134 1.5 1 1.5
9 0 1 0 0 0 1 0 0 0 1 -29.72943 -76.2013 18.48866 0.5 1 4.5
9 0 1 0 0 0 1 0 0 0 1 -35.22943 -34.7013 -20.51134 1 1.5 1.5
9 0 1 0 0 0 1 0 0 0 1 -34.72943 -56.2013 -20.51134 1.5 1 1.5
9 0 1 0 0 0 1 0 0 0 1 -40.72943 -31.2013 3.488663 0.5 1 4.5
9 0 1 0 0 0 1 0 0 0 1 -40.72943 -37.7013 -9.011337 0.5 4.5 1
9 0 1 0 0 0 1 0 0 0 1 34.27057 -52.7013 -0.5113373 0.5 0.5 8.5
9 0 1 0 0 0 1 0 0 0 1 30.27057 -51.7013 0.4886627 0.5 0.5 8.5
9 0 1 0 0 0 1 0 0 0 1 0.2705727 -87.7013 -9.511337 8.5 0.5 0.5
9 0 1 0 0 0 1 0 0 0 1 -21.72943 -23.7013 1.488663 0.5 0.5 8.5
9 0 1 0 0 0 1 0 0 0 1 -24.72943 -18.7013 2.488663 0.5 0.5 8.5
9 0 1 0 0 0 1 0 0 0 1 42.27057 -35.2013 3.988663 0.5 1 4
9 0 1 0 0 0 1 0 0 0 1 42.27057 -56.2013 3.988663 0.5 1 4
9 0 1 0 0 0 1 0 0 0 1 40.27057 -34.2013 18.98866 0.5 2 2
9 0 1 0 0 0 1 0 0 0 1 38.27057 -64.2013 19.98866 0.5 2 2
9 0 1 0 0 0 1 0 0 0 1 37.27057 -27.7013 -2.011337 0.5 0.5 8
9 0 1 0 0 0 1 0 0 0 1 32.77057 -72.2013 -14.01134 1 1 2
9 0 1 0 0 0 1 0 0 0 1 26.77057 -79.7013 3.988663 1 0.5 4
9 0 1 0 0 0 1 0 0 0 1 25.27057 -11.7013 8.988663 0.5 0.5 8
9 0 1 0 0 0 1 0 0 0 1 23.77057 -9.701302 3.988663 1 0.5 4
9 0 1 0 0 0 1 0 0 0 1 23.77057 -81.7013 3.988663 1 0.5 4
9 0 1 0 0 0 1 0 0 0 1 17.27057 -13.7013 14.98866 0.5 0.5 8
9 0 1 0 0 0 1 0 0 0 1 16.77057 -12.7013 -20.01134 2 0.5 2
9 0 1 0 0 0 1 0 0 0 1 14.77057 -13.7013 -20.01134 2 0.5 2
9 0 1 0 0 0 1 0 0 0 1 10.77057 -24.7013 -3.011337 1 0.5 4
9 0 1 0 0 0 1 0 0 0 1 10.77057 -85.2013 -17.01134 2 1 1
9 0 1 0 0 0 1 0 0 0 1 7.770573 -10.2013 -22.51134 2 2 0.5
9 0 1 0 0 0 1 0 0 0 1 3.770573 -7.701302 -20.51134 8 0.5 0.5
9 0 1 0 0 0 1 0 0 0 1 -8.229427 -11.7013 -21.01134 2 0.5 2
9 0 1 0 0 0 1 0 0 0 1 -13.72943 -32.7013 3.988663 0.5 0.5 8
9 0 1 0 0 0 1 0 0 0 1 -21.22943 -20.7013 -12.01134 1 0.5 4
9 0 1 0 0 0 1 0 0 0 1 -23.72943 -18.2013 -20.01134 0.5 2 2
9 0 1 0 0 0 1 0 0 0 1 -24.22943 -73.2013 -20.01134 1 2 1
9 0 1 0 0 0 1 0 0 0 1 -24.22943 -81.7013 3.988663 1 0.5 4
9 0 1 0 0 0 1 0 0 0 1 -25.22943 -10.7013 3.988663 1 0.5 4
9 0 1 0 0 0 1 0 0 0 1 -25.22943 -80.7013 3.988663 1 0.5 4
9 0 1 0 0 0 1 0 0 0 1 -26.22943 -11.7013 3.988663 1 0.5 4
9 0 1 0 0 0 1 0 0 0 1 -36.22943 -63.2013 -10.01134 1 2 1
9 0 1 0 0 0 1 0 0 0 1 -40.72943 -51.7013 -0.01133728 0.5 0.5 8
9 0 1 0 0 0 1 0 0 0 1 39.27057 -45.7013 -20.51134 0.5 2.5 1.5
9 0 1 0 0 0 1 0 0 0 1 37.27057 -40.7013 -20.51134 0.5 2.5 1.5
9 0 1 0 0 0 1 0 0 0 1 37.27057 -63.7013 -2.511337 0.5 0.5 7.5
9 0 1 0 0 0 1 0 0 0 1 37.27057 -52.7013 20.48866 1.5 0.5 2.5
9 0 1 0 0 0 1 0 0 0 1 24.27057 -49.7013 12.48866 1.5 0.5 2.5
9 0 1 0 0 0 1 0 0 0 1 17.27057 -6.701302 -8.511337 1.5 0.5 2.5
9 0 1 0 0 0 1 0 0 0 1 8.270573 -28.7013 3.488663 0.5 0.5 7.5
9 0 1 0 0 0 1 0 0 0 1 9.270573 -79.7013 -21.51134 1.5 0.5 2.5
9 0 1 0 0 0 1 0 0 0 1 9.270573 -81.7013 -22.51134 2.5 1.5 0.5
9 0 1 0 0 0 1 0 0 0 1 6.270573 -85.7013 20.48866 1.5 0.5 2.5
9 0 1 0 0 0 1 0 0 0 1 3.270573 -53.7013 3.488663 1.5 0.5 2.5
9 0 1 0 0 0 1 0 0 0 1 -3.729427 -53.7013 3.488663 1.5 0.5 2.5
9 0 1 0 0 0 1 0 0 0 1 -7.729427 -41.7013 3.488663 0.5 1.5 2.5
9 0 1 0 0 0 1 0 0 0 1 -2.729427 -83.7013 -21.51134 7.5 0.5 0.5
9 0 1 0 0 0 1 0 0 0 1 -14.72943 -31.7013 2.488663 0.5 0.5 7.5
9 0 1 0 0 0 1 0 0 0 1 -16.72943 -21.7013 -8.511337 1.5 2.5 0.5
9 0 1 0 0 0 1 0 0 0 1 -30.72943 -60.7013 13.48866 0.5 0.5 7.5
9 0 1 0 0 0 1 0 0 0 1 -31.72943 -40.7013 -11.51134 0.5 1.5 2.5
9 0 1 0 0 0 1 0 0 0 1 -31.72943 -61.7013 -0.5113373 0.5 0.5 7.5
9 0 1 0 0 0 1 0 0 0 1 -36.72943 -26.7013 -3.511337 0.5 0.5 7.5
9 0 1 0 0 0 1 0 0 0 1 -37.72943 -67.7013 0.4886627 0.5 0.5 7.5
9 0 1 0 0 0 1 0 0 0 1 31.77057 -47.7013 -8.511337 1 3.5 0.5
9 0 1 0 0 0 1 0 0 0 1 23.27057 -10.7013 -7.011337 0.5 0.5 7
9 0 1 0 0 0 1 0 0 0 1 22.77057 -48.7013 -2.511337 1 0.5 3.5
9 0 1 0 0 0 1 0 0 0 1 14.77057 -16.7013 -12.51134 1 0.5 3.5
9 0 1 0 0 0 1 0 0 0 1 13.27057 -86.7013 -0.01133728 0.5 0.5 7
9 0 1 0 0 0 1 0 0 0 1 12.27057 -4.701302 -0.01133728 0.5 0.5 7
9 0 1 0 0 0 1 0 0 0 1 9.270573 -88.7013 0.9886627 0.5 0.5 7
9 0 1 0 0 0 1 0 0 0 1 -12.72943 -33.7013 3.988663 0.5 0.5 7
9 0 1 0 0 0 1 0 0 0 1 -15.72943 -7.701302 -11.01134 0.5 0.5 7
9 0 1 0 0 0 1 0 0 0 1 -22.72943 -82.7013 0.9886627 0.5 0.5 7
9 0 1 0 0 0 1 0 0 0 1 -33.72943 -21.7013 -11.01134 0.5 0.5 7
9 0 1 0 0 0 1 0 0 0 1 -33.72943 -72.7013 -0.01133728 0.5 0.5 7
9 0 1 0 0 0 1 0 0 0 1 -36.22943 -23.7013 18.48866 1 0.5 3.5
9 0 1 0 0 0 1 0 0 0 1 -39.72943 -34.7013 -2.011337 0.5 0.5 7
9 0 1 0 0 0 1 0 0 0 1 -40.72943 -40.7013 -1.011337 0.5 0.5 7
9 0 1 0 0 0 1 0 0 0 1 25.27057 -78.7013 -7.511337 0.5 0.5 6.5
9 0 1 0 0 0 1 0 0 0 1 9.270573 -5.701302 -6.511337 0.5 0.5 6.5
9 0 1 0 0 0 1 0 0 0 1 -30.72943 -73.7013 -8.511337 0.5 0.5 6.5
9 0 1 0 0 0 1 0 0 0 1 -38.72943 -31.7013 -8.511337 0.5 0.5 6.5
9 0 1 0 0 0 1 0 0 0 1 -39.72943 -28.7013 14.48866 0.5 0.5 6.5
9 0 1 0 0 0 1 0 0 0 1 43.27057 -49.2013 -10.51134 0.5 2 1.5
9 0 1 0 0 0 1 0 0 0 1 40.27057 -50.7013 16.98866 0.5 0.5 6
9 0 1 0 0 0 1 0 0 0 1 40.27057 -57.7013 -12.01134 0.5 1.5 2
9 0 1 0 0 0 1 0 0 0 1 39.27057 -26.7013 1.988663 0.5 0.5 6
9 0 1 0 0 0 1 0 0 0 1 39.27057 -59.2013 16.98866 0.5 3 1
9 0 1 0 0 0 1 0 0 0 1 37.27057 -25.2013 19.98866 0.5 1 3
9 0 1 0 0 0 1 0 0 0 1 37.27057 -51.2013 -20.51134 0.5 2 1.5
9 0 1 0 0 0 1 0 0 0 1 36.27057 -49.7013 -18.51134 2.5 1.5 0.5
9 0 1 0 0 0 1 0 0 0 1 36.27057 -24.2013 19.98866 0.5 1 3
9 0 1 0 0 0 1 0 0 0 1 35.77057 -50.7013 -17.01134 3 0.5 1
9 0 1 0 0 0 1 0 0 0 1 32.27057 -16.7013 0.9886627 0.5 0.5 6
9 0 1 0 0 0 1 0 0 0 1 32.77057 -23.7013 -19.01134 1 1.5 1
9 0 1 0 0 0 1 0 0 0 1 31.27057 -50.7013 -2.011337 0.5 0.5 6
9 0 1 0 0 0 1 0 0 0 1 31.77057 -67.2013 -20.51134 1 1 1.5
9 0 1 0 0 0 1 0 0 0 1 30.27057 -64.7013 -21.01134 0.5 1.5 2
9 0 1 0 0 0 1 0 0 0 1 29.77057 -15.7013 19.98866 1 0.5 3
9 0 1 0 0 0 1 0 0 0 1 25.27057 -72.2013 -20.51134 0.5 2 1.5
9 0 1 0 0 0 1 0 0 0 1 21.27057 -10.2013 -9.011337 1.5 1 1
9 0 1 0 0 0 1 0 0 0 1 21.27057 -76.2013 -20.01134 1.5 1 1
9 0 1 0 0 0 1 0 0 0 1 17.77057 -12.2013 -16.51134 1 1 1.5
9 0 1 0 0 0 1 0 0 0 1 14.77057 -81.2013 -20.51134 1 1 1.5
9 0 1 0 0 0 1 0 0 0 1 14.27057 -8.201302 -18.01134 1.5 1 1
9 0 1 0 0 0 1 0 0 0 1 10.77057 -6.701302 -17.51134 2 0.5 1.5
9 0 1 0 0 0 1 0 0 0 1 8.770573 -4.201302 -11.51134 1 1 1.5
9 0 1 0 0 0 1 0 0 0 1 7.270573 -30.2013 0.9886627 0.5 1 3
9 0 1 0 0 0 1 0 0 0 1 7.770573 -11.7013 -20.51134 2 0.5 1.5
9 0 1 0 0 0 1 0 0 0 1 3.770573 -63.7013 -2.011337 1 1.5 1
9 0 1 0 0 0 1 0 0 0 1 5.770573 -71.2013 -7.511337 3 1 0.5
9 0 1 0 0 0 1 0 0 0 1 4.770573 -77.7013 -12.51134 2 0.5 1.5
9 0 1 0 0 0 1 0 0 0 1 3.270573 -79.2013 -14.01134 0.5 1 3
9 0 1 0 0 0 1 0 0 0 1 2.270573 -59.7013 1.988663 0.5 1.5 2
9 0 1 0 0 0 1 0 0 0 1 -0.2294273 -1.701302 4.988663 1 0.5 3
9 0 1 0 0 0 1 0 0 0 1 -9.229427 -79.7013 -20.51134 2 0.5 1.5
9 0 1 0 0 0 1 0 0 0 1 -10.72943 -6.701302 -18.01134 1.5 0.5 2
9 0 1 0 0 0 1 0 0 0 1 -9.229427 -10.2013 -22.51134 3 1 0.5
9 0 1 0 0 0 1 0 0 0 1 -11.22943 -52.7013 2.988663 1 0.5 3
9 0 1 0 0 0 1 0 0 0 1 -10.22943 -84.7013 -18.51134 2 0.5 1.5
9 0 1 0 0 0 1 0 0 0 1 -11.72943 -5.701302 20.98866 1.5 0.5 2
9 0 1 0 0 0 1 0 0 0 1 -12.72943 -85.7013 -15.01134 1.5 0.5 2
9 0 1 0 0 0 1 0 0 0 1 -13.72943 -7.201302 -17.01134 1.5 1 1
9 0 1 0 0 0 1 0 0 0 1 -14.22943 -10.2013 -20.51134 1 1 1.5
9 0 1 0 0 0 1 0 0 0 1 -14.22943 -81.2013 -20.51134 1 1 1.5
9 0 1 0 0 0 1 0 0 0 1 -15.72943 -30.7013 0.9886627 0.5 0.5 6
9 0 1 0 0 0 1 0 0 0 1 -14.22943 -82.7013 -18.51134 2 1.5 0.5
9 0 1 0 0 0 1 0 0 0 1 -18.72943 -82.7013 -5.011337 0.5 0.5 6
9 0 1 0 0 0 1 0 0 0 1 -21.72943 -28.2013 -8.011337 1.5 1 1
9 0 1 0 0 0 1 0 0 0 1 -23.22943 -59.2013 -7.511337 1 3 0.5
9 0 1 0 0 0 1 0 0 0 1 -24.72943 -58.7013 -1.011337 0.5 0.5 6
9 0 1 0 0 0 1 0 0 0 1 -24.22943 -79.7013 -11.01134 1 0.5 3
9 0 1 0 0 0 1 0 0 0 1 -25.22943 -12.7013 -11.01134 1 0.5 3
9 0 1 0 0 0 1 0 0 0 1 -27.72943 -54.2013 -8.011337 1.5 1 1
9 0 1 0 0 0 1 0 0 0 1 -29.22943 -66.7013 -23.01134 1 1.5 1
9 0 1 0 0 0 1 0 0 0 1 -29.72943 -19.7013 -18.01134 1.5 0.5 2
9 0 1 0 0 0 1 0 0 0 1 -30.22943 -64.7013 -21.01134 1 0.5 3
9 0 1 0 0 0 1 0 0 0 1 -33.72943 -65.7013 -19.01134 0.5 1.5 2
9 0 1 0 0 0 1 0 0 0 1 -35.22943 -46.2013 -24.51134 1 3 0.5
9 0 1 0 0 0 1 0 0 0 1 -36.22943 -66.7013 21.98866 1 1.5 1
9 0 1 0 0 0 1 0 0 0 1 -39.72943 -56.7013 -5.011337 0.5 0.5 6
9 0 1 0 0 0 1 0 0 0 1 -42.22943 -39.7013 -9.011337 1 1.5 1
9 0 1 0 0 0 1 0 0 0 1 13.27057 -20.7013 11.48866 0.5 0.5 5.5
9 0 1 0 0 0 1 0 0 0 1 -27.72943 -76.7013 -4.511337 0.5 0.5 5.5
9 0 1 0 0 0 1 0 0 0 1 38.27057 -50.7013 -11.01134 0.5 0.5 5
9 0 1 0 0 0 1 0 0 0 1 34.27057 -22.7013 -12.01134 0.5 0.5 5
9 0 1 0 0 0 1 0 0 0 1 33.77057 -66.7013 -18.51134 1 2.5 0.5
9 0 1 0 0 0 1 0 0 0 1 34.27057 -53.7013 -17.01134 2.5 0.5 1
9 0 1 0 0 0 1 0 0 0 1 32.27057 -73.2013 20.48866 0.5 1 2.5
9 0 1 0 0 0 1 0 0 0 1 31.27057 -17.2013 -9.511337 0.5 1 2.5
9 0 1 0 0 0 1 0 0 0 1 31.27057 -17.2013 20.48866 0.5 1 2.5
9 0 1 0 0 0 1 0 0 0 1 29.77057 -24.7013 -22.51134 1 2.5 0.5
9 0 1 0 0 0 1 0 0 0 1 28.27057 -24.2013 -21.51134 0.5 1 2.5
9 0 1 0 0 0 1 0 0 0 1 25.77057 -80.7013 5.488663 1 0.5 2.5
9 0 1 0 0 0 1 0 0 0 1 17.27057 -84.2013 -12.51134 0.5 1 2.5
9 0 1 0 0 0 1 0 0 0 1 16.27057 -8.701302 2.988663 0.5 0.5 5
9 0 1 0 0 0 1 0 0 0 1 15.27057 -11.2013 -20.51134 0.5 1 2.5
9 0 1 0 0 0 1 0 0 0 1 13.27057 -5.701302 19.98866 2.5 0.5 1
9 0 1 0 0 0 1 0 0 0 1 11.77057 -85.7013 20.48866 1 0.5 2.5
9 0 1 0 0 0 1 0 0 0 1 9.270573 -45.2013 3.488663 0.5 1 2.5
9 0 1 0 0 0 1 0 0 0 1 8.770573 -17.7013 -8.511337 1 2.5 0.5
9 0 1 0 0 0 1 0 0 0 1 8.270573 -49.2013 3.488663 0.5 1 2.5
9 0 1 0 0 0 1 0 0 0 1 9.270573 -11.2013 -23.51134 2.5 1 0.5
9 0 1 0 0 0 1 0 0 0 1 7.270573 -41.2013 3.488663 0.5 1 2.5
9 0 1 0 0 0 1 0 0 0 1 4.270573 -35.2013 3.488663 0.5 1 2.5
9 0 1 0 0 0 1 0 0 0 1 4.270573 -70.2013 10.48866 0.5 1 2.5
9 0 1 0 0 0 1 0 0 0 1 3.270573 -73.2013 1.488663 0.5 1 2.5
9 0 1 0 0 0 1 0 0 0 1 -0.7294273 -13.7013 -9.011337 2.5 0.5 1
9 0 1 0 0 0 1 0 0 0 1 -3.229427 -37.7013 3.488663 1 0.5 2.5
9 0 1 0 0 0 1 0 0 0 1 -8.729427 -5.701302 -7.011337 0.5 0.5 5
9 0 1 0 0 0 1 0 0 0 1 -7.729427 -82.2013 -22.51134 2.5 1 0.5
9 0 1 0 0 0 1 0 0 0 1 -9.229427 -87.7013 -12.51134 1 0.5 2.5
9 0 1 0 0 0 1 0 0 0 1 -8.729427 -86.7013 21.98866 2.5 0.5 1
9 0 1 0 0 0 1 0 0 0 1 -12.72943 -86.7013 11.98866 0.5 0.5 5
9 0 1 0 0 0 1 0 0 0 1 -13.72943 -9.201302 -18.51134 2.5 1 0.5
9 0 1 0 0 0 1 0 0 0 1 -17.22943 -24.7013 -7.511337 1 2.5 0.5
9 0 1 0 0 0 1 0 0 0 1 -23.72943 -21.7013 -2.011337 0.5 0.5 5
9 0 1 0 0 0 1 0 0 0 1 -23.72943 -57.7013 12.98866 0.5 0.5 5
9 0 1 0 0 0 1 0 0 0 1 -26.72943 -19.7013 -5.011337 0.5 0.5 5
9 0 1 0 0 0 1 0 0 0 1 -27.22943 -68.7013 -21.51134 1 0.5 2.5
9 0 1 0 0 0 1 0 0 0 1 -27.22943 -78.7013 19.48866 1 0.5 2.5
9 0 1 0 0 0 1 0 0 0 1 -28.72943 -25.2013 -21.51134 0.5 1 2.5
9 0 1 0 0 0 1 0 0 0 1 -31.22943 -26.7013 -22.51134 1 2.5 0.5
9 0 1 0 0 0 1 0 0 0 1 -32.72943 -73.2013 19.48866 0.5 1 2.5
9 0 1 0 0 0 1 0 0 0 1 -33.72943 -25.7013 -19.01134 0.5 2.5 1
9 0 1 0 0 0 1 0 0 0 1 -33.72943 -69.7013 -14.01134 0.5 0.5 5
9 0 1 0 0 0 1 0 0 0 1 -35.72943 -68.2013 -13.51134 0.5 1 2.5
9 0 1 0 0 0 1 0 0 0 1 -37.72943 -39.7013 -19.01134 0.5 2.5 1
9 0 1 0 0 0 1 0 0 0 1 -37.72943 -46.2013 -22.51134 0.5 5 0.5
9 0 1 0 0 0 1 0 0 0 1 -39.72943 -62.2013 18.48866 0.5 1 2.5
9 0 1 0 0 0 1 0 0 0 1 43.27057 -41.7013 -10.51134 0.5 1.5 1.5
9 0 1 0 0 0 1 0 0 0 1 43.27057 -52.7013 12.48866 0.5 0.5 4.5
9 0 1 0 0 0 1 0 0 0 1 40.27057 -45.7013 -16.51134 0.5 4.5 0.5
9 0 1 0 0 0 1 0 0 0 1 36.27057 -65.7013 -6.511337 0.5 0.5 4.5
9 0 1 0 0 0 1 0 0 0 1 33.27057 -34.7013 -20.51134 0.5 1.5 1.5
9 0 1 0 0 0 1 0 0 0 1 33.27057 -71.7013 20.48866 0.5 1.5 1.5
9 0 1 0 0 0 1 0 0 0 1 31.27057 -28.7013 -20.51134 0.5 1.5 1.5
9 0 1 0 0 0 1 0 0 0 1 27.27057 -49.7013 -2.511337 0.5 0.5 4.5
9 0 1 0 0 0 1 0 0 0 1 28.27057 -57.7013 -8.511337 1.5 1.5 0.5
9 0 1 0 0 0 1 0 0 0 1 19.27057 -22.7013 -8.511337 1.5 1.5 0.5
9 0 1 0 0 0 1 0 0 0 1 18.27057 -47.7013 1.488663 0.5 0.5 4.5
9 0 1 0 0 0 1 0 0 0 1 14.27057 -19.7013 -2.511337 0.5 0.5 4.5
9 0 1 0 0 0 1 0 0 0 1 14.27057 -82.7013 -18.51134 1.5 1.5 0.5
9 0 1 0 0 0 1 0 0 0 1 6.270573 -31.7013 3.488663 0.5 0.5 4.5
9 0 1 0 0 0 1 0 0 0 1 6.270573 -82.7013 -12.51134 0.5 0.5 4.5
9 0 1 0 0 0 1 0 0 0 1 5.270573 -80.7013 11.48866 0.5 0.5 4.5
9 0 1 0 0 0 1 0 0 0 1 4.270573 -73.7013 -6.511337 0.5 4.5 0.5
9 0 1 0 0 0 1 0 0 0 1 -11.72943 -34.7013 2.488663 0.5 0.5 4.5
9 0 1 0 0 0 1 0 0 0 1 -15.72943 -11.7013 -20.51134 0.5 1.5 1.5
9 0 1 0 0 0 1 0 0 0 1 -18.72943 -55.7013 9.488663 0.5 0.5 4.5
9 0 1 0 0 0 1 0 0 0 1 -18.72943 -15.7013 -20.51134 1.5 0.5 1.5
9 0 1 0 0 0 1 0 0 0 1 -22.72943 -74.7013 -20.51134 0.5 1.5 1.5
9 0 1 0 0 0 1 0 0 0 1 -23.72943 -22.7013 -13.51134 0.5 0.5 4.5
9 0 1 0 0 0 1 0 0 0 1 -24.72943 -62.7013 -8.511337 1.5 1.5 0.5
9 0 1 0 0 0 1 0 0 0 1 -26.72943 -79.7013 3.488663 0.5 0.5 4.5
9 0 1 0 0 0 1 0 0 0 1 -28.72943 -59.7013 16.48866 0.5 0.5 4.5
9 0 1 0 0 0 1 0 0 0 1 -30.72943 -75.7013 18.48866 0.5 0.5 4.5
9 0 1 0 0 0 1 0 0 0 1 -31.72943 -29.7013 -20.51134 0.5 1.5 1.5
9 0 1 0 0 0 1 0 0 0 1 -31.72943 -49.7013 -9.511337 0.5 1.5 1.5
9 0 1 0 0 0 1 0 0 0 1 -31.72943 -68.7013 -19.51134 0.5 1.5 1.5
9 0 1 0 0 0 1 0 0 0 1 -32.72943 -45.7013 -17.51134 0.5 4.5 0.5
9 0 1 0 0 0 1 0 0 0 1 -33.72943 -35.7013 -20.51134 0.5 1.5 1.5
9 0 1 0 0 0 1 0 0 0 1 -37.72943 -51.7013 -19.51134 0.5 1.5 1.5
9 0 1 0 0 0 1 0 0 0 1 -38.72943 -28.7013 21.48866 0.5 1.5 1.5
9 0 1 0 0 0 1 0 0 0 1 -38.72943 -46.7013 -18.51134 0.5 4.5 0.5
9 0 1 0 0 0 1 0 0 0 1 -39.72943 -58.7013 -12.51134 0.5 1.5 1.5
9 0 1 0 0 0 1 0 0 0 1 -40.72943 -58.7013 -4.511337 0.5 0.5 4.5
9 0 1 0 0 0 1 0 0 0 1 -40.72943 -58.7013 12.48866 0.5 0.5 4.5
9 0 1 0 0 0 1 0 0 0 1 42.27057 -35.7013 -4.011337 0.5 0.5 4
9 0 1 0 0 0 1 0 0 0 1 41.77057 -51.2013 -10.01134 1 1 1
9 0 1 0 0 0 1 0 0 0 1 40.27057 -33.2013 -12.01134 0.5 1 2
9 0 1 0 0 0 1 0 0 0 1 39.77057 -42.2013 -18.01134 1 1 1
9 0 1 0 0 0 1 0 0 0 1 39.77057 -53.2013 22.48866 1 2 0.5
9 0 1 0 0 0 1 0 0 0 1 38.77057 -29.2013 21.98866 1 1 1
9 0 1 0 0 0 1 0 0 0 1 38.27057 -42.2013 -20.01134 0.5 1 2
9 0 1 0 0 0 1 0 0 0 1 36.77057 -67.2013 -11.01134 1 1 1
9 0 1 0 0 0 1 0 0 0 1 32.77057 -21.2013 -17.01134 1 1 1
9 0 1 0 0 0 1 0 0 0 1 32.77057 -70.2013 -17.01134 1 1 1
9 0 1 0 0 0 1 0 0 0 1 31.77057 -64.2013 -22.51134 1 2 0.5
9 0 1 0 0 0 1 0 0 0 1 31.77057 -69.2013 -19.01134 1 1 1
9 0 1 0 0 0 1 0 0 0 1 30.77057 -21.2013 -19.01134 1 1 1
9 0 1 0 0 0 1 0 0 0 1 29.77057 -70.2013 -20.01134 1 1 1
9 0 1 0 0 0 1 0 0 0 1 27.27057 -68.2013 -21.01134 0.5 1 2
9 0 1 0 0 0 1 0 0 0 1 25.27057 -10.7013 3.988663 0.5 0.5 4
9 0 1 0 0 0 1 0 0 0 1 25.77057 -12.7013 -10.01134 1 0.5 2
9 0 1 0 0 0 1 0 0 0 1 25.27057 -50.7013 -3.011337 0.5 0.5 4
9 0 1 0 0 0 1 0 0 0 1 23.77057 -48.2013 -6.511337 1 2 0.5
9 0 1 0 0 0 1 0 0 0 1 23.27057 -81.7013 11.98866 0.5 0.5 4
9 0 1 0 0 0 1 0 0 0 1 19.77057 -13.7013 -19.01134 1 0.5 2
9 0 1 0 0 0 1 0 0 0 1 19.77057 -16.7013 -20.01134 1 0.5 2
9 0 1 0 0 0 1 0 0 0 1 17.27057 -48.7013 0.9886627 0.5 0.5 4
9 0 1 0 0 0 1 0 0 0 1 17.77057 -7.701302 -7.011337 2 0.5 1
9 0 1 0 0 0 1 0 0 0 1 15.27057 -7.701302 -13.01134 0.5 0.5 4
9 0 1 0 0 0 1 0 0 0 1 15.77057 -84.2013 -16.01134 1 1 1
9 0 1 0 0 0 1 0 0 0 1 14.77057 -77.7013 -21.01134 1 0.5 2
9 0 1 0 0 0 1 0 0 0 1 14.77057 -15.2013 -17.51134 2 1 0.5
9 0 1 0 0 0 1 0 0 0 1 11.27057 -22.7013 -4.011337 0.5 0.5 4
9 0 1 0 0 0 1 0 0 0 1 12.77057 -79.2013 -23.51134 2 1 0.5
9 0 1 0 0 0 1 0 0 0 1 6.770573 -77.7013 -16.01134 1 0.5 2
9 0 1 0 0 0 1 0 0 0 1 5.770573 -32.7013 0.9886627 1 0.5 2
9 0 1 0 0 0 1 0 0 0 1 4.270573 -76.2013 18.98866 0.5 2 1
9 0 1 0 0 0 1 0 0 0 1 3.770573 -69.2013 -5.511337 1 2 0.5
9 0 1 0 0 0 1 0 0 0 1 3.270573 -83.7013 -13.01134 0.5 0.5 4
9 0 1 0 0 0 1 0 0 0 1 2.270573 -86.7013 10.98866 0.5 0.5 4
9 0 1 0 0 0 1 0 0 0 1 -0.2294273 -2.701302 13.48866 4 0.5 0.5
9 0 1 0 0 0 1 0 0 0 1 -8.729427 -40.2013 1.988663 0.5 2 1
9 0 1 0 0 0 1 0 0 0 1 -9.729427 -4.201302 -12.01134 0.5 1 2
9 0 1 0 0 0 1 0 0 0 1 -9.229427 -85.7013 -17.01134 1 0.5 2
9 0 1 0 0 0 1 0 0 0 1 -11.22943 -35.7013 0.9886627 1 0.5 2
9 0 1 0 0 0 1 0 0 0 1 -12.72943 -53.2013 0.9886627 0.5 1 2
9 0 1 0 0 0 1 0 0 0 1 -14.22943 -13.7013 -21.01134 1 0.5 2
9 0 1 0 0 0 1 0 0 0 1 -21.22943 -8.701302 19.98866 1 0.5 2
9 0 1 0 0 0 1 0 0 0 1 -21.72943 -9.201302 -7.011337 0.5 1 2
9 0 1 0 0 0 1 0 0 0 1 -21.72943 -83.7013 1.988663 0.5 0.5 4
9 0 1 0 0 0 1 0 0 0 1 -22.22943 -17.2013 -18.51134 1 2 0.5
9 0 1 0 0 0 1 0 0 0 1 -23.72943 -9.701302 3.988663 0.5 0.5 4
9 0 1 0 0 0 1 0 0 0 1 -24.72943 -19.2013 -21.01134 0.5 2 1
9 0 1 0 0 0 1 0 0 0 1 -26.72943 -17.7013 -14.01134 0.5 0.5 4
9 0 1 0 0 0 1 0 0 0 1 -27.22943 -21.2013 -22.01134 1 1 1
9 0 1 0 0 0 1 0 0 0 1 -27.22943 -70.2013 -22.51134 2 1 0.5
9 0 1 0 0 0 1 0 0 0 1 -29.72943 -17.2013 21.98866 0.5 2 1
9 0 1 0 0 0 1 0 0 0 1 -29.22943 -71.2013 -20.01134 1 1 1
9 0 1 0 0 0 1 0 0 0 1 -29.72943 -77.2013 -7.011337 0.5 1 2
9 0 1 0 0 0 1 0 0 0 1 -29.72943 -77.7013 7.988663 0.5 0.5 4
9 0 1 0 0 0 1 0 0 0 1 -30.72943 -63.2013 -20.01134 0.5 1 2
9 0 1 0 0 0 1 0 0 0 1 -31.22943 -23.2013 -20.01134 1 1 1
9 0 1 0 0 0 1 0 0 0 1 -31.22943 -71.2013 -18.01134 1 1 1
9 0 1 0 0 0 1 0 0 0 1 -32.72943 -19.2013 20.98866 0.5 1 2
9 0 1 0 0 0 1 0 0 0 1 -34.22943 -60.7013 -20.01134 1 0.5 2
9 0 1 0 0 0 1 0 0 0 1 -35.72943 -23.2013 -14.01134 0.5 1 2
9 0 1 0 0 0 1 0 0 0 1 -35.72943 -60.7013 9.988663 0.5 0.5 4
9 0 1 0 0 0 1 0 0 0 1 -35.72943 -62.2013 -13.01134 0.5 1 2
9 0 1 0 0 0 1 0 0 0 1 -40.72943 -37.2013 21.98866 0.5 2 1
9 0 1 0 0 0 1 0 0 0 1 -42.72943 -41.2013 21.98866 0.5 2 1
9 0 1 0 0 0 1 0 0 0 1 -42.22943 -53.2013 -9.011337 1 1 1
9 0 1 0 0 0 1 0 0 0 1 43.27057 -48.7013 11.48866 0.5 0.5 3.5
9 0 1 0 0 0 1 0 0 0 1 40.27057 -45.7013 -19.51134 0.5 3.5 0.5
9 0 1 0 0 0 1 0 0 0 1 38.27057 -65.7013 14.48866 0.5 0.5 3.5
9 0 1 0 0 0 1 0 0 0 1 34.27057 -26.7013 -18.51134 0.5 3.5 0.5
9 0 1 0 0 0 1 0 0 0 1 26.27057 -11.7013 4.488663 0.5 0.5 3.5
9 0 1 0 0 0 1 0 0 0 1 26.27057 -13.7013 14.48866 0.5 0.5 3.5
9 0 1 0 0 0 1 0 0 0 1 26.27057 -53.7013 -8.511337 0.5 3.5 0.5
9 0 1 0 0 0 1 0 0 0 1 24.27057 -11.7013 18.48866 0.5 0.5 3.5
9 0 1 0 0 0 1 0 0 0 1 23.27057 -82.7013 4.488663 0.5 0.5 3.5
9 0 1 0 0 0 1 0 0 0 1 21.27057 -49.7013 -1.511337 0.5 0.5 3.5
9 0 1 0 0 0 1 0 0 0 1 19.27057 -7.701302 19.48866 0.5 0.5 3.5
9 0 1 0 0 0 1 0 0 0 1 15.27057 -15.7013 -7.511337 0.5 0.5 3.5
9 0 1 0 0 0 1 0 0 0 1 5.270573 -81.7013 -16.51134 0.5 3.5 0.5
9 0 1 0 0 0 1 0 0 0 1 -5.729427 -76.7013 -8.511337 3.5 0.5 0.5
9 0 1 0 0 0 1 0 0 0 1 -9.729427 -51.7013 4.488663 0.5 0.5 3.5
9 0 1 0 0 0 1 0 0 0 1 -13.72943 -84.7013 -7.511337 0.5 0.5 3.5
9 0 1 0 0 0 1 0 0 0 1 -17.72943 -27.7013 5.488663 0.5 0.5 3.5
9 0 1 0 0 0 1 0 0 0 1 -17.72943 -54.7013 -0.5113373 0.5 0.5 3.5
9 0 1 0 0 0 1 0 0 0 1 -18.72943 -27.7013 -4.511337 0.5 0.5 3.5
9 0 1 0 0 0 1 0 0 0 1 -19.72943 -56.7013 -2.511337 0.5 0.5 3.5
9 0 1 0 0 0 1 0 0 0 1 -23.72943 -19.7013 -14.51134 0.5 0.5 3.5
9 0 1 0 0 0 1 0 0 0 1 -24.72943 -17.7013 -2.511337 0.5 0.5 3.5
9 0 1 0 0 0 1 0 0 0 1 -26.72943 -59.7013 -3.511337 0.5 0.5 3.5
9 0 1 0 0 0 1 0 0 0 1 -29.72943 -55.7013 -8.511337 0.5 3.5 0.5
9 0 1 0 0 0 1 0 0 0 1 -31.72943 -60.7013 9.488663 0.5 0.5 3.5
9 0 1 0 0 0 1 0 0 0 1 -41.72943 -35.7013 -3.511337 0.5 0.5 3.5
9 0 1 0 0 0 1 0 0 0 1 -42.72943 -45.7013 -15.51134 0.5 3.5 0.5
9 0 1 0 0 0 1 0 0 0 1 -42.72943 -55.7013 4.488663 0.5 0.5 3.5
9 0 1 0 0 0 1 0 0 0 1 41.77057 -39.7013 -10.51134 1 1.5 0.5
9 0 1 0 0 0 1 0 0 0 1 41.27057 -57.7013 10.98866 0.5 0.5 3
9 0 1 0 0 0 1 0 0 0 1 38.27057 -63.2013 -9.511337 0.5 3 0.5
9 0 1 0 0 0 1 0 0 0 1 37.27057 -45.2013 -23.51134 0.5 3 0.5
9 0 1 0 0 0 1 0 0 0 1 37.27057 -54.2013 -19.51134 0.5 1 1.5
9 0 1 0 0 0 1 0 0 0 1 36.27057 -41.2013 -22.51134 1.5 1 0.5
9 0 1 0 0 0 1 0 0 0 1 35.27057 -58.2013 -20.51134 0.5 1 1.5
9 0 1 0 0 0 1 0 0 0 1 34.27057 -64.2013 -19.51134 0.5 3 0.5
9 0 1 0 0 0 1 0 0 0 1 33.27057 -56.2013 -19.51134 0.5 1 1.5
9 0 1 0 0 0 1 0 0 0 1 32.27057 -41.7013 -17.01134 0.5 1.5 1
9 0 1 0 0 0 1 0 0 0 1 32.27057 -59.7013 -20.01134 0.5 1.5 1
9 0 1 0 0 0 1 0 0 0 1 31.27057 -18.7013 -14.01134 0.5 0.5 3
9 0 1 0 0 0 1 0 0 0 1 31.77057 -26.7013 -22.51134 1 1.5 0.5
9 0 1 0 0 0 1 0 0 0 1 32.27057 -52.7013 -8.011337 1.5 0.5 1
9 0 1 0 0 0 1 0 0 0 1 29.27057 -14.7013 19.98866 0.5 0.5 3
9 0 1 0 0 0 1 0 0 0 1 29.77057 -25.7013 -23.51134 1 1.5 0.5
9 0 1 0 0 0 1 0 0 0 1 29.27057 -51.7013 -4.011337 0.5 0.5 3
9 0 1 0 0 0 1 0 0 0 1 29.27057 -65.2013 -20.51134 0.5 1 1.5
9 0 1 0 0 0 1 0 0 0 1 30.27057 -71.2013 -18.51134 1.5 1 0.5
9 0 1 0 0 0 1 0 0 0 1 28.27057 -12.7013 2.988663 0.5 0.5 3
9 0 1 0 0 0 1 0 0 0 1 29.27057 -19.7013 -19.01134 1.5 0.5 1
9 0 1 0 0 0 1 0 0 0 1 28.77057 -76.7013 21.48866 1 0.5 1.5
9 0 1 0 0 0 1 0 0 0 1 26.27057 -78.7013 -11.01134 0.5 0.5 3
9 0 1 0 0 0 1 0 0 0 1 26.27057 -78.7013 18.98866 0.5 0.5 3
9 0 1 0 0 0 1 0 0 0 1 25.27057 -21.2013 -20.51134 0.5 1 1.5
9 0 1 0 0 0 1 0 0 0 1 24.27057 -11.7013 -11.01134 0.5 0.5 3
9 0 1 0 0 0 1 0 0 0 1 24.27057 -72.2013 -20.51134 0.5 1 1.5
9 0 1 0 0 0 1 0 0 0 1 23.27057 -80.7013 19.98866 0.5 0.5 3
9 0 1 0 0 0 1 0 0 0 1 22.77057 -15.7013 -19.51134 1 0.5 1.5
9 0 1 0 0 0 1 0 0 0 1 22.27057 -48.7013 3.988663 0.5 0.5 3
9 0 1 0 0 0 1 0 0 0 1 17.77057 -10.7013 -12.51134 1 0.5 1.5
9 0 1 0 0 0 1 0 0 0 1 18.27057 -78.7013 -20.01134 1.5 0.5 1
9 0 1 0 0 0 1 0 0 0 1 16.27057 -10.2013 -0.5113373 0.5 1 1.5
9 0 1 0 0 0 1 0 0 0 1 16.27057 -17.7013 -12.01134 0.5 0.5 3
9 0 1 0 0 0 1 0 0 0 1 16.27057 -23.7013 -8.011337 1.5 0.5 1
9 0 1 0 0 0 1 0 0 0 1 14.27057 -17.7013 -4.011337 0.5 0.5 3
9 0 1 0 0 0 1 0 0 0 1 15.27057 -83.2013 -17.51134 1.5 1 0.5
9 0 1 0 0 0 1 0 0 0 1 13.27057 -12.2013 -23.51134 1.5 1 0.5
9 0 1 0 0 0 1 0 0 0 1 11.27057 -9.701302 -22.01134 1.5 0.5 1
9 0 1 0 0 0 1 0 0 0 1 11.27057 -46.7013 6.988663 1.5 0.5 1
9 0 1 0 0 0 1 0 0 0 1 9.270573 -73.2013 -8.511337 0.5 3 0.5
9 0 1 0 0 0 1 0 0 0 1 10.27057 -84.7013 -19.01134 1.5 0.5 1
9 0 1 0 0 0 1 0 0 0 1 8.270573 -87.7013 -11.01134 0.5 1.5 1
9 0 1 0 0 0 1 0 0 0 1 8.270573 -21.2013 -7.511337 1.5 1 0.5
9 0 1 0 0 0 1 0 0 0 1 9.770573 -80.7013 -23.51134 3 0.5 0.5
9 0 1 0 0 0 1 0 0 0 1 5.270573 -74.2013 -5.511337 0.5 1 1.5
9 0 1 0 0 0 1 0 0 0 1 5.270573 -83.7013 21.98866 0.5 1.5 1
9 0 1 0 0 0 1 0 0 0 1 5.770573 -88.7013 21.48866 1 0.5 1.5
9 0 1 0 0 0 1 0 0 0 1 4.270573 -65.7013 0.9886627 0.5 1.5 1
9 0 1 0 0 0 1 0 0 0 1 3.270573 -55.7013 3.988663 0.5 0.5 3
9 0 1 0 0 0 1 0 0 0 1 3.270573 -62.2013 -0.5113373 0.5 3 0.5
9 0 1 0 0 0 1 0 0 0 1 3.270573 -63.7013 8.988663 0.5 1.5 1
9 0 1 0 0 0 1 0 0 0 1 3.270573 -68.7013 13.98866 0.5 1.5 1
9 0 1 0 0 0 1 0 0 0 1 1.270573 -78.7013 -17.01134 1.5 0.5 1
9 0 1 0 0 0 1 0 0 0 1 -0.7294273 -74.7013 -8.011337 0.5 1.5 1
9 0 1 0 0 0 1 0 0 0 1 0.2705727 -88.7013 -10.01134 1.5 0.5 1
9 0 1 0 0 0 1 0 0 0 1 -0.2294273 -11.7013 -18.51134 3 0.5 0.5
9 0 1 0 0 0 1 0 0 0 1 -4.229427 -77.7013 -12.51134 1 0.5 1.5
9 0 1 0 0 0 1 0 0 0 1 -3.229427 -11.7013 -19.51134 3 0.5 0.5
9 0 1 0 0 0 1 0 0 0 1 -4.729427 -13.7013 -17.01134 1.5 0.5 1
9 0 1 0 0 0 1 0 0 0 1 -5.229427 -88.7013 21.48866 1 0.5 1.5
9 0 1 0 0 0 1 0 0 0 1 -7.729427 -14.7013 -11.01134 0.5 0.5 3
9 0 1 0 0 0 1 0 0 0 1 -7.229427 -87.7013 -10.51134 1 1.5 0.5
9 0 1 0 0 0 1 0 0 0 1 -8.229427 -10.7013 -23.51134 1 1.5 0.5
9 0 1 0 0 0 1 0 0 0 1 -9.729427 -37.7013 2.988663 0.5 0.5 3
9 0 1 0 0 0 1 0 0 0 1 -10.72943 -4.701302 18.98866 0.5 0.5 3
9 0 1 0 0 0 1 0 0 0 1 -9.729427 -86.7013 -16.01134 1.5 0.5 1
9 0 1 0 0 0 1 0 0 0 1 -12.72943 -6.701302 -8.011337 0.5 0.5 3
9 0 1 0 0 0 1 0 0 0 1 -12.22943 -78.7013 -23.51134 1 0.5 1.5
9 0 1 0 0 0 1 0 0 0 1 -13.72943 -84.2013 -17.51134 1.5 1 0.5
9 0 1 0 0 0 1 0 0 0 1 -15.22943 -5.701302 -12.51134 1 0.5 1.5
9 0 1 0 0 0 1 0 0 0 1 -14.72943 -5.701302 18.98866 1.5 0.5 1
9 0 1 0 0 0 1 0 0 0 1 -15.72943 -29.7013 -3.011337 0.5 0.5 3
9 0 1 0 0 0 1 0 0 0 1 -15.22943 -77.7013 -20.51134 1 0.5 1.5
9 0 1 0 0 0 1 0 0 0 1 -17.22943 -12.7013 -20.51134 1 0.5 1.5
9 0 1 0 0 0 1 0 0 0 1 -18.22943 -78.7013 -20.51134 1 0.5 1.5
9 0 1 0 0 0 1 0 0 0 1 -18.72943 -83.7013 21.98866 1.5 0.5 1
9 0 1 0 0 0 1 0 0 0 1 -20.72943 -81.7013 -7.011337 0.5 0.5 3
9 0 1 0 0 0 1 0 0 0 1 -21.72943 -22.7013 -4.011337 0.5 0.5 3
9 0 1 0 0 0 1 0 0 0 1 -24.72943 -22.7013 -17.01134 0.5 1.5 1
9 0 1 0 0 0 1 0 0 0 1 -24.22943 -72.7013 -21.51134 1 1.5 0.5
9 0 1 0 0 0 1 0 0 0 1 -25.72943 -12.7013 18.98866 0.5 0.5 3
9 0 1 0 0 0 1 0 0 0 1 -25.72943 -16.7013 -16.01134 0.5 1.5 1
9 0 1 0 0 0 1 0 0 0 1 -25.72943 -18.7013 -20.01134 0.5 1.5 1
9 0 1 0 0 0 1 0 0 0 1 -24.72943 -28.2013 -8.511337 1.5 1 0.5
9 0 1 0 0 0 1 0 0 0 1 -25.72943 -78.7013 -12.01134 0.5 0.5 3
9 0 1 0 0 0 1 0 0 0 1 -26.72943 -22.7013 -21.01134 0.5 0.5 3
9 0 1 0 0 0 1 0 0 0 1 -27.72943 -58.7013 -4.011337 0.5 0.5 3
9 0 1 0 0 0 1 0 0 0 1 -27.72943 -67.7013 -22.01134 0.5 0.5 3
9 0 1 0 0 0 1 0 0 0 1 -27.72943 -76.7013 6.988663 0.5 0.5 3
9 0 1 0 0 0 1 0 0 0 1 -28.72943 -17.7013 -11.01134 1.5 0.5 1
9 0 1 0 0 0 1 0 0 0 1 -29.72943 -25.7013 -23.01134 0.5 1.5 1
9 0 1 0 0 0 1 0 0 0 1 -29.72943 -58.7013 -12.01134 0.5 0.5 3
9 0 1 0 0 0 1 0 0 0 1 -29.72943 -60.2013 -16.51134 0.5 1 1.5
9 0 1 0 0 0 1 0 0 0 1 -31.72943 -43.2013 -9.511337 0.5 1 1.5
9 0 1 0 0 0 1 0 0 0 1 -32.72943 -19.2013 -14.51134 0.5 1 1.5
9 0 1 0 0 0 1 0 0 0 1 -32.22943 -22.7013 -18.51134 1 1.5 0.5
9 0 1 0 0 0 1 0 0 0 1 -32.72943 -69.7013 -18.01134 0.5 1.5 1
9 0 1 0 0 0 1 0 0 0 1 -33.72943 -54.2013 -20.51134 0.5 1 1.5
9 0 1 0 0 0 1 0 0 0 1 -33.72943 -68.2013 -17.51134 0.5 1 1.5
9 0 1 0 0 0 1 0 0 0 1 -34.72943 -24.7013 -17.01134 0.5 1.5 1
9 0 1 0 0 0 1 0 0 0 1 -34.72943 -31.7013 -20.01134 0.5 1.5 1
9 0 1 0 0 0 1 0 0 0 1 -35.72943 -58.2013 -19.51134 0.5 1 1.5
9 0 1 0 0 0 1 0 0 0 1 -36.72943 -24.2013 -13.51134 0.5 1 1.5
9 0 1 0 0 0 1 0 0 0 1 -37.72943 -26.7013 21.98866 0.5 1.5 1
9 0 1 0 0 0 1 0 0 0 1 -40.72943 -41.7013 -13.01134 0.5 0.5 3
9 0 1 0 0 0 1 0 0 0 1 -40.72943 -48.7013 -12.01134 0.5 1.5 1
9 0 1 0 0 0 1 0 0 0 1 -41.72943 -35.7013 10.98866 0.5 0.5 3
9 0 1 0 0 0 1 0 0 0 1 -41.72943 -36.7013 18.98866 0.5 0.5 3
9 0 1 0 0 0 1 0 0 0 1 -42.72943 -35.7013 4.988663 0.5 0.5 3
9 0 1 0 0 0 1 0 0 0 1 -41.72943 -40.2013 -10.51134 1.5 1 0.5
9 0 1 0 0 0 1 0 0 0 1 -41.72943 -50.7013 -13.01134 1.5 0.5 1
9 0 1 0 0 0 1 0 0 0 1 -42.72943 -50.2013 22.48866 0.5 1 1.5
9 0 1 0 0 0 1 0 0 0 1 42.27057 -55.7013 -2.511337 0.5 0.5 2.5
9 0 1 0 0 0 1 0 0 0 1 39.27057 -58.7013 -14.51134 0.5 2.5 0.5
9 0 1 0 0 0 1 0 0 0 1 38.27057 -45.7013 -18.51134 0.5 2.5 0.5
9 0 1 0 0 0 1 0 0 0 1 38.27057 -51.7013 20.48866 0.5 0.5 2.5
9 0 1 0 0 0 1 0 0 0 1 37.27057 -68.7013 -4.511337 0.5 0.5 2.5
9 0 1 0 0 0 1 0 0 0 1 36.27057 -23.7013 -13.51134 0.5 0.5 2.5
9 0 1 0 0 0 1 0 0 0 1 35.27057 -45.7013 -24.51134 0.5 2.5 0.5
9 0 1 0 0 0 1 0 0 0 1 34.27057 -21.7013 20.48866 0.5 0.5 2.5
9 0 1 0 0 0 1 0 0 0 1 34.27057 -23.7013 -17.51134 0.5 2.5 0.5
9 0 1 0 0 0 1 0 0 0 1 33.27057 -17.7013 -3.511337 0.5 0.5 2.5
9 0 1 0 0 0 1 0 0 0 1 33.27057 -70.7013 -13.51134 0.5 0.5 2.5
9 0 1 0 0 0 1 0 0 0 1 32.27057 -50.7013 -5.511337 0.5 0.5 2.5
9 0 1 0 0 0 1 0 0 0 1 30.27057 -27.7013 -21.51134 0.5 0.5 2.5
9 0 1 0 0 0 1 0 0 0 1 29.27057 -13.7013 10.48866 0.5 0.5 2.5
9 0 1 0 0 0 1 0 0 0 1 27.27057 -23.7013 -21.51134 0.5 0.5 2.5
9 0 1 0 0 0 1 0 0 0 1 25.27057 -79.7013 18.48866 0.5 0.5 2.5
9 0 1 0 0 0 1 0 0 0 1 20.27057 -47.7013 -4.511337 0.5 2.5 0.5
9 0 1 0 0 0 1 0 0 0 1 16.27057 -6.701302 -13.51134 0.5 0.5 2.5
9 0 1 0 0 0 1 0 0 0 1 15.27057 -17.7013 16.48866 0.5 0.5 2.5
9 0 1 0 0 0 1 0 0 0 1 14.27057 -46.7013 1.488663 0.5 0.5 2.5
9 0 1 0 0 0 1 0 0 0 1 10.27057 -8.701302 -18.51134 2.5 0.5 0.5
9 0 1 0 0 0 1 0 0 0 1 7.270573 -30.7013 6.488663 0.5 0.5 2.5
9 0 1 0 0 0 1 0 0 0 1 7.270573 -50.7013 3.488663 0.5 0.5 2.5
9 0 1 0 0 0 1 0 0 0 1 6.270573 -39.7013 3.488663 0.5 0.5 2.5
9 0 1 0 0 0 1 0 0 0 1 6.270573 -51.7013 3.488663 0.5 0.5 2.5
9 0 1 0 0 0 1 0 0 0 1 5.270573 -52.7013 3.488663 0.5 0.5 2.5
9 0 1 0 0 0 1 0 0 0 1 4.270573 -83.7013 22.48866 0.5 2.5 0.5
9 0 1 0 0 0 1 0 0 0 1 3.270573 -85.7013 20.48866 0.5 0.5 2.5
9 0 1 0 0 0 1 0 0 0 1 1.270573 -55.7013 3.488663 0.5 0.5 2.5
9 0 1 0 0 0 1 0 0 0 1 0.2705727 -85.7013 -16.51134 2.5 0.5 0.5
9 0 1 0 0 0 1 0 0 0 1 0.2705727 -86.7013 -15.51134 2.5 0.5 0.5
9 0 1 0 0 0 1 0 0 0 1 -0.7294273 -84.7013 -18.51134 2.5 0.5 0.5
9 0 1 0 0 0 1 0 0 0 1 -4.729427 -38.7013 3.488663 0.5 0.5 2.5
9 0 1 0 0 0 1 0 0 0 1 -5.729427 -52.7013 3.488663 0.5 0.5 2.5
9 0 1 0 0 0 1 0 0 0 1 -6.729427 -40.7013 3.488663 0.5 0.5 2.5
9 0 1 0 0 0 1 0 0 0 1 -6.729427 -51.7013 3.488663 0.5 0.5 2.5
9 0 1 0 0 0 1 0 0 0 1 -8.729427 -38.7013 5.488663 0.5 0.5 2.5
9 0 1 0 0 0 1 0 0 0 1 -13.72943 -85.7013 22.48866 2.5 0.5 0.5
9 0 1 0 0 0 1 0 0 0 1 -16.72943 -7.701302 -14.51134 0.5 0.5 2.5
9 0 1 0 0 0 1 0 0 0 1 -16.72943 -54.7013 9.488663 0.5 0.5 2.5
9 0 1 0 0 0 1 0 0 0 1 -21.72943 -9.701302 20.48866 0.5 0.5 2.5
9 0 1 0 0 0 1 0 0 0 1 -21.72943 -22.7013 6.488663 0.5 0.5 2.5
9 0 1 0 0 0 1 0 0 0 1 -21.72943 -57.7013 -3.511337 0.5 0.5 2.5
9 0 1 0 0 0 1 0 0 0 1 -22.72943 -10.7013 20.48866 0.5 0.5 2.5
9 0 1 0 0 0 1 0 0 0 1 -22.72943 -56.7013 -4.511337 0.5 0.5 2.5
9 0 1 0 0 0 1 0 0 0 1 -24.72943 -79.7013 20.48866 0.5 0.5 2.5
9 0 1 0 0 0 1 0 0 0 1 -30.72943 -59.7013 -10.51134 0.5 0.5 2.5
9 0 1 0 0 0 1 0 0 0 1 -31.72943 -51.7013 -14.51134 0.5 0.5 2.5
9 0 1 0 0 0 1 0 0 0 1 -31.72943 -75.7013 4.488663 0.5 0.5 2.5
9 0 1 0 0 0 1 0 0 0 1 -30.72943 -62.7013 -17.51134 2.5 0.5 0.5
9 0 1 0 0 0 1 0 0 0 1 -33.72943 -70.7013 20.48866 0.5 0.5 2.5
9 0 1 0 0 0 1 0 0 0 1 -38.72943 -25.7013 4.488663 0.5 0.5 2.5
9 0 1 0 0 0 1 0 0 0 1 -40.72943 -45.7013 -19.51134 0.5 2.5 0.5
9 0 1 0 0 0 1 0 0 0 1 -43.72943 -50.7013 3.488663 0.5 0.5 2.5
9 0 1 0 0 0 1 0 0 0 1 41.27057 -35.7013 19.98866 0.5 0.5 2
9 0 1 0 0 0 1 0 0 0 1 41.77057 -36.7013 -8.011337 1 0.5 1
9 0 1 0 0 0 1 0 0 0 1 41.27057 -54.2013 -9.511337 0.5 2 0.5
9 0 1 0 0 0 1 0 0 0 1 41.27057 -55.7013 19.98866 0.5 0.5 2
9 0 1 0 0 0 1 0 0 0 1 40.27057 -31.7013 -7.011337 0.5 0.5 2
9 0 1 0 0 0 1 0 0 0 1 40.27057 -35.2013 21.98866 0.5 1 1
9 0 1 0 0 0 1 0 0 0 1 39.27057 -51.2013 -15.01134 0.5 1 1
9 0 1 0 0 0 1 0 0 0 1 38.27057 -30.7013 -13.01134 0.5 0.5 2
9 0 1 0 0 0 1 0 0 0 1 37.27057 -37.2013 -19.01134 0.5 1 1
9 0 1 0 0 0 1 0 0 0 1 37.27057 -56.2013 -17.51134 0.5 2 0.5
9 0 1 0 0 0 1 0 0 0 1 36.27057 -58.2013 -19.01134 0.5 1 1
9 0 1 0 0 0 1 0 0 0 1 36.27057 -67.2013 -13.01134 0.5 1 1
9 0 1 0 0 0 1 0 0 0 1 35.27057 -67.2013 -17.01134 0.5 1 1
9 0 1 0 0 0 1 0 0 0 1 34.27057 -30.2013 -20.01134 0.5 1 1
9 0 1 0 0 0 1 0 0 0 1 34.27057 -68.2013 -17.01134 0.5 1 1
9 0 1 0 0 0 1 0 0 0 1 32.77057 -51.7013 20.98866 1 0.5 1
9 0 1 0 0 0 1 0 0 0 1 31.27057 -38.7013 -10.01134 0.5 0.5 2
9 0 1 0 0 0 1 0 0 0 1 31.27057 -53.2013 -10.01134 0.5 1 1
9 0 1 0 0 0 1 0 0 0 1 31.77057 -71.7013 -17.01134 1 0.5 1
9 0 1 0 0 0 1 0 0 0 1 30.77057 -64.2013 -23.51134 1 1 0.5
9 0 1 0 0 0 1 0 0 0 1 30.77057 -74.7013 21.98866 1 0.5 1
9 0 1 0 0 0 1 0 0 0 1 29.77057 -21.2013 -20.51134 1 1 0.5
9 0 1 0 0 0 1 0 0 0 1 29.77057 -66.2013 -23.51134 1 1 0.5
9 0 1 0 0 0 1 0 0 0 1 28.27057 -12.7013 11.98866 0.5 0.5 2
9 0 1 0 0 0 1 0 0 0 1 28.27057 -67.2013 -24.01134 0.5 1 1
9 0 1 0 0 0 1 0 0 0 1 27.77057 -19.7013 -21.01134 1 0.5 1
9 0 1 0 0 0 1 0 0 0 1 27.77057 -69.2013 -23.51134 1 1 0.5
9 0 1 0 0 0 1 0 0 0 1 27.77057 -70.2013 -22.51134 1 1 0.5
9 0 1 0 0 0 1 0 0 0 1 26.77057 -22.2013 -23.51134 1 1 0.5
9 0 1 0 0 0 1 0 0 0 1 25.77057 -12.7013 19.98866 1 0.5 1
9 0 1 0 0 0 1 0 0 0 1 24.77057 -17.7013 -20.01134 1 0.5 1
9 0 1 0 0 0 1 0 0 0 1 23.27057 -11.2013 15.98866 0.5 1 1
9 0 1 0 0 0 1 0 0 0 1 23.27057 -81.7013 -2.011337 0.5 0.5 2
9 0 1 0 0 0 1 0 0 0 1 22.77057 -72.7013 -20.01134 1 0.5 1
9 0 1 0 0 0 1 0 0 0 1 21.77057 -12.2013 -15.51134 1 1 0.5
9 0 1 0 0 0 1 0 0 0 1 21.77057 -24.2013 -8.511337 1 1 0.5
9 0 1 0 0 0 1 0 0 0 1 20.77057 -76.2013 -21.51134 1 1 0.5
9 0 1 0 0 0 1 0 0 0 1 19.77057 -12.7013 -17.01134 1 0.5 1
9 0 1 0 0 0 1 0 0 0 1 18.77057 -75.7013 -20.01134 1 0.5 1
9 0 1 0 0 0 1 0 0 0 1 18.77057 -83.7013 21.98866 1 0.5 1
9 0 1 0 0 0 1 0 0 0 1 18.27057 -84.2013 -11.01134 0.5 1 1
9 0 1 0 0 0 1 0 0 0 1 17.27057 -8.201302 -11.51134 0.5 2 0.5
9 0 1 0 0 0 1 0 0 0 1 17.77057 -84.7013 21.98866 1 0.5 1
9 0 1 0 0 0 1 0 0 0 1 16.77057 -7.201302 22.48866 1 1 0.5
9 0 1 0 0 0 1 0 0 0 1 16.77057 -11.7013 -19.01134 1 0.5 1
9 0 1 0 0 0 1 0 0 0 1 16.27057 -12.2013 -17.51134 0.5 2 0.5
9 0 1 0 0 0 1 0 0 0 1 16.27057 -14.7013 -20.01134 0.5 0.5 2
9 0 1 0 0 0 1 0 0 0 1 15.77057 -47.2013 -1.511337 1 1 0.5
9 0 1 0 0 0 1 0 0 0 1 14.77057 -5.701302 -14.01134 1 0.5 1
9 0 1 0 0 0 1 0 0 0 1 14.27057 -11.2013 -18.51134 0.5 2 0.5
9 0 1 0 0 0 1 0 0 0 1 14.77057 -82.7013 -20.01134 1 0.5 1
9 0 1 0 0 0 1 0 0 0 1 12.77057 -47.2013 0.4886627 1 1 0.5
9 0 1 0 0 0 1 0 0 0 1 13.77057 -80.7013 -22.51134 2 0.5 0.5
9 0 1 0 0 0 1 0 0 0 1 11.77057 -5.701302 21.98866 1 0.5 1
9 0 1 0 0 0 1 0 0 0 1 11.27057 -15.7013 -10.01134 0.5 0.5 2
9 0 1 0 0 0 1 0 0 0 1 11.77057 -86.7013 18.98866 1 0.5 1
9 0 1 0 0 0 1 0 0 0 1 10.27057 -45.7013 2.988663 0.5 0.5 2
9 0 1 0 0 0 1 0 0 0 1 9.270573 -3.701302 19.98866 0.5 0.5 2
9 0 1 0 0 0 1 0 0 0 1 9.270573 -4.701302 -15.01134 0.5 0.5 2
9 0 1 0 0 0 1 0 0 0 1 9.770573 -5.701302 -18.01134 1 0.5 1
9 0 1 0 0 0 1 0 0 0 1 10.77057 -14.7013 -17.51134 2 0.5 0.5
9 0 1 0 0 0 1 0 0 0 1 10.77057 -82.7013 -18.51134 2 0.5 0.5
9 0 1 0 0 0 1 0 0 0 1 9.770573 -11.7013 -24.51134 2 0.5 0.5
9 0 1 0 0 0 1 0 0 0 1 7.270573 -2.701302 14.98866 0.5 0.5 2
9 0 1 0 0 0 1 0 0 0 1 8.770573 -23.7013 -6.511337 2 0.5 0.5
9 0 1 0 0 0 1 0 0 0 1 7.270573 -83.7013 -16.01134 0.5 0.5 2
9 0 1 0 0 0 1 0 0 0 1 6.770573 -4.201302 -10.51134 1 1 0.5
9 0 1 0 0 0 1 0 0 0 1 7.770573 -24.7013 -5.511337 2 0.5 0.5
9 0 1 0 0 0 1 0 0 0 1 6.770573 -79.7013 -19.01134 1 0.5 1
9 0 1 0 0 0 1 0 0 0 1 6.270573 -84.7013 20.98866 0.5 0.5 2
9 0 1 0 0 0 1 0 0 0 1 5.770573 -2.701302 -9.011337 1 0.5 1
9 0 1 0 0 0 1 0 0 0 1 6.770573 -27.7013 -3.511337 2 0.5 0.5
9 0 1 0 0 0 1 0 0 0 1 5.270573 -33.7013 5.988663 0.5 0.5 2
9 0 1 0 0 0 1 0 0 0 1 5.270573 -77.2013 0.9886627 0.5 1 1
9 0 1 0 0 0 1 0 0 0 1 5.770573 -13.7013 -17.51134 2 0.5 0.5
9 0 1 0 0 0 1 0 0 0 1 4.270573 -38.7013 2.988663 0.5 0.5 2
9 0 1 0 0 0 1 0 0 0 1 3.270573 -4.701302 19.98866 0.5 0.5 2
9 0 1 0 0 0 1 0 0 0 1 3.270573 -75.7013 -5.011337 0.5 0.5 2
9 0 1 0 0 0 1 0 0 0 1 2.770573 -2.701302 14.98866 1 0.5 1
9 0 1 0 0 0 1 0 0 0 1 1.770573 -77.7013 -12.01134 1 0.5 1
9 0 1 0 0 0 1 0 0 0 1 -0.2294273 -4.701302 -15.51134 2 0.5 0.5
9 0 1 0 0 0 1 0 0 0 1 -0.2294273 -5.701302 -16.51134 2 0.5 0.5
9 0 1 0 0 0 1 0 0 0 1 -2.229427 -75.2013 -8.511337 1 1 0.5
9 0 1 0 0 0 1 0 0 0 1 -5.229427 -2.701302 19.98866 1 0.5 1
9 0 1 0 0 0 1 0 0 0 1 -6.229427 -77.7013 -17.01134 1 0.5 1
9 0 1 0 0 0 1 0 0 0 1 -8.229427 -4.201302 -10.51134 1 1 0.5
9 0 1 0 0 0 1 0 0 0 1 -9.729427 -3.701302 19.98866 0.5 0.5 2
9 0 1 0 0 0 1 0 0 0 1 -10.22943 -7.701302 -20.51134 2 0.5 0.5
9 0 1 0 0 0 1 0 0 0 1 -11.22943 -5.701302 -10.51134 2 0.5 0.5
9 0 1 0 0 0 1 0 0 0 1 -11.22943 -84.7013 -16.51134 2 0.5 0.5
9 0 1 0 0 0 1 0 0 0 1 -13.72943 -79.2013 -23.01134 0.5 1 1
9 0 1 0 0 0 1 0 0 0 1 -14.22943 -18.2013 -8.511337 1 1 0.5
9 0 1 0 0 0 1 0 0 0 1 -14.22943 -54.2013 -1.511337 1 1 0.5
9 0 1 0 0 0 1 0 0 0 1 -14.72943 -79.2013 -22.51134 0.5 2 0.5
9 0 1 0 0 0 1 0 0 0 1 -14.22943 -82.7013 -20.01134 1 0.5 1
9 0 1 0 0 0 1 0 0 0 1 -15.72943 -80.7013 -20.01134 0.5 0.5 2
9 0 1 0 0 0 1 0 0 0 1 -15.22943 -83.7013 -16.01134 1 0.5 1
9 0 1 0 0 0 1 0 0 0 1 -15.22943 -85.7013 -14.01134 1 0.5 1
9 0 1 0 0 0 1 0 0 0 1 -15.72943 -86.7013 -2.011337 0.5 0.5 2
9 0 1 0 0 0 1 0 0 0 1 -16.22943 -55.2013 -2.511337 1 1 0.5
9 0 1 0 0 0 1 0 0 0 1 -16.72943 -84.7013 -13.01134 0.5 0.5 2
9 0 1 0 0 0 1 0 0 0 1 -17.22943 -11.7013 -19.01134 1 0.5 1
9 0 1 0 0 0 1 0 0 0 1 -18.22943 -83.7013 -10.01134 1 0.5 1
9 0 1 0 0 0 1 0 0 0 1 -19.22943 -8.201302 -10.51134 1 1 0.5
9 0 1 0 0 0 1 0 0 0 1 -19.72943 -26.7013 -5.011337 0.5 0.5 2
9 0 1 0 0 0 1 0 0 0 1 -19.72943 -55.7013 6.988663 0.5 0.5 2
9 0 1 0 0 0 1 0 0 0 1 -20.22943 -77.7013 -20.01134 1 0.5 1
9 0 1 0 0 0 1 0 0 0 1 -21.22943 -14.7013 -20.01134 1 0.5 1
9 0 1 0 0 0 1 0 0 0 1 -21.22943 -30.2013 -7.511337 1 1 0.5
9 0 1 0 0 0 1 0 0 0 1 -21.22943 -61.2013 -7.511337 1 1 0.5
9 0 1 0 0 0 1 0 0 0 1 -21.22943 -73.7013 -20.01134 1 0.5 1
9 0 1 0 0 0 1 0 0 0 1 -22.22943 -18.7013 -20.01134 1 0.5 1
9 0 1 0 0 0 1 0 0 0 1 -21.22943 -19.7013 -17.51134 2 0.5 0.5
9 0 1 0 0 0 1 0 0 0 1 -24.72943 -19.7013 16.98866 0.5 0.5 2
9 0 1 0 0 0 1 0 0 0 1 -25.72943 -19.7013 -8.011337 0.5 0.5 2
9 0 1 0 0 0 1 0 0 0 1 -25.72943 -20.2013 -21.51134 0.5 2 0.5
9 0 1 0 0 0 1 0 0 0 1 -25.22943 -62.2013 -7.511337 1 1 0.5
9 0 1 0 0 0 1 0 0 0 1 -25.72943 -73.2013 -20.01134 0.5 1 1
9 0 1 0 0 0 1 0 0 0 1 -26.72943 -15.2013 -10.51134 0.5 2 0.5
9 0 1 0 0 0 1 0 0 0 1 -27.22943 -19.7013 -20.01134 1 0.5 1
9 0 1 0 0 0 1 0 0 0 1 -28.22943 -23.2013 -23.51134 1 1 0.5
9 0 1 0 0 0 1 0 0 0 1 -28.72943 -60.7013 -11.01134 0.5 0.5 2
9 0 1 0 0 0 1 0 0 0 1 -29.22943 -72.2013 -18.51134 1 1 0.5
9 0 1 0 0 0 1 0 0 0 1 -29.72943 -74.7013 -10.01134 0.5 0.5 2
9 0 1 0 0 0 1 0 0 0 1 -30.72943 -27.2013 -23.51134 0.5 2 0.5
9 0 1 0 0 0 1 0 0 0 1 -30.72943 -29.2013 -20.01134 0.5 1 1
9 0 1 0 0 0 1 0 0 0 1 -31.22943 -18.2013 22.48866 1 1 0.5
9 0 1 0 0 0 1 0 0 0 1 -31.72943 -39.2013 -17.01134 0.5 1 1
9 0 1 0 0 0 1 0 0 0 1 -31.72943 -40.2013 -15.01134 0.5 1 1
9 0 1 0 0 0 1 0 0 0 1 -31.22943 -66.2013 -22.51134 1 1 0.5
9 0 1 0 0 0 1 0 0 0 1 -31.72943 -75.7013 -4.011337 0.5 0.5 2
9 0 1 0 0 0 1 0 0 0 1 -32.22943 -20.2013 -16.51134 1 1 0.5
9 0 1 0 0 0 1 0 0 0 1 -32.22943 -21.2013 -17.51134 1 1 0.5
9 0 1 0 0 0 1 0 0 0 1 -32.72943 -46.2013 -16.51134 0.5 2 0.5
9 0 1 0 0 0 1 0 0 0 1 -32.72943 -62.7013 -15.01134 0.5 0.5 2
9 0 1 0 0 0 1 0 0 0 1 -32.22943 -64.2013 -22.51134 1 1 0.5
9 0 1 0 0 0 1 0 0 0 1 -32.22943 -71.2013 -16.51134 1 1 0.5
9 0 1 0 0 0 1 0 0 0 1 -32.72943 -72.2013 -15.01134 0.5 1 1
9 0 1 0 0 0 1 0 0 0 1 -33.22943 -23.2013 -17.51134 1 1 0.5
9 0 1 0 0 0 1 0 0 0 1 -33.72943 -27.2013 -21.01134 0.5 1 1
9 0 1 0 0 0 1 0 0 0 1 -34.72943 -62.2013 -18.01134 0.5 1 1
9 0 1 0 0 0 1 0 0 0 1 -35.72943 -65.2013 -11.51134 0.5 2 0.5
9 0 1 0 0 0 1 0 0 0 1 -36.72943 -25.2013 21.98866 0.5 1 1
9 0 1 0 0 0 1 0 0 0 1 -36.72943 -56.2013 -19.01134 0.5 1 1
9 0 1 0 0 0 1 0 0 0 1 -36.72943 -67.7013 -13.01134 0.5 0.5 2
9 0 1 0 0 0 1 0 0 0 1 -36.72943 -69.7013 -1.011337 0.5 0.5 2
9 0 1 0 0 0 1 0 0 0 1 -37.72943 -41.2013 -21.01134 0.5 1 1
9 0 1 0 0 0 1 0 0 0 1 -37.72943 -44.2013 -18.51134 0.5 2 0.5
9 0 1 0 0 0 1 0 0 0 1 -37.22943 -60.7013 -15.01134 1 0.5 1
9 0 1 0 0 0 1 0 0 0 1 -37.72943 -63.2013 -9.511337 0.5 2 0.5
9 0 1 0 0 0 1 0 0 0 1 -39.72943 -34.7013 11.98866 0.5 0.5 2
9 0 1 0 0 0 1 0 0 0 1 -40.72943 -50.7013 -6.011337 0.5 0.5 2
9 0 1 0 0 0 1 0 0 0 1 -40.72943 -54.2013 22.48866 0.5 2 0.5
9 0 1 0 0 0 1 0 0 0 1 -40.72943 -57.7013 -12.01134 0.5 0.5 2
9 0 1 0 0 0 1 0 0 0 1 -43.72943 -41.7013 13.98866 0.5 0.5 2
9 0 1 0 0 0 1 0 0 0 1 43.27057 -42.7013 9.488663 0.5 0.5 1.5
9 0 1 0 0 0 1 0 0 0 1 43.27057 -47.7013 9.488663 0.5 0.5 1.5
9 0 1 0 0 0 1 0 0 0 1 41.27057 -60.7013 3.488663 0.5 0.5 1.5
9 0 1 0 0 0 1 0 0 0 1 41.27057 -50.7013 -11.51134 1.5 0.5 0.5
9 0 1 0 0 0 1 0 0 0 1 40.27057 -51.7013 -10.51134 0.5 1.5 0.5
9 0 1 0 0 0 1 0 0 0 1 40.27057 -56.7013 22.48866 0.5 1.5 0.5
9 0 1 0 0 0 1 0 0 0 1 40.27057 -59.7013 17.48866 0.5 0.5 1.5
9 0 1 0 0 0 1 0 0 0 1 39.27057 -32.7013 -14.51134 0.5 1.5 0.5
9 0 1 0 0 0 1 0 0 0 1 38.27057 -28.7013 -9.511337 0.5 1.5 0.5
9 0 1 0 0 0 1 0 0 0 1 38.27057 -50.7013 -19.51134 0.5 1.5 0.5
9 0 1 0 0 0 1 0 0 0 1 38.27057 -63.7013 22.48866 0.5 1.5 0.5
9 0 1 0 0 0 1 0 0 0 1 36.27057 -33.7013 -19.51134 0.5 0.5 1.5
9 0 1 0 0 0 1 0 0 0 1 35.27057 -22.7013 -15.51134 0.5 0.5 1.5
9 0 1 0 0 0 1 0 0 0 1 36.27057 -49.7013 -22.51134 1.5 0.5 0.5
9 0 1 0 0 0 1 0 0 0 1 35.27057 -68.7013 -15.51134 0.5 0.5 1.5
9 0 1 0 0 0 1 0 0 0 1 34.27057 -69.7013 21.48866 0.5 0.5 1.5
9 0 1 0 0 0 1 0 0 0 1 34.27057 -71.7013 0.4886627 0.5 0.5 1.5
9 0 1 0 0 0 1 0 0 0 1 33.27057 -17.7013 8.488663 0.5 0.5 1.5
9 0 1 0 0 0 1 0 0 0 1 33.27057 -20.7013 21.48866 0.5 0.5 1.5
9 0 1 0 0 0 1 0 0 0 1 33.27057 -20.7013 -15.51134 0.5 1.5 0.5
9 0 1 0 0 0 1 0 0 0 1 33.27057 -48.7013 -17.51134 0.5 1.5 0.5
9 0 1 0 0 0 1 0 0 0 1 33.27057 -52.7013 -5.511337 0.5 0.5 1.5
9 0 1 0 0 0 1 0 0 0 1 33.27057 -67.7013 -19.51134 0.5 1.5 0.5
9 0 1 0 0 0 1 0 0 0 1 32.27057 -19.7013 21.48866 0.5 0.5 1.5
9 0 1 0 0 0 1 0 0 0 1 32.27057 -23.7013 -20.51134 0.5 1.5 0.5
9 0 1 0 0 0 1 0 0 0 1 32.27057 -42.7013 -14.51134 0.5 0.5 1.5
9 0 1 0 0 0 1 0 0 0 1 32.27057 -73.7013 -13.51134 0.5 0.5 1.5
9 0 1 0 0 0 1 0 0 0 1 31.27057 -19.7013 -17.51134 1.5 0.5 0.5
9 0 1 0 0 0 1 0 0 0 1 31.27057 -72.7013 -16.51134 1.5 0.5 0.5
9 0 1 0 0 0 1 0 0 0 1 28.27057 -49.7013 -5.511337 0.5 0.5 1.5
9 0 1 0 0 0 1 0 0 0 1 28.27057 -77.7013 21.48866 0.5 0.5 1.5
9 0 1 0 0 0 1 0 0 0 1 27.27057 -11.7013 2.488663 0.5 0.5 1.5
9 0 1 0 0 0 1 0 0 0 1 27.27057 -60.7013 -8.511337 0.5 1.5 0.5
9 0 1 0 0 0 1 0 0 0 1 26.27057 -13.7013 -10.51134 0.5 0.5 1.5
9 0 1 0 0 0 1 0 0 0 1 26.27057 -72.7013 -20.51134 0.5 0.5 1.5
9 0 1 0 0 0 1 0 0 0 1 25.27057 -12.7013 -13.51134 0.5 0.5 1.5
9 0 1 0 0 0 1 0 0 0 1 25.27057 -51.7013 -7.511337 0.5 1.5 0.5
9 0 1 0 0 0 1 0 0 0 1 25.27057 -80.7013 1.488663 0.5 0.5 1.5
9 0 1 0 0 0 1 0 0 0 1 24.27057 -16.7013 -19.51134 0.5 0.5 1.5
9 0 1 0 0 0 1 0 0 0 1 23.27057 -80.7013 -11.51134 0.5 0.5 1.5
9 0 1 0 0 0 1 0 0 0 1 22.27057 -18.7013 -20.51134 0.5 0.5 1.5
9 0 1 0 0 0 1 0 0 0 1 22.27057 -80.7013 -9.511337 0.5 0.5 1.5
9 0 1 0 0 0 1 0 0 0 1 21.27057 -10.7013 -10.51134 1.5 0.5 0.5
9 0 1 0 0 0 1 0 0 0 1 20.27057 -74.7013 -20.51134 0.5 0.5 1.5
9 0 1 0 0 0 1 0 0 0 1 19.27057 -47.7013 -2.511337 0.5 0.5 1.5
9 0 1 0 0 0 1 0 0 0 1 20.27057 -48.7013 12.48866 1.5 0.5 0.5
9 0 1 0 0 0 1 0 0 0 1 17.27057 -5.701302 -3.511337 0.5 0.5 1.5
9 0 1 0 0 0 1 0 0 0 1 17.27057 -10.7013 -15.51134 0.5 0.5 1.5
9 0 1 0 0 0 1 0 0 0 1 18.27057 -13.7013 -21.51134 1.5 0.5 0.5
9 0 1 0 0 0 1 0 0 0 1 18.27057 -20.7013 -8.511337 1.5 0.5 0.5
9 0 1 0 0 0 1 0 0 0 1 17.27057 -46.7013 -2.511337 0.5 1.5 0.5
9 0 1 0 0 0 1 0 0 0 1 16.27057 -7.701302 -9.511337 0.5 0.5 1.5
9 0 1 0 0 0 1 0 0 0 1 16.27057 -16.7013 -5.511337 0.5 0.5 1.5
9 0 1 0 0 0 1 0 0 0 1 16.27057 -81.7013 -18.51134 0.5 1.5 0.5
9 0 1 0 0 0 1 0 0 0 1 13.27057 -21.7013 -5.511337 0.5 0.5 1.5
9 0 1 0 0 0 1 0 0 0 1 14.27057 -84.7013 -17.51134 1.5 0.5 0.5
9 0 1 0 0 0 1 0 0 0 1 12.27057 -7.701302 -18.51134 0.5 0.5 1.5
9 0 1 0 0 0 1 0 0 0 1 13.27057 -23.7013 -7.511337 1.5 0.5 0.5
9 0 1 0 0 0 1 0 0 0 1 12.27057 -83.7013 -17.51134 1.5 0.5 0.5
9 0 1 0 0 0 1 0 0 0 1 10.27057 -24.7013 2.488663 0.5 0.5 1.5
9 0 1 0 0 0 1 0 0 0 1 10.27057 -79.7013 -24.51134 1.5 0.5 0.5
9 0 1 0 0 0 1 0 0 0 1 10.27057 -86.7013 -16.51134 1.5 0.5 0.5
9 0 1 0 0 0 1 0 0 0 1 8.270573 -14.7013 -12.51134 0.5 0.5 1.5
9 0 1 0 0 0 1 0 0 0 1 7.270573 -87.7013 -10.51134 0.5 1.5 0.5
9 0 1 0 0 0 1 0 0 0 1 7.270573 -29.7013 -2.511337 1.5 0.5 0.5
9 0 1 0 0 0 1 0 0 0 1 7.270573 -88.7013 -9.511337 1.5 0.5 0.5
9 0 1 0 0 0 1 0 0 0 1 5.270573 -79.7013 8.488663 0.5 0.5 1.5
9 0 1 0 0 0 1 0 0 0 1 4.270573 -66.7013 3.488663 0.5 0.5 1.5
9 0 1 0 0 0 1 0 0 0 1 4.270573 -11.7013 -19.51134 1.5 0.5 0.5
9 0 1 0 0 0 1 0 0 0 1 3.270573 -72.7013 5.488663 0.5 0.5 1.5
9 0 1 0 0 0 1 0 0 0 1 4.270573 -77.7013 -7.511337 1.5 0.5 0.5
9 0 1 0 0 0 1 0 0 0 1 3.270573 -78.7013 -9.511337 0.5 0.5 1.5
9 0 1 0 0 0 1 0 0 0 1 3.270573 -81.7013 -16.51134 0.5 1.5 0.5
9 0 1 0 0 0 1 0 0 0 1 3.270573 -61.7013 -1.511337 1.5 0.5 0.5
9 0 1 0 0 0 1 0 0 0 1 2.270573 -60.7013 -0.5113373 0.5 1.5 0.5
9 0 1 0 0 0 1 0 0 0 1 3.270573 -64.7013 -3.511337 1.5 0.5 0.5
9 0 1 0 0 0 1 0 0 0 1 3.270573 -85.7013 -13.51134 1.5 0.5 0.5
9 0 1 0 0 0 1 0 0 0 1 1.270573 -1.701302 5.488663 0.5 0.5 1.5
9 0 1 0 0 0 1 0 0 0 1 1.270573 -84.7013 -17.51134 1.5 0.5 0.5
9 0 1 0 0 0 1 0 0 0 1 -0.7294273 -4.701302 19.48866 0.5 0.5 1.5
9 0 1 0 0 0 1 0 0 0 1 -0.7294273 -7.701302 -21.51134 1.5 0.5 0.5
9 0 1 0 0 0 1 0 0 0 1 -1.729427 -6.701302 -17.51134 1.5 0.5 0.5
9 0 1 0 0 0 1 0 0 0 1 -1.729427 -78.7013 -17.51134 1.5 0.5 0.5
9 0 1 0 0 0 1 0 0 0 1 -3.729427 -13.7013 -14.51134 0.5 0.5 1.5
9 0 1 0 0 0 1 0 0 0 1 -3.729427 -89.7013 -1.511337 0.5 0.5 1.5
9 0 1 0 0 0 1 0 0 0 1 -4.729427 -77.7013 -15.51134 0.5 0.5 1.5
9 0 1 0 0 0 1 0 0 0 1 -5.729427 -2.701302 -8.511337 1.5 0.5 0.5
9 0 1 0 0 0 1 0 0 0 1 -6.729427 -80.7013 -22.51134 1.5 0.5 0.5
9 0 1 0 0 0 1 0 0 0 1 -6.729427 -84.7013 -17.51134 1.5 0.5 0.5
9 0 1 0 0 0 1 0 0 0 1 -7.729427 -87.7013 -11.51134 0.5 1.5 0.5
9 0 1 0 0 0 1 0 0 0 1 -6.729427 -88.7013 -9.511337 1.5 0.5 0.5
9 0 1 0 0 0 1 0 0 0 1 -7.729427 -8.701302 -22.51134 1.5 0.5 0.5
9 0 1 0 0 0 1 0 0 0 1 -9.729427 -4.701302 -15.51134 0.5 0.5 1.5
9 0 1 0 0 0 1 0 0 0 1 -8.729427 -81.7013 -23.51134 1.5 0.5 0.5
9 0 1 0 0 0 1 0 0 0 1 -9.729427 -8.701302 -18.51134 1.5 0.5 0.5
9 0 1 0 0 0 1 0 0 0 1 -9.729427 -11.7013 -24.51134 1.5 0.5 0.5
9 0 1 0 0 0 1 0 0 0 1 -9.729427 -79.7013 -24.51134 1.5 0.5 0.5
9 0 1 0 0 0 1 0 0 0 1 -10.72943 -87.7013 2.488663 0.5 0.5 1.5
9 0 1 0 0 0 1 0 0 0 1 -10.72943 -5.701302 -17.51134 1.5 0.5 0.5
9 0 1 0 0 0 1 0 0 0 1 -10.72943 -10.7013 -23.51134 1.5 0.5 0.5
9 0 1 0 0 0 1 0 0 0 1 -10.72943 -82.7013 -18.51134 1.5 0.5 0.5
9 0 1 0 0 0 1 0 0 0 1 -11.72943 -12.7013 -24.51134 1.5 0.5 0.5
9 0 1 0 0 0 1 0 0 0 1 -12.72943 -35.7013 -1.511337 0.5 1.5 0.5
9 0 1 0 0 0 1 0 0 0 1 -11.72943 -81.7013 -22.51134 1.5 0.5 0.5
9 0 1 0 0 0 1 0 0 0 1 -13.72943 -34.7013 -2.511337 0.5 1.5 0.5
9 0 1 0 0 0 1 0 0 0 1 -13.72943 -10.7013 -22.51134 1.5 0.5 0.5
9 0 1 0 0 0 1 0 0 0 1 -14.72943 -8.701302 -19.51134 1.5 0.5 0.5
9 0 1 0 0 0 1 0 0 0 1 -14.72943 -8.701302 -17.51134 1.5 0.5 0.5
9 0 1 0 0 0 1 0 0 0 1 -15.72943 -12.7013 -22.51134 0.5 1.5 0.5
9 0 1 0 0 0 1 0 0 0 1 -17.72943 -31.7013 -5.511337 0.5 1.5 0.5
9 0 1 0 0 0 1 0 0 0 1 -18.72943 -75.7013 -20.51134 0.5 0.5 1.5
9 0 1 0 0 0 1 0 0 0 1 -19.72943 -16.7013 -20.51134 0.5 0.5 1.5
9 0 1 0 0 0 1 0 0 0 1 -19.72943 -57.7013 -5.511337 1.5 0.5 0.5
9 0 1 0 0 0 1 0 0 0 1 -21.72943 -21.7013 -10.51134 0.5 0.5 1.5
9 0 1 0 0 0 1 0 0 0 1 -21.72943 -56.7013 13.48866 0.5 0.5 1.5
9 0 1 0 0 0 1 0 0 0 1 -21.72943 -56.7013 -6.511337 0.5 1.5 0.5
9 0 1 0 0 0 1 0 0 0 1 -21.72943 -81.7013 21.48866 0.5 0.5 1.5
9 0 1 0 0 0 1 0 0 0 1 -22.72943 -9.701302 -6.511337 0.5 0.5 1.5
9 0 1 0 0 0 1 0 0 0 1 -22.72943 -22.7013 -10.51134 0.5 0.5 1.5
9 0 1 0 0 0 1 0 0 0 1 -22.72943 -22.7013 8.488663 0.5 0.5 1.5
9 0 1 0 0 0 1 0 0 0 1 -22.72943 -72.7013 -20.51134 0.5 0.5 1.5
9 0 1 0 0 0 1 0 0 0 1 -23.72943 -23.7013 -10.51134 0.5 0.5 1.5
9 0 1 0 0 0 1 0 0 0 1 -23.72943 -59.7013 -8.511337 0.5 1.5 0.5
9 0 1 0 0 0 1 0 0 0 1 -24.72943 -14.7013 -15.51134 0.5 1.5 0.5
9 0 1 0 0 0 1 0 0 0 1 -24.72943 -70.7013 -20.51134 0.5 0.5 1.5
9 0 1 0 0 0 1 0 0 0 1 -25.72943 -20.7013 -16.51134 0.5 0.5 1.5
9 0 1 0 0 0 1 0 0 0 1 -26.72943 -16.7013 -12.51134 0.5 0.5 1.5
9 0 1 0 0 0 1 0 0 0 1 -26.72943 -13.7013 22.48866 1.5 0.5 0.5
9 0 1 0 0 0 1 0 0 0 1 -27.72943 -24.7013 -20.51134 0.5 0.5 1.5
9 0 1 0 0 0 1 0 0 0 1 -28.72943 -60.7013 -5.511337 0.5 0.5 1.5
9 0 1 0 0 0 1 0 0 0 1 -28.72943 -78.7013 11.48866 0.5 0.5 1.5
9 0 1 0 0 0 1 0 0 0 1 -28.72943 -16.7013 -10.51134 1.5 0.5 0.5
9 0 1 0 0 0 1 0 0 0 1 -30.72943 -36.7013 -10.51134 0.5 0.5 1.5
9 0 1 0 0 0 1 0 0 0 1 -30.72943 -52.7013 -8.511337 0.5 1.5 0.5
9 0 1 0 0 0 1 0 0 0 1 -31.72943 -53.7013 -17.51134 0.5 1.5 0.5
9 0 1 0 0 0 1 0 0 0 1 -31.72943 -59.7013 -18.51134 0.5 0.5 1.5
9 0 1 0 0 0 1 0 0 0 1 -30.72943 -72.7013 -17.51134 1.5 0.5 0.5
9 0 1 0 0 0 1 0 0 0 1 -32.72943 -20.7013 -10.51134 0.5 0.5 1.5
9 0 1 0 0 0 1 0 0 0 1 -32.72943 -27.7013 -22.51134 0.5 1.5 0.5
9 0 1 0 0 0 1 0 0 0 1 -32.72943 -67.7013 -19.51134 0.5 0.5 1.5
9 0 1 0 0 0 1 0 0 0 1 -36.72943 -35.7013 -19.51134 0.5 0.5 1.5
9 0 1 0 0 0 1 0 0 0 1 -35.72943 -41.7013 -22.51134 1.5 0.5 0.5
9 0 1 0 0 0 1 0 0 0 1 -35.72943 -50.7013 -22.51134 1.5 0.5 0.5
9 0 1 0 0 0 1 0 0 0 1 -39.72943 -28.7013 -7.511337 0.5 0.5 1.5
9 0 1 0 0 0 1 0 0 0 1 -39.72943 -32.7013 22.48866 0.5 1.5 0.5
9 0 1 0 0 0 1 0 0 0 1 -39.72943 -33.7013 -14.51134 0.5 1.5 0.5
9 0 1 0 0 0 1 0 0 0 1 -39.72943 -49.7013 -18.51134 0.5 0.5 1.5
9 0 1 0 0 0 1 0 0 0 1 -40.72943 -34.7013 -11.51134 0.5 0.5 1.5
9 0 1 0 0 0 1 0 0 0 1 -41.72943 -40.7013 -11.51134 1.5 0.5 0.5
9 0 1 0 0 0 1 0 0 0 1 -41.72943 -52.7013 -10.51134 1.5 0.5 0.5
9 0 1 0 0 0 1 0 0 0 1 -42.72943 -55.7013 -3.511337 0.5 0.5 1.5
9 0 1 0 0 0 1 0 0 0 1 -43.72943 -42.7013 -8.511337 0.5 0.5 1.5
