9 0 1 0 0 0 1 0 0 0 1 0 -6.625002 -5 9.250002 0.6249982 4.250001
9 0 1 0 0 0 1 0 0 0 1 0 -6.625003 2.735903 7.461612 0.6249985 2.031529
9 0 1 0 0 0 1 0 0 0 1 -8.125 -4.625 -5 1.125 2.625 4.25
8192 0 0.4727904 0 -0.8811749 0 1 0 0.8811749 0 0.4727904 -3.41842 -4 6.588248 0.3570282 3.25 2.718514
8192 0 0.940951 0 -0.3385426 0 1 0 0.3385426 0 0.940951 -6.824599 -4 3.02407 0.1974874 3.25 2.278089
9 0 1 0 0 0 1 0 0 0 1 -7.62527 -4 -4.499999 0.6252699 3.25 3.75
8192 0 0.4727904 0 -0.8811749 0 1 0 0.8811749 0 0.4727904 -3.613231 -4.625 6.951332 0.7690729 2.625 2.718514
8192 0 0.940951 0 -0.3385426 0 1 0 0.3385426 0 0.940951 -7.269929 -4.625 3.184294 0.670764 2.625 2.278089
9 0 1 0 0 0 1 0 0 0 1 1.490116E-07 -4.625 -8.125 9.250001 2.625 1.125001
9 0 1 0 0 0 1 0 0 0 1 7.62527 -4 -4.499999 0.6252699 3.25 3.75
8192 0 -0.940951 0 -0.3385426 0 1 0 0.3385426 0 -0.940951 7.269929 -4.625 3.184294 0.670764 2.625 2.278089
8192 0 -0.4727905 0 -0.8811749 0 1 0 0.8811749 0 -0.4727905 3.613231 -4.625 6.951332 0.7690729 2.625 2.718514
8192 0 -0.4727905 0 -0.8811749 0 1 0 0.8811749 0 -0.4727905 3.41842 -4 6.588248 0.3570282 3.25 2.718514
8192 0 -0.940951 0 -0.3385426 0 1 0 0.3385426 0 -0.940951 6.824599 -4 3.02407 0.1974874 3.25 2.278089
9 0 1 0 0 0 1 0 0 0 1 8.125 -4.625 -5 1.125 2.625 4.25
9 0 1 0 0 0 1 0 0 0 1 -3.166497E-07 -4 -7.624999 8.25054 3.25 0.6250002
