9 0 1 0 0 0 1 0 0 0 1 3.061127 -25.22215 -1.877586 5 1.5 4
9 0 1 0 0 0 1 0 0 0 1 8.561127 -22.72215 -4.377586 1.5 1 8.5
9 0 1 0 0 0 1 0 0 0 1 5.561127 -24.22215 -8.377586 6.5 0.5 2.5
9 0 1 0 0 0 1 0 0 0 1 4.061127 -22.72215 -10.37759 3 1 2.5
9 0 1 0 0 0 1 0 0 0 1 0.5611267 -16.22215 14.12241 2.5 2.5 1
9 0 1 0 0 0 1 0 0 0 1 -0.9388733 -24.22215 4.122414 6 0.5 2
9 0 1 0 0 0 1 0 0 0 1 5.561127 -21.72215 -13.87759 5.5 1 1
9 0 1 0 0 0 1 0 0 0 1 11.56113 -19.22215 -11.87759 1.5 1.5 2
9 0 1 0 0 0 1 0 0 0 1 -2.938873 -24.72215 -1.877586 1 1 4
9 0 1 0 0 0 1 0 0 0 1 6.561127 -19.72215 -15.37759 2.5 1 1.5
9 0 1 0 0 0 1 0 0 0 1 0.06112671 -22.22215 9.622414 3 0.5 2.5
9 0 1 0 0 0 1 0 0 0 1 11.06113 -22.72215 -6.377586 1 1 3.5
9 0 1 0 0 0 1 0 0 0 1 3.561127 -25.22215 -7.877586 3.5 0.5 2
9 0 1 0 0 0 1 0 0 0 1 3.561127 -27.22215 -0.8775864 3.5 0.5 2
9 0 1 0 0 0 1 0 0 0 1 -3.938873 -15.22215 13.62241 2 3.5 0.5
9 0 1 0 0 0 1 0 0 0 1 -1.938873 -22.72215 -9.877586 3 1 1
9 0 1 0 0 0 1 0 0 0 1 -0.4388733 -25.22215 3.122414 5.5 0.5 1
9 0 1 0 0 0 1 0 0 0 1 -14.43887 -17.22215 0.6224136 0.5 1.5 3.5
9 0 1 0 0 0 1 0 0 0 1 9.061127 -18.22215 -15.37759 3 0.5 1.5
9 0 1 0 0 0 1 0 0 0 1 9.061127 -21.22215 -11.37759 3 0.5 1.5
9 0 1 0 0 0 1 0 0 0 1 5.561127 -22.72215 6.622414 1.5 1 1.5
9 0 1 0 0 0 1 0 0 0 1 4.561127 -14.72215 13.62241 1.5 3 0.5
9 0 1 0 0 0 1 0 0 0 1 13.56113 -17.72215 -5.877586 0.5 2 2
9 0 1 0 0 0 1 0 0 0 1 -0.9388733 -11.72215 14.62241 2 2 0.5
9 0 1 0 0 0 1 0 0 0 1 -0.9388733 -15.72215 15.62241 2 2 0.5
9 0 1 0 0 0 1 0 0 0 1 -5.438873 -22.22215 7.622414 2.5 0.5 1.5
9 0 1 0 0 0 1 0 0 0 1 8.561127 -24.72215 -0.3775864 0.5 1 3.5
9 0 1 0 0 0 1 0 0 0 1 -0.4388733 -24.22215 7.122414 3.5 0.5 1
9 0 1 0 0 0 1 0 0 0 1 14.56113 -17.72215 -3.377586 0.5 2 1.5
9 0 1 0 0 0 1 0 0 0 1 13.56113 -19.72215 -0.8775864 0.5 1 3
9 0 1 0 0 0 1 0 0 0 1 12.56113 -21.72215 -8.877586 0.5 3 1
9 0 1 0 0 0 1 0 0 0 1 6.061127 -15.72215 12.62241 1 3 0.5
9 0 1 0 0 0 1 0 0 0 1 6.061127 -24.72215 -11.37759 3 1 0.5
9 0 1 0 0 0 1 0 0 0 1 0.5611267 -23.22215 9.122414 1.5 0.5 2
9 0 1 0 0 0 1 0 0 0 1 -6.438873 -16.72215 12.62241 1.5 2 0.5
9 0 1 0 0 0 1 0 0 0 1 -7.438873 -22.72215 5.122414 1.5 1 1
9 0 1 0 0 0 1 0 0 0 1 12.06113 -21.22215 -0.3775864 1 0.5 2.5
9 0 1 0 0 0 1 0 0 0 1 -8.938873 -16.22215 11.62241 1 2.5 0.5
9 0 1 0 0 0 1 0 0 0 1 -9.938873 -16.22215 10.62241 1 2.5 0.5
9 0 1 0 0 0 1 0 0 0 1 8.561127 -19.22215 -13.37759 1.5 1.5 0.5
9 0 1 0 0 0 1 0 0 0 1 4.561127 -16.22215 14.62241 1.5 1.5 0.5
9 0 1 0 0 0 1 0 0 0 1 2.561127 -19.22215 -15.37759 1.5 1.5 0.5
9 0 1 0 0 0 1 0 0 0 1 2.561127 -26.22215 3.622414 1.5 0.5 1.5
9 0 1 0 0 0 1 0 0 0 1 -3.438873 -16.22215 14.62241 1.5 1.5 0.5
9 0 1 0 0 0 1 0 0 0 1 -5.438873 -24.22215 0.6224136 1.5 0.5 1.5
9 0 1 0 0 0 1 0 0 0 1 13.56113 -19.72215 -9.877586 0.5 1 2
9 0 1 0 0 0 1 0 0 0 1 11.06113 -22.22215 -0.8775864 1 0.5 2
9 0 1 0 0 0 1 0 0 0 1 10.06113 -24.22215 -4.877586 2 0.5 1
9 0 1 0 0 0 1 0 0 0 1 8.061127 -15.72215 12.12241 1 1 1
9 0 1 0 0 0 1 0 0 0 1 6.061127 -22.72215 -6.877586 1 1 1
9 0 1 0 0 0 1 0 0 0 1 2.061127 -12.72215 14.12241 1 1 1
9 0 1 0 0 0 1 0 0 0 1 0.5611267 -27.22215 1.622414 3.5 0.5 0.5
9 0 1 0 0 0 1 0 0 0 1 13.56113 -17.72215 2.622414 0.5 1 1.5
9 0 1 0 0 0 1 0 0 0 1 11.06113 -21.22215 -8.377586 1 0.5 1.5
9 0 1 0 0 0 1 0 0 0 1 10.56113 -22.72215 -11.37759 0.5 1 1.5
9 0 1 0 0 0 1 0 0 0 1 10.06113 -17.22215 -13.37759 1 0.5 1.5
9 0 1 0 0 0 1 0 0 0 1 10.56113 -19.72215 -14.37759 1.5 1 0.5
9 0 1 0 0 0 1 0 0 0 1 8.561127 -22.22215 5.122414 1.5 0.5 1
9 0 1 0 0 0 1 0 0 0 1 7.061127 -19.22215 11.62241 1 1.5 0.5
9 0 1 0 0 0 1 0 0 0 1 6.561127 -21.72215 -15.37759 1.5 1 0.5
9 0 1 0 0 0 1 0 0 0 1 6.561127 -24.22215 3.122414 1.5 0.5 1
9 0 1 0 0 0 1 0 0 0 1 3.061127 -10.22215 13.62241 1 1.5 0.5
9 0 1 0 0 0 1 0 0 0 1 2.561127 -25.22215 5.122414 1.5 0.5 1
9 0 1 0 0 0 1 0 0 0 1 4.061127 -26.22215 -6.377586 3 0.5 0.5
9 0 1 0 0 0 1 0 0 0 1 3.061127 -21.22215 -12.37759 3 0.5 0.5
9 0 1 0 0 0 1 0 0 0 1 0.06112671 -21.22215 11.62241 3 0.5 0.5
9 0 1 0 0 0 1 0 0 0 1 -3.438873 -22.72215 -8.377586 1.5 1 0.5
9 0 1 0 0 0 1 0 0 0 1 -8.438873 -22.22215 -2.877586 0.5 0.5 3
9 0 1 0 0 0 1 0 0 0 1 -10.93887 -17.22215 9.622414 1 1.5 0.5
9 0 1 0 0 0 1 0 0 0 1 -14.43887 -19.22215 -0.8775864 0.5 0.5 3
9 0 1 0 0 0 1 0 0 0 1 5.561127 -25.22215 -10.37759 2.5 0.5 0.5
9 0 1 0 0 0 1 0 0 0 1 3.561127 -23.22215 -13.37759 2.5 0.5 0.5
9 0 1 0 0 0 1 0 0 0 1 -0.4388733 -17.22215 16.62241 2.5 0.5 0.5
9 0 1 0 0 0 1 0 0 0 1 -3.438873 -24.22215 -6.377586 2.5 0.5 0.5
9 0 1 0 0 0 1 0 0 0 1 -9.438873 -22.22215 3.622414 2.5 0.5 0.5
9 0 1 0 0 0 1 0 0 0 1 13.56113 -15.72215 5.122414 0.5 1 1
9 0 1 0 0 0 1 0 0 0 1 12.56113 -16.72215 7.122414 0.5 1 1
9 0 1 0 0 0 1 0 0 0 1 13.06113 -17.72215 -8.377586 1 1 0.5
9 0 1 0 0 0 1 0 0 0 1 12.56113 -18.22215 -7.377586 0.5 2.5 0.5
9 0 1 0 0 0 1 0 0 0 1 11.56113 -15.72215 8.622414 0.5 2 0.5
9 0 1 0 0 0 1 0 0 0 1 11.06113 -17.22215 -10.87759 1 0.5 1
9 0 1 0 0 0 1 0 0 0 1 9.561127 -15.72215 11.12241 0.5 1 1
9 0 1 0 0 0 1 0 0 0 1 9.561127 -19.72215 -11.87759 0.5 1 1
9 0 1 0 0 0 1 0 0 0 1 7.561127 -17.22215 13.12241 0.5 0.5 2
9 0 1 0 0 0 1 0 0 0 1 6.561127 -15.72215 13.62241 0.5 2 0.5
9 0 1 0 0 0 1 0 0 0 1 6.561127 -22.72215 4.122414 0.5 1 1
9 0 1 0 0 0 1 0 0 0 1 6.561127 -27.22215 -4.877586 0.5 0.5 2
9 0 1 0 0 0 1 0 0 0 1 5.561127 -17.72215 -14.87759 0.5 1 1
9 0 1 0 0 0 1 0 0 0 1 5.061127 -22.22215 8.622414 2 0.5 0.5
9 0 1 0 0 0 1 0 0 0 1 3.561127 -22.72215 7.122414 0.5 1 1
9 0 1 0 0 0 1 0 0 0 1 2.061127 -17.72215 15.62241 1 1 0.5
9 0 1 0 0 0 1 0 0 0 1 2.061127 -26.22215 -7.877586 1 0.5 1
9 0 1 0 0 0 1 0 0 0 1 2.061127 -19.22215 -16.37759 2 0.5 0.5
9 0 1 0 0 0 1 0 0 0 1 -1.938873 -19.72215 13.62241 1 1 0.5
9 0 1 0 0 0 1 0 0 0 1 -1.938873 -23.22215 8.122414 1 0.5 1
9 0 1 0 0 0 1 0 0 0 1 -0.9388733 -26.22215 2.622414 2 0.5 0.5
9 0 1 0 0 0 1 0 0 0 1 -3.438873 -9.722149 13.62241 0.5 2 0.5
9 0 1 0 0 0 1 0 0 0 1 -2.938873 -26.22215 1.122414 1 0.5 1
9 0 1 0 0 0 1 0 0 0 1 -4.938873 -25.22215 1.122414 1 0.5 1
9 0 1 0 0 0 1 0 0 0 1 -6.438873 -16.72215 13.62241 0.5 2 0.5
9 0 1 0 0 0 1 0 0 0 1 -6.938873 -13.72215 12.62241 1 1 0.5
9 0 1 0 0 0 1 0 0 0 1 -13.43887 -16.72215 5.622414 0.5 2 0.5
9 0 1 0 0 0 1 0 0 0 1 14.56113 -20.22215 -2.377586 0.5 0.5 1.5
9 0 1 0 0 0 1 0 0 0 1 11.56113 -19.22215 -9.377586 0.5 1.5 0.5
9 0 1 0 0 0 1 0 0 0 1 9.561127 -19.22215 -16.37759 0.5 0.5 1.5
9 0 1 0 0 0 1 0 0 0 1 7.561127 -13.22215 11.62241 0.5 1.5 0.5
9 0 1 0 0 0 1 0 0 0 1 6.561127 -25.22215 2.622414 1.5 0.5 0.5
9 0 1 0 0 0 1 0 0 0 1 4.561127 -17.22215 12.62241 0.5 1.5 0.5
9 0 1 0 0 0 1 0 0 0 1 2.561127 -23.22215 7.622414 0.5 0.5 1.5
9 0 1 0 0 0 1 0 0 0 1 2.561127 -27.22215 3.622414 0.5 0.5 1.5
9 0 1 0 0 0 1 0 0 0 1 1.561127 -24.22215 9.622414 0.5 0.5 1.5
9 0 1 0 0 0 1 0 0 0 1 1.561127 -27.22215 -3.377586 1.5 0.5 0.5
9 0 1 0 0 0 1 0 0 0 1 -0.4388733 -22.22215 -11.37759 1.5 0.5 0.5
9 0 1 0 0 0 1 0 0 0 1 -1.438873 -24.22215 -8.377586 0.5 0.5 1.5
9 0 1 0 0 0 1 0 0 0 1 -3.438873 -13.22215 14.62241 0.5 1.5 0.5
9 0 1 0 0 0 1 0 0 0 1 -5.438873 -22.22215 -8.377586 0.5 0.5 1.5
9 0 1 0 0 0 1 0 0 0 1 -9.438873 -22.22215 -1.377586 0.5 0.5 1.5
9 0 1 0 0 0 1 0 0 0 1 -12.43887 -17.22215 7.622414 0.5 1.5 0.5
