9 0 1 0 0 0 1 0 0 0 1 -8.124999 -4.9375 9.999999 1.125001 2.312498 19.25
9 0 1 0 0 0 1 0 0 0 1 -7.5 -0.9375007 9.999999 0.5000001 0.1874986 18
9 0 1 0 0 0 1 0 0 0 1 47.5 -0.9375007 9.999999 0.4999992 0.1874986 18
9 0 1 0 0 0 1 0 0 0 1 20 -0.9375007 27.5 28 0.1874986 0.4999992
9 0 1 0 0 0 1 0 0 0 1 20 -0.9375007 -7.500002 28 0.1874986 0.4999983
9 0 1 0 0 0 1 0 0 0 1 48.125 -4.9375 9.999999 1.125 2.312498 19.25
9 0 1 0 0 0 1 0 0 0 1 20 -4.9375 -8.125001 29.25 2.312498 1.125
9 0 1 0 0 0 1 0 0 0 1 20 -4.9375 28.125 29.25 2.312498 1.125
9 0 1 0 0 0 1 0 0 0 1 20 -6.627973 9.999999 29.25 0.6220267 19.25
