8192 0 0.9214159 0 -0.3885777 0 1 0 0.3885777 0 0.9214159 51.83801 -3.991539 -38.53022 0.5199298 3.239323 8.788706
8192 0 -0.3885777 0 0.921416 0 1 0 -0.921416 0 -0.3885777 21.04306 -4.015332 -8.413601 0.5199298 3.249528 8.788706
8192 0 0.4140247 0 0.9102657 0 1 0 -0.9102657 0 0.4140247 19.03206 -6.921637 -6.591748 8.800158 0.3432228 6.353637
8192 0 0.2325385 0 0.9725872 0 1 0 -0.9725872 0 0.2325385 8.67738 -6.921637 -2.915209 8.687927 0.3432228 6.353637
8192 0 0.5624658 0 0.8268205 0 1 0 -0.8268205 0 0.5624658 28.60111 -6.921637 -11.96878 8.783748 0.3372966 6.353637
8192 0 0.08124125 0 0.9966944 0 1 0 -0.9966944 0 0.08124125 -2.003493 -6.921637 -0.7937545 8.674087 0.3432228 6.234917
8192 0 0.5572278 0 0.8303596 0 1 0 -0.8303596 0 0.5572278 33.83075 -4.015331 -5.589143 0.6593678 3.249528 5.688154
8192 0 0.264239 0 0.9644573 0 1 0 -0.9644573 0 0.264239 9.29564 -4.015332 5.401713 0.6064159 3.249528 4.948026
8192 0 0.114922 0 0.9933745 0 1 0 -0.9933745 0 0.114922 -1.09112 -4.015332 7.466856 0.4527076 3.249529 7.747574
8192 0 -0.9999976 0 0.002134234 0 1 0 -0.002134234 0 -0.9999976 7.52352 -4.03634 -2.454644 0.4793513 3.192845 6.353637
8192 0 -0.7381449 0 0.6746422 0 1 0 -0.6746422 0 -0.7381449 34.47395 -4.03634 -15.90494 0.3255328 3.192845 6.353637
8192 0 -0.9999976 0 0.002134234 0 1 0 -0.002134234 0 -0.9999976 -7.986173 -4.03634 -0.1681586 0.9790291 3.192845 6.353637
8192 0 0.6866218 0 0.7270148 0 1 0 -0.7270148 0 0.6866218 42.7306 -3.996264 -11.9766 0.1749987 3.23046 5.998778
8192 0 0.002134204 0 -0.9999977 0 1 0 0.9999977 0 0.002134204 60.08345 -3.969633 -67.98977 0.9790291 3.192845 6.353637
8192 0 0.6746423 0 -0.7381448 0 1 0 0.7381448 0 0.6746423 44.34667 -3.969633 -26.16763 0.3255328 3.192845 6.353637
8192 0 0.002134204 0 -0.9999977 0 1 0 0.9999977 0 0.002134204 57.79697 -3.969633 -52.51044 0.4793513 3.192845 6.353637
8192 0 0.8304393 0 0.5571092 0 1 0 -0.5571092 0 0.8304393 54.5684 -3.998059 -26.87391 0.7717724 3.232804 5.688154
8192 0 0.742562 0 0.6697773 0 1 0 -0.6697773 0 0.742562 48.286 -3.991664 -17.89466 0.3097356 3.239198 5.998778
8192 0 0.7181801 0 0.6958573 0 1 0 -0.6958573 0 0.7181801 33.83205 -3.997864 -26.32667 0.8739753 3.243573 6.752873
8192 0 0.9956274 0 0.09341321 0 1 0 -0.09341321 0 0.9956274 67.46885 -3.99111 -61.31771 0.2429909 3.221262 7.596526
8192 0 0.9657623 0 0.2594284 0 1 0 -0.2594284 0 0.9657623 65.20528 -4.003825 -50.76752 0.5818926 3.227037 4.948026
8192 0 0.8268205 0 0.5624659 0 1 0 -0.5624659 0 0.8268205 48.39392 -6.85493 -31.96489 8.755825 0.3432228 6.353637
8192 0 0.6899321 0 0.7238741 0 1 0 -0.7238741 0 0.6899321 38.2844 -6.85493 -19.98454 8.561942 0.3432228 10.31109
8192 0 0.9404718 0 0.3398716 0 1 0 -0.3398716 0 0.9404718 48.47751 -4.020175 -50.02567 0.8640186 3.221262 4.948026
8192 0 0.9906707 0 0.1362775 0 1 0 -0.1362775 0 0.9906707 51.28815 -3.957192 -62.62183 0.763118 3.192845 6.22427
8192 0 0.9966944 0 0.08124135 0 1 0 -0.08124135 0 0.9966944 59.20667 -6.85493 -62.32945 8.753786 0.3432228 5.899938
8192 0 0.9725872 0 0.2325386 0 1 0 -0.2325386 0 0.9725872 57.2135 -6.85493 -51.99358 8.718564 0.3432228 6.353637
8192 0 0.9102656 0 0.4140247 0 1 0 -0.4140247 0 0.9102656 53.63396 -6.85493 -41.62129 8.745907 0.3432228 6.353637
8192 0 0.1362774 0 0.9906707 0 1 0 -0.9906707 0 0.1362774 -2.09894 -3.987102 -8.876975 0.6936116 3.192845 6.353637
8192 0 0.3398718 0 0.9404718 0 1 0 -0.9404718 0 0.3398718 10.6178 -4.015332 -11.76884 0.8584206 3.249528 4.948026
