9 0 1 0 0 0 1 0 0 0 1 18.94 -22.00007 0 14.685 1.250071 1.125
9 0 1 0 0 0 1 0 0 0 1 18.94 -2.756715E-05 0 14.685 15.24995 1.125
9 0 1 0 0 0 1 0 0 0 1 18.94 21.99991 2.775558E-15 14.685 0.7500842 1.125
9 0 1 0 0 0 1 0 0 0 1 19.565 -0.2500728 -1.490116E-06 14.06 23.00007 1.125
8192 0 0.7071067 0 -0.7071068 0 1 0 0.7071068 0 0.7071067 -2.302494E-07 -22.00007 4.163336E-15 2.060749 1.250071 2.060749
8192 0 0.7071067 0 -0.7071068 0 1 0 0.7071068 0 0.7071067 -2.302494E-07 21.99991 4.163336E-15 2.060749 0.7500842 2.060749
8192 0 0.7071067 0 -0.7071068 0 1 0 0.7071068 0 0.7071067 -2.302494E-07 -2.831221E-05 0 2.060749 15.24995 2.060749
