9 0 1 0 0 0 1 0 0 0 1 0.08500099 0.08500099 0 3.5 2.5 3.5
9 0 1 0 0 0 1 0 0 0 1 0.08500099 12.085 0 4.5 0.5 6.5
9 0 1 0 0 0 1 0 0 0 1 -0.414999 -12.415 0 2 1 6.5
9 0 1 0 0 0 1 0 0 0 1 -12.415 -0.414999 0 1 2 6.5
9 0 1 0 0 0 1 0 0 0 1 11.585 0.08500099 0 1 4.5 2.5
9 0 1 0 0 0 1 0 0 0 1 0.08500099 11.085 0 6.5 0.5 2.5
9 0 1 0 0 0 1 0 0 0 1 0.08500099 -10.915 0 6.5 0.5 2.5
9 0 1 0 0 0 1 0 0 0 1 -10.915 0.08500099 0 0.5 6.5 2.5
9 0 1 0 0 0 1 0 0 0 1 12.585 0.08500099 4.5 1 3.5 2
9 0 1 0 0 0 1 0 0 0 1 12.085 0.08500099 -4.5 0.5 5.5 2
9 0 1 0 0 0 1 0 0 0 1 3.085001 -11.915 0 1.5 0.5 6.5
9 0 1 0 0 0 1 0 0 0 1 0.08500099 13.085 0 1.5 0.5 6.5
9 0 1 0 0 0 1 0 0 0 1 -3.914999 -11.915 0 1.5 0.5 6.5
9 0 1 0 0 0 1 0 0 0 1 -11.915 3.085001 0 0.5 1.5 6.5
9 0 1 0 0 0 1 0 0 0 1 -11.915 -3.914999 0 0.5 1.5 6.5
9 0 1 0 0 0 1 0 0 0 1 9.585001 9.085001 -3.5 1 1.5 3
9 0 1 0 0 0 1 0 0 0 1 0.08500099 3.085001 0 2.5 0.5 3.5
9 0 1 0 0 0 1 0 0 0 1 0.08500099 -2.914999 0 2.5 0.5 3.5
9 0 1 0 0 0 1 0 0 0 1 -9.414999 9.085001 -3 1 1.5 2.5
9 0 1 0 0 0 1 0 0 0 1 13.085 0.08500099 -2 0.5 1.5 4.5
9 0 1 0 0 0 1 0 0 0 1 11.085 5.585001 0 0.5 1 6.5
9 0 1 0 0 0 1 0 0 0 1 11.085 -5.414999 0 0.5 1 6.5
9 0 1 0 0 0 1 0 0 0 1 10.085 -7.414999 0 0.5 1 6.5
9 0 1 0 0 0 1 0 0 0 1 8.085001 9.585001 0 0.5 1 6.5
9 0 1 0 0 0 1 0 0 0 1 -7.414999 10.085 0 1 0.5 6.5
9 0 1 0 0 0 1 0 0 0 1 -7.414999 -9.914999 0 1 0.5 6.5
9 0 1 0 0 0 1 0 0 0 1 -9.914999 -7.414999 0 0.5 1 6.5
9 0 1 0 0 0 1 0 0 0 1 9.585001 -9.414999 -3.5 1 1 3
9 0 1 0 0 0 1 0 0 0 1 7.585001 -10.415 3.5 1 1 3
9 0 1 0 0 0 1 0 0 0 1 -9.414999 -9.414999 -3.5 1 1 3
9 0 1 0 0 0 1 0 0 0 1 -10.415 7.585001 3.5 1 1 3
9 0 1 0 0 0 1 0 0 0 1 15.085 0.08500099 -3.5 1.5 0.5 3
9 0 1 0 0 0 1 0 0 0 1 10.085 8.085001 3.5 1.5 0.5 3
9 0 1 0 0 0 1 0 0 0 1 3.085001 14.085 3.5 0.5 1.5 3
9 0 1 0 0 0 1 0 0 0 1 3.085001 -13.915 3.5 0.5 1.5 3
9 0 1 0 0 0 1 0 0 0 1 0.08500099 15.085 -3.5 0.5 1.5 3
9 0 1 0 0 0 1 0 0 0 1 0.08500099 -14.915 -3.5 0.5 1.5 3
9 0 1 0 0 0 1 0 0 0 1 -13.915 3.085001 3.5 1.5 0.5 3
9 0 1 0 0 0 1 0 0 0 1 -14.915 0.08500099 -3.5 1.5 0.5 3
9 0 1 0 0 0 1 0 0 0 1 6.585001 11.085 4.5 2 0.5 2
9 0 1 0 0 0 1 0 0 0 1 -6.414999 11.085 4.5 2 0.5 2
9 0 1 0 0 0 1 0 0 0 1 -6.414999 -10.915 4.5 2 0.5 2
9 0 1 0 0 0 1 0 0 0 1 -10.915 -6.414999 4.5 0.5 2 2
9 0 1 0 0 0 1 0 0 0 1 10.085 6.085001 0 0.5 1.5 2.5
9 0 1 0 0 0 1 0 0 0 1 6.085001 10.085 0 1.5 0.5 2.5
9 0 1 0 0 0 1 0 0 0 1 7.585001 -9.914999 -3 1 0.5 3.5
9 0 1 0 0 0 1 0 0 0 1 -0.414999 -3.914999 0 1 0.5 3.5
9 0 1 0 0 0 1 0 0 0 1 -3.914999 -0.414999 0 0.5 1 3.5
9 0 1 0 0 0 1 0 0 0 1 14.585 3.085001 3.5 1 0.5 3
9 0 1 0 0 0 1 0 0 0 1 11.085 -7.414999 3.5 0.5 1 3
9 0 1 0 0 0 1 0 0 0 1 8.585001 -8.914999 2.5 1 0.5 3
9 0 1 0 0 0 1 0 0 0 1 -2.414999 13.085 3.5 1 0.5 3
9 0 1 0 0 0 1 0 0 0 1 -2.914999 -13.415 3.5 0.5 1 3
9 0 1 0 0 0 1 0 0 0 1 -13.415 -2.914999 3.5 1 0.5 3
9 0 1 0 0 0 1 0 0 0 1 9.085001 -7.414999 0 0.5 1 2.5
9 0 1 0 0 0 1 0 0 0 1 -7.414999 9.085001 0 1 0.5 2.5
9 0 1 0 0 0 1 0 0 0 1 -8.914999 8.085001 1 0.5 1.5 1.5
9 0 1 0 0 0 1 0 0 0 1 10.585 7.085001 4.5 1 0.5 2
9 0 1 0 0 0 1 0 0 0 1 5.585001 11.085 -4.5 1 0.5 2
9 0 1 0 0 0 1 0 0 0 1 5.585001 -10.915 -4.5 1 0.5 2
9 0 1 0 0 0 1 0 0 0 1 5.585001 -10.915 4.5 1 0.5 2
9 0 1 0 0 0 1 0 0 0 1 -4.914999 11.585 -4.5 0.5 1 2
9 0 1 0 0 0 1 0 0 0 1 -5.414999 -10.915 -4.5 1 0.5 2
9 0 1 0 0 0 1 0 0 0 1 -10.915 5.585001 -4.5 0.5 1 2
9 0 1 0 0 0 1 0 0 0 1 -10.915 5.585001 4.5 0.5 1 2
9 0 1 0 0 0 1 0 0 0 1 -10.915 -5.414999 -4.5 0.5 1 2
9 0 1 0 0 0 1 0 0 0 1 -12.915 2.085001 2.5 0.5 0.5 4
9 0 1 0 0 0 1 0 0 0 1 5.085001 -11.915 -3 0.5 0.5 3.5
9 0 1 0 0 0 1 0 0 0 1 4.085001 0.08500099 0 0.5 0.5 3.5
9 0 1 0 0 0 1 0 0 0 1 2.085001 -12.915 3 0.5 0.5 3.5
9 0 1 0 0 0 1 0 0 0 1 0.08500099 4.085001 0 0.5 0.5 3.5
9 0 1 0 0 0 1 0 0 0 1 -8.914999 -8.914999 3 0.5 0.5 3.5
9 0 1 0 0 0 1 0 0 0 1 -9.914999 7.085001 -3 0.5 0.5 3.5
9 0 1 0 0 0 1 0 0 0 1 14.085 -2.914999 3.5 0.5 0.5 3
9 0 1 0 0 0 1 0 0 0 1 5.085001 12.085 -3.5 0.5 0.5 3
9 0 1 0 0 0 1 0 0 0 1 2.085001 13.085 3.5 0.5 0.5 3
9 0 1 0 0 0 1 0 0 0 1 -2.914999 14.085 3.5 0.5 0.5 3
9 0 1 0 0 0 1 0 0 0 1 -11.915 5.085001 -3.5 0.5 0.5 3
9 0 1 0 0 0 1 0 0 0 1 10.085 -5.914999 0 0.5 0.5 2.5
9 0 1 0 0 0 1 0 0 0 1 9.085001 7.085001 0 0.5 0.5 2.5
9 0 1 0 0 0 1 0 0 0 1 7.085001 9.085001 0 0.5 0.5 2.5
9 0 1 0 0 0 1 0 0 0 1 7.085001 -8.914999 0 0.5 0.5 2.5
9 0 1 0 0 0 1 0 0 0 1 6.085001 -9.914999 0 0.5 0.5 2.5
9 0 1 0 0 0 1 0 0 0 1 -5.914999 10.085 0 0.5 0.5 2.5
9 0 1 0 0 0 1 0 0 0 1 -5.914999 -9.914999 0 0.5 0.5 2.5
9 0 1 0 0 0 1 0 0 0 1 -7.914999 -8.914999 0 0.5 0.5 2.5
9 0 1 0 0 0 1 0 0 0 1 -8.914999 -7.914999 0 0.5 0.5 2.5
9 0 1 0 0 0 1 0 0 0 1 -9.914999 6.085001 0 0.5 0.5 2.5
9 0 1 0 0 0 1 0 0 0 1 -9.914999 -5.914999 0 0.5 0.5 2.5
9 0 1 0 0 0 1 0 0 0 1 13.085 2.585001 1.5 0.5 1 1
9 0 1 0 0 0 1 0 0 0 1 13.085 -2.414999 1.5 0.5 1 1
9 0 1 0 0 0 1 0 0 0 1 12.085 4.085001 4.5 0.5 0.5 2
9 0 1 0 0 0 1 0 0 0 1 12.085 -3.914999 4.5 0.5 0.5 2
9 0 1 0 0 0 1 0 0 0 1 10.085 7.085001 -4.5 0.5 0.5 2
9 0 1 0 0 0 1 0 0 0 1 7.585001 11.085 1.5 1 0.5 1
9 0 1 0 0 0 1 0 0 0 1 7.085001 10.085 -4.5 0.5 0.5 2
9 0 1 0 0 0 1 0 0 0 1 7.085001 10.085 4.5 0.5 0.5 2
9 0 1 0 0 0 1 0 0 0 1 -5.914999 11.085 -4.5 0.5 0.5 2
9 0 1 0 0 0 1 0 0 0 1 -7.414999 11.085 1.5 1 0.5 1
9 0 1 0 0 0 1 0 0 0 1 -7.414999 -10.915 1.5 1 0.5 1
9 0 1 0 0 0 1 0 0 0 1 -8.914999 9.085001 4.5 0.5 0.5 2
9 0 1 0 0 0 1 0 0 0 1 -9.414999 9.585001 -6 1 1 0.5
9 0 1 0 0 0 1 0 0 0 1 -10.915 -7.414999 1.5 0.5 1 1
9 0 1 0 0 0 1 0 0 0 1 9.085001 8.085001 0 1.5 0.5 0.5
9 0 1 0 0 0 1 0 0 0 1 1.085001 -3.914999 -2 0.5 0.5 1.5
9 0 1 0 0 0 1 0 0 0 1 -3.914999 1.085001 2 0.5 0.5 1.5
