9 0 1 0 0 0 1 0 0 0 1 5.997063 -7.497499 -7.982975 33 6 0.5
9 0 1 0 0 0 1 0 0 0 1 -25.50294 -16.9975 -7.982975 21.5 3.5 0.5
9 0 1 0 0 0 1 0 0 0 1 1.497063 -3.997499 8.017025 28.5 2.5 0.5
9 0 1 0 0 0 1 0 0 0 1 29.49706 -9.497499 -6.482975 5.5 3 1
9 0 1 0 0 0 1 0 0 0 1 -26.50294 -6.997499 -1.482975 0.5 5.5 6
9 0 1 0 0 0 1 0 0 0 1 -46.50294 -13.9975 -2.982975 0.5 4.5 4.5
9 0 1 0 0 0 1 0 0 0 1 -37.00294 -11.4975 -7.982975 10 2 0.5
9 0 1 0 0 0 1 0 0 0 1 5.497063 -15.4975 -7.982975 9.5 2 0.5
9 0 1 0 0 0 1 0 0 0 1 -34.50294 -21.9975 -7.982975 12.5 1.5 0.5
9 0 1 0 0 0 1 0 0 0 1 42.49706 -6.997499 -7.982975 3.5 4.5 0.5
9 0 1 0 0 0 1 0 0 0 1 38.99706 -8.997499 -6.982975 4 2.5 0.5
9 0 1 0 0 0 1 0 0 0 1 27.99706 -8.997499 -4.982975 4 2.5 0.5
9 0 1 0 0 0 1 0 0 0 1 -26.50294 -14.4975 -3.482975 0.5 2 4
9 0 1 0 0 0 1 0 0 0 1 20.99706 -14.4975 -7.982975 6 1 0.5
9 0 1 0 0 0 1 0 0 0 1 -41.50294 -24.4975 -7.982975 5.5 1 0.5
9 0 1 0 0 0 1 0 0 0 1 -46.50294 -11.4975 4.017025 0.5 2 2.5
9 0 1 0 0 0 1 0 0 0 1 -46.50294 -20.4975 -4.982975 0.5 2 2.5
9 0 1 0 0 0 1 0 0 0 1 -26.50294 -3.997499 6.017025 0.5 2.5 1.5
9 0 1 0 0 0 1 0 0 0 1 -0.5029373 -18.4975 -7.982975 3.5 1 0.5
9 0 1 0 0 0 1 0 0 0 1 -19.00294 -21.4975 -7.982975 3 1 0.5
9 0 1 0 0 0 1 0 0 0 1 -26.50294 -17.9975 -5.482975 0.5 1.5 2
9 0 1 0 0 0 1 0 0 0 1 35.99706 -8.997499 -5.982975 1 2.5 0.5
9 0 1 0 0 0 1 0 0 0 1 24.99706 -8.997499 -3.982975 1 2.5 0.5
9 0 1 0 0 0 1 0 0 0 1 26.49706 -12.9975 -6.482975 2.5 0.5 1
9 0 1 0 0 0 1 0 0 0 1 46.49706 -7.997499 -7.982975 0.5 3.5 0.5
9 0 1 0 0 0 1 0 0 0 1 -32.50294 -23.9975 -7.982975 3.5 0.5 0.5
9 0 1 0 0 0 1 0 0 0 1 41.99706 -11.9975 -7.982975 3 0.5 0.5
9 0 1 0 0 0 1 0 0 0 1 29.99706 -13.9975 -7.982975 3 0.5 0.5
9 0 1 0 0 0 1 0 0 0 1 26.99706 -11.9975 -4.982975 3 0.5 0.5
9 0 1 0 0 0 1 0 0 0 1 -45.50294 -10.4975 8.017025 1.5 1 0.5
9 0 1 0 0 0 1 0 0 0 1 -46.50294 -14.4975 3.017025 0.5 1 1.5
9 0 1 0 0 0 1 0 0 0 1 -46.50294 -23.4975 -5.982975 0.5 1 1.5
9 0 1 0 0 0 1 0 0 0 1 17.49706 -15.9975 -7.982975 2.5 0.5 0.5
9 0 1 0 0 0 1 0 0 0 1 11.49706 -8.997499 -1.982975 0.5 2.5 0.5
9 0 1 0 0 0 1 0 0 0 1 5.497063 -17.9975 -7.982975 2.5 0.5 0.5
9 0 1 0 0 0 1 0 0 0 1 -24.50294 -21.9975 -6.982975 2.5 0.5 0.5
9 0 1 0 0 0 1 0 0 0 1 -44.50294 -25.9975 -7.982975 2.5 0.5 0.5
9 0 1 0 0 0 1 0 0 0 1 36.99706 -11.9975 -6.982975 2 0.5 0.5
9 0 1 0 0 0 1 0 0 0 1 30.99706 -12.9975 -6.982975 2 0.5 0.5
9 0 1 0 0 0 1 0 0 0 1 -14.00294 -20.9975 -7.982975 2 0.5 0.5
9 0 1 0 0 0 1 0 0 0 1 -26.50294 -13.4975 1.517025 0.5 1 1
9 0 1 0 0 0 1 0 0 0 1 -26.50294 -20.4975 -6.482975 0.5 1 1
9 0 1 0 0 0 1 0 0 0 1 -46.50294 -19.4975 -1.482975 0.5 1 1
9 0 1 0 0 0 1 0 0 0 1 44.49706 -1.997499 -7.982975 1.5 0.5 0.5
9 0 1 0 0 0 1 0 0 0 1 30.49706 -4.997499 8.017025 0.5 1.5 0.5
9 0 1 0 0 0 1 0 0 0 1 25.49706 -13.9975 -6.982975 1.5 0.5 0.5
9 0 1 0 0 0 1 0 0 0 1 -46.50294 -10.9975 7.017025 0.5 1.5 0.5
