9 0 1 0 0 0 1 0 0 0 1 0 18 1 18.5 0.5 7.5
9 0 1 0 0 0 1 0 0 0 1 0 10.5 8 18.5 7 0.5
9 0 1 0 0 0 1 0 0 0 1 0 9 4 12.5 5.5 0.5
9 0 1 0 0 0 1 0 0 0 1 0 20.5 8 18.5 2 0.5
9 0 1 0 0 0 1 0 0 0 1 8 9 0 4.5 5.5 0.5
9 0 1 0 0 0 1 0 0 0 1 -8 9 0 4.5 5.5 0.5
9 0 1 0 0 0 1 0 0 0 1 18 20.5 0.5 0.5 2 7
9 0 1 0 0 0 1 0 0 0 1 0 20.5 0.5 0.5 2 7
9 0 1 0 0 0 1 0 0 0 1 -18 20.5 0.5 0.5 2 7
9 0 1 0 0 0 1 0 0 0 1 0 22 -8 18.5 0.5 0.5
9 0 1 0 0 0 1 0 0 0 1 18 16.5 0.5 0.5 1 7
9 0 1 0 0 0 1 0 0 0 1 -18 16.5 0.5 0.5 1 7
9 0 1 0 0 0 1 0 0 0 1 18 9.5 6.5 0.5 6 1
9 0 1 0 0 0 1 0 0 0 1 -18 9.5 6.5 0.5 6 1
9 0 1 0 0 0 1 0 0 0 1 0 5 0 3.5 1.5 0.5
9 0 1 0 0 0 1 0 0 0 1 18 10 0 0.5 1.5 1.5
9 0 1 0 0 0 1 0 0 0 1 -18 10 0 0.5 1.5 1.5
9 0 1 0 0 0 1 0 0 0 1 18 12 -6 0.5 3.5 0.5
9 0 1 0 0 0 1 0 0 0 1 -18 12 -6 0.5 3.5 0.5
9 0 1 0 0 0 1 0 0 0 1 0 12.5 0 0.5 2 0.5
