9 0 1 0 0 0 1 0 0 0 1 -3.72529E-07 -17.64395 3 1.902939 2.182712 9.916701
9 0 1 0 0 0 1 0 0 0 1 0.5652714 -8.295285 0.08096571 1.450475 7.545285 1.923459
8192 0 0.7071067 -0.7071068 0 0.7071068 0.7071067 0 0 0 1 0 5.117303 -9.5 5.35545 5.35545 0.1
9 0 1 0 0 0 1 0 0 0 1 -1.000638E-07 -23.60561 -9.499998 18.24452 8.144396 0.7499977
8192 0 0.9061195 0.4230218 0 -0.4230218 0.9061195 0 0 0 1 6.344375 -7.946766 -9.499998 7.698155 10.15255 0.7499977
8192 0 -0.9061195 0.4230218 -8.534629E-08 0.4230218 0.9061195 1.894075E-08 8.534629E-08 -1.894075E-08 -1 -6.344375 -7.946766 -9.499998 7.698155 10.15255 0.7499977
