9 0 0.9999999 0 -4.172325E-07 0 1 0 4.172325E-07 0 0.9999999 19.97418 -16.32761 6.257289 9.224181 0.6595893 0.7404435
9 0 0.9999999 0 -4.172325E-07 0 1 0 4.172325E-07 0 0.9999999 21.4375 -19.98719 3.254622 10.6875 2.392917 0.1
9 0 1 0 0 0 1 0 0 0 1 19.97418 -23.65851 6.257289 9.224181 0.671314 0.7404435
9 0 1 0 0 0 1 0 0 0 1 21.4375 -26.7303 9.997731 10.6875 0.1000003 2.392917
9 0 1 0 0 0 1 0 0 0 1 19.97418 -23.65851 13.78514 9.224181 0.6713126 0.7874056
9 0 1 0 0 0 1 0 0 0 1 21.4375 -19.9872 16.74084 10.6875 2.392917 0.1
9 0 1 0 0 0 1 0 0 0 1 19.97418 -16.32761 13.78514 9.224181 0.6595892 0.7874058
9 0 1 0 0 0 1 0 0 0 1 21.4375 -13.24409 9.997731 10.6875 0.09999973 2.392917
9 0 0.9999999 0 -4.172325E-07 0 1 0 4.172325E-07 0 0.9999999 30.84267 -20 9.999992 0.1 4.722199 4.63081
8192 0 -1 0 8.742278E-08 -6.181724E-08 0.7071067 -0.7071068 -6.181723E-08 -0.7071068 -0.7071067 307.0033 -20.00644 10.00417 93.75327 3.434059 3.434059
8192 0 -1 0 8.742278E-08 -6.181724E-08 0.7071067 -0.7071068 -6.181723E-08 -0.7071068 -0.7071067 220 -20.00644 10.00418 6.750005 6.05962 6.059619
9 0 1 0 0 0 1 0 0 0 1 427.2724 -14.28814 10.00506 4.257891 2.718753 9.24506
9 0 1 0 0 0 1 0 0 0 1 427.2724 -25.72565 10.00506 4.257892 2.718754 9.24506
9 0 1 0 0 0 1 0 0 0 1 415.827 -24.1944 10.00506 1.187501 1.187501 9.24506
9 0 1 0 0 0 1 0 0 0 1 415.827 -15.8194 10.00506 1.187502 1.1875 9.24506
8192 0 1 -3.345525E-08 -6.654695E-09 2.8362E-08 0.7071067 0.7071069 -1.895086E-08 -0.7071069 0.7071071 407.1453 -20.0069 10.00012 4.888719 3.669418 3.669418
9 0 1 0 0 0 1 0 0 0 1 429.7075 -11.53469 10.00506 9.542533 0.1 9.24506
9 0 1 0 0 0 1 0 0 0 1 429.7075 -28.46531 10.00506 9.542533 0.1 9.24506
8192 0 0.1577981 0.9874715 -1.379514E-08 0.9874715 -0.1577981 -8.63275E-08 -8.742278E-08 0 -1 418.8329 -27.30315 9.997145 0.3791944 1.948729 9.247147
8192 0 0.7660446 0.6427875 -6.696975E-08 0.6427875 -0.7660446 -5.619426E-08 -8.742278E-08 0 -1 414.3476 -24.74296 9.997145 0.3962689 1.948729 9.247147
9 0 1 0 0 0 1 0 0 0 1 412.5989 -20 9.997146 0.3739473 1.948729 9.247147
8192 0 0.7660446 -0.6427875 -6.696975E-08 -0.6427875 -0.7660446 5.619426E-08 -8.742278E-08 0 -1 414.3943 -15.29626 9.997145 0.4572712 1.948729 9.247147
8192 0 0.1815567 -0.9833805 -1.587219E-08 -0.9833805 -0.1815567 8.596985E-08 -8.742278E-08 0 -1 418.6534 -12.70622 9.997145 0.3579511 1.948729 9.247147
9 0 1 0 0 0 1 0 0 0 1 20 -9.207516 10.02465 9.25 1.843115 9.246299
8192 0 1 0 0 0 0.4554233 0.8902751 0 -0.8902751 0.4554233 20 -25.41414 -0.08137722 9.25 1.477867 2.294553
8192 0 1 0 0 0 -0.05072927 0.9987125 0 -0.9987125 -0.05072927 20 -19.68528 -1.308868 9.25 1.477867 2.294553
8192 0 1 0 0 0 -0.5432891 0.8395457 0 -0.8395457 -0.5432891 20 -14.11019 0.4925247 9.25 1.477867 2.294553
8192 0 1 0 0 0 -0.5444958 -0.8387635 0 0.8387635 -0.5444958 20 -14.05809 19.50228 9.25 1.477867 2.294553
8192 0 1 0 0 0 -0.05216551 -0.9986384 0 0.9986384 -0.05216551 20 -19.63049 21.31196 9.25 1.477867 2.294553
8192 0 1 0 0 0 0.4541425 -0.890929 0 0.890929 0.4541425 20 -25.36118 20.09299 9.25 1.477867 2.294553
9 0 1 0 0 0 1 0 0 0 1 20 -29.29998 9.999999 9.25 0.3 9.445251
8192 0 1 0 0 0 0.7071067 0.7071068 0 -0.7071068 0.7071067 139.75 -30.86736 -0.6273346 109 0.1075909 4.202235
8192 0 1 0 0 0 0.258819 0.9659258 0 -0.9659258 0.258819 139.75 -24.12982 -4.517522 109 0.1075909 4.202235
8192 0 1 0 0 0 -0.258819 0.9659258 0 -0.9659258 -0.258819 139.75 -16.34984 -4.517752 109 0.1075909 4.202236
8192 0 1 0 0 0 -0.7071067 0.7071068 0 -0.7071068 -0.7071067 139.75 -9.612065 -0.6279589 109 0.1075912 4.202233
8192 0 -0.9874715 -0.157798 0 0.157798 -0.9874715 0 0 0 1 27.21662 1.153216 9.997147 0.4668233 1.948729 9.247147
8192 0 -0.6427877 -0.7660444 0 0.7660444 -0.6427877 0 0 0 1 25.23068 6.233686 9.997147 0.1 1.948729 9.247147
9 0 1 0 0 0 1 0 0 0 1 20 8.1375 9.997147 1.948729 0.1000002 9.247147
8192 0 1 0 0 0 -0.9659259 0.2588189 0 -0.2588189 -0.9659259 137.9336 -5.721879 6.109585 110.8164 0.1075931 4.202233
8192 0 1 0 0 0 -0.9659259 -0.2588189 0 0.2588189 -0.9659259 137.9336 -5.72165 13.88956 110.8164 0.1075931 4.202233
8192 0 1 0 0 0 -0.7071067 -0.7071068 0 0.7071068 -0.7071067 139.75 -9.611437 20.62734 109 0.1075864 4.202233
8192 0 1 0 0 0 -0.258819 -0.9659258 0 0.9659258 -0.258819 139.75 -16.34898 24.51753 109 0.1075864 4.202236
8192 0 1 0 0 0 0.258819 -0.9659258 0 0.9659258 0.258819 139.75 -24.12896 24.51776 109 0.1075864 4.202235
8192 0 1 0 0 0 0.7071067 -0.7071068 0 0.7071068 0.7071067 139.75 -30.86674 20.62797 109 0.1075864 4.202235
8192 0 1 0 0 0 0.9659258 -0.2588191 0 0.2588191 0.9659258 139.75 -34.75692 13.89043 109 0.1075931 4.202245
8192 0 1 0 0 0 0.9659258 0.2588191 0 -0.2588191 0.9659258 139.75 -34.75715 6.110449 109 0.1075926 4.202245
9 0 1 0 0 0 1 0 0 0 1 24.1875 4.1875 9.974116 1.187502 1.1875 9.24506
9 0 1 0 0 0 1 0 0 0 1 15.00391 -4.312503 9.974116 1.99609 1.312504 9.24506
9 0 1 0 0 0 1 0 0 0 1 15.00391 5.025001 9.974116 1.996089 2.025 9.24506
9 0 1 0 0 0 1 0 0 0 1 9.989056 8.401875 10.00494 9.239036 0.09999891 9.245061
9 0 1 0 0 0 1 0 0 0 1 5.00001 -8.598128 10.00494 4.249989 0.09999891 9.245061
9 0 1 0 0 0 1 0 0 0 1 248.25 -8.871261 10 0.4999928 4.117536 7.36962
9 0 1 0 0 0 1 0 0 0 1 248.25 -31.10633 10 0.4999928 4.117536 7.36962
9 0 1 0 0 0 1 0 0 0 1 248.25 -19.98879 21.11753 0.4999928 8.015282 4.117535
9 0 1 0 0 0 1 0 0 0 1 248.25 -19.98879 -1.117534 0.4999928 8.01528 4.117537
9 0 1 0 0 0 1 0 0 0 1 25.35064 -4.1875 9.974116 2.350664 1.187501 9.24506
