8192 0 -0.3273531 -0.9449021 0 0.9449021 -0.3273531 0 0 0 1 -15.93211 1.098997 -11.41446 10.49432 3.541739 0.4279088
8192 0 0.8870208 -0.4617295 0 0.4617295 0.8870208 0 0 0 1 -6.031159 -7.048921 -11.4252 12.86393 10.83233 0.4279088
8192 0 0.8757455 0.482773 0 -0.482773 0.8757455 0 0 0 1 6.406772 -8.165327 -11.50404 12.86393 9.623271 0.4279088
8192 0 0.7160079 0.6980921 0 -0.6980921 0.7160079 0 0 0 1 0.5936296 12.04376 -11.51003 10.88832 12.03491 0.4279088
8192 0 0.2865644 -0.958061 -5.2214E-08 -0.958061 -0.2865644 -7.011733E-08 5.2214E-08 7.011733E-08 -1 16.58685 -0.0630805 -11.45538 9.928312 3.541739 0.4279088
9 0 1 0 0 0 1 0 0 0 1 0 0.02059711 -10.09574 1.740132 10.71261 0.1
9 0 1 0 0 0 1 0 0 0 1 0 8.295805 -5.59928 1.671772 1.07702 2.892781
9 0 1 0 0 0 1 0 0 0 1 0 -8.30421 -5.59928 1.732386 1.016636 2.892781
8192 0 1 0 0 0 -0.9815408 0.1912525 0 -0.1912525 -0.9815408 0 -9.520052 -6.463874 1.695084 0.1970717 3.567137
8192 0 1 0 0 0 -0.9832681 -0.1821641 0 0.1821641 -0.9832681 0 9.646155 -6.435409 1.695548 0.3169841 3.567137
8192 0 1 0 0 0 0.7061432 -0.708069 0 0.708069 0.7061432 0 -7.652935 -1.153882 1.738533 0.4257876 1.565616
8192 0 1 0 0 0 -0.719293 0.6947068 0 -0.6947068 -0.719293 0 7.64524 -1.269192 1.745309 1.509587 0.4768189
9 0 1 0 0 0 1 0 0 0 1 0 0 0.3169981 2.83372 6.645195 0.3343796
9 0 1 0 0 0 1 0 0 0 1 -4.163336E-15 0 1.431317 0.7085512 6.645195 1.402403
8192 0 0.7071067 0 0.7071068 0 1 0 -0.7071068 0 0.7071067 1.391878 0 1.391878 0.8653078 6.645195 0.7274276
8192 0 0.7071067 0 -0.7071068 0 1 0 0.7071068 0 0.7071067 -1.373165 0 1.373165 0.8917717 6.645195 0.6888725
9 0 1 0 0 0 1 0 0 0 1 0 -5.720979 -1.988056 0.3393962 1.059576 0.9908657
9 0 1 0 0 0 1 0 0 0 1 0 5.696773 -1.988056 0.3393962 1.059576 0.9908657
8192 0 0.7359692 0 0.6770151 0 1 0 -0.6770151 0 0.7359692 -1.346569 5.677329 -1.307589 0.9330457 1.059576 0.8685699
8192 0 -0.7503935 0 0.6609913 0 1 0 -0.6609913 0 -0.7503935 1.451816 5.677329 -1.190552 0.9330457 1.059576 0.8685699
8192 0 -0.7503935 0 0.6609913 0 1 0 -0.6609913 0 -0.7503935 1.451816 -5.608977 -1.190552 0.9330457 1.059576 0.8685699
8192 0 0.7359692 0 0.6770151 0 1 0 -0.6770151 0 0.7359692 -1.346569 -5.608977 -1.307589 0.9330457 1.059576 0.8685699
