9 0 1 0 0 0 1 0 0 0 1 2 -10.50002 -7.629395E-05 0.5 9 38.5
9 0 1 0 0 0 1 0 0 0 1 -18 -20.00002 -7.629395E-05 0.5 2.5 38.5
9 0 1 0 0 0 1 0 0 0 1 18 -2.500025 -7.629395E-05 0.5 1 38.5
9 0 1 0 0 0 1 0 0 0 1 -9 -20.00002 -38.00008 8.5 2.5 0.5
9 0 1 0 0 0 1 0 0 0 1 -9 -20.00002 37.99992 8.5 2.5 0.5
9 0 1 0 0 0 1 0 0 0 1 7 -6.000025 -38.00008 4.5 4.5 0.5
9 0 1 0 0 0 1 0 0 0 1 7 -6.000025 37.99992 4.5 4.5 0.5
9 0 1 0 0 0 1 0 0 0 1 3 -18.00002 -7.629395E-05 0.5 0.5 38.5
9 0 1 0 0 0 1 0 0 0 1 14 -3.500025 -38.00008 2.5 2 0.5
9 0 1 0 0 0 1 0 0 0 1 14 -3.500025 37.99992 2.5 2 0.5
9 0 1 0 0 0 1 0 0 0 1 5 -12.50002 -38.00008 2.5 2 0.5
9 0 1 0 0 0 1 0 0 0 1 5 -12.50002 37.99992 2.5 2 0.5
9 0 1 0 0 0 1 0 0 0 1 13 -6.500025 -38.00008 1.5 1 0.5
9 0 1 0 0 0 1 0 0 0 1 13 -6.500025 37.99992 1.5 1 0.5
9 0 1 0 0 0 1 0 0 0 1 4 -15.50002 -38.00008 1.5 1 0.5
9 0 1 0 0 0 1 0 0 0 1 4 -15.50002 37.99992 1.5 1 0.5
9 0 1 0 0 0 1 0 0 0 1 0.5 -19.00002 -38.00008 1 1.5 0.5
9 0 1 0 0 0 1 0 0 0 1 0.5 -19.00002 37.99992 1 1.5 0.5
9 0 1 0 0 0 1 0 0 0 1 8.5 -11.50002 -38.00008 1 1 0.5
9 0 1 0 0 0 1 0 0 0 1 8.5 -11.50002 37.99992 1 1 0.5
9 0 1 0 0 0 1 0 0 0 1 17 -3.000025 -38.00008 0.5 1.5 0.5
9 0 1 0 0 0 1 0 0 0 1 17 -3.000025 37.99992 0.5 1.5 0.5
