9 0 1 0 0 0 1 0 0 0 1 0 -11.56496 0.1794691 12.51892 0.6899555 8.273996
8192 0 0.9844843 0.02128026 -0.1741775 -0.02095482 0.9997736 0.00370738 0.1742169 3.49246E-10 0.9847073 -13.11428 -9.279835 -4.43203 3.166618 3.048114 10.95542
8192 0 -0.9844844 0.02128025 -0.1741772 0.02095482 0.9997736 0.003707377 0.1742166 2.677552E-09 -0.9847074 13.02276 -9.277856 -4.448223 3.254357 3.048114 10.95542
9 0 1 0 0 0 1 0 0 0 1 0 -6.5625 -6.824708 2.151892 5.8125 0.1
8192 0 0.7071067 0 0.7071068 0 1 0 -0.7071068 0 0.7071067 4.825797 -6.5625 -4.825797 2.151892 5.8125 0.1
9 0 1 0 0 0 1 0 0 0 1 6.824708 -6.5625 0 0.09999976 5.8125 2.151892
8192 0 -0.7071067 0 0.7071068 0 1 0 -0.7071068 0 -0.7071067 4.825797 -6.5625 4.825797 2.151892 5.8125 0.1
9 0 1 0 0 0 1 0 0 0 1 0 -6.5625 6.824708 2.151892 5.8125 0.1
8192 0 -0.7071067 0 -0.7071068 0 1 0 0.7071068 0 -0.7071067 -4.825797 -6.5625 4.825797 2.151892 5.8125 0.1
9 0 1 0 0 0 1 0 0 0 1 -6.824708 -6.5625 0 0.1000003 5.8125 2.151892
8192 0 0.7071067 0 -0.7071068 0 1 0 0.7071068 0 0.7071067 -4.825797 -6.5625 -4.825797 2.151892 5.8125 0.1
9 0 1 0 0 0 1 0 0 0 1 0 -9.286797 -7.547262 9.860723 2.968114 0.5472645
9 0 1 0 0 0 1 0 0 0 1 0 -9.286797 7.726733 12.51892 2.968114 0.7267321
