8192 0 -0.8242177 0.5662732 -2.980232E-08 -2.980232E-08 0 1 0.5662732 0.8242177 0 24.9563 -17.17859 -15.80333 2.449069 1.159173 1.157942
8192 0 -0.5474908 0.8368114 -1.192093E-07 -1.192093E-07 2.384186E-07 0.9999999 0.8368114 0.547491 2.384186E-07 22.71526 -18.32117 -15.79972 3.203564 1.155572 1.270082
8192 0 -0.1797456 0.9837132 8.940697E-08 8.940697E-08 -1.192093E-07 1 0.9837132 0.1797455 -1.192093E-07 20.56034 -18.49815 -15.79972 3.890932 1.155572 1.074566
9 0 1 0 0 0 1 0 0 0 1 10 -18.87929 -15.79972 8.878669 3.794032 1.155572
9 0 1 0 0 0 1 0 0 0 1 10.02284 -10.74974 -15.79972 18.63966 2.202349 1.155571
9 0 1 0 0 0 1 0 0 0 1 9.999999 -6.589824 -13.85265 18.61683 0.4101745 3.102647
9 0 1 0 0 0 1 0 0 0 1 9.999999 -22.625 -1.25 5.5 0.6250001 4.25
9 0 1 0 0 0 1 0 0 0 1 9.999999 -22.625 21.24423 5.5 0.6250001 4.255768
9 0 1 0 0 0 1 0 0 0 1 21.31394 -22.625 10 4.313942 0.6249996 15.5
9 0 1 0 0 0 1 0 0 0 1 -1.244846 -22.625 10 4.244844 0.6249997 15.5
9 0 1 0 0 0 1 0 0 0 1 9.999999 -12 -8.125 15.48969 11.25 1.124997
9 0 1 0 0 0 1 0 0 0 1 9.956034 -12 28.125 15.67185 11.25 1.124996
9 0 1 0 0 0 1 0 0 0 1 28.125 -12 10 1.125 11.25 19.25
9 0 1 0 0 0 1 0 0 0 1 -8.125 -12 10 1.125 11.25 19.25
9 0 1 0 0 0 1 0 0 0 1 5.889768 -15.25 5.946074 0.4899122 8 0.4901953
9 0 1 0 0 0 1 0 0 0 1 5.889769 -15.25 14.15734 0.4899122 8.000001 0.6051432
9 0 1 0 0 0 1 0 0 0 1 13.94291 -15.25 14.15734 0.3225915 8.000001 0.6051432
9 0 1 0 0 0 1 0 0 0 1 13.94291 -15.25 5.946074 0.3225915 8.000001 0.4901953
8192 0 -0.9812124 0.1929302 1.192093E-07 1.192093E-07 5.960464E-08 0.9999999 0.1929302 0.9812124 5.960464E-08 25.90544 -14.95699 -15.78551 2.449069 1.141363 1.157942
8192 0 0.8182251 0.5748979 0 -0.5748979 0.8182251 0 0 0 1 -1.721236 -17.38714 9.999999 4.747079 0.6622063 0.1610689
9 0 1 0 0 0 1 0 0 0 1 -1.057304 -19.32583 9.999999 2.216608 1.174166 0.1610689
8192 0 -1.192093E-07 0.574898 -0.8182251 2.980232E-08 0.8182251 0.574898 1 2.980232E-08 -1.192093E-07 9.999999 -17.38714 21.72124 4.747079 0.6622063 0.1610689
9 0 1 0 0 0 1 0 0 0 1 9.999999 -19.32583 21.0573 0.1610692 1.174166 2.216608
8192 0 -0.8182255 0.5748981 -8.335535E-08 0.5748981 0.8182251 2.635582E-08 8.335535E-08 -2.635582E-08 -1 21.72124 -17.38714 10 4.747079 0.6622063 0.1610689
9 0 1 0 0 0 1 0 0 0 1 21.0573 -19.32583 10 2.216608 1.174166 0.1610689
8192 0 -1.192093E-07 0.574898 0.8182251 2.980232E-08 0.8182251 -0.574898 -1 -2.980232E-08 -1.192093E-07 10 -17.38714 -1.721236 4.747079 0.6622063 0.1610689
9 0 1 0 0 0 1 0 0 0 1 10 -19.32583 -1.057304 0.1610687 1.174166 2.216608
8192 0 0.9812125 0.1929303 7.450581E-09 7.450581E-09 -1.192093E-07 1 0.1929303 -0.9812125 -1.192093E-07 -5.905436 -14.95699 -15.78551 2.449069 1.141363 1.157942
8192 0 0.8242176 0.5662732 0 0 0 1 0.5662732 -0.8242177 0 -4.956304 -17.17859 -15.80333 2.449069 1.159173 1.157942
8192 0 0.5474913 0.8368114 0 0 1.192093E-07 0.9999999 0.8368114 -0.5474912 1.192093E-07 -2.715256 -18.32117 -15.79972 3.203564 1.155572 1.270082
8192 0 0.1797453 0.9837132 0 0 0 1 0.9837132 -0.1797452 0 -0.5603347 -18.49815 -15.79972 3.890932 1.155572 1.074566
8192 0 1 0 0 0 0.4066573 0.9135808 0 -0.9135808 0.4066573 24.65 -5.446241 -14.00709 0.2499983 1.303764 0.1823418
8192 0 1 0 0 0 0.7340676 0.6790765 0 -0.6790765 0.7340676 24.65 -3.226847 -10.06116 0.2499983 1.303764 0.6860011
8192 0 1 0 0 0 0.7340676 0.6790765 0 -0.6790765 0.7340676 14.99375 -3.226847 -10.06116 0.2499983 1.303764 0.6860011
8192 0 1 0 0 0 0.4066573 0.9135808 0 -0.9135808 0.4066573 14.99375 -5.446241 -14.00709 0.2499983 1.303764 0.1823418
8192 0 1 0 0 0 0.7340676 0.6790765 0 -0.6790765 0.7340676 5.006255 -3.226847 -10.06116 0.2499983 1.303764 0.6860011
8192 0 1 0 0 0 0.4066573 0.9135808 0 -0.9135808 0.4066573 5.006255 -5.446241 -14.00709 0.2499983 1.303764 0.1823418
8192 0 1 0 0 0 0.7340676 0.6790765 0 -0.6790765 0.7340676 -4.649996 -3.226847 -10.06116 0.2499983 1.303764 0.6860011
8192 0 1 0 0 0 0.4066573 0.9135808 0 -0.9135808 0.4066573 -4.649996 -5.446241 -14.00709 0.2499983 1.303764 0.1823418
9 0 1 0 0 0 1 0 0 0 1 0 -26 20 3.5 0.5 2.5
9 0 1 0 0 0 1 0 0 0 1 0 -26 23 2.5 0.5 0.5
9 0 1 0 0 0 1 0 0 0 1 0 -26 17 2.5 0.5 0.5
9 0 1 0 0 0 1 0 0 0 1 20 -26 20 3.5 0.5 2.5
9 0 1 0 0 0 1 0 0 0 1 20 -26 23 2.5 0.5 0.5
9 0 1 0 0 0 1 0 0 0 1 20 -26 17 2.5 0.5 0.5
9 0 1 0 0 0 1 0 0 0 1 0 -26 1.907349E-06 3.5 0.5 2.5
9 0 1 0 0 0 1 0 0 0 1 0 -26 3.000002 2.5 0.5 0.5
9 0 1 0 0 0 1 0 0 0 1 0 -26 -2.999998 2.5 0.5 0.5
9 0 1 0 0 0 1 0 0 0 1 20 -26 1.907349E-06 3.5 0.5 2.5
9 0 1 0 0 0 1 0 0 0 1 20 -26 3.000002 2.5 0.5 0.5
9 0 1 0 0 0 1 0 0 0 1 20 -26 -2.999998 2.5 0.5 0.5
