8192 0 0.8660254 0.5 0 -0.5 0.8660254 0 0 0 1 6.057639 -10.60025 7.950634 3.443668 4.501719 4.080967
9 0 1 0 0 0 1 0 0 0 1 12.18691 -0.01596871 7.950634 4.50172 3.443668 4.080967
8192 0 -0.5000001 0.8660254 0 -0.8660254 -0.5000001 0 0 0 1 10.55627 6.101616 7.950634 3.443668 4.501719 4.080967
8192 0 -0.8660253 0.5000001 0 -0.5000001 -0.8660253 0 0 0 1 6.085298 10.58428 7.950634 3.443668 4.501719 4.080967
8192 0 0.5 0.8660254 0 -0.8660254 0.5 0 0 0 1 10.5403 -6.129274 7.950634 3.443668 4.501719 4.080967
9 0 1 0 0 0 1 0 0 0 1 -0.05994579 -12.23089 7.950634 3.443668 4.501719 4.080967
9 0 1 0 0 0 1 0 0 0 1 -0.02800801 12.23089 7.950634 3.443668 4.501719 4.080967
9 0 1 0 0 0 1 0 0 0 1 -0.04397706 -0.08662135 8.053743 2.0187 1.894605 7.348357
9 0 1 0 0 0 1 0 0 0 1 -0.04397706 -0.08662135 17.63721 1.25361 1.163806 1.587795
9 0 1 0 0 0 1 0 0 0 1 -0.04397706 -0.08662135 -1.681843 1.25361 1.163806 1.587795
8192 0 0.8660254 -0.5 0 0.5 0.8660254 0 0 0 1 -6.173251 -10.58428 7.950634 3.443668 4.501719 4.080967
9 0 1 0 0 0 1 0 0 0 1 0.2368959 -0.08662135 7.967715 5.950293 5.64998 1.382285
9 0 1 0 0 0 1 0 0 0 1 -12.27487 0.01596907 7.950634 4.501719 3.443669 4.080967
8192 0 0.5 -0.8660254 0 0.8660254 0.5 0 0 0 1 -10.64422 -6.101615 7.950634 3.443668 4.501719 4.080967
8192 0 -0.5000001 -0.8660254 0 0.8660254 -0.5000001 0 0 0 1 -10.62825 6.129274 7.950634 3.443668 4.501719 4.080967
8192 0 -0.8660253 -0.5000001 0 0.5000001 -0.8660253 0 0 0 1 -6.145592 10.60025 7.950634 3.443668 4.501719 4.080967
