9 0 1 0 0 0 1 0 0 0 1 70 -3.250003 -8.125 75.5 1.249997 1.125
9 0 1 0 0 0 1 0 0 0 1 70 -3.250002 108.125 75.5 1.249998 1.125
9 0 1 0 0 0 1 0 0 0 1 -8.125 -3.250002 50 1.124993 1.249998 59.25
9 0 1 0 0 0 1 0 0 0 1 148.125 -3.250002 50 1.124993 1.249998 59.25
9 0 1 0 0 0 1 0 0 0 1 69.99999 -6.625 49.99999 79.24999 0.6249998 59.24999
9 0 1 0 0 0 1 0 0 0 1 147.7075 -0.6250019 49.99999 0.7075174 0.1 58.41507
9 0 1 0 0 0 1 0 0 0 1 70 -0.6250034 -7.707533 75.5 0.1 0.7075332
9 0 1 0 0 0 1 0 0 0 1 70 -0.6250025 107.7075 75.5 0.1 0.7075239
9 0 1 0 0 0 1 0 0 0 1 -7.707527 -0.6250032 49.99999 0.7075193 0.1 58.41507
