9 0 1 0 0 0 1 0 0 0 1 -5.342948E-14 -6.285824 0 4.802787 0.6328478 4.759304
8192 0 0.7203031 0 0.6936594 0 1 0 -0.6936594 0 0.7203031 -5.991031 -6.053071 -6.567834 1.840023 0.8530729 0.7128775
8192 0 0.4391575 0 0.8984101 0 1 0 -0.8984101 0 0.4391575 -4.42246 -6.053071 -7.804275 1.840023 0.8530729 0.7128775
8192 0 0.8822952 0 -0.4706965 0 1 0 0.4706965 0 0.8822952 -8.097712 -6.053071 3.668237 1.840023 0.8530729 0.7128775
8192 0 0.9901459 0 -0.1400396 0 1 0 0.1400396 0 0.9901459 -8.788921 -6.053071 1.794355 1.840023 0.8530729 0.7128775
8192 0 -0.1750147 0 -0.9845658 0 1 0 0.9845658 0 -0.1750147 0.9863697 -6.053071 8.834929 1.840023 0.8530729 0.7128775
8192 0 0.1727862 0 -0.9849594 0 1 0 0.9849594 0 0.1727862 -1.009393 -6.053071 8.913247 1.840023 0.8530729 0.7128775
8192 0 -0.9904604 0 -0.1377987 0 1 0 0.1377987 0 -0.9904604 8.707322 -6.053071 1.79205 1.840023 0.8530729 0.7128775
8192 0 -0.8833582 0 -0.4686986 0 1 0 0.4686986 0 -0.8833582 8.165082 -6.053071 3.714334 1.840023 0.8530729 0.7128775
8192 0 -0.4371233 0 0.8994015 0 1 0 -0.8994015 0 -0.4371233 4.395051 -6.053071 -7.727382 1.840023 0.8530729 0.7128775
8192 0 -0.7187315 0 0.6952876 0 1 0 -0.6952876 0 -0.7187315 6.055691 -6.053071 -6.617662 1.840023 0.8530729 0.7128775
8192 0 1 0 0 0 0.7291697 0.684333 0 -0.684333 0.7291697 -1.297573E-13 -6.311685 -5.855141 2.121018 0.1 0.9382495
8192 0 -0.8090169 -4.470348E-08 -0.5877853 0.4022408 0.7291697 -0.553637 0.4285952 -0.6843329 -0.5899106 -3.441565 -6.311685 4.736908 2.121018 0.1 0.9382495
8192 0 0.309017 2.980232E-08 -0.9510565 0.6508393 0.7291697 0.2114705 0.6934816 -0.684333 0.2253258 -5.56857 -6.311685 -1.809338 2.121018 0.1 0.9382495
8192 0 -0.8090169 4.470348E-08 0.5877853 -0.4022408 0.7291697 -0.553637 -0.4285952 -0.6843329 -0.5899106 3.441565 -6.311685 4.736908 2.121018 0.1 0.9382495
8192 0 0.309017 -2.980232E-08 0.9510565 -0.6508393 0.7291697 0.2114705 -0.6934816 -0.684333 0.2253258 5.56857 -6.311685 -1.809338 2.121018 0.1 0.9382495
8192 0 -0.3103402 0 -0.9506256 0 1 0 0.9506256 0 -0.3103402 4.661027 -5.595779 -14.52085 6.205619 0.3957956 1.076967
8192 0 -0.3103402 0 -0.9506256 0 1 0 0.9506256 0 -0.3103402 4.511534 -7.446934 -15.59297 5.41928 0.1 0.4738351
8192 0 0.31034 0 -0.9506256 0 1 0 0.9506256 0 0.31034 -4.661027 -5.595779 -14.52085 6.205619 0.3957956 1.076967
8192 0 0.31034 0 -0.9506256 0 1 0 0.9506256 0 0.31034 -4.511534 -7.446934 -15.59297 5.41928 0.1 0.4738351
9 0 1 0 0 0 1 0 0 0 1 -5.828671E-14 -5.843984 -20.02896 3.952218 1.257123 0.9382495
8192 0 -0.999999 0 0.001391323 0 1 0 -0.001391323 0 -0.999999 -12.36981 -5.595779 -8.920089 6.205619 0.3957956 1.076967
8192 0 -0.999999 0 0.001391323 0 1 0 -0.001391323 0 -0.999999 -13.43565 -7.446934 -9.109216 5.41928 0.1 0.4738351
8192 0 -0.8081983 0 -0.5889103 0 1 0 0.5889103 0 -0.8081983 -15.25048 -5.595779 -0.05428869 6.205619 0.3957956 1.076967
8192 0 -0.8081983 0 -0.5889103 0 1 0 0.5889103 0 -0.8081983 -16.22393 -7.446934 -0.5277686 5.41928 0.1 0.4738351
8192 0 0.309017 0 -0.9510565 0 1 0 0.9510565 0 0.309017 -19.04867 -5.843984 -6.189289 3.952218 1.257123 0.9382495
8192 0 -0.3076932 0 0.9514856 0 1 0 -0.9514856 0 -0.3076932 -12.30599 -5.595779 9.00793 6.205619 0.3957956 1.076967
8192 0 -0.3076932 0 0.9514856 0 1 0 -0.9514856 0 -0.3076932 -12.81522 -7.446934 9.963163 5.41928 0.1 0.4738351
8192 0 -0.8098341 0 0.586659 0 1 0 -0.586659 0 -0.8098341 -4.76429 -5.595779 14.4873 6.205619 0.3957956 1.076967
8192 0 -0.8098341 0 0.586659 0 1 0 -0.586659 0 -0.8098341 -5.515409 -7.446934 15.26679 5.41928 0.1 0.4738351
8192 0 -0.8090171 0 -0.5877852 0 1 0 0.5877852 0 -0.8090171 -11.77273 -5.843984 16.20377 3.952218 1.257123 0.9382495
8192 0 0.8098341 0 0.5866589 0 1 0 -0.5866589 0 0.8098341 4.76429 -5.595779 14.4873 6.205619 0.3957956 1.076967
8192 0 0.8098341 0 0.5866589 0 1 0 -0.5866589 0 0.8098341 5.515409 -7.446934 15.26679 5.41928 0.1 0.4738351
8192 0 0.3076932 0 0.9514856 0 1 0 -0.9514856 0 0.3076932 12.30599 -5.595779 9.00793 6.205619 0.3957956 1.076967
8192 0 0.3076932 0 0.9514856 0 1 0 -0.9514856 0 0.3076932 12.81522 -7.446934 9.963163 5.41928 0.1 0.4738351
8192 0 -0.8090171 0 0.5877852 0 1 0 -0.5877852 0 -0.8090171 11.77273 -5.843984 16.20377 3.952218 1.257123 0.9382495
8192 0 0.8081983 0 -0.5889105 0 1 0 0.5889105 0 0.8081983 15.25048 -5.595779 -0.05428869 6.205619 0.3957956 1.076967
8192 0 0.8081983 0 -0.5889105 0 1 0 0.5889105 0 0.8081983 16.22393 -7.446934 -0.5277686 5.41928 0.1 0.4738351
9 0 0.999999 0 0.001391497 0 1 0 -0.001391497 0 0.999999 12.36981 -5.595779 -8.920089 6.205619 0.3957956 1.076967
9 0 0.999999 0 0.001391497 0 1 0 -0.001391497 0 0.999999 13.43565 -7.446934 -9.109216 5.41928 0.1 0.4738351
8192 0 0.309017 0 0.9510565 0 1 0 -0.9510565 0 0.309017 19.04867 -5.843984 -6.189289 3.952218 1.257123 0.9382495
8192 0 -0.8090171 0 -0.5877852 0 1 0 0.5877852 0 -0.8090171 -11.48088 -3.574963 15.80208 3.952218 0.1950535 0.3586715
8192 0 -0.8090171 0 0.5877852 0 1 0 -0.5877852 0 -0.8090171 11.48088 -3.574963 15.80208 3.952218 0.1950535 0.3586715
8192 0 0.309017 0 0.9510565 0 1 0 -0.9510565 0 0.309017 18.57646 -3.574963 -6.035858 3.952218 0.1950535 0.3586715
9 0 1 0 0 0 1 0 0 0 1 -5.967449E-14 -3.574963 -19.53245 3.952218 0.1950535 0.3586715
8192 0 0.309017 0 -0.9510565 0 1 0 0.9510565 0 0.309017 -18.57646 -3.574963 -6.035858 3.952218 0.1950535 0.3586715
