9 0 1 0 0 0 1 0 0 0 1 -16.53825 -26.27098 2.621799 2 4.5 4
9 0 1 0 0 0 1 0 0 0 1 15.46175 -28.27098 2.121799 2 3.5 4.5
9 0 1 0 0 0 1 0 0 0 1 15.96175 -22.77098 2.121799 2.5 2 2.5
9 0 1 0 0 0 1 0 0 0 1 -0.53825 -24.77098 -0.8782005 5 1 2.5
9 0 1 0 0 0 1 0 0 0 1 -1.53825 -12.77098 13.1218 5 4 0.5
9 0 1 0 0 0 1 0 0 0 1 18.96175 -27.27098 2.621799 1.5 2.5 2
9 0 1 0 0 0 1 0 0 0 1 12.96175 -20.77098 5.121799 0.5 10 1.5
9 0 1 0 0 0 1 0 0 0 1 11.96175 -18.27098 6.621799 0.5 10.5 1
9 0 1 0 0 0 1 0 0 0 1 13.96175 -16.77098 1.121799 0.5 4 2.5
9 0 1 0 0 0 1 0 0 0 1 14.46175 -26.27098 7.621799 2 2.5 1
9 0 1 0 0 0 1 0 0 0 1 -15.03825 -25.77098 7.621799 2.5 2 1
9 0 1 0 0 0 1 0 0 0 1 -19.03825 -25.77098 3.121799 0.5 4 2.5
9 0 1 0 0 0 1 0 0 0 1 5.46175 -13.27098 12.1218 2 4.5 0.5
9 0 1 0 0 0 1 0 0 0 1 -15.03825 -17.27098 1.621799 0.5 4.5 2
9 0 1 0 0 0 1 0 0 0 1 -14.03825 -25.27098 5.121799 0.5 5.5 1.5
9 0 1 0 0 0 1 0 0 0 1 -16.03825 -25.27098 -2.378201 1.5 2.5 1
9 0 1 0 0 0 1 0 0 0 1 -6.53825 -12.27098 12.1218 2 3.5 0.5
9 0 1 0 0 0 1 0 0 0 1 15.46175 -26.77098 -2.878201 2 3 0.5
9 0 1 0 0 0 1 0 0 0 1 -0.53825 -24.27098 -4.878201 4 0.5 1.5
9 0 1 0 0 0 1 0 0 0 1 -13.03825 -18.77098 6.121799 0.5 12 0.5
9 0 1 0 0 0 1 0 0 0 1 18.46175 -26.27098 5.621799 1 2.5 1
9 0 1 0 0 0 1 0 0 0 1 7.46175 -12.77098 11.1218 1 5 0.5
9 0 1 0 0 0 1 0 0 0 1 -16.53825 -20.77098 1.121799 1 1 2.5
9 0 1 0 0 0 1 0 0 0 1 -20.03825 -25.27098 1.621799 0.5 2.5 2
9 0 1 0 0 0 1 0 0 0 1 18.96175 -26.27098 -0.3782005 1.5 1.5 1
9 0 1 0 0 0 1 0 0 0 1 -16.03825 -31.27098 2.621799 1.5 0.5 3
9 0 1 0 0 0 1 0 0 0 1 17.96175 -30.77098 2.621799 0.5 1 4
9 0 1 0 0 0 1 0 0 0 1 15.46175 -22.77098 -0.8782005 2 2 0.5
9 0 1 0 0 0 1 0 0 0 1 15.46175 -23.77098 5.621799 2 1 1
9 0 1 0 0 0 1 0 0 0 1 -8.53825 -12.77098 11.1218 1 4 0.5
9 0 1 0 0 0 1 0 0 0 1 10.96175 -12.27098 8.621799 0.5 3.5 1
9 0 1 0 0 0 1 0 0 0 1 20.96175 -27.27098 2.621799 0.5 1.5 2
9 0 1 0 0 0 1 0 0 0 1 19.46175 -23.27098 2.621799 1 1.5 1
9 0 1 0 0 0 1 0 0 0 1 17.46175 -26.77098 7.121799 1 3 0.5
9 0 1 0 0 0 1 0 0 0 1 15.46175 -32.27098 3.121799 2 0.5 1.5
9 0 1 0 0 0 1 0 0 0 1 13.46175 -25.27098 9.121799 2 1.5 0.5
9 0 1 0 0 0 1 0 0 0 1 9.96175 -12.77098 9.621799 0.5 3 1
9 0 1 0 0 0 1 0 0 0 1 8.96175 -12.77098 10.6218 0.5 3 1
9 0 1 0 0 0 1 0 0 0 1 -0.53825 -24.27098 2.621799 3 0.5 1
9 0 1 0 0 0 1 0 0 0 1 -10.53825 -12.77098 10.1218 1 3 0.5
9 0 1 0 0 0 1 0 0 0 1 -14.03825 -11.77098 5.121799 0.5 2 1.5
9 0 1 0 0 0 1 0 0 0 1 -19.03825 -26.77098 -0.3782005 0.5 3 1
9 0 1 0 0 0 1 0 0 0 1 14.46175 -26.27098 -3.878201 1 2.5 0.5
9 0 1 0 0 0 1 0 0 0 1 4.46175 -13.27098 13.1218 1 2.5 0.5
9 0 1 0 0 0 1 0 0 0 1 -11.03825 -11.77098 9.121799 0.5 5 0.5
9 0 1 0 0 0 1 0 0 0 1 -12.03825 -11.77098 8.121799 0.5 5 0.5
9 0 1 0 0 0 1 0 0 0 1 -15.03825 -28.77098 7.121799 2.5 1 0.5
9 0 1 0 0 0 1 0 0 0 1 -14.03825 -22.27098 7.121799 1.5 1.5 0.5
9 0 1 0 0 0 1 0 0 0 1 -21.03825 -26.27098 2.121799 0.5 1.5 1.5
9 0 1 0 0 0 1 0 0 0 1 15.46175 -21.77098 5.121799 2 1 0.5
9 0 1 0 0 0 1 0 0 0 1 15.46175 -23.77098 -1.878201 2 1 0.5
9 0 1 0 0 0 1 0 0 0 1 14.46175 -29.77098 7.121799 2 1 0.5
9 0 1 0 0 0 1 0 0 0 1 11.46175 -24.77098 8.121799 1 2 0.5
9 0 1 0 0 0 1 0 0 0 1 4.96175 -24.77098 -1.378201 0.5 1 2
9 0 1 0 0 0 1 0 0 0 1 -6.03825 -24.77098 -1.378201 0.5 1 2
9 0 1 0 0 0 1 0 0 0 1 -13.03825 -11.77098 7.121799 0.5 4 0.5
9 0 1 0 0 0 1 0 0 0 1 -16.53825 -28.77098 -1.878201 2 1 0.5
9 0 1 0 0 0 1 0 0 0 1 -18.53825 -21.27098 2.621799 1 0.5 2
9 0 1 0 0 0 1 0 0 0 1 14.96175 -20.27098 2.121799 0.5 0.5 3.5
9 0 1 0 0 0 1 0 0 0 1 -0.03824997 -25.27098 -3.878201 3.5 0.5 0.5
9 0 1 0 0 0 1 0 0 0 1 -1.03825 -8.270977 13.1218 3.5 0.5 0.5
9 0 1 0 0 0 1 0 0 0 1 18.46175 -26.27098 -1.878201 1 1.5 0.5
9 0 1 0 0 0 1 0 0 0 1 17.96175 -28.77098 -0.8782005 0.5 1 1.5
9 0 1 0 0 0 1 0 0 0 1 13.96175 -22.77098 7.121799 1.5 1 0.5
9 0 1 0 0 0 1 0 0 0 1 11.96175 -11.77098 8.121799 0.5 3 0.5
9 0 1 0 0 0 1 0 0 0 1 10.96175 -17.77098 7.121799 0.5 3 0.5
9 0 1 0 0 0 1 0 0 0 1 -14.03825 -16.77098 4.121799 0.5 3 0.5
9 0 1 0 0 0 1 0 0 0 1 -15.03825 -20.77098 5.121799 0.5 1 1.5
9 0 1 0 0 0 1 0 0 0 1 -15.03825 -24.77098 9.121799 1.5 1 0.5
9 0 1 0 0 0 1 0 0 0 1 -20.03825 -25.77098 5.121799 0.5 1 1.5
9 0 1 0 0 0 1 0 0 0 1 -10.03825 -13.27098 11.1218 0.5 2.5 0.5
9 0 1 0 0 0 1 0 0 0 1 -18.03825 -25.27098 7.121799 0.5 2.5 0.5
9 0 1 0 0 0 1 0 0 0 1 -19.03825 -25.27098 6.121799 0.5 2.5 0.5
9 0 1 0 0 0 1 0 0 0 1 18.96175 -22.77098 4.621799 0.5 1 1
9 0 1 0 0 0 1 0 0 0 1 19.46175 -23.77098 1.121799 1 1 0.5
9 0 1 0 0 0 1 0 0 0 1 19.46175 -30.27098 2.621799 1 0.5 1
9 0 1 0 0 0 1 0 0 0 1 14.46175 -21.77098 6.121799 1 1 0.5
9 0 1 0 0 0 1 0 0 0 1 15.46175 -29.27098 8.121799 2 0.5 0.5
9 0 1 0 0 0 1 0 0 0 1 12.96175 -9.770977 4.621799 0.5 1 1
9 0 1 0 0 0 1 0 0 0 1 12.96175 -12.77098 7.121799 0.5 2 0.5
9 0 1 0 0 0 1 0 0 0 1 12.96175 -17.77098 3.121799 0.5 2 0.5
9 0 1 0 0 0 1 0 0 0 1 7.96175 -12.77098 12.1218 0.5 2 0.5
9 0 1 0 0 0 1 0 0 0 1 4.46175 -7.770977 12.1218 1 1 0.5
9 0 1 0 0 0 1 0 0 0 1 -3.53825 -25.27098 2.621799 1 0.5 1
9 0 1 0 0 0 1 0 0 0 1 -5.53825 -7.770977 12.1218 1 1 0.5
9 0 1 0 0 0 1 0 0 0 1 -5.53825 -16.77098 12.1218 1 1 0.5
9 0 1 0 0 0 1 0 0 0 1 -7.03825 -12.77098 13.1218 0.5 2 0.5
9 0 1 0 0 0 1 0 0 0 1 -12.03825 -12.77098 9.121799 0.5 2 0.5
9 0 1 0 0 0 1 0 0 0 1 -12.03825 -23.77098 8.121799 0.5 2 0.5
9 0 1 0 0 0 1 0 0 0 1 -15.03825 -13.77098 -1.378201 0.5 1 1
9 0 1 0 0 0 1 0 0 0 1 -16.53825 -21.27098 4.621799 1 0.5 1
9 0 1 0 0 0 1 0 0 0 1 -20.03825 -21.77098 2.621799 0.5 1 1
9 0 1 0 0 0 1 0 0 0 1 -20.03825 -28.27098 2.621799 0.5 0.5 2
9 0 1 0 0 0 1 0 0 0 1 19.96175 -27.27098 5.121799 0.5 1.5 0.5
9 0 1 0 0 0 1 0 0 0 1 17.96175 -23.27098 -0.8782005 0.5 1.5 0.5
9 0 1 0 0 0 1 0 0 0 1 13.96175 -13.27098 4.121799 0.5 1.5 0.5
9 0 1 0 0 0 1 0 0 0 1 13.96175 -14.27098 -1.878201 0.5 1.5 0.5
9 0 1 0 0 0 1 0 0 0 1 13.96175 -20.27098 5.121799 0.5 0.5 1.5
9 0 1 0 0 0 1 0 0 0 1 14.96175 -23.27098 -2.878201 1.5 0.5 0.5
9 0 1 0 0 0 1 0 0 0 1 14.96175 -32.27098 1.121799 1.5 0.5 0.5
9 0 1 0 0 0 1 0 0 0 1 13.96175 -23.27098 8.121799 1.5 0.5 0.5
9 0 1 0 0 0 1 0 0 0 1 11.96175 -17.27098 5.121799 0.5 1.5 0.5
9 0 1 0 0 0 1 0 0 0 1 9.96175 -8.270977 9.121799 0.5 1.5 0.5
9 0 1 0 0 0 1 0 0 0 1 3.96175 -18.27098 12.1218 1.5 0.5 0.5
9 0 1 0 0 0 1 0 0 0 1 -0.03824997 -24.27098 4.121799 1.5 0.5 0.5
9 0 1 0 0 0 1 0 0 0 1 -9.03825 -13.27098 12.1218 0.5 1.5 0.5
9 0 1 0 0 0 1 0 0 0 1 -16.03825 -19.27098 2.121799 0.5 0.5 1.5
9 0 1 0 0 0 1 0 0 0 1 -15.03825 -28.27098 8.121799 1.5 0.5 0.5
9 0 1 0 0 0 1 0 0 0 1 -16.03825 -22.27098 -1.878201 1.5 0.5 0.5
9 0 1 0 0 0 1 0 0 0 1 -16.03825 -26.27098 9.121799 1.5 0.5 0.5
9 0 1 0 0 0 1 0 0 0 1 -18.03825 -26.27098 -1.878201 0.5 1.5 0.5
9 0 1 0 0 0 1 0 0 0 1 -19.03825 -30.27098 2.121799 0.5 0.5 1.5
