9 0 1 0 0 0 1 0 0 0 1 -4.256477 4.377471 5 0.655462 0.8008963 4.25
9 0 1 0 0 0 1 0 0 0 1 -4.304536 -4.247906 5 0.6870378 0.6564434 4.25
9 0 1 0 0 0 1 0 0 0 1 4.304536 4.247906 5 0.6870378 0.6564434 4.25
9 0 1 0 0 0 1 0 0 0 1 4.256477 -4.377471 5 0.655462 0.8008963 4.25
8192 0 0.864809 -0.5020415 -0.007732749 -0.05126703 -0.1036111 0.9932958 -0.4994769 -0.8586147 -0.115342 14.47357 25.06715 1.509535 1.266389 2.445595 11.9792
8192 0 0.8660254 -0.5000001 0 0 -1.192093E-07 1 -0.5000001 -0.8660254 -1.192093E-07 14.41987 24.97595 3.054396 1.266389 2.445595 12.35353
8192 0 -0.8671851 -0.4979257 -0.007732838 -0.06409647 0.09620416 0.9932957 -0.4938435 0.861867 -0.115342 14.472 -25.06806 1.509535 1.266389 2.445595 11.9792
8192 0 -0.8660256 -0.4999999 -1.788139E-07 -1.788139E-07 -1.192093E-07 1 -0.4999999 0.8660255 -1.192093E-07 14.41987 -24.97595 3.054396 1.266389 2.445595 12.35353
8192 0 -0.00237608 -0.9999672 -0.007732809 -0.1153633 -0.007407069 0.9932958 -0.9933205 0.003252298 -0.1153419 28.94558 -0.00090718 1.509535 1.266389 2.445595 11.9792
9 0 1 0 0 0 1 0 0 0 1 28.83974 -6.800116E-14 3.054396 12.35353 1.266389 2.445595
8192 0 0.8671851 0.4979259 -0.007732704 0.06409641 -0.09620428 0.9932957 0.4938437 -0.8618669 -0.1153421 -14.472 25.06806 1.509535 1.266389 2.445595 11.9792
8192 0 0.8660254 0.5000001 0 0 -1.192093E-07 1 0.5000001 -0.8660254 -1.192093E-07 -14.41987 24.97595 3.054396 1.266389 2.445595 12.35353
8192 0 0.00237608 0.9999673 -0.00773266 0.1153634 0.00740689 0.9932958 0.9933206 -0.003252268 -0.1153421 -28.94558 0.00090718 1.509535 1.266389 2.445595 11.9792
9 0 1 0 0 0 1 0 0 0 1 -28.83974 2.775558E-15 3.054396 12.35353 1.266389 2.445595
8192 0 -0.864809 0.5020415 -0.007732749 0.05126703 0.1036111 0.9932958 0.4994769 0.8586147 -0.115342 -14.47357 -25.06715 1.509535 1.266389 2.445595 11.9792
8192 0 -0.8660256 0.4999999 1.788139E-07 1.788139E-07 -1.192093E-07 1 0.4999999 0.8660255 -1.192093E-07 -14.41987 -24.97595 3.054396 1.266389 2.445595 12.35353
8192 0 1.192093E-07 -0.9999999 2.980232E-08 0.6462798 1.192093E-07 0.7631005 -0.7631005 -2.980232E-08 0.6462798 46.5767 5.20417E-15 -2.012238 8.622417 0.1 1.003477
8192 0 0.7071068 -0.7071068 0 0.4569888 0.4569888 0.7631005 -0.5395936 -0.5395936 0.6462798 32.9347 32.9347 -2.012238 8.622417 0.1 1.003477
8192 0 0.3826833 -0.9238796 -5.960464E-08 0.5970846 0.2473204 0.7631007 -0.7050131 -0.292026 0.6462797 43.03126 17.82413 -2.012238 8.622417 0.1 1.003477
8192 0 0.9238795 -0.3826835 -1.490116E-08 0.2473206 0.5970845 0.7631007 -0.292026 -0.7050131 0.6462796 17.82413 43.03126 -2.012238 8.622417 0.1 1.003477
8192 0 0.9238795 0.3826835 1.490116E-08 -0.2473206 0.5970845 0.7631007 0.292026 -0.7050131 0.6462796 -17.82413 43.03126 -2.012238 8.622417 0.1 1.003477
8192 0 0.7071068 0.7071068 0 -0.4569888 0.4569888 0.7631005 0.5395936 -0.5395936 0.6462798 -32.9347 32.9347 -2.012238 8.622417 0.1 1.003477
8192 0 0.3826833 0.9238796 5.960464E-08 -0.5970846 0.2473204 0.7631007 0.7050131 -0.292026 0.6462797 -43.03126 17.82413 -2.012238 8.622417 0.1 1.003477
8192 0 1.192093E-07 0.9999999 -2.980232E-08 -0.6462798 1.192093E-07 0.7631005 0.7631005 -2.980232E-08 0.6462798 -46.5767 -1.382358E-14 -2.012238 8.622417 0.1 1.003477
8192 0 -0.3826835 0.9238795 5.960464E-08 -0.5970845 -0.2473207 0.7631006 0.705013 0.292026 0.6462797 -43.03126 -17.82413 -2.012238 8.622417 0.1 1.003477
8192 0 -0.7071068 0.7071068 2.980232E-08 -0.4569888 -0.4569888 0.7631006 0.5395936 0.5395936 0.6462798 -32.9347 -32.9347 -2.012238 8.622417 0.1 1.003477
8192 0 -0.7071068 -0.7071068 -2.980232E-08 0.4569888 -0.4569888 0.7631006 -0.5395936 0.5395936 0.6462798 32.9347 -32.9347 -2.012238 8.622417 0.1 1.003477
8192 0 -0.3826835 -0.9238795 -5.960464E-08 0.5970845 -0.2473207 0.7631006 -0.705013 0.292026 0.6462797 43.03126 -17.82413 -2.012238 8.622417 0.1 1.003477
8192 0 -0.9238795 -0.3826835 1.490116E-08 0.2473206 -0.5970846 0.7631006 -0.292026 0.705013 0.6462798 17.82413 -43.03126 -2.012238 8.622417 0.1 1.003477
8192 0 -1 7.931612E-08 -3.676542E-08 -7.931612E-08 -0.6462802 0.7631007 3.676542E-08 0.7631007 0.6462797 1.446275E-14 -46.5767 -2.012238 8.622417 0.1 1.003477
8192 0 -0.9238795 0.3826835 -1.490116E-08 -0.2473206 -0.5970846 0.7631006 0.292026 0.705013 0.6462798 -17.82413 -43.03126 -2.012238 8.622417 0.1 1.003477
8192 0 1 0 0 0 0.6462798 0.7631006 0 -0.7631006 0.6462798 -4.857226E-15 46.5767 -2.012238 8.622417 0.1 1.003477
8192 0 -0.8648092 0.5020413 -0.007732645 -0.3062485 -0.5152099 0.8004816 0.3978909 0.6946319 0.5993074 -7.105327 -12.40663 -0.5620251 3.150279 0.5303744 1.214613
8192 0 -0.8671851 -0.4979258 -0.007732719 0.2930604 -0.5228239 0.8004816 -0.4026233 0.6918995 0.5993075 7.191791 -12.35671 -0.5620251 3.150279 0.5303744 1.214613
8192 0 0.00237602 0.9999672 -0.007732689 -0.599309 0.007614136 0.8004816 0.8005143 0.002732307 0.5993074 -14.29712 -0.04992028 -0.5620251 3.150279 0.5303744 1.214613
8192 0 0.8671851 0.4979259 -0.007732704 -0.2930604 0.5228239 0.8004816 0.4026234 -0.6918996 0.5993074 -7.191791 12.35671 -0.5620251 3.150279 0.5303744 1.214613
8192 0 0.864809 -0.5020415 -0.007732734 0.3062486 0.5152097 0.8004816 -0.397891 -0.6946318 0.5993074 7.105327 12.40663 -0.5620251 3.150279 0.5303744 1.214613
8192 0 -0.00237608 -0.9999673 -0.007732719 0.599309 -0.007614136 0.8004816 -0.8005142 -0.002732247 0.5993075 14.29712 0.04992028 -0.5620251 3.150279 0.5303744 1.214613
8192 0 0.5020414 0.864809 -0.007732719 -0.5152098 0.3062485 0.8004816 0.6946318 -0.3978909 0.5993075 -11.98236 6.855191 -0.9910459 3.150279 0.1 1.077489
8192 0 -0.497926 0.8671851 -0.00773266 -0.5228239 -0.2930605 0.8004816 0.6918995 0.4026234 0.5993075 -11.92795 -6.949429 -0.9910459 3.150279 0.1 1.077489
8192 0 -0.9999675 0.002375969 -0.007732645 -0.007614028 -0.5993092 0.8004817 -0.002732324 0.8005143 0.5993075 0.05440818 -13.80462 -0.9910459 3.150279 0.1 1.077489
8192 0 -0.5020416 -0.8648089 -0.007732868 0.5152096 -0.3062488 0.8004817 -0.6946318 0.3978911 0.5993074 11.98236 -6.855191 -0.9910459 3.150279 0.1 1.077489
8192 0 0.4979257 -0.8671852 -0.007732779 0.5228239 0.2930602 0.8004817 -0.6918997 -0.4026233 0.5993074 11.92795 6.949429 -0.9910459 3.150279 0.1 1.077489
8192 0 0.9999673 -0.002376152 -0.007732736 0.00761421 0.599309 0.8004816 0.002732232 -0.8005142 0.5993075 -0.05440818 13.80462 -0.9910459 3.150279 0.1 1.077489
