8192 0 -0.5713007 3.72529E-09 -0.8207409 0.03556012 0.9990609 -0.02475265 0.8199702 -0.04332685 -0.5707643 -8.632401 -6.458595 9.412648 4.795821 0.3949624 3.367173
8192 0 -0.7071071 7.450581E-09 -0.7071066 0.08913078 0.9920239 -0.0891308 0.7014667 -0.12605 -0.7014672 -14.18915 -5.900163 14.18915 5.141871 0.3857215 3.367173
8192 0 -0.7071069 2.235174E-08 -0.7071066 0.1730354 0.9695966 -0.1730354 0.6856082 -0.244709 -0.6856085 -19.95407 -4.163373 19.95407 5.896127 0.5674001 3.367173
8192 0 -0.7071068 1.490116E-08 -0.7071068 0.2526942 0.9339653 -0.2526942 0.6604132 -0.3573636 -0.6604133 -25.58757 -1.73663 25.58757 4.331259 0.3602923 3.367173
8192 0 -0.5131212 0.1027172 0.8521478 -0.2575473 0.9286388 -0.2670197 -0.818765 -0.3564818 -0.4500498 25.53114 -0.4234137 29.08829 1.753569 0.1 5.122993
8192 0 0.7071068 0 -0.7071067 -0.2526942 0.9339653 -0.2526942 0.6604131 0.3573636 0.6604133 25.57069 -1.674238 25.57069 4.331259 0.3419493 3.367173
8192 0 0.7071067 -7.450581E-09 -0.7071068 -0.1730354 0.9695966 -0.1730354 0.6856084 0.244709 0.6856083 19.95407 -4.163373 19.95407 5.896127 0.5674001 3.367173
8192 0 0.7071068 3.72529E-09 -0.7071067 -0.08913077 0.9920239 -0.08913078 0.7014668 0.12605 0.7014669 14.18915 -5.900163 14.18915 5.141871 0.3857215 3.367173
8192 0 0.5713005 0 -0.8207409 -0.03556012 0.9990609 -0.02475265 0.8199703 0.04332685 0.5707641 8.632401 -6.458595 9.412648 4.795821 0.3949624 3.367173
8192 0 1 0 0 0 0.9339653 -0.3573636 0 0.3573636 0.9339653 0 -1.797537 36.2096 4.331259 0.4985702 3.367173
8192 0 1 0 0 0 0.9695966 -0.244709 0 0.244709 0.9695966 0 -4.163373 28.21931 5.896127 0.5674001 3.367173
8192 0 1 0 0 0 0.9920239 -0.12605 0 0.12605 0.9920239 0 -5.900163 20.06649 5.141871 0.3857215 3.367173
8192 0 1 0 0 0 0.9990609 -0.04332685 0 0.04332685 0.9990609 0 -6.489746 11.75437 5.1 0.3949624 3.367173
8192 0 0.8182883 0.1486456 -0.5552557 -0.3122661 0.9259682 -0.2123034 0.4825912 0.347113 0.8041259 29.14776 -0.5151964 25.36732 1.753569 0.1 5.122993
8192 0 -0.8521481 0.1027173 -0.5131211 0.2670196 0.9286388 -0.2575473 0.4500496 -0.3564818 -0.8187652 -29.08019 -0.3952541 25.52333 1.753569 0.1 5.122993
8192 0 0.5552557 0.1486456 0.8182883 0.2123034 0.9259682 -0.3122661 -0.8041258 0.3471129 0.4825911 -25.36088 -0.4871178 29.13829 1.753569 0.1 5.122993
8192 0 0.7071068 0 0.7071068 0.08279081 0.993122 -0.08279081 -0.7022433 0.1170839 0.7022433 -32.2244 2.281227 32.14635 1.215405 0.1 0.5540588
8192 0 1 0 0 0 0.993122 -0.1170839 0 0.1170839 0.993122 -0.05519402 2.281227 45.517 1.215405 0.1 0.5540588
8192 0 0.9712422 0.1486455 0.1859921 -0.07068433 0.9259682 -0.3709267 -0.2273594 0.3471129 0.9098463 2.672369 -0.5046613 38.54376 1.753569 0.1 5.122993
8192 0 -0.9653912 0.1027172 0.2397278 0.006698016 0.9286388 -0.3709248 -0.2607209 -0.3564818 -0.8971877 -2.51521 -0.4128482 38.61755 1.753569 0.1 5.122993
8192 0 0.7071068 0 -0.7071068 -0.08279081 0.993122 -0.08279081 0.7022433 0.1170839 0.7022433 32.14635 2.281227 32.2244 1.215405 0.1 0.5540588
