9 0 1 0 0 0 1 0 0 0 1 10.15227 -45.23129 0.4534205 16.15272 2.796947 8.103084
8192 0 0.9735821 -0.2281097 -0.01018937 0.2278759 0.9734825 -0.02010661 0.01450569 0.01725352 0.9997459 29.34759 -27.52067 0.5544301 0.1136761 8.274054 6.641527
8192 0 0.9998552 -0.002510826 -0.01682877 1.164153E-10 0.9890524 -0.147565 0.01701505 0.1475437 0.9889092 14.82115 -14.61208 -10.57534 8.982537 7.778346 0.3187852
8192 0 0.5694033 -0.8218662 0.0177733 0.821908 0.5695796 0.006810206 -0.01572039 0.01073026 0.9998189 1.652149 -15.04277 0.8964375 3.278629 0.1 5.581259
8192 0 0.6947961 0.4752292 -0.5398292 -0.6331403 0.7602088 -0.1456571 0.3411624 0.4429896 0.8290769 -12.17212 -7.910682 9.341175 3.430338 2.512953 2.896209
8192 0 0.8968205 -0.1031741 -0.4301953 0.3995476 0.606388 0.6874993 0.1899332 -0.788447 0.5850441 -11.20805 -14.81594 12.45879 4.905482 0.6751487 6.938689
8192 0 0.5362414 -0.6147817 0.5783499 -0.07412899 0.6482466 0.7578135 -0.8408032 -0.4492435 0.3020436 -18.05163 -9.446581 10.93597 3.675339 0.6333461 5.591156
8192 0 0.9218147 -0.3833211 -0.05764098 0.1636746 0.2501085 0.9542832 -0.3513804 -0.8891067 0.2932937 -8.5458 -29.88866 21.57095 0.5206339 0.6016808 3.640349
8192 0 0.9737998 -0.1164567 0.195325 -0.115849 0.4850609 0.8667727 -0.195686 -0.8666912 0.4588608 -24.99429 -21.30566 19.40346 2.557524 0.6751487 5.761381
9 0 1 0 0 0 1 0 0 0 1 10.02029 -9.443881 -0.7814441 0.2322493 8.331302 10.02944
8192 0 0.870967 0.4905562 0.02776889 -0.4908169 0.8712574 0.003046026 -0.02269961 -0.01628243 0.9996097 30.14445 -3.237456 -1.712322 0.1 2.439968 6.64614
8192 0 0.007373035 0 0.9999728 0 1 0 -0.9999728 0 0.007373035 15.06746 -8.340968 9.013597 0.472273 7.590968 4.147961
9 0 1 0 0 0 1 0 0 0 1 27.54021 -13.86225 -0.008544531 0.7856803 12.73725 0.1000001
8192 0 0.2345055 0 -0.9721148 0 1 0 0.9721148 0 0.2345055 23.55536 -9.178529 -9.726978 0.1 8.416865 4.545035
8192 0 -0.005469203 0 -0.9999851 0 1 0 0.9999851 0 -0.005469203 14.00774 -3.171097 -10.79795 0.3062704 2.439968 4.238742
8192 0 0.9765317 0 0.2153738 0 1 0 -0.2153738 0 0.9765317 -8.900862 -4.07668 2.08674 0.1 3.288164 6.735066
8192 0 0.5143442 0.03866781 0.8567116 -0.02168796 0.9992499 -0.03208049 -0.8573096 -0.002079913 0.5147971 -4.05374 -4.473239 -6.92641 0.1 3.595291 3.188244
8192 0 0.1659568 0 0.9861331 0 1 0 -0.9861331 0 0.1659568 3.991605 -5.559759 -9.751863 0.2246868 4.82863 4.289034
8192 0 0.0204556 0 -0.9997908 0 1 0 0.9997908 0 0.0204556 6.016576 -5.104381 9.029919 0.4174259 4.225574 3.493332
8192 0 0.01015073 0 -0.9999485 0 1 0 0.9999485 0 0.01015073 -3.485713 -4.477679 8.991269 0.4463802 3.685891 4.56797
9 0 1 0 0 0 1 0 0 0 1 19.90204 -61.90332 0 3.43064 5.201371 3.509929
9 0 1 0 0 0 1 0 0 0 1 -0.04969696 -61.90332 0 3.424982 5.201371 3.509929
8192 0 0.3854933 2.328306E-10 0.9227107 0.00510058 0.9999847 -0.002130939 -0.9226967 0.005527822 0.3854874 24.18452 -18.07022 7.152899 0.1 17.13033 3.583438
9 0 1 0 0 0 1 0 0 0 1 10.0038 -26.34549 -0.001935555 3.243481 25.22048 0.1000004
9 0 1 0 0 0 1 0 0 0 1 19.97407 -13.42802 -8.033544 0.1 12.34669 1.24738
9 0 1 0 0 0 1 0 0 0 1 19.98958 -22.82359 8.065228 0.1 21.69859 1.305656
8192 0 0.9813904 0.1920233 0 -0.1920233 0.9813904 0 0 0 1 16.56965 -15.47949 9.027132 8.517725 7.683239 0.3764751
8192 0 0.001522839 -0.06216756 -0.9980645 -0.0494357 0.9968407 -0.06216675 0.998776 0.04943469 -0.001555324 30.7448 -12.01029 -0.5938704 6.667806 6.566037 0.3764751
9 0 1 0 0 0 1 0 0 0 1 10.05785 -52.25818 0.0301437 16.69374 2.886099 8.847784
8192 0 0.9629616 -0.2690355 0.01802821 0.2691802 0.9630705 -0.006103487 -0.01572038 0.01073026 0.9998189 -3.263866 -10.6605 2.519963 4.196121 0.1992186 4.603473
8192 0 0.8230795 -0.3406149 0.4544466 -0.2257169 0.5380789 0.8121102 -0.5211449 -0.7710075 0.3659992 -23.65092 -13.51505 14.69186 3.214065 0.7009921 3.241024
8192 0 0.9853357 -0.144455 0.09080902 -0.05248341 0.2498134 0.9668707 -0.1623546 -0.9574581 0.2385686 -27.17339 -27.34618 21.97748 0.3914791 0.6751487 3.275387
8192 0 0.5959254 -0.7830729 0.17796 -0.0469723 0.1872377 0.981191 -0.8016649 -0.5930758 0.07479692 -24.11137 -26.428 22.52301 1.041137 0.6751487 2.930081
8192 0 0.7928183 -0.5719285 0.2105634 0.03293097 0.3851887 0.92225 -0.6085678 -0.7242427 0.3242188 -21.6174 -21.27314 20.86927 3.074497 0.6751487 2.930081
8192 0 0.8314732 -0.5250661 0.1815429 0.09180011 0.4521282 0.8872164 -0.5479279 -0.721031 0.4241336 -18.10513 -16.12991 17.71946 3.214065 0.7009921 3.241024
8192 0 0.841239 0.01005554 0.54057 -0.2640521 0.8801184 0.3945481 -0.4717981 -0.4746479 0.7430451 -11.48674 -5.618772 1.447483 0.7155461 0.9579456 5.080043
8192 0 0.5849842 0.5040758 0.6353747 -0.6164989 0.7853978 -0.05549155 -0.5269939 -0.3592462 0.7702075 -10.52286 -8.350304 -0.7906639 0.1 1.285011 4.204605
8192 0 0.6389877 0.5847809 0.499726 -0.7140453 0.6925371 0.1026237 -0.2860664 -0.4224023 0.8600827 -14.10481 -11.47071 8.021896 0.9898336 0.9425381 5.080043
8192 0 0.7714412 0.5809264 -0.2596211 0.1284234 0.2574709 0.957714 0.6232063 -0.7721614 0.1240191 -13.31826 -26.76609 22.08249 1.377237 0.5202569 5.28216
8192 0 0.6407642 0.6290767 -0.4400951 0.17665 0.4370494 0.8819199 0.7471386 -0.6428455 0.1689193 -11.15909 -22.13894 19.88281 2.243189 0.5202569 3.933878
8192 0 0.9569455 -0.183309 -0.2250626 0.2835922 0.425098 0.8595738 -0.06189388 -0.8863913 0.4587806 -7.671065 -25.34634 19.34749 0.5206339 1.042208 3.65219
8192 0 0.9950604 -0.09922661 -0.002967448 0.09914869 0.9948738 -0.01988954 0.004925808 0.01949708 0.9997978 27.12085 -40.15545 0.6055517 0.1 8.274054 7.465329
8192 0 0.945871 -0.3245386 0.001668713 0.3245055 0.9456715 -0.02004034 0.004925809 0.01949708 0.9997978 -4.343492 -37.76505 0.426425 0.1 5.399934 7.341681
8192 0 0.9112471 -0.4118449 0.003541861 0.4118307 0.9110454 -0.01979533 0.00492581 0.01949709 0.9997978 1.19205 -24.7137 0.1446377 0.1 7.672763 7.341681
8192 0 0.5912169 -0.8063129 0.01794936 0.7254134 0.5413615 0.425092 -0.3524742 -0.2383009 0.9049722 3.497566 -14.23429 8.096191 3.581534 1.575091 0.1
8192 0 0.6677066 -0.6930435 -0.2717695 -0.02808473 -0.388265 0.9211197 -0.7438945 -0.6074051 -0.2787111 1.667987 -13.43278 -7.784923 3.581534 1.575091 0.1
8192 0 0.7752082 -0.2397151 -0.584456 0.427154 -0.4827056 0.7645488 -0.4653941 -0.8423373 -0.2718022 -4.168756 -10.18558 -4.45655 2.912573 1.575091 0.1
8192 0 0.4698446 0.2248538 0.8536316 -0.2604303 0.9592814 -0.1093403 -0.8434585 -0.1709386 0.5092719 27.99141 -7.707401 7.299049 0.1 6.23578 2.216532
8192 0 0.6334992 0.01713301 0.7735537 0.1101406 0.9875772 -0.1120726 -0.7658641 0.1561975 0.6237423 29.00696 -20.38173 8.745138 0.1 6.23578 1.585237
8192 0 0.9443673 -0.3288879 0.001760938 0.3282767 0.9422578 -0.06621689 0.02011867 0.06311114 0.9978037 15.89703 -29.83192 9.3107 10.84072 7.672763 0.2525733
8192 0 0.9443673 -0.3288879 0.001760937 0.3287992 0.9439582 -0.02887717 0.007835099 0.02784965 0.9995814 14.50388 -29.68542 -8.709647 12.2405 7.672763 0.1272278
8192 0 0.8814896 -0.4711343 -0.03175649 0.4721303 0.8805409 0.04172145 0.008306485 -0.05177023 0.9986245 8.801829 -40.55738 9.184635 10.84072 5.373352 0.2525733
8192 0 -0.5148215 -0.8557594 0.0513275 0.7469122 -0.4183406 0.5168299 -0.4208097 0.3044123 0.854548 0.7215255 -30.86283 9.397799 5.246881 1.432472 0.1
8192 0 -0.292629 -0.9541035 0.06367898 0.8400815 -0.224705 0.4937316 -0.456762 0.1979757 0.8672798 4.938552 -21.13638 8.817486 3.85889 1.432472 0.1
8192 0 0.7434864 -0.1052539 0.6604162 0.1746987 0.9838141 -0.03987756 -0.6455295 0.1450223 0.7498401 27.52682 -31.58311 9.909087 0.1 3.711089 0.9513729
8192 0 0.8813342 -0.4724815 -0.003364264 0.4723183 0.8807912 0.03350043 -0.01286512 -0.03111408 0.999433 8.668313 -39.65575 -8.453882 10.84072 5.373352 0.2525733
8192 0 0.1277107 -0.1614991 -0.9785745 0.1249379 0.9814138 -0.1456624 0.9839108 -0.1036584 0.1455144 26.18487 -23.55764 -9.173753 0.1 3.799126 2.734847
