9 0 1 0 0 0 1 0 0 0 1 0 -7.231763 0 7.296865 1.11411 3.377868
9 0 1 0 0 0 1 0 0 0 1 0 -7.231763 0 2.720563 1.11411 8.366434
9 0 1 0 0 0 1 0 0 0 1 0 -7.231763 0 5.772112 1.11411 5.944698
9 0 1 0 0 0 1 0 0 0 1 0 -12.28136 0.7543844 3.093595 3.05635 3.949688
8192 0 1 0 0 0 0.5684378 0.8227262 0 -0.8227262 0.5684378 0 -21.73746 1.8431 6.391158 5.201347 5.782461
8192 0 1 0 0 0 0.9568959 0.2904312 0 -0.2904312 0.9568959 0 -25.97632 -3.713109 4.664524 3.738105 5.782461
8192 0 0.9998051 -6.017298E-05 -0.01974235 0.003851611 0.9813747 0.1920647 0.01936308 -0.1921033 0.9811836 0 -35.68251 -4.790144 2.558281 4.660184 3.176478
8192 0 0.9998051 -6.017298E-05 -0.01974235 0.003851611 0.9813747 0.1920647 0.01936308 -0.1921033 0.9811836 0 -42.17843 -6.753158 2.558281 0.884462 2.313821
8192 0 0.9998051 -6.017275E-05 -0.01974235 0.008829988 0.8957632 0.4444439 0.01765773 -0.4445316 0.8955891 0 -38.54777 -11.91349 0.6460446 0.1566215 2.313821
8192 0 0.9998051 -6.017229E-05 -0.01974235 0.0155131 0.6209054 0.7837321 0.01221097 -0.7838856 0.6207852 0 -40.09312 -9.74749 1.275093 0.9996139 2.313821
8192 0 0.9998051 -6.017313E-05 -0.01974235 0.0007012143 0.9994726 0.03246504 0.01972999 -0.03247256 0.9992779 0 -37.2336 -11.73243 0.6460446 0.1566215 2.313821
8192 0 0.9998051 -6.017298E-05 -0.01974235 -0.005242996 0.9632779 -0.2684552 0.01903352 0.2685064 0.9630898 0 -33.15246 -8.37796 3.006342 4.660184 0.1
8192 0 1 0 0 0 0.5684378 0.8227262 0 -0.8227262 0.5684378 0 -13.06484 15.1137 3.954118 6.119876 0.4609269
8192 0 1 0 0 0 0.7703648 0.6376033 0 -0.6376033 0.7703648 0 -17.31315 13.38485 3.663158 6.203647 1.049236
8192 0 1 0 0 0 0.0880931 0.9961123 0 -0.9961123 0.0880931 0 -16.70521 8.496222 3.663158 4.275707 2.261888
