9 0 1 0 0 0 1 0 0 0 1 14.18893 7.855138 9.999999 9.005267 0.5707402 8.377458
9 0 1 0 0 0 1 0 0 0 1 59.52338 -1.750577E-06 17.32442 33.45232 2.50924 0.09999603
8192 0 -1.192093E-07 -0.7071068 -0.7071067 -2.980232E-08 0.7071068 -0.7071068 1 -2.980232E-08 -1.192093E-07 59.52338 5.179144 15.17915 0.1 2.50924 33.45232
9 0 1 0 0 0 1 0 0 0 1 59.52338 7.324418 10 33.45232 0.1 2.50924
8192 0 -1.192093E-07 -0.7071068 0.7071069 -2.980232E-08 -0.7071069 -0.7071068 1 -2.980232E-08 -1.192093E-07 59.52338 5.179148 4.820857 0.1 2.50924 33.45232
9 0 1 0 0 0 1 0 0 0 1 59.52338 4.218582E-06 2.675583 33.45232 2.509241 0.100004
8192 0 -1.192093E-07 0.7071068 0.7071069 2.980232E-08 -0.7071069 0.7071068 1 2.980232E-08 -1.192093E-07 59.52338 -5.179142 4.820853 0.1 2.50924 33.45232
9 0 1 0 0 0 1 0 0 0 1 59.52338 -7.324415 9.999996 33.45232 0.1 2.50924
8192 0 -1.192093E-07 0.7071068 -0.7071067 2.980232E-08 0.7071068 0.7071068 1 2.980232E-08 -1.192093E-07 59.52338 -5.179145 15.17914 0.1 2.50924 33.45232
9 0 1 0 0 0 1 0 0 0 1 28.05544 10.97618 9.999999 1.055424 1.492048 0.729677
9 0 1 0 0 0 1 0 0 0 1 76.94938 9.55338 9.99709 14.78482 0.6965873 1.475173
9 0 1 0 0 0 1 0 0 0 1 28.05544 1.234002E-06 20.97618 1.055424 0.729677 1.492048
9 0 1 0 0 0 1 0 0 0 1 76.94938 -9.553378 10.00291 14.78482 0.6965837 1.475174
9 0 1 0 0 0 1 0 0 0 1 28.05544 -10.97618 9.999999 1.055424 1.492048 0.7296771
9 0 1 0 0 0 1 0 0 0 1 28.05544 1.234002E-06 -0.9761795 1.055424 0.729677 1.492048
9 0 1 0 0 0 1 0 0 0 1 24.71897 13.20652 9.999999 0.7016387 3.722393 6.08235
8192 0 -1.192093E-07 -0.7071067 -0.7071068 1 -1.192093E-07 -2.980232E-08 -2.980232E-08 -0.7071068 0.7071068 24.71897 9.338423 19.33842 3.722392 0.7016391 6.08235
9 0 1 0 0 0 1 0 0 0 1 24.71897 1.234002E-06 23.20652 0.7016391 6.08235 3.722392
8192 0 -1.192093E-07 0.7071069 -0.7071068 1 -1.192093E-07 -2.980232E-08 -2.980232E-08 -0.7071068 -0.7071069 24.71897 -9.338421 19.33842 3.722392 0.7016391 6.08235
9 0 1 0 0 0 1 0 0 0 1 24.71897 -13.20652 9.999999 0.7016387 3.722393 6.082351
8192 0 -1.192093E-07 0.7071069 0.7071068 1 -1.192093E-07 2.980232E-08 2.980232E-08 0.7071068 -0.7071069 24.71897 -9.338421 0.6615775 3.722392 0.7016391 6.08235
9 0 1 0 0 0 1 0 0 0 1 24.71897 1.234002E-06 -3.206523 0.7016391 6.08235 3.722392
8192 0 -1.192093E-07 -0.7071067 0.7071068 1 -1.192093E-07 2.980232E-08 2.980232E-08 0.7071068 0.7071068 24.71897 9.338423 0.6615775 3.722392 0.7016391 6.08235
9 0 1 0 0 0 1 0 0 0 1 14.75451 -0.01985308 9.999999 0.5822976 5.519854 5.896396
9 0 1 0 0 0 1 0 0 0 1 10.89128 -0.01985308 9.999999 3.688937 5.519854 0.5003488
9 0 1 0 0 0 1 0 0 0 1 14.18893 -7.855136 9.999999 9.005267 0.570738 8.37746
9 0 1 0 0 0 1 0 0 0 1 150.4425 -7.744074 10.01325 3.407508 0.7353511 8.494075
9 0 1 0 0 0 1 0 0 0 1 150.748 7.741168 10.01325 3.713037 0.7353511 8.494075
9 0 1 0 0 0 1 0 0 0 1 138.9293 -7.744074 2.240839 10.54021 0.7353511 0.7216625
9 0 1 0 0 0 1 0 0 0 1 138.9293 -7.744074 17.75124 10.54021 0.7353511 0.7216625
9 0 1 0 0 0 1 0 0 0 1 130.6994 -7.744074 10.01325 2.310324 0.7353511 8.494075
9 0 1 0 0 0 1 0 0 0 1 149.4475 -3.109673E-07 10 1.197531 8.372912 0.6337836
9 0 1 0 0 0 1 0 0 0 1 138.9293 7.819485 2.240839 10.54021 0.7353511 0.7216625
9 0 1 0 0 0 1 0 0 0 1 138.9293 7.763006 17.75124 10.54021 0.7353511 0.7216625
9 0 1 0 0 0 1 0 0 0 1 130.6858 7.100516E-07 10 2.296715 8.372912 0.6337836
8192 0 -0.7071068 0 -0.7071068 0 1 0 0.7071068 0 -0.7071068 135.7109 -7.450581E-07 5.705751 0.1 8.372912 1.347175
8192 0 -0.7071066 0 0.7071069 0 1 0 -0.7071069 0 -0.7071066 135.7057 -7.450581E-07 14.28906 0.1 8.372912 1.347175
8192 0 0.7071068 0 0.7071067 0 1 0 -0.7071067 0 0.7071068 144.2891 -7.450581E-07 14.29425 0.1 8.372912 1.347175
8192 0 0.7071066 0 -0.7071068 0 1 0 0.7071068 0 0.7071066 144.2943 -7.450581E-07 5.71094 0.1 8.372912 1.347175
9 0 1 0 0 0 1 0 0 0 1 126.2496 1.095513E-07 10 0.9995602 9.46815 9.468151
8192 0 -1 0 8.742278E-08 7.826702E-08 0.4455232 0.8952703 -3.894888E-08 0.8952703 -0.4455232 126.2496 1.095513E-07 10 0.9995602 9.46815 9.468151
8192 0 -1 0 8.742278E-08 6.181724E-08 0.7071067 0.7071068 -6.181723E-08 0.7071068 -0.7071067 126.2496 1.095513E-07 10 0.9995602 9.46815 9.468151
8192 0 -1 0 8.742278E-08 3.805348E-08 0.9002946 0.4352811 -7.870625E-08 0.4352811 -0.9002946 126.2496 1.095513E-07 10 0.9995602 9.46815 9.468151
9 0 1 0 0 0 1 0 0 0 1 112.7682 0.01068828 10 0.7514108 14.90566 10.09985
9 0 1 0 0 0 1 0 0 0 1 112.7682 -2.954056E-07 10 0.7514108 17.96378 3.520274
8192 0 -1 0 8.742278E-08 6.181724E-08 0.7071067 0.7071068 -6.181723E-08 0.7071068 -0.7071067 112.7682 0.2874697 9.712533 0.7514108 17.96378 3.113744
8192 0 -1 0 8.742278E-08 -6.311114E-08 0.6919898 -0.7219073 -6.049567E-08 -0.7219073 -0.6919898 112.7682 0.1220848 9.88507 0.751413 18.20278 3.113744
9 0 1 0 0 0 1 0 0 0 1 112.7682 -2.954056E-07 10 0.751411 3.520272 17.96378
9 0 1 0 0 0 1 0 0 0 1 112.7682 0.01068828 10 0.751411 10.09985 14.90567
9 0 1 0 0 0 1 0 0 0 1 66.38033 -0.2833869 20.7962 4.055326 3.332262 0.4637636
9 0 1 0 0 0 1 0 0 0 1 66.38033 -0.2833869 -0.8896103 4.055326 3.332262 0.4637636
9 0 1 0 0 0 1 0 0 0 1 94.79993 -11.91179 10.00002 32.47493 0.1 2.26506
9 0 1 0 0 0 1 0 0 0 1 94.79993 11.91179 10.00002 32.47493 0.1 2.26506
8192 0 -1 0 8.742278E-08 -4.457931E-08 -0.8602172 -0.5099278 7.520258E-08 -0.5099278 0.8602172 94.79993 9.63729 15.7129 32.47493 0.5438648 2.26506
8192 0 -1 0 8.742278E-08 -5.915225E-08 -0.7363299 -0.6766228 6.4372E-08 -0.6766228 0.7363299 94.79993 8.249341 17.58044 32.47493 0.5438648 2.26506
8192 0 -1 0 8.742278E-08 -7.453713E-08 -0.5225551 -0.8526055 4.568322E-08 -0.8526055 0.5225551 94.79993 5.854354 19.55203 32.47493 0.5438648 2.26506
8192 0 -1 0 8.742278E-08 -7.384978E-08 0.5351721 -0.844743 -4.678623E-08 -0.844743 -0.5351721 94.79993 -5.995707 19.46395 32.47493 0.5438648 2.26506
8192 0 -1 0 8.742278E-08 -4.418131E-08 0.8628997 -0.5053753 -7.543709E-08 -0.5053753 -0.8628997 94.79993 -9.667343 15.6619 32.47493 0.5438648 2.26506
8192 0 -1 0 8.742278E-08 4.486346E-08 0.8582821 0.5131782 -7.503341E-08 0.5131782 -0.8582821 94.79993 -9.615611 4.250716 32.47493 0.5438648 2.26506
8192 0 -1 0 8.742278E-08 7.338496E-08 0.5434738 0.8394261 -4.751199E-08 0.8394261 -0.5434738 94.79993 -6.088712 0.5956554 32.47493 0.5438648 2.26506
8192 0 -1 0 8.742278E-08 7.448804E-08 -0.5234704 0.8520438 4.576324E-08 0.8520438 0.5234704 94.79993 5.864607 0.4542961 32.47493 0.5438648 2.26506
8192 0 -1 0 8.742278E-08 4.527889E-08 -0.855423 0.5179301 7.478345E-08 0.5179301 0.855423 94.79993 9.583579 4.197479 32.47493 0.5438648 2.26506
8192 0 -1 0 8.742278E-08 5.912174E-08 -0.7366502 0.6762739 6.440001E-08 0.6762739 0.7366502 94.79993 8.252929 2.423502 32.47493 0.5438648 2.26506
9 0 1 0 0 0 1 0 0 0 1 119.7037 -0.3049623 -0.8683338 4.728513 3.310688 0.3916126
9 0 1 0 0 0 1 0 0 0 1 119.7037 -0.3049623 20.86276 4.728513 3.310688 0.3916126
9 0 1 0 0 0 1 0 0 0 1 130.6994 7.76465 10.01325 2.310324 0.7353495 8.494076
9 0 1 0 0 0 1 0 0 0 1 108.5078 -2.954056E-07 10 1.985974 0.8033358 0.6417258
