9 0 1 0 0 0 1 0 0 0 1 -0.0944519 -118.4028 8.210175 3.5 10.5 10.5
9 0 1 0 0 0 1 0 0 0 1 5.905548 -118.9028 14.21017 2.5 11 4.5
9 0 1 0 0 0 1 0 0 0 1 -6.094452 -118.9028 14.21017 2.5 11 4.5
9 0 1 0 0 0 1 0 0 0 1 -3.094452 -23.90282 18.21017 12.5 17 0.5
9 0 1 0 0 0 1 0 0 0 1 -7.094452 -28.90282 17.21017 8.5 12 0.5
9 0 1 0 0 0 1 0 0 0 1 -0.0944519 -4.402817 26.21017 38.5 2.5 0.5
9 0 1 0 0 0 1 0 0 0 1 -33.09445 -80.90282 5.210175 1.5 6 3.5
9 0 1 0 0 0 1 0 0 0 1 21.90555 -20.90282 7.710175 1.5 3 6
9 0 1 0 0 0 1 0 0 0 1 18.90555 -26.40282 7.710175 1.5 2.5 7
9 0 1 0 0 0 1 0 0 0 1 -30.09445 -91.90282 5.210175 1.5 5 3.5
9 0 1 0 0 0 1 0 0 0 1 -0.0944519 -130.4028 14.21017 3.5 1.5 4.5
9 0 1 0 0 0 1 0 0 0 1 37.90555 -4.402817 7.710175 0.5 2.5 18
9 0 1 0 0 0 1 0 0 0 1 -27.09445 -101.9028 5.710175 1.5 5 3
9 0 1 0 0 0 1 0 0 0 1 -38.09445 -4.402817 7.710175 0.5 2.5 18
9 0 1 0 0 0 1 0 0 0 1 -0.5944519 -61.90282 7.710175 1 2 11
9 0 1 0 0 0 1 0 0 0 1 13.90555 -14.90282 18.21017 4.5 8 0.5
9 0 1 0 0 0 1 0 0 0 1 -9.594452 -50.90282 28.71017 3 3 2
9 0 1 0 0 0 1 0 0 0 1 -18.59445 -35.90282 17.71017 3 6 1
9 0 1 0 0 0 1 0 0 0 1 -10.09445 -70.40282 28.71017 3.5 2.5 2
9 0 1 0 0 0 1 0 0 0 1 -30.09445 -50.40282 28.71017 3.5 2.5 2
9 0 1 0 0 0 1 0 0 0 1 -30.09445 -70.40282 28.71017 3.5 2.5 2
9 0 1 0 0 0 1 0 0 0 1 -11.59445 -120.4028 18.21017 3 11.5 0.5
9 0 1 0 0 0 1 0 0 0 1 11.90555 -119.4028 18.21017 3.5 9.5 0.5
9 0 1 0 0 0 1 0 0 0 1 16.90555 -30.90282 7.210175 1.5 2 5.5
9 0 1 0 0 0 1 0 0 0 1 -0.0944519 -107.4028 14.21017 6.5 0.5 4.5
9 0 1 0 0 0 1 0 0 0 1 4.905548 -118.4028 3.710175 1.5 1.5 6
9 0 1 0 0 0 1 0 0 0 1 2.405548 -93.40282 2.710175 4 0.5 6
9 0 1 0 0 0 1 0 0 0 1 0.4055481 -45.40282 18.21017 5 4.5 0.5
9 0 1 0 0 0 1 0 0 0 1 -0.0944519 -118.4028 -2.789825 3.5 5.5 0.5
9 0 1 0 0 0 1 0 0 0 1 -4.594452 -118.4028 3.710175 1 1.5 6
9 0 1 0 0 0 1 0 0 0 1 0.4055481 -133.9028 18.21017 9 2 0.5
9 0 1 0 0 0 1 0 0 0 1 -7.594452 -97.90282 10.21017 2 3 1.5
9 0 1 0 0 0 1 0 0 0 1 4.905548 -22.90282 17.21017 3.5 5 0.5
9 0 1 0 0 0 1 0 0 0 1 -24.59445 -106.4028 5.210175 1 2.5 3.5
9 0 1 0 0 0 1 0 0 0 1 -32.59445 -90.40282 5.210175 1 3.5 2.5
9 0 1 0 0 0 1 0 0 0 1 -5.594452 -94.40282 0.2101746 2 0.5 8.5
9 0 1 0 0 0 1 0 0 0 1 9.905548 -94.40282 7.710175 0.5 1.5 11
9 0 1 0 0 0 1 0 0 0 1 15.90555 -33.90282 7.710175 2.5 1 3
9 0 1 0 0 0 1 0 0 0 1 -0.0944519 -64.90282 13.71017 1.5 1 5
9 0 1 0 0 0 1 0 0 0 1 -29.59445 -99.90282 5.210175 1 3 2.5
9 0 1 0 0 0 1 0 0 0 1 -32.09445 -44.40282 8.710175 0.5 1.5 10
9 0 1 0 0 0 1 0 0 0 1 -32.59445 -76.40282 13.71017 1 1.5 5
9 0 1 0 0 0 1 0 0 0 1 -35.59445 -81.90282 5.210175 1 3 2.5
9 0 1 0 0 0 1 0 0 0 1 19.90555 -21.90282 7.710175 0.5 2 7
9 0 1 0 0 0 1 0 0 0 1 -26.59445 -110.4028 5.710175 1 3.5 2
9 0 1 0 0 0 1 0 0 0 1 -18.09445 -24.40282 18.21017 2.5 5.5 0.5
9 0 1 0 0 0 1 0 0 0 1 -24.09445 -36.40282 18.21017 2.5 5.5 0.5
9 0 1 0 0 0 1 0 0 0 1 11.40555 -101.4028 13.21017 1 1.5 4.5
9 0 1 0 0 0 1 0 0 0 1 8.905548 -92.40282 13.71017 0.5 2.5 5
9 0 1 0 0 0 1 0 0 0 1 6.905548 -85.40282 13.71017 0.5 2.5 5
9 0 1 0 0 0 1 0 0 0 1 5.905548 -82.40282 13.71017 0.5 2.5 5
9 0 1 0 0 0 1 0 0 0 1 4.905548 -78.40282 13.71017 0.5 2.5 5
9 0 1 0 0 0 1 0 0 0 1 3.905548 -75.40282 13.71017 0.5 2.5 5
9 0 1 0 0 0 1 0 0 0 1 2.905548 -72.40282 13.71017 0.5 2.5 5
9 0 1 0 0 0 1 0 0 0 1 1.905548 -68.40282 13.71017 0.5 2.5 5
9 0 1 0 0 0 1 0 0 0 1 13.90555 -36.90282 7.710175 1.5 2 2
9 0 1 0 0 0 1 0 0 0 1 11.90555 -40.90282 7.710175 1.5 2 2
9 0 1 0 0 0 1 0 0 0 1 9.405548 -45.90282 7.710175 1 3 2
9 0 1 0 0 0 1 0 0 0 1 26.90555 -122.4028 -2.789825 0.5 1.5 7.5
9 0 1 0 0 0 1 0 0 0 1 19.90555 -7.402817 10.21017 4.5 0.5 2.5
9 0 1 0 0 0 1 0 0 0 1 -0.0944519 -128.4028 -6.789825 2.5 0.5 4.5
9 0 1 0 0 0 1 0 0 0 1 -0.0944519 -7.402817 10.21017 4.5 0.5 2.5
9 0 1 0 0 0 1 0 0 0 1 -0.0944519 -58.90282 7.710175 0.5 1 11
9 0 1 0 0 0 1 0 0 0 1 2.405548 -105.9028 18.21017 11 1 0.5
9 0 1 0 0 0 1 0 0 0 1 -23.09445 -104.9028 7.710175 0.5 1 11
9 0 1 0 0 0 1 0 0 0 1 -30.09445 -84.90282 7.710175 0.5 1 11
9 0 1 0 0 0 1 0 0 0 1 -31.09445 -81.90282 7.710175 0.5 1 11
9 0 1 0 0 0 1 0 0 0 1 -33.59445 -74.40282 7.710175 1 0.5 11
9 0 1 0 0 0 1 0 0 0 1 20.90555 -25.40282 7.710175 0.5 1.5 7
9 0 1 0 0 0 1 0 0 0 1 4.905548 -113.4028 8.710175 1.5 3.5 1
9 0 1 0 0 0 1 0 0 0 1 4.905548 -123.4028 8.710175 1.5 3.5 1
9 0 1 0 0 0 1 0 0 0 1 -8.094452 -42.40282 17.71017 3.5 1.5 1
9 0 1 0 0 0 1 0 0 0 1 -27.59445 -95.40282 5.210175 1 1.5 3.5
9 0 1 0 0 0 1 0 0 0 1 25.40555 -18.40282 7.710175 2 0.5 5
9 0 1 0 0 0 1 0 0 0 1 23.40555 -17.40282 7.710175 2 0.5 5
9 0 1 0 0 0 1 0 0 0 1 11.90555 -26.90282 18.21017 2.5 4 0.5
9 0 1 0 0 0 1 0 0 0 1 7.905548 -88.90282 13.71017 0.5 2 5
9 0 1 0 0 0 1 0 0 0 1 -0.5944519 -95.90282 8.210175 10 1 0.5
9 0 1 0 0 0 1 0 0 0 1 -25.09445 -98.90282 13.71017 0.5 2 5
9 0 1 0 0 0 1 0 0 0 1 7.905548 -94.40282 2.710175 1.5 0.5 6
9 0 1 0 0 0 1 0 0 0 1 5.405548 -130.4028 14.21017 2 0.5 4.5
9 0 1 0 0 0 1 0 0 0 1 -4.594452 -130.9028 14.21017 1 1 4.5
9 0 1 0 0 0 1 0 0 0 1 16.90555 -27.40282 9.210175 0.5 1.5 5.5
9 0 1 0 0 0 1 0 0 0 1 -22.09445 -107.4028 13.21017 0.5 1.5 5.5
9 0 1 0 0 0 1 0 0 0 1 20.40555 -10.90282 18.21017 2 4 0.5
9 0 1 0 0 0 1 0 0 0 1 -29.59445 -53.90282 28.71017 2 1 2
9 0 1 0 0 0 1 0 0 0 1 10.90555 -98.40282 13.71017 0.5 1.5 5
9 0 1 0 0 0 1 0 0 0 1 7.405548 -48.40282 7.210175 1 1.5 2.5
9 0 1 0 0 0 1 0 0 0 1 5.405548 -146.4028 -2.789825 1 0.5 7.5
9 0 1 0 0 0 1 0 0 0 1 -2.594452 -147.4028 -2.789825 1 0.5 7.5
9 0 1 0 0 0 1 0 0 0 1 -20.09445 -113.4028 13.71017 0.5 1.5 5
9 0 1 0 0 0 1 0 0 0 1 -21.09445 -110.4028 13.71017 0.5 1.5 5
9 0 1 0 0 0 1 0 0 0 1 -24.09445 -101.4028 13.71017 0.5 1.5 5
9 0 1 0 0 0 1 0 0 0 1 -25.09445 -110.9028 1.210175 0.5 1 7.5
9 0 1 0 0 0 1 0 0 0 1 -26.09445 -96.40282 13.71017 0.5 1.5 5
9 0 1 0 0 0 1 0 0 0 1 -27.09445 -93.40282 13.71017 0.5 1.5 5
9 0 1 0 0 0 1 0 0 0 1 -29.09445 -87.40282 13.71017 0.5 1.5 5
9 0 1 0 0 0 1 0 0 0 1 -32.09445 -79.40282 13.71017 0.5 1.5 5
9 0 1 0 0 0 1 0 0 0 1 -32.59445 -76.40282 -0.7898254 1 1.5 2.5
9 0 1 0 0 0 1 0 0 0 1 23.90555 -8.902817 11.71017 0.5 1 7
9 0 1 0 0 0 1 0 0 0 1 18.90555 -22.90282 7.710175 0.5 1 7
9 0 1 0 0 0 1 0 0 0 1 18.90555 -29.90282 7.710175 0.5 1 7
9 0 1 0 0 0 1 0 0 0 1 -4.594452 -113.4028 8.710175 1 3.5 1
9 0 1 0 0 0 1 0 0 0 1 -4.594452 -123.4028 8.710175 1 3.5 1
9 0 1 0 0 0 1 0 0 0 1 -31.09445 -84.90282 5.210175 0.5 2 3.5
9 0 1 0 0 0 1 0 0 0 1 23.90555 -19.90282 7.710175 0.5 1 6
9 0 1 0 0 0 1 0 0 0 1 9.905548 -96.90282 12.71017 0.5 1 6
9 0 1 0 0 0 1 0 0 0 1 2.905548 -31.90282 17.21017 1.5 4 0.5
9 0 1 0 0 0 1 0 0 0 1 0.4055481 -52.90282 18.21017 2 3 0.5
9 0 1 0 0 0 1 0 0 0 1 -10.09445 -66.90282 28.71017 1.5 1 2
9 0 1 0 0 0 1 0 0 0 1 -10.09445 -73.90282 28.71017 1.5 1 2
9 0 1 0 0 0 1 0 0 0 1 -15.59445 -120.9028 18.21017 1 6 0.5
9 0 1 0 0 0 1 0 0 0 1 -28.09445 -90.40282 14.71017 0.5 1.5 4
9 0 1 0 0 0 1 0 0 0 1 -27.09445 -100.9028 2.210175 1.5 4 0.5
9 0 1 0 0 0 1 0 0 0 1 -30.09445 -46.90282 28.71017 1.5 1 2
9 0 1 0 0 0 1 0 0 0 1 -30.09445 -66.90282 28.71017 1.5 1 2
9 0 1 0 0 0 1 0 0 0 1 -30.09445 -73.90282 28.71017 1.5 1 2
9 0 1 0 0 0 1 0 0 0 1 14.90555 -31.90282 7.210175 0.5 1 5.5
9 0 1 0 0 0 1 0 0 0 1 0.9055481 -63.40282 7.710175 0.5 0.5 11
9 0 1 0 0 0 1 0 0 0 1 -31.09445 -76.40282 7.710175 0.5 0.5 11
9 0 1 0 0 0 1 0 0 0 1 -33.09445 -46.40282 7.710175 0.5 0.5 11
9 0 1 0 0 0 1 0 0 0 1 2.905548 -93.40282 -6.789825 1.5 0.5 3.5
9 0 1 0 0 0 1 0 0 0 1 -3.094452 -44.40282 17.21017 1.5 3.5 0.5
9 0 1 0 0 0 1 0 0 0 1 -25.09445 -102.4028 5.210175 0.5 1.5 3.5
9 0 1 0 0 0 1 0 0 0 1 -28.09445 -92.40282 5.210175 0.5 1.5 3.5
9 0 1 0 0 0 1 0 0 0 1 22.40555 -16.40282 7.710175 1 0.5 5
9 0 1 0 0 0 1 0 0 0 1 11.40555 -131.4028 18.21017 2 2.5 0.5
9 0 1 0 0 0 1 0 0 0 1 0.9055481 -66.90282 13.71017 0.5 1 5
9 0 1 0 0 0 1 0 0 0 1 1.405548 -94.40282 7.710175 5 0.5 1
9 0 1 0 0 0 1 0 0 0 1 -13.09445 -50.40282 28.71017 0.5 2.5 2
9 0 1 0 0 0 1 0 0 0 1 -34.09445 -88.90282 5.210175 0.5 2 2.5
9 0 1 0 0 0 1 0 0 0 1 7.905548 -86.40282 6.210175 0.5 0.5 9.5
9 0 1 0 0 0 1 0 0 0 1 11.40555 -108.4028 18.21017 3 1.5 0.5
9 0 1 0 0 0 1 0 0 0 1 10.40555 -7.402817 16.21017 3 0.5 1.5
9 0 1 0 0 0 1 0 0 0 1 4.405548 -131.4028 14.21017 1 0.5 4.5
9 0 1 0 0 0 1 0 0 0 1 -6.094452 -45.40282 17.71017 1.5 1.5 1
9 0 1 0 0 0 1 0 0 0 1 -6.594452 -130.4028 14.21017 1 0.5 4.5
9 0 1 0 0 0 1 0 0 0 1 -9.594452 -7.402817 16.21017 3 0.5 1.5
9 0 1 0 0 0 1 0 0 0 1 -17.09445 -26.90282 17.21017 1.5 3 0.5
9 0 1 0 0 0 1 0 0 0 1 -23.09445 -38.90282 17.21017 1.5 3 0.5
9 0 1 0 0 0 1 0 0 0 1 -28.09445 -39.90282 18.21017 1.5 3 0.5
9 0 1 0 0 0 1 0 0 0 1 -23.09445 -106.4028 1.210175 0.5 0.5 8.5
9 0 1 0 0 0 1 0 0 0 1 10.40555 -19.90282 17.21017 2 2 0.5
9 0 1 0 0 0 1 0 0 0 1 -2.594452 -93.40282 4.710175 1 0.5 4
9 0 1 0 0 0 1 0 0 0 1 0.4055481 -103.9028 18.21017 4 1 0.5
9 0 1 0 0 0 1 0 0 0 1 -6.094452 -50.90282 28.71017 0.5 2 2
9 0 1 0 0 0 1 0 0 0 1 -9.594452 -46.90282 28.71017 1 1 2
9 0 1 0 0 0 1 0 0 0 1 -9.594452 -54.40282 28.71017 2 0.5 2
9 0 1 0 0 0 1 0 0 0 1 -6.594452 -16.40282 17.21017 8 0.5 0.5
9 0 1 0 0 0 1 0 0 0 1 -26.09445 -50.90282 28.71017 0.5 2 2
9 0 1 0 0 0 1 0 0 0 1 -29.09445 -104.9028 5.710175 0.5 2 2
9 0 1 0 0 0 1 0 0 0 1 -31.09445 -98.90282 5.710175 0.5 2 2
9 0 1 0 0 0 1 0 0 0 1 -32.09445 -95.90282 5.710175 0.5 2 2
9 0 1 0 0 0 1 0 0 0 1 -35.09445 -86.90282 5.710175 0.5 2 2
9 0 1 0 0 0 1 0 0 0 1 25.90555 -114.4028 -2.789825 0.5 0.5 7.5
9 0 1 0 0 0 1 0 0 0 1 21.90555 -21.40282 1.210175 1.5 2.5 0.5
9 0 1 0 0 0 1 0 0 0 1 10.90555 -45.40282 7.210175 0.5 2.5 1.5
9 0 1 0 0 0 1 0 0 0 1 -22.09445 -27.40282 18.21017 1.5 2.5 0.5
9 0 1 0 0 0 1 0 0 0 1 -28.09445 -109.4028 5.210175 0.5 2.5 1.5
9 0 1 0 0 0 1 0 0 0 1 -32.09445 -79.40282 -0.7898254 0.5 1.5 2.5
9 0 1 0 0 0 1 0 0 0 1 21.90555 -24.40282 7.710175 0.5 0.5 7
9 0 1 0 0 0 1 0 0 0 1 15.90555 -28.40282 7.710175 0.5 0.5 7
9 0 1 0 0 0 1 0 0 0 1 16.40555 -120.4028 18.21017 1 3.5 0.5
9 0 1 0 0 0 1 0 0 0 1 13.90555 -97.40282 -2.289825 0.5 0.5 7
9 0 1 0 0 0 1 0 0 0 1 -0.0944519 -108.9028 -2.789825 3.5 1 0.5
9 0 1 0 0 0 1 0 0 0 1 -7.594452 -97.40282 12.21017 1 3.5 0.5
9 0 1 0 0 0 1 0 0 0 1 -10.09445 -98.40282 9.710175 0.5 3.5 1
9 0 1 0 0 0 1 0 0 0 1 -19.09445 -111.9028 12.21017 0.5 1 3.5
9 0 1 0 0 0 1 0 0 0 1 -26.09445 -110.4028 2.710175 0.5 3.5 1
9 0 1 0 0 0 1 0 0 0 1 17.40555 -30.40282 13.71017 1 1.5 1
9 0 1 0 0 0 1 0 0 0 1 11.90555 -37.90282 7.710175 0.5 1 3
9 0 1 0 0 0 1 0 0 0 1 11.90555 -96.40282 -1.289825 0.5 0.5 6
9 0 1 0 0 0 1 0 0 0 1 10.90555 -32.90282 18.21017 1.5 2 0.5
9 0 1 0 0 0 1 0 0 0 1 9.905548 -41.90282 7.710175 0.5 1 3
9 0 1 0 0 0 1 0 0 0 1 7.905548 -45.90282 7.710175 0.5 1 3
9 0 1 0 0 0 1 0 0 0 1 4.905548 -76.40282 2.710175 0.5 0.5 6
9 0 1 0 0 0 1 0 0 0 1 1.905548 -66.40282 2.710175 0.5 0.5 6
9 0 1 0 0 0 1 0 0 0 1 -5.094452 -97.90282 9.710175 0.5 3 1
9 0 1 0 0 0 1 0 0 0 1 -6.094452 -70.40282 28.71017 0.5 1.5 2
9 0 1 0 0 0 1 0 0 0 1 -4.594452 -95.40282 7.210175 6 0.5 0.5
9 0 1 0 0 0 1 0 0 0 1 -13.09445 -41.90282 17.71017 1.5 1 1
9 0 1 0 0 0 1 0 0 0 1 -14.09445 -70.40282 28.71017 0.5 1.5 2
9 0 1 0 0 0 1 0 0 0 1 -16.59445 -15.90282 18.21017 1 3 0.5
9 0 1 0 0 0 1 0 0 0 1 -17.09445 -100.9028 7.710175 1.5 1 1
9 0 1 0 0 0 1 0 0 0 1 -17.59445 -117.9028 18.21017 1 3 0.5
9 0 1 0 0 0 1 0 0 0 1 -24.09445 -107.9028 -1.289825 0.5 1 3
9 0 1 0 0 0 1 0 0 0 1 -23.59445 -110.4028 7.710175 1 1.5 1
9 0 1 0 0 0 1 0 0 0 1 -26.09445 -70.40282 28.71017 0.5 1.5 2
9 0 1 0 0 0 1 0 0 0 1 -30.09445 -86.40282 2.710175 0.5 0.5 6
9 0 1 0 0 0 1 0 0 0 1 -34.09445 -70.40282 28.71017 0.5 1.5 2
9 0 1 0 0 0 1 0 0 0 1 -37.09445 -81.90282 5.210175 0.5 2 1.5
9 0 1 0 0 0 1 0 0 0 1 3.905548 -116.4028 2.210175 0.5 0.5 5.5
9 0 1 0 0 0 1 0 0 0 1 3.905548 -120.4028 2.210175 0.5 0.5 5.5
9 0 1 0 0 0 1 0 0 0 1 -1.094452 -136.4028 18.21017 5.5 0.5 0.5
9 0 1 0 0 0 1 0 0 0 1 6.405548 -43.40282 18.21017 1 2.5 0.5
9 0 1 0 0 0 1 0 0 0 1 -19.09445 -101.4028 3.710175 0.5 0.5 5
9 0 1 0 0 0 1 0 0 0 1 -23.09445 -103.4028 13.71017 0.5 0.5 5
9 0 1 0 0 0 1 0 0 0 1 -29.09445 -88.90282 -0.7898254 0.5 1 2.5
9 0 1 0 0 0 1 0 0 0 1 -30.09445 -83.40282 13.71017 0.5 0.5 5
9 0 1 0 0 0 1 0 0 0 1 -31.09445 -80.40282 13.71017 0.5 0.5 5
9 0 1 0 0 0 1 0 0 0 1 21.90555 -21.40282 14.21017 1.5 1.5 0.5
9 0 1 0 0 0 1 0 0 0 1 16.90555 -30.40282 1.210175 1.5 1.5 0.5
9 0 1 0 0 0 1 0 0 0 1 10.90555 -95.40282 0.2101746 0.5 0.5 4.5
9 0 1 0 0 0 1 0 0 0 1 6.905548 -50.40282 7.210175 1.5 0.5 1.5
9 0 1 0 0 0 1 0 0 0 1 -10.09445 -107.4028 18.21017 1.5 1.5 0.5
9 0 1 0 0 0 1 0 0 0 1 -10.09445 -133.4028 18.21017 1.5 1.5 0.5
9 0 1 0 0 0 1 0 0 0 1 -14.09445 -50.40282 28.21017 0.5 1.5 1.5
9 0 1 0 0 0 1 0 0 0 1 -14.09445 -99.40282 8.210175 1.5 1.5 0.5
9 0 1 0 0 0 1 0 0 0 1 -26.09445 -113.4028 -2.789825 0.5 0.5 4.5
9 0 1 0 0 0 1 0 0 0 1 -34.09445 -47.40282 14.21017 0.5 0.5 4.5
9 0 1 0 0 0 1 0 0 0 1 -34.09445 -50.40282 28.21017 0.5 1.5 1.5
9 0 1 0 0 0 1 0 0 0 1 -35.09445 -77.40282 5.210175 0.5 1.5 1.5
9 0 1 0 0 0 1 0 0 0 1 19.40555 -16.90282 18.21017 1 2 0.5
9 0 1 0 0 0 1 0 0 0 1 15.40555 -24.90282 18.21017 1 2 0.5
9 0 1 0 0 0 1 0 0 0 1 14.90555 -30.40282 10.71017 0.5 0.5 4
9 0 1 0 0 0 1 0 0 0 1 13.40555 -36.90282 5.210175 1 2 0.5
9 0 1 0 0 0 1 0 0 0 1 13.40555 -36.90282 10.21017 1 2 0.5
9 0 1 0 0 0 1 0 0 0 1 12.40555 -103.9028 17.71017 1 1 1
9 0 1 0 0 0 1 0 0 0 1 9.405548 -44.90282 5.210175 1 2 0.5
9 0 1 0 0 0 1 0 0 0 1 5.405548 -17.40282 17.21017 4 0.5 0.5
9 0 1 0 0 0 1 0 0 0 1 -11.59445 -47.40282 28.71017 1 0.5 2
9 0 1 0 0 0 1 0 0 0 1 -9.594452 -97.40282 8.210175 4 0.5 0.5
9 0 1 0 0 0 1 0 0 0 1 -19.09445 -115.9028 17.71017 0.5 2 1
9 0 1 0 0 0 1 0 0 0 1 -18.59445 -102.9028 8.210175 2 1 0.5
9 0 1 0 0 0 1 0 0 0 1 -21.09445 -104.9028 7.710175 0.5 2 1
9 0 1 0 0 0 1 0 0 0 1 -24.59445 -112.9028 7.710175 1 1 1
9 0 1 0 0 0 1 0 0 0 1 -29.59445 -98.90282 8.210175 1 2 0.5
9 0 1 0 0 0 1 0 0 0 1 -32.59445 -88.90282 2.210175 1 2 0.5
9 0 1 0 0 0 1 0 0 0 1 -32.59445 -88.90282 8.210175 1 2 0.5
9 0 1 0 0 0 1 0 0 0 1 19.90555 -7.402817 13.21017 3.5 0.5 0.5
9 0 1 0 0 0 1 0 0 0 1 -0.0944519 -7.402817 13.21017 3.5 0.5 0.5
9 0 1 0 0 0 1 0 0 0 1 -0.0944519 -127.4028 -2.789825 3.5 0.5 0.5
9 0 1 0 0 0 1 0 0 0 1 -9.094452 -96.40282 7.210175 3.5 0.5 0.5
9 0 1 0 0 0 1 0 0 0 1 -20.09445 -111.4028 12.21017 0.5 0.5 3.5
9 0 1 0 0 0 1 0 0 0 1 -25.09445 -109.4028 5.210175 0.5 0.5 3.5
9 0 1 0 0 0 1 0 0 0 1 -35.09445 -81.40282 8.210175 0.5 3.5 0.5
9 0 1 0 0 0 1 0 0 0 1 22.90555 -9.902817 18.21017 0.5 3 0.5
9 0 1 0 0 0 1 0 0 0 1 16.90555 -27.90282 2.210175 0.5 1 1.5
9 0 1 0 0 0 1 0 0 0 1 15.90555 -35.90282 7.210175 0.5 1 1.5
9 0 1 0 0 0 1 0 0 0 1 13.90555 -39.90282 7.210175 0.5 1 1.5
9 0 1 0 0 0 1 0 0 0 1 11.90555 -43.90282 7.210175 0.5 1 1.5
9 0 1 0 0 0 1 0 0 0 1 11.90555 -39.90282 5.210175 1.5 1 0.5
9 0 1 0 0 0 1 0 0 0 1 11.90555 -39.90282 10.21017 1.5 1 0.5
9 0 1 0 0 0 1 0 0 0 1 10.40555 -7.402817 13.21017 1 0.5 1.5
9 0 1 0 0 0 1 0 0 0 1 9.405548 -23.40282 17.21017 1 1.5 0.5
9 0 1 0 0 0 1 0 0 0 1 9.405548 -44.40282 10.21017 1 1.5 0.5
9 0 1 0 0 0 1 0 0 0 1 7.905548 -47.90282 10.21017 1.5 1 0.5
9 0 1 0 0 0 1 0 0 0 1 6.905548 -94.40282 -6.289825 0.5 0.5 3
9 0 1 0 0 0 1 0 0 0 1 5.905548 -49.40282 7.710175 0.5 0.5 3
9 0 1 0 0 0 1 0 0 0 1 5.405548 -7.402817 9.210175 1 0.5 1.5
9 0 1 0 0 0 1 0 0 0 1 5.405548 -29.40282 17.21017 1 1.5 0.5
9 0 1 0 0 0 1 0 0 0 1 0.4055481 -93.40282 -4.789825 1 0.5 1.5
9 0 1 0 0 0 1 0 0 0 1 -0.5944519 -42.40282 17.21017 1 1.5 0.5
9 0 1 0 0 0 1 0 0 0 1 -4.594452 -93.40282 7.210175 1 0.5 1.5
9 0 1 0 0 0 1 0 0 0 1 -5.094452 -94.40282 -9.289825 1.5 0.5 1
9 0 1 0 0 0 1 0 0 0 1 -6.594452 -94.40282 10.21017 1 0.5 1.5
9 0 1 0 0 0 1 0 0 0 1 -8.094452 -94.40282 -2.289825 0.5 0.5 3
9 0 1 0 0 0 1 0 0 0 1 -9.594452 -7.402817 13.21017 1 0.5 1.5
9 0 1 0 0 0 1 0 0 0 1 -11.09445 -96.40282 9.710175 0.5 1.5 1
9 0 1 0 0 0 1 0 0 0 1 -10.59445 -15.40282 17.21017 3 0.5 0.5
9 0 1 0 0 0 1 0 0 0 1 -14.59445 -7.402817 9.210175 1 0.5 1.5
9 0 1 0 0 0 1 0 0 0 1 -22.09445 -104.9028 7.210175 0.5 1 1.5
9 0 1 0 0 0 1 0 0 0 1 -26.09445 -109.9028 8.210175 0.5 3 0.5
9 0 1 0 0 0 1 0 0 0 1 -27.09445 -91.40282 11.71017 0.5 0.5 3
9 0 1 0 0 0 1 0 0 0 1 -28.09445 -90.40282 9.710175 0.5 1.5 1
9 0 1 0 0 0 1 0 0 0 1 -29.09445 -99.90282 2.210175 0.5 3 0.5
9 0 1 0 0 0 1 0 0 0 1 -30.09445 -103.9028 5.210175 0.5 1 1.5
9 0 1 0 0 0 1 0 0 0 1 -33.09445 -94.90282 5.210175 0.5 1 1.5
9 0 1 0 0 0 1 0 0 0 1 -34.09445 -91.90282 5.210175 0.5 1 1.5
9 0 1 0 0 0 1 0 0 0 1 -35.09445 -81.90282 2.210175 0.5 3 0.5
9 0 1 0 0 0 1 0 0 0 1 -36.09445 -85.90282 5.210175 0.5 1 1.5
9 0 1 0 0 0 1 0 0 0 1 13.90555 -32.40282 10.21017 0.5 0.5 2.5
9 0 1 0 0 0 1 0 0 0 1 15.90555 -33.40282 4.210175 2.5 0.5 0.5
9 0 1 0 0 0 1 0 0 0 1 15.90555 -33.40282 11.21017 2.5 0.5 0.5
9 0 1 0 0 0 1 0 0 0 1 6.905548 -95.40282 7.210175 2.5 0.5 0.5
9 0 1 0 0 0 1 0 0 0 1 -0.0944519 -108.4028 -5.789825 0.5 0.5 2.5
9 0 1 0 0 0 1 0 0 0 1 -1.094452 -94.40282 6.210175 2.5 0.5 0.5
9 0 1 0 0 0 1 0 0 0 1 -26.09445 -94.40282 11.21017 0.5 0.5 2.5
9 0 1 0 0 0 1 0 0 0 1 -26.09445 -97.40282 -0.7898254 0.5 0.5 2.5
9 0 1 0 0 0 1 0 0 0 1 -27.09445 -94.40282 -0.7898254 0.5 0.5 2.5
9 0 1 0 0 0 1 0 0 0 1 -28.09445 -88.40282 13.21017 0.5 0.5 2.5
9 0 1 0 0 0 1 0 0 0 1 -28.09445 -91.40282 -0.7898254 0.5 0.5 2.5
9 0 1 0 0 0 1 0 0 0 1 -30.09445 -41.40282 18.21017 0.5 2.5 0.5
9 0 1 0 0 0 1 0 0 0 1 15.90555 -29.90282 13.71017 0.5 1 1
9 0 1 0 0 0 1 0 0 0 1 14.90555 -7.402817 9.710175 0.5 0.5 2
9 0 1 0 0 0 1 0 0 0 1 10.90555 -42.90282 5.210175 0.5 2 0.5
9 0 1 0 0 0 1 0 0 0 1 10.90555 -96.90282 7.710175 0.5 1 1
9 0 1 0 0 0 1 0 0 0 1 11.40555 -100.9028 18.21017 1 1 0.5
9 0 1 0 0 0 1 0 0 0 1 11.40555 -134.4028 17.71017 1 0.5 1
9 0 1 0 0 0 1 0 0 0 1 10.40555 -35.90282 18.21017 1 1 0.5
9 0 1 0 0 0 1 0 0 0 1 9.405548 -49.40282 7.710175 1 0.5 1
9 0 1 0 0 0 1 0 0 0 1 8.405548 -130.9028 18.21017 1 1 0.5
9 0 1 0 0 0 1 0 0 0 1 4.905548 -81.40282 10.71017 0.5 0.5 2
9 0 1 0 0 0 1 0 0 0 1 5.405548 -7.402817 17.21017 2 0.5 0.5
9 0 1 0 0 0 1 0 0 0 1 3.905548 -108.9028 8.710175 0.5 1 1
9 0 1 0 0 0 1 0 0 0 1 3.905548 -127.9028 8.710175 0.5 1 1
9 0 1 0 0 0 1 0 0 0 1 3.405548 -50.90282 18.21017 1 1 0.5
9 0 1 0 0 0 1 0 0 0 1 2.405548 -36.90282 17.21017 1 1 0.5
9 0 1 0 0 0 1 0 0 0 1 0.4055481 -56.90282 18.21017 1 1 0.5
9 0 1 0 0 0 1 0 0 0 1 -2.094452 -51.90282 18.21017 0.5 2 0.5
9 0 1 0 0 0 1 0 0 0 1 -3.594452 -48.90282 17.21017 1 1 0.5
9 0 1 0 0 0 1 0 0 0 1 -4.094452 -97.90282 9.210175 0.5 2 0.5
9 0 1 0 0 0 1 0 0 0 1 -5.094452 -7.402817 9.710175 0.5 0.5 2
9 0 1 0 0 0 1 0 0 0 1 -5.094452 -98.90282 11.21017 0.5 2 0.5
9 0 1 0 0 0 1 0 0 0 1 -8.094452 -44.90282 17.71017 0.5 1 1
9 0 1 0 0 0 1 0 0 0 1 -8.094452 -47.40282 28.71017 0.5 0.5 2
9 0 1 0 0 0 1 0 0 0 1 -8.094452 -67.40282 28.71017 0.5 0.5 2
9 0 1 0 0 0 1 0 0 0 1 -8.094452 -73.40282 28.71017 0.5 0.5 2
9 0 1 0 0 0 1 0 0 0 1 -9.094452 -96.90282 12.21017 0.5 2 0.5
9 0 1 0 0 0 1 0 0 0 1 -8.594452 -95.40282 6.210175 2 0.5 0.5
9 0 1 0 0 0 1 0 0 0 1 -10.09445 -96.90282 11.21017 0.5 2 0.5
9 0 1 0 0 0 1 0 0 0 1 -12.09445 -67.40282 28.71017 0.5 0.5 2
9 0 1 0 0 0 1 0 0 0 1 -12.09445 -73.40282 28.71017 0.5 0.5 2
9 0 1 0 0 0 1 0 0 0 1 -14.59445 -98.40282 6.710175 1 0.5 1
9 0 1 0 0 0 1 0 0 0 1 -16.09445 -21.90282 17.21017 0.5 2 0.5
9 0 1 0 0 0 1 0 0 0 1 -18.09445 -16.90282 18.21017 0.5 2 0.5
9 0 1 0 0 0 1 0 0 0 1 -18.09445 -100.4028 4.710175 0.5 0.5 2
9 0 1 0 0 0 1 0 0 0 1 -19.09445 -27.90282 17.21017 0.5 2 0.5
9 0 1 0 0 0 1 0 0 0 1 -19.09445 -113.9028 16.21017 0.5 2 0.5
9 0 1 0 0 0 1 0 0 0 1 -19.59445 -102.9028 7.210175 1 1 0.5
9 0 1 0 0 0 1 0 0 0 1 -21.09445 -22.90282 18.21017 0.5 2 0.5
9 0 1 0 0 0 1 0 0 0 1 -22.09445 -33.90282 17.21017 0.5 2 0.5
9 0 1 0 0 0 1 0 0 0 1 -22.59445 -107.9028 7.210175 1 1 0.5
9 0 1 0 0 0 1 0 0 0 1 -24.09445 -28.90282 18.21017 0.5 2 0.5
9 0 1 0 0 0 1 0 0 0 1 -24.09445 -103.4028 10.71017 0.5 0.5 2
9 0 1 0 0 0 1 0 0 0 1 -24.09445 -115.9028 8.210175 0.5 2 0.5
9 0 1 0 0 0 1 0 0 0 1 -25.09445 -39.90282 17.21017 0.5 2 0.5
9 0 1 0 0 0 1 0 0 0 1 -25.09445 -114.9028 7.710175 0.5 1 1
9 0 1 0 0 0 1 0 0 0 1 -26.09445 -114.9028 6.710175 0.5 1 1
9 0 1 0 0 0 1 0 0 0 1 -27.09445 -34.90282 18.21017 0.5 2 0.5
9 0 1 0 0 0 1 0 0 0 1 -26.59445 -105.9028 2.210175 1 1 0.5
9 0 1 0 0 0 1 0 0 0 1 -27.09445 -108.9028 3.210175 0.5 2 0.5
9 0 1 0 0 0 1 0 0 0 1 -28.09445 -47.40282 28.71017 0.5 0.5 2
9 0 1 0 0 0 1 0 0 0 1 -27.59445 -67.40282 27.71017 1 0.5 1
9 0 1 0 0 0 1 0 0 0 1 -28.09445 -73.40282 28.71017 0.5 0.5 2
9 0 1 0 0 0 1 0 0 0 1 -29.09445 -107.9028 5.710175 0.5 1 1
9 0 1 0 0 0 1 0 0 0 1 -30.09445 -86.40282 16.71017 0.5 0.5 2
9 0 1 0 0 0 1 0 0 0 1 -31.09445 -83.40282 16.71017 0.5 0.5 2
9 0 1 0 0 0 1 0 0 0 1 -31.09445 -101.9028 5.710175 0.5 1 1
9 0 1 0 0 0 1 0 0 0 1 -32.09445 -44.90282 -2.289825 0.5 1 1
9 0 1 0 0 0 1 0 0 0 1 -32.09445 -47.40282 28.71017 0.5 0.5 2
9 0 1 0 0 0 1 0 0 0 1 -32.09445 -53.40282 28.71017 0.5 0.5 2
9 0 1 0 0 0 1 0 0 0 1 -32.09445 -67.40282 28.71017 0.5 0.5 2
9 0 1 0 0 0 1 0 0 0 1 -32.09445 -73.40282 28.71017 0.5 0.5 2
9 0 1 0 0 0 1 0 0 0 1 -32.09445 -98.90282 5.710175 0.5 1 1
9 0 1 0 0 0 1 0 0 0 1 -35.09445 -89.90282 5.710175 0.5 1 1
9 0 1 0 0 0 1 0 0 0 1 25.90555 -17.40282 10.21017 0.5 0.5 1.5
9 0 1 0 0 0 1 0 0 0 1 23.90555 -7.402817 6.210175 0.5 0.5 1.5
9 0 1 0 0 0 1 0 0 0 1 24.90555 -18.40282 13.21017 1.5 0.5 0.5
9 0 1 0 0 0 1 0 0 0 1 21.90555 -16.40282 13.21017 0.5 1.5 0.5
9 0 1 0 0 0 1 0 0 0 1 15.90555 -115.4028 18.21017 0.5 1.5 0.5
9 0 1 0 0 0 1 0 0 0 1 15.90555 -125.4028 18.21017 0.5 1.5 0.5
9 0 1 0 0 0 1 0 0 0 1 14.90555 -7.402817 17.21017 1.5 0.5 0.5
9 0 1 0 0 0 1 0 0 0 1 13.90555 -130.4028 18.21017 0.5 1.5 0.5
9 0 1 0 0 0 1 0 0 0 1 10.90555 -42.40282 10.21017 0.5 1.5 0.5
9 0 1 0 0 0 1 0 0 0 1 10.90555 -44.40282 9.210175 0.5 1.5 0.5
9 0 1 0 0 0 1 0 0 0 1 11.90555 -103.4028 16.21017 1.5 0.5 0.5
9 0 1 0 0 0 1 0 0 0 1 9.905548 -95.40282 -4.789825 0.5 0.5 1.5
9 0 1 0 0 0 1 0 0 0 1 9.905548 -98.40282 8.210175 1.5 0.5 0.5
9 0 1 0 0 0 1 0 0 0 1 7.905548 -91.40282 17.21017 0.5 0.5 1.5
9 0 1 0 0 0 1 0 0 0 1 7.905548 -97.40282 8.210175 1.5 0.5 0.5
9 0 1 0 0 0 1 0 0 0 1 4.905548 -93.40282 -4.789825 0.5 0.5 1.5
9 0 1 0 0 0 1 0 0 0 1 2.905548 -69.40282 -1.789825 0.5 0.5 1.5
9 0 1 0 0 0 1 0 0 0 1 2.905548 -137.4028 17.21017 1.5 0.5 0.5
9 0 1 0 0 0 1 0 0 0 1 -4.094452 -118.4028 -2.789825 0.5 1.5 0.5
9 0 1 0 0 0 1 0 0 0 1 -5.094452 -7.402817 17.21017 1.5 0.5 0.5
9 0 1 0 0 0 1 0 0 0 1 -6.094452 -99.40282 12.21017 0.5 1.5 0.5
9 0 1 0 0 0 1 0 0 0 1 -5.094452 -104.4028 18.21017 1.5 0.5 0.5
9 0 1 0 0 0 1 0 0 0 1 -7.094452 -131.4028 18.21017 1.5 0.5 0.5
9 0 1 0 0 0 1 0 0 0 1 -12.09445 -97.40282 7.210175 1.5 0.5 0.5
9 0 1 0 0 0 1 0 0 0 1 -14.09445 -7.402817 17.21017 1.5 0.5 0.5
9 0 1 0 0 0 1 0 0 0 1 -15.09445 -98.40282 1.210175 0.5 0.5 1.5
9 0 1 0 0 0 1 0 0 0 1 -15.09445 -113.4028 18.21017 0.5 1.5 0.5
9 0 1 0 0 0 1 0 0 0 1 -15.09445 -99.40282 7.210175 1.5 0.5 0.5
9 0 1 0 0 0 1 0 0 0 1 -18.09445 -114.4028 17.21017 0.5 1.5 0.5
9 0 1 0 0 0 1 0 0 0 1 -20.09445 -105.4028 8.210175 0.5 1.5 0.5
9 0 1 0 0 0 1 0 0 0 1 -21.09445 -108.4028 9.210175 0.5 0.5 1.5
9 0 1 0 0 0 1 0 0 0 1 -22.09445 -110.4028 8.210175 0.5 1.5 0.5
9 0 1 0 0 0 1 0 0 0 1 -24.09445 -108.4028 -5.789825 0.5 0.5 1.5
9 0 1 0 0 0 1 0 0 0 1 -25.09445 -100.4028 7.210175 0.5 0.5 1.5
9 0 1 0 0 0 1 0 0 0 1 -26.09445 -41.40282 17.21017 0.5 1.5 0.5
9 0 1 0 0 0 1 0 0 0 1 -27.09445 -108.4028 8.210175 0.5 1.5 0.5
9 0 1 0 0 0 1 0 0 0 1 -27.09445 -114.4028 5.210175 0.5 0.5 1.5
9 0 1 0 0 0 1 0 0 0 1 -28.09445 -108.4028 7.210175 0.5 1.5 0.5
9 0 1 0 0 0 1 0 0 0 1 -29.09445 -102.4028 8.210175 0.5 1.5 0.5
9 0 1 0 0 0 1 0 0 0 1 -29.09445 -104.4028 3.210175 0.5 1.5 0.5
9 0 1 0 0 0 1 0 0 0 1 -30.09445 -98.40282 2.210175 0.5 1.5 0.5
9 0 1 0 0 0 1 0 0 0 1 -31.09445 -43.40282 18.21017 0.5 1.5 0.5
9 0 1 0 0 0 1 0 0 0 1 -31.09445 -98.40282 3.210175 0.5 1.5 0.5
9 0 1 0 0 0 1 0 0 0 1 -32.09445 -92.40282 2.210175 0.5 1.5 0.5
9 0 1 0 0 0 1 0 0 0 1 -32.09445 -92.40282 8.210175 0.5 1.5 0.5
9 0 1 0 0 0 1 0 0 0 1 -35.09445 -86.40282 3.210175 0.5 1.5 0.5
