9 0 1 0 0 0 1 0 0 0 1 -0.04014969 -39.99158 -2.040062 6 9.5 0.5
9 0 1 0 0 0 1 0 0 0 1 -0.04014969 -34.99158 -1.040062 5 5.5 0.5
9 0 1 0 0 0 1 0 0 0 1 -0.04014969 -47.49158 -1.040062 6 2 0.5
9 0 1 0 0 0 1 0 0 0 1 -0.04014969 -49.99158 -3.540062 8 0.5 1
9 0 1 0 0 0 1 0 0 0 1 -0.04014969 -27.99158 -2.040062 3 2.5 0.5
9 0 1 0 0 0 1 0 0 0 1 5.95985 -38.49158 -1.040062 1 7 0.5
9 0 1 0 0 0 1 0 0 0 1 -6.04015 -38.49158 -1.040062 1 7 0.5
9 0 1 0 0 0 1 0 0 0 1 6.95985 -43.49158 -2.040062 1 6 0.5
9 0 1 0 0 0 1 0 0 0 1 -7.04015 -43.49158 -2.040062 1 6 0.5
9 0 1 0 0 0 1 0 0 0 1 4.45985 -30.99158 -0.04006195 1.5 3.5 0.5
9 0 1 0 0 0 1 0 0 0 1 -4.54015 -30.99158 -0.04006195 1.5 3.5 0.5
9 0 1 0 0 0 1 0 0 0 1 3.45985 -42.99158 -1.040062 1.5 2.5 0.5
9 0 1 0 0 0 1 0 0 0 1 -3.54015 -42.99158 -1.040062 1.5 2.5 0.5
9 0 1 0 0 0 1 0 0 0 1 -7.54015 -36.99158 -0.04006195 1.5 2.5 0.5
9 0 1 0 0 0 1 0 0 0 1 6.95985 -34.99158 -0.04006195 1 3.5 0.5
9 0 1 0 0 0 1 0 0 0 1 -0.04014969 -49.99158 -22.04006 7 0.5 0.5
9 0 1 0 0 0 1 0 0 0 1 8.45985 -49.99158 -14.54006 0.5 0.5 6
9 0 1 0 0 0 1 0 0 0 1 6.45985 -49.99158 -6.540062 1.5 0.5 2
9 0 1 0 0 0 1 0 0 0 1 3.95985 -26.49158 -1.040062 1 3 0.5
9 0 1 0 0 0 1 0 0 0 1 -4.04015 -26.49158 -1.040062 1 3 0.5
9 0 1 0 0 0 1 0 0 0 1 -6.04015 -49.99158 -6.040062 2 0.5 1.5
9 0 1 0 0 0 1 0 0 0 1 8.45985 -36.99158 0.459938 0.5 2.5 1
9 0 1 0 0 0 1 0 0 0 1 7.95985 -40.99158 -1.040062 1 2.5 0.5
9 0 1 0 0 0 1 0 0 0 1 -7.54015 -39.49158 -1.040062 0.5 4 0.5
9 0 1 0 0 0 1 0 0 0 1 -8.04015 -34.49158 0.959938 1 2 0.5
9 0 1 0 0 0 1 0 0 0 1 15.95985 -21.99158 6.959938 1 1.5 0.5
9 0 1 0 0 0 1 0 0 0 1 12.95985 -22.99158 4.959938 1 1.5 0.5
9 0 1 0 0 0 1 0 0 0 1 9.95985 -39.99158 0.959938 1 1.5 0.5
9 0 1 0 0 0 1 0 0 0 1 6.45985 -28.49158 0.959938 0.5 3 0.5
9 0 1 0 0 0 1 0 0 0 1 -6.54015 -28.49158 0.959938 0.5 3 0.5
9 0 1 0 0 0 1 0 0 0 1 -9.04015 -37.99158 0.959938 1 1.5 0.5
9 0 1 0 0 0 1 0 0 0 1 -11.54015 -21.49158 2.959938 0.5 3 0.5
9 0 1 0 0 0 1 0 0 0 1 -12.54015 -22.99158 4.459938 0.5 1.5 1
9 0 1 0 0 0 1 0 0 0 1 11.45985 -21.99158 2.959938 0.5 2.5 0.5
9 0 1 0 0 0 1 0 0 0 1 8.45985 -22.99158 0.959938 0.5 2.5 0.5
9 0 1 0 0 0 1 0 0 0 1 7.45985 -49.99158 -19.04006 0.5 0.5 2.5
9 0 1 0 0 0 1 0 0 0 1 6.45985 -23.99158 -0.04006195 0.5 2.5 0.5
9 0 1 0 0 0 1 0 0 0 1 -7.54015 -49.99158 -19.04006 0.5 0.5 2.5
9 0 1 0 0 0 1 0 0 0 1 -8.54015 -22.99158 0.959938 0.5 2.5 0.5
9 0 1 0 0 0 1 0 0 0 1 14.95985 -22.49158 5.959938 1 1 0.5
9 0 1 0 0 0 1 0 0 0 1 11.95985 -23.49158 3.959938 1 1 0.5
9 0 1 0 0 0 1 0 0 0 1 9.45985 -23.49158 1.959938 0.5 2 0.5
9 0 1 0 0 0 1 0 0 0 1 9.95985 -24.49158 2.959938 1 1 0.5
9 0 1 0 0 0 1 0 0 0 1 9.45985 -40.49158 -0.04006195 0.5 2 0.5
9 0 1 0 0 0 1 0 0 0 1 7.95985 -33.49158 0.959938 1 1 0.5
9 0 1 0 0 0 1 0 0 0 1 7.45985 -36.49158 -1.040062 0.5 2 0.5
9 0 1 0 0 0 1 0 0 0 1 6.45985 -35.49158 -2.040062 0.5 2 0.5
9 0 1 0 0 0 1 0 0 0 1 5.45985 -25.49158 -0.540062 0.5 1 1
9 0 1 0 0 0 1 0 0 0 1 4.95985 -35.49158 -0.04006195 1 1 0.5
9 0 1 0 0 0 1 0 0 0 1 3.95985 -29.49158 -2.040062 1 1 0.5
9 0 1 0 0 0 1 0 0 0 1 3.95985 -49.99158 -5.540062 1 0.5 1
9 0 1 0 0 0 1 0 0 0 1 -5.54015 -25.49158 -0.540062 0.5 1 1
9 0 1 0 0 0 1 0 0 0 1 -6.54015 -24.49158 -0.04006195 0.5 2 0.5
9 0 1 0 0 0 1 0 0 0 1 -6.54015 -32.49158 -0.04006195 0.5 2 0.5
9 0 1 0 0 0 1 0 0 0 1 -6.54015 -35.49158 -2.040062 0.5 2 0.5
9 0 1 0 0 0 1 0 0 0 1 -7.54015 -49.99158 -9.540062 0.5 0.5 2
9 0 1 0 0 0 1 0 0 0 1 -8.54015 -41.49158 -1.040062 0.5 2 0.5
9 0 1 0 0 0 1 0 0 0 1 -9.04015 -24.49158 1.959938 1 1 0.5
9 0 1 0 0 0 1 0 0 0 1 -9.54015 -40.49158 0.459938 0.5 1 1
9 0 1 0 0 0 1 0 0 0 1 -10.04015 -24.49158 2.959938 1 1 0.5
9 0 1 0 0 0 1 0 0 0 1 -10.54015 -41.49158 0.959938 0.5 2 0.5
9 0 1 0 0 0 1 0 0 0 1 -14.54015 -22.49158 5.959938 0.5 2 0.5
9 0 1 0 0 0 1 0 0 0 1 -17.04015 -21.49158 7.959938 1 1 0.5
9 0 1 0 0 0 1 0 0 0 1 11.45985 -39.99158 1.959938 0.5 1.5 0.5
9 0 1 0 0 0 1 0 0 0 1 9.45985 -36.99158 0.959938 0.5 1.5 0.5
9 0 1 0 0 0 1 0 0 0 1 7.45985 -49.99158 -10.04006 0.5 0.5 1.5
9 0 1 0 0 0 1 0 0 0 1 6.45985 -46.99158 -1.040062 0.5 1.5 0.5
9 0 1 0 0 0 1 0 0 0 1 -3.54015 -28.99158 -2.040062 0.5 1.5 0.5
9 0 1 0 0 0 1 0 0 0 1 -5.54015 -35.99158 -0.04006195 0.5 1.5 0.5
9 0 1 0 0 0 1 0 0 0 1 -9.54015 -33.99158 1.959938 0.5 1.5 0.5
9 0 1 0 0 0 1 0 0 0 1 -10.54015 -20.99158 1.959938 0.5 1.5 0.5
9 0 1 0 0 0 1 0 0 0 1 -11.54015 -23.99158 3.959938 0.5 1.5 0.5
9 0 1 0 0 0 1 0 0 0 1 -11.54015 -39.99158 1.959938 0.5 1.5 0.5
9 0 1 0 0 0 1 0 0 0 1 -13.54015 -22.99158 4.959938 0.5 1.5 0.5
9 0 1 0 0 0 1 0 0 0 1 -15.54015 -21.99158 6.959938 0.5 1.5 0.5
