8192 0 0.6410422 0 -0.7675056 0 1 0 0.7675056 0 0.6410422 92.10919 -4 47.17793 3.004556 3.25 2.657276
8192 0 0.9736423 0 -0.2280801 0 1 0 0.2280801 0 0.9736423 62.58022 -4 67.1051 2.818828 3.25 0.4641295
8192 0 0.9363135 0 -0.3511653 0 1 0 0.3511653 0 0.9363135 69.7468 -4 64.30392 3.560388 3.25 1.018296
8192 0 -0.7675059 0 0.6410419 0 1 0 -0.6410419 0 -0.7675059 87.17793 -4 52.10919 3.004556 3.25 2.657276
8192 0 -0.2280803 0 0.9736423 0 1 0 -0.9736423 0 -0.2280803 107.1051 -4 22.58022 2.818828 3.25 0.4641295
8192 0 -0.3511654 0 0.9363135 0 1 0 -0.9363135 0 -0.3511654 104.3963 -4 29.78145 3.560388 3.25 0.9196353
9 0 1 0 0 0 1 0 0 0 1 107.7203 -4 10 0.7041546 3.25 8.584081
8192 0 -0.7071067 0 0.7071068 0 1 0 -0.7071068 0 -0.7071067 85.93353 -4 45.8937 2.057804 3.25 1.029668
8192 0 -0.7675059 0 -0.6410419 0 1 0 0.6410419 0 -0.7675059 87.17793 -4 -32.10919 3.004556 3.25 2.657276
8192 0 -0.2280803 0 -0.9736423 0 1 0 0.9736423 0 -0.2280803 107.1051 -4 -2.580216 2.818828 3.25 0.4641295
8192 0 -0.3511654 0 -0.9363135 0 1 0 0.9363135 0 -0.3511654 104.3039 -4 -9.746806 3.560388 3.25 1.018297
8192 0 0.6410422 0 0.7675056 0 1 0 -0.7675056 0 0.6410422 92.10919 -4 -27.17792 3.004556 3.25 2.657276
8192 0 0.9736423 0 0.2280801 0 1 0 -0.2280801 0 0.9736423 62.58022 -4 -47.1051 2.818828 3.25 0.4641295
8192 0 0.9363135 0 0.3511653 0 1 0 -0.3511653 0 0.9363135 69.78146 -4 -44.39629 3.560388 3.25 0.9196368
9 0 1 0 0 0 1 0 0 0 1 50 -4 -47.72034 8.58408 3.25 0.7041566
8192 0 0.7071067 0 0.7071068 0 1 0 -0.7071068 0 0.7071067 85.8937 -4 -25.93354 2.057804 3.25 1.029668
8192 0 -0.641042 0 0.7675057 0 1 0 -0.7675057 0 -0.641042 7.890808 -4 -27.17792 3.004556 3.25 2.657276
8192 0 -0.9736422 0 0.2280801 0 1 0 -0.2280801 0 -0.9736422 37.41978 -4 -47.1051 2.818828 3.25 0.4641295
8192 0 -0.9363134 0 0.3511653 0 1 0 -0.3511653 0 -0.9363134 30.25319 -4 -44.30391 3.560388 3.25 1.018298
8192 0 0.7675056 0 -0.6410422 0 1 0 0.6410422 0 0.7675056 12.82207 -4 -32.10919 3.004556 3.25 2.657276
8192 0 0.22808 0 -0.9736424 0 1 0 0.9736424 0 0.22808 -7.105104 -4 -2.580216 2.818828 3.25 0.4641295
8192 0 0.3511654 0 -0.9363135 0 1 0 0.9363135 0 0.3511654 -4.396291 -4 -9.781453 3.560388 3.25 0.9196362
9 0 1 0 0 0 1 0 0 0 1 -7.720345 -4 10 0.7041565 3.25 8.584081
8192 0 0.7071067 0 -0.7071068 0 1 0 0.7071068 0 0.7071067 14.06646 -4 -25.8937 2.057804 3.25 1.029668
8192 0 0.7675056 0 0.6410422 0 1 0 -0.6410422 0 0.7675056 12.82207 -4 52.10919 3.004556 3.25 2.657276
8192 0 0.22808 0 0.9736424 0 1 0 -0.9736424 0 0.22808 -7.105104 -4 22.58022 2.818828 3.25 0.4641295
8192 0 0.3511654 0 0.9363135 0 1 0 -0.9363135 0 0.3511654 -4.303914 -4 29.74681 3.560388 3.25 1.018296
8192 0 -0.641042 0 -0.7675057 0 1 0 0.7675057 0 -0.641042 7.890807 -4 47.17793 3.004556 3.25 2.657276
8192 0 -0.9736422 0 -0.2280801 0 1 0 0.2280801 0 -0.9736422 37.41978 -4 67.1051 2.818828 3.25 0.4641295
8192 0 -0.9363134 0 -0.3511653 0 1 0 0.3511653 0 -0.9363134 30.21855 -4 64.39629 3.560388 3.25 0.9196346
9 0 1 0 0 0 1 0 0 0 1 50 -4 67.72034 8.58408 3.25 0.7041541
8192 0 -0.7071067 0 -0.7071068 0 1 0 0.7071068 0 -0.7071067 14.1063 -4 45.93354 2.057804 3.25 1.029668
