9 0 1 0 0 0 1 0 0 0 1 135.9861 0 0.01294116 7.877974 6.965086 14.60269
9 0 1 0 0 0 1 0 0 0 1 144.2791 0.01156602 0 12.33702 15.68187 6.965088
9 0 1 0 0 0 1 0 0 0 1 162.754 0 0 1.929694 6.785914 6.785914
9 0 1 0 0 0 1 0 0 0 1 112.7419 0 0 19.33274 9.634707 4.140862
9 0 1 0 0 0 1 0 0 0 1 72.92664 0 0 17.84851 8.319818 2.149467
9 0 1 0 0 0 1 0 0 0 1 32.94844 0 0 20.5802 6.369702 2.785717
9 0 1 0 0 0 1 0 0 0 1 8.375798 0 0 2.726801 1.490405 2.785717
9 0 1 0 0 0 1 0 0 0 1 4.768349 0.08269896 -0.04393686 0.2914531 4.86032 2.52084
9 0 1 0 0 0 1 0 0 0 1 2.365425 0 0 0.6780587 2.076005 1.537443
8192 0 0.7685706 -5.960464E-08 0.639765 -0.639765 -2.384186E-07 0.7685707 5.960464E-08 -1 -2.384186E-07 122.784 -0.1265013 6.638663 5.591908 3.390224 2.095577
9 0 1 0 0 0 1 0 0 0 1 128.4553 -13.19425 -0.1247708 12.14344 2.001216 2.568607
9 0 1 0 0 0 1 0 0 0 1 128.4553 13.53106 -0.1247708 12.14344 2.001216 2.568607
8192 0 0.7502286 2.980232E-08 -0.6611785 0.6611785 -1.192093E-07 0.7502287 -2.980232E-08 -1 -1.192093E-07 124.3578 11.31292 -5.119677 3.683844 1.501245 1.14119
8192 0 0.7502286 2.980232E-08 -0.6611785 0.6611785 -1.192093E-07 0.7502287 -2.980232E-08 -1 -1.192093E-07 124.3578 -11.09324 -5.119677 3.683844 1.501245 1.14119
8192 0 -0.7900432 0 -0.6130511 0.6130511 0 -0.7900432 0 -1 0 125.3535 -11.09324 7.069323 3.683844 1.501245 1.14119
8192 0 -0.7900432 0 -0.6130511 0.6130511 0 -0.7900432 0 -1 0 124.7537 11.34642 5.628403 3.683844 1.501245 1.14119
9 0 1 0 0 0 1 0 0 0 1 152.255 0 0.08851141 6.744884 6.965086 15.25462
8192 0 0.9066709 1.490116E-08 -0.4218386 0.4218386 -1.192093E-07 0.906671 -1.490116E-08 -1 -1.192093E-07 122.9934 -0.1265013 -7.681604 5.591908 3.390224 2.095577
9 0 1 0 0 0 1 0 0 0 1 121.7743 -0.01519302 0.2018809 9.049959 2.031947 7.870482
8192 0 0.7678894 0 -0.6405824 0 1 0 0.6405824 0 0.7678894 160.5634 0.03617749 -9.698793 1.929694 6.749737 3.898664
8192 0 0.7939517 0 0.6079808 0 1 0 -0.6079808 0 0.7939517 160.9986 0.03617749 9.485674 1.929694 6.749737 3.898664
8192 0 -0.7068521 -0.7073615 0 0.7073615 -0.7068521 0 0 0 1 160.7308 -10.96914 0 4.252957 0.7824169 6.785914
8192 0 0.6766758 -0.7362811 0 0.7362811 0.6766758 0 0 0 1 161.3697 10.83186 0 4.252957 0.7824169 6.785914
8192 0 0.9982087 0.04726342 -0.03668208 -0.05956464 0.7276176 -0.6833919 -0.005608913 0.6843528 0.7291295 143.3351 0.1204467 -0.2297412 15.13522 5.573918 14.42797
8192 0 0.9982087 0.03634141 0.04752585 -0.05956464 0.6781445 0.7325109 -0.005608914 -0.7340296 0.6790943 143.3351 0.2288695 0.1220948 15.13522 5.573918 14.42797
