8192 0 0.9480374 -0.05049327 0.3141267 0.1070479 0.9803858 -0.1654826 -0.2996096 0.1905103 0.9348475 -4.848765 15.07687 14.052 1.916667 4.890438 0.1127695
8192 0 0.7840663 -0.07147753 0.6165476 0.05450733 0.9974385 0.04631772 -0.618279 -0.0027098 0.785954 -9.300329 8.556208 10.40136 1.916667 11.64727 0.1063713
8192 0 0.5554131 -0.07479692 0.8282039 0.0425033 0.9971983 0.06155545 -0.8304877 0.00101269 0.5570361 -12.5315 10.32724 6.513671 1.916667 10.23606 0.2706099
8192 0 -1 1.29076E-09 -8.741326E-08 -1.29076E-09 0.999564 0.02952593 8.741326E-08 0.02952593 -0.9995644 -5.551115E-15 13.90051 -16.12973 2.612633 7.893541 0.3600515
8192 0 0.6865978 -0.1245901 0.7162826 -0.4551338 0.6946217 0.5570943 -0.5669539 -0.7085041 0.4202206 10.35454 16.75979 -12.38623 2.612633 0.988025 1.087307
8192 0 0.9085454 0 0.4177862 -0.3006019 0.6944808 0.6537086 -0.2901445 -0.7195113 0.6309673 5.721422 17.30709 -15.83623 2.612633 0.988025 1.087307
8192 0 -0.8583019 -0.5085887 0.06823068 -0.5126033 0.8436739 -0.1595376 0.02357455 -0.1719067 -0.9848311 8.795206 -4.421658 3.735215 5.385537 0.1156897 5.883573
8192 0 0.2137944 -0.1053286 0.9711838 0.2294593 0.9717699 0.05487943 -0.9495475 0.2111143 0.2319276 14.22909 3.76241 -4.212838 1.916667 5.900047 0.2628444
8192 0 -0.8889947 -0.4150463 -0.1934555 -0.4579175 0.8057649 0.3755722 -2.086163E-07 0.4224684 -0.9063777 7.79008 -4.755273 -5.679495 5.385537 0.1 4.031558
8192 0 -0.6790496 0.00989455 -0.7340258 -0.6606876 0.4276006 0.6169682 0.3199745 0.9039137 -0.2838248 10.27816 0.3549774 -9.001865 4.633229 0.1292319 3.758102
8192 0 -0.1406504 -0.09116647 0.9858531 0.2557321 0.9586151 0.1251326 -0.9564615 0.2697142 -0.1115154 14.58682 3.136907 1.313301 1.916667 6.652533 0.5155884
8192 0 -0.1127294 -0.9646602 0.238166 -0.9905767 0.1278705 0.04906075 -0.07778136 -0.2303911 -0.9699848 12.59219 2.341274 10.93282 4.427312 0.3409311 2.777139
8192 0 -0.915603 -0.3683775 0.1611493 -0.3944784 0.9005648 -0.1826743 -0.07783227 -0.230827 -0.9698768 8.77298 -3.67047 12.82462 2.897724 0.3409311 2.777139
8192 0 -0.9452081 -0.02196533 0.3257295 -0.003480652 0.9983553 0.05722314 -0.3264508 0.05295401 -0.94373 -5.300361 14.29547 -15.29654 2.612633 7.786481 0.2972055
8192 0 -0.6707672 -0.2767652 0.6880935 -0.3439253 0.9380555 0.04203986 -0.657105 -0.2084538 -0.7244034 11.20035 17.46559 9.995881 1.550532 1.453742 0.2706099
8192 0 -0.6707672 -0.2767651 0.6880935 -0.3198689 0.9449981 0.0682829 -0.6691453 -0.1742978 -0.7224022 11.92981 17.6415 10.95423 0.3995871 0.3512203 0.2706099
8192 0 -0.9480373 -0.05049327 0.3141269 -0.005176134 0.9896433 0.1434553 -0.3181171 0.134375 -0.93848 5.55542 2.068869 14.09377 1.916667 6.542781 0.1127695
8192 0 -0.9480374 -0.05049326 0.3141267 -0.1070479 0.9803858 -0.1654826 -0.2996096 -0.1905103 -0.9348476 4.848765 15.07687 14.052 1.916667 4.890438 0.1127695
8192 0 -0.7840663 -0.07147753 0.6165476 -0.05450733 0.9974385 0.04631772 -0.618279 0.002709802 -0.785954 9.332676 8.556067 10.44248 1.916667 11.64727 0.1511396
8192 0 -0.5554131 -0.07479692 0.8282039 -0.04250329 0.9971983 0.06155545 -0.8304877 -0.001012689 -0.5570362 12.5315 10.32724 6.513671 1.916667 10.23606 0.2706099
8192 0 0.9452077 -0.02196534 0.3257299 0.00348064 0.9983553 0.05722314 -0.3264511 -0.052954 0.9437296 5.298059 14.6474 -15.26613 2.612633 7.469989 0.4266208
8192 0 0.731222 -0.06929824 0.6786104 0.03433715 0.9973045 0.06484334 -0.6812747 -0.02411333 0.7316306 9.724702 14.40628 -12.11003 2.182497 7.043071 0.6742253
8192 0 0.4669373 -0.07953849 0.880706 3.72529E-09 0.9959466 0.08994613 -0.8842904 -0.0419992 0.4650446 12.8216 13.38021 -8.048179 1.916667 7.2737 0.8625704
8192 0 0.1356562 -0.08911469 0.9867402 -0.1412542 0.9840328 0.1082897 -0.9806349 -0.1540713 0.1209024 15.08931 16.0629 -3.096069 1.916667 4.169098 0.6808436
8192 0 -0.7621087 -0.06080358 0.6445877 -0.02587797 0.9976456 0.06351128 -0.6469317 0.03172188 -0.7618878 -9.875634 14.00483 -12.11652 2.182497 7.479017 0.4448661
8192 0 -0.1747 -0.08856294 0.9806308 -0.171183 0.9835113 0.0583267 -0.9696269 -0.1576777 -0.1869799 15.1873 15.9911 2.586266 1.916667 4.083761 0.5155884
8192 0 -0.1982125 0 -0.980159 0 1 0 0.980159 0 -0.1982125 -7.014866 -2.6875 2.685982 0.3848979 1.9375 0.1934001
8192 0 -0.7740196 0 -0.6331617 0 1 0 0.6331617 0 -0.7740196 -4.690513 -2.6875 5.733998 1.627154 1.9375 0.1934001
9 0 1 0 0 0 1 0 0 0 1 2.19269E-13 -2.6875 7.40808 1.627154 1.9375 0.1934001
8192 0 0.1982124 0 -0.9801591 0 1 0 0.9801591 0 0.1982124 7.014866 -2.6875 2.685982 0.3848979 1.9375 0.1934001
8192 0 0.7740195 0 -0.6331617 0 1 0 0.6331617 0 0.7740195 4.690513 -2.6875 5.733998 1.627154 1.9375 0.1934001
8192 0 -0.1982125 0 0.980159 0 1 0 -0.980159 0 -0.1982125 -7.014866 -2.6875 -2.685982 0.3848979 1.9375 0.1934001
8192 0 -0.7740196 0 0.6331617 0 1 0 -0.6331617 0 -0.7740196 -4.690513 -2.6875 -5.733998 1.627154 1.9375 0.1934001
9 0 1 0 0 0 1 0 0 0 1 2.227385E-13 -2.6875 -7.40808 1.627154 1.9375 0.1934001
8192 0 0.1982124 0 0.9801591 0 1 0 -0.9801591 0 0.1982124 7.014866 -2.6875 -2.685982 0.3848979 1.9375 0.1934001
8192 0 -0.4669372 -0.07953851 0.8807061 0 0.9959466 0.08994614 -0.8842905 0.04199919 -0.4650446 -12.8216 13.07708 -8.075556 1.916667 7.673993 0.8625704
8192 0 0.7740195 0 0.6331617 0 1 0 -0.6331617 0 0.7740195 4.690513 -2.6875 -5.733998 1.627154 1.9375 0.1934001
8192 0 -0.6865979 -0.12459 0.7162825 0.4551337 0.6946217 0.5570942 -0.5669538 0.708504 -0.4202207 -10.35454 16.75979 -12.38623 2.612633 0.988025 1.087307
8192 0 -0.9085454 1.490116E-08 0.4177862 0.3006019 0.6944807 0.6537087 -0.2901444 0.7195113 -0.6309673 -5.721422 17.30709 -15.83623 2.612633 0.988025 1.087307
8192 0 -1 3.416874E-08 -8.046888E-08 -3.416874E-08 0.6944807 0.7195114 8.046888E-08 0.7195114 -0.6944811 -5.551115E-15 17.30709 -17.19251 2.612633 0.988025 1.087307
8192 0 0.8583019 -0.5085887 0.06823075 0.5126033 0.8436739 -0.1595376 0.02357449 0.1719067 0.9848311 -8.795206 -4.421658 3.735215 5.385537 0.1156897 5.883573
8192 0 -0.2137946 -0.1053286 0.9711838 -0.2294593 0.9717699 0.05487944 -0.9495475 -0.2111142 -0.2319278 -14.22909 3.76241 -4.212838 1.916667 5.900047 0.2628444
8192 0 0.8889946 -0.4150462 -0.1934557 0.4579176 0.8057649 0.3755722 7.450581E-09 -0.4224685 0.9063776 -7.79008 -4.755273 -5.679495 5.385537 0.1 4.031558
8192 0 0.6790495 0.009894609 -0.7340258 0.6606876 0.4276005 0.6169682 0.3199745 -0.9039136 0.2838247 -10.27816 0.3549774 -9.001865 4.633229 0.1292319 3.758102
8192 0 1 0 0 0 0.4627897 0.8864681 0 -0.8864681 0.4627897 -2.775558E-15 0.3931887 -12.98375 5.385537 0.1426884 4.784459
8192 0 -0.1356565 -0.08911465 0.9867401 0.1412541 0.9840328 0.1082897 -0.9806347 0.1540713 -0.1209027 -15.05291 16.31651 -3.068159 1.916667 3.951063 0.6808436
8192 0 1 0 0 0 0.9063776 0.4224685 0 -0.4224685 0.9063776 0 -6.259052 -6.380416 5.385537 0.1 4.031558
8192 0 0.1406502 -0.09116648 0.985853 -0.2557321 0.9586151 0.1251326 -0.9564615 -0.2697142 0.1115152 -14.58682 3.136907 1.313301 1.916667 6.652533 0.5155884
8192 0 0.1127293 -0.9646601 0.238166 0.9905767 0.1278705 0.04906074 -0.07778133 0.2303911 0.9699845 -12.59219 2.341274 10.93282 4.427312 0.3409311 2.777139
8192 0 0.915603 -0.3683774 0.1611493 0.3944784 0.9005648 -0.1826743 -0.0778323 0.230827 0.9698768 -8.77298 -3.67047 12.82462 2.897724 0.3409311 2.777139
8192 0 1 0 0 0 0.9843634 -0.1761499 0 0.1761499 0.9843634 0 -6.168921 7.553167 5.010986 0.1 8.436068
8192 0 0.670767 -0.2767651 0.6880935 0.3439252 0.9380555 0.04203986 -0.6571051 0.2084538 0.7244031 -11.20035 17.46559 9.995881 1.550532 1.453742 0.2706099
8192 0 0.6707669 -0.2767651 0.6880935 0.3198689 0.9449981 0.06828292 -0.6691453 0.1742978 0.722402 -11.92981 17.6415 10.95423 0.3995871 0.3512203 0.2706099
8192 0 0.9480373 -0.05049327 0.3141268 0.005176142 0.9896433 0.1434553 -0.3181169 -0.134375 0.9384801 -5.55542 2.068869 14.09377 1.916667 6.542781 0.1127695
8192 0 1 0 0 0 0.996546 0.08304222 0 -0.08304222 0.996546 0 3.06475 15.19124 1.916667 7.827284 0.1
8192 0 1 0 0 0 0.9811881 -0.193054 0 0.193054 0.9811881 0 15.34024 14.76543 1.916667 4.609259 0.1
8192 0 0.1747 -0.08856291 0.9806306 0.171183 0.9835113 0.0583267 -0.9696268 0.1576776 0.1869799 -15.20781 15.87325 2.579277 1.916667 4.24481 0.5155884
9 0 1 0 0 0 1 0 0 0 1 -8.565404 -2.6875 0.01281065 1.486271 1.9375 0.5267419
9 0 1 0 0 0 1 0 0 0 1 8.641068 -2.6875 0.01281065 1.486271 1.9375 0.5267419
