9 0 1 0 0 0 1 0 0 0 1 -0.2279015 -13.58965 13.24934 2.5 3 0.5
9 0 1 0 0 0 1 0 0 0 1 3.272099 -17.58965 13.24934 1 4 0.5
9 0 1 0 0 0 1 0 0 0 1 -3.227901 -19.08965 13.24934 1.5 2.5 0.5
9 0 1 0 0 0 1 0 0 0 1 0.7720985 -9.089649 13.24934 1.5 1.5 0.5
9 0 1 0 0 0 1 0 0 0 1 1.772099 -19.58965 13.24934 0.5 3 0.5
9 0 1 0 0 0 1 0 0 0 1 1.272099 -26.08965 7.249338 3 0.5 0.5
9 0 1 0 0 0 1 0 0 0 1 -6.227901 -18.58965 12.24934 0.5 3 0.5
9 0 1 0 0 0 1 0 0 0 1 -0.2279015 -18.08965 14.24934 0.5 2.5 0.5
9 0 1 0 0 0 1 0 0 0 1 -3.227901 -14.58965 13.24934 0.5 2 0.5
9 0 1 0 0 0 1 0 0 0 1 2.772099 -12.08965 13.24934 0.5 1.5 0.5
9 0 1 0 0 0 1 0 0 0 1 0.7720985 -20.08965 14.24934 0.5 1.5 0.5
9 0 1 0 0 0 1 0 0 0 1 -2.227901 -19.08965 14.24934 1.5 0.5 0.5
9 0 1 0 0 0 1 0 0 0 1 -5.227901 -20.08965 13.24934 0.5 1.5 0.5
