9 0 1 0 0 0 1 0 0 0 1 -4.152968 -12.625 3.852068 0.3735324 6.625 0.3735324
9 0 1 0 0 0 1 0 0 0 1 4.152972 -18.625 4.152971 0.2996598 12.625 0.2996598
9 0 1 0 0 0 1 0 0 0 1 -4.152972 -12.625 -4.152971 0.2996598 6.625 0.2996598
9 0 1 0 0 0 1 0 0 0 1 4.152968 -18.625 -3.852068 0.3735324 12.625 0.3735324
8192 0 -0.7071067 -0.7071068 0 0.7071068 -0.7071067 0 0 0 1 13.19819 -40.46209 3.852068 0.3735324 12.625 0.3735324
8192 0 -0.7071067 -0.7071068 0 0.7071068 -0.7071067 0 0 0 1 11.56764 -50.57792 4.152971 0.2996598 6.625 0.2996598
8192 0 0.7071067 0.7071069 3.345525E-08 0.7071069 -0.7071071 -8.076812E-08 -3.345525E-08 8.076812E-08 -1 13.19819 -40.46209 -4.152971 0.2996598 12.625 0.2996598
8192 0 0.7071067 0.7071069 3.345525E-08 0.7071069 -0.7071071 -8.076812E-08 -3.345525E-08 8.076812E-08 -1 11.56764 -50.57791 -3.852068 0.3735324 6.625 0.3735324
