9 0 1 0 0 0 1 0 0 0 1 -0.113625 -11.36025 -0.8125 2 3.5 1
9 0 1 0 0 0 1 0 0 0 1 -0.113625 -4.860249 -1.8125 1 3 1
9 0 1 0 0 0 1 0 0 0 1 -0.113625 -18.86025 -0.3125 1 4 0.5
9 0 1 0 0 0 1 0 0 0 1 -0.113625 -11.36025 0.6875 1 3.5 0.5
9 0 1 0 0 0 1 0 0 0 1 -0.113625 -10.86025 -2.3125 1 3 0.5
9 0 1 0 0 0 1 0 0 0 1 1.386375 -4.860249 -1.3125 0.5 3 0.5
9 0 1 0 0 0 1 0 0 0 1 0.386375 -26.86025 1.6875 1.5 1 0.5
9 0 1 0 0 0 1 0 0 0 1 -0.113625 -30.36025 2.6875 1 1.5 0.5
9 0 1 0 0 0 1 0 0 0 1 0.386375 -33.86025 1.6875 1.5 1 0.5
9 0 1 0 0 0 1 0 0 0 1 -1.613625 -4.860249 -1.3125 0.5 3 0.5
9 0 1 0 0 0 1 0 0 0 1 -2.613625 -29.86025 1.6875 0.5 3 0.5
9 0 1 0 0 0 1 0 0 0 1 0.386375 -17.36025 -1.3125 0.5 2.5 0.5
9 0 1 0 0 0 1 0 0 0 1 -0.113625 -24.36025 0.6875 2 0.5 0.5
9 0 1 0 0 0 1 0 0 0 1 2.386375 -28.36025 1.6875 0.5 1.5 0.5
