9 0 1 0 0 0 1 0 0 0 1 -0.6006241 -19.1201 14.38259 9 7.5 2
9 0 1 0 0 0 1 0 0 0 1 -17.10062 -22.1201 1.882587 2.5 6.5 4.5
9 0 1 0 0 0 1 0 0 0 1 16.39938 -21.1201 2.882587 2 5.5 4.5
9 0 1 0 0 0 1 0 0 0 1 11.39938 -19.1201 11.38259 2 9.5 2
9 0 1 0 0 0 1 0 0 0 1 -12.60062 -19.6201 10.38259 2 9 2
9 0 1 0 0 0 1 0 0 0 1 15.39938 -17.1201 8.882587 2 6.5 1.5
9 0 1 0 0 0 1 0 0 0 1 0.8993759 -9.120098 13.38259 7.5 2.5 1
9 0 1 0 0 0 1 0 0 0 1 -15.60062 -19.6201 8.882587 1 7 2.5
9 0 1 0 0 0 1 0 0 0 1 -13.60062 -17.1201 6.882587 1 11.5 1.5
9 0 1 0 0 0 1 0 0 0 1 -2.100624 -17.6201 16.88259 5.5 6 0.5
9 0 1 0 0 0 1 0 0 0 1 -9.100624 -18.6201 11.38259 1.5 11 1
9 0 1 0 0 0 1 0 0 0 1 -16.10062 -23.6201 -4.617413 1.5 5 2
9 0 1 0 0 0 1 0 0 0 1 -17.10062 -13.1201 4.382587 2.5 2.5 2
9 0 1 0 0 0 1 0 0 0 1 16.39938 -22.6201 -3.117413 2 4 1.5
9 0 1 0 0 0 1 0 0 0 1 -11.10062 -19.6201 13.38259 1.5 8 1
9 0 1 0 0 0 1 0 0 0 1 12.39938 -17.1201 8.382587 1 11.5 1
9 0 1 0 0 0 1 0 0 0 1 7.399376 -18.6201 11.88259 2 11 0.5
9 0 1 0 0 0 1 0 0 0 1 14.89938 -11.1201 5.882587 1.5 4.5 1.5
9 0 1 0 0 0 1 0 0 0 1 19.39938 -22.6201 -0.1174126 1 4 2.5
9 0 1 0 0 0 1 0 0 0 1 10.39938 -19.6201 14.38259 2 5 1
9 0 1 0 0 0 1 0 0 0 1 18.89938 -17.6201 5.382587 0.5 6 3
9 0 1 0 0 0 1 0 0 0 1 5.399376 -33.1201 -2.617413 2 0.5 9
9 0 1 0 0 0 1 0 0 0 1 -0.1006241 -27.1201 13.88259 9.5 0.5 1.5
9 0 1 0 0 0 1 0 0 0 1 17.39938 -13.6201 3.882587 1 2 3.5
9 0 1 0 0 0 1 0 0 0 1 15.39938 -12.1201 2.382587 1 3.5 2
9 0 1 0 0 0 1 0 0 0 1 -20.10062 -21.1201 2.882587 0.5 5.5 2.5
9 0 1 0 0 0 1 0 0 0 1 15.39938 -27.6201 0.8825874 1 1 6.5
9 0 1 0 0 0 1 0 0 0 1 0.8993759 -33.6201 -8.117413 2.5 1 2.5
9 0 1 0 0 0 1 0 0 0 1 -14.10062 -18.1201 4.382587 0.5 12.5 1
9 0 1 0 0 0 1 0 0 0 1 8.399376 -17.6201 10.88259 1 12 0.5
9 0 1 0 0 0 1 0 0 0 1 -6.600624 -18.1201 11.88259 1 11.5 0.5
9 0 1 0 0 0 1 0 0 0 1 14.39938 -19.1201 11.38259 1 5.5 1
9 0 1 0 0 0 1 0 0 0 1 -1.100624 -9.620098 14.88259 5.5 2 0.5
9 0 1 0 0 0 1 0 0 0 1 -1.100624 -14.6201 17.88259 3.5 3 0.5
9 0 1 0 0 0 1 0 0 0 1 -16.60062 -14.6201 -0.1174126 2 1 2.5
9 0 1 0 0 0 1 0 0 0 1 13.89938 -22.1201 5.882587 0.5 6.5 1.5
9 0 1 0 0 0 1 0 0 0 1 15.89938 -23.6201 -6.117413 1.5 2 1.5
9 0 1 0 0 0 1 0 0 0 1 -17.10062 -19.6201 7.882587 0.5 6 1.5
9 0 1 0 0 0 1 0 0 0 1 -0.1006241 -26.6201 -17.11741 8.5 1 0.5
9 0 1 0 0 0 1 0 0 0 1 19.89938 -17.1201 3.882587 0.5 5.5 1.5
9 0 1 0 0 0 1 0 0 0 1 5.399376 -19.6201 16.88259 2 4 0.5
9 0 1 0 0 0 1 0 0 0 1 -15.60062 -24.6201 -7.617413 1 4 1
9 0 1 0 0 0 1 0 0 0 1 0.8993759 -33.1201 4.382587 2.5 0.5 3
9 0 1 0 0 0 1 0 0 0 1 -10.60062 -20.1201 14.88259 1 7.5 0.5
9 0 1 0 0 0 1 0 0 0 1 -15.60062 -9.120098 3.882587 1 1.5 2.5
9 0 1 0 0 0 1 0 0 0 1 14.39938 -26.1201 -8.617413 1 3.5 1
9 0 1 0 0 0 1 0 0 0 1 -13.60062 -26.1201 -10.61741 1 3.5 1
9 0 1 0 0 0 1 0 0 0 1 10.89938 -18.1201 8.882587 0.5 13.5 0.5
9 0 1 0 0 0 1 0 0 0 1 -10.10062 -17.1201 9.882587 0.5 13.5 0.5
9 0 1 0 0 0 1 0 0 0 1 2.899376 -28.1201 13.38259 6.5 0.5 1
9 0 1 0 0 0 1 0 0 0 1 -12.10062 -17.1201 7.882587 0.5 12.5 0.5
9 0 1 0 0 0 1 0 0 0 1 16.39938 -17.1201 -2.617413 2 1.5 1
9 0 1 0 0 0 1 0 0 0 1 13.39938 -25.6201 -10.61741 1 3 1
9 0 1 0 0 0 1 0 0 0 1 -0.6006241 -5.620098 12.88259 6 1 0.5
9 0 1 0 0 0 1 0 0 0 1 -9.600624 -24.6201 -15.11741 2 3 0.5
9 0 1 0 0 0 1 0 0 0 1 -11.60062 -8.620098 9.882587 1 2 1.5
9 0 1 0 0 0 1 0 0 0 1 12.89938 -17.6201 6.882587 0.5 11 0.5
9 0 1 0 0 0 1 0 0 0 1 4.899376 -34.1201 -6.117413 1.5 0.5 3.5
9 0 1 0 0 0 1 0 0 0 1 17.39938 -27.1201 1.382587 1 0.5 5
9 0 1 0 0 0 1 0 0 0 1 -7.600624 -25.1201 -16.11741 2 2.5 0.5
9 0 1 0 0 0 1 0 0 0 1 -14.10062 -24.6201 -8.617413 0.5 5 1
9 0 1 0 0 0 1 0 0 0 1 -18.60062 -20.6201 6.882587 1 5 0.5
9 0 1 0 0 0 1 0 0 0 1 20.89938 -18.6201 2.882587 0.5 3 1.5
9 0 1 0 0 0 1 0 0 0 1 15.39938 -20.1201 -6.117413 1 1.5 1.5
9 0 1 0 0 0 1 0 0 0 1 10.89938 -8.620098 10.88259 1.5 1 1.5
9 0 1 0 0 0 1 0 0 0 1 8.899376 -17.6201 12.88259 0.5 9 0.5
9 0 1 0 0 0 1 0 0 0 1 6.899376 -26.6201 -16.11741 1.5 3 0.5
9 0 1 0 0 0 1 0 0 0 1 -5.600624 -24.1201 -17.11741 3 1.5 0.5
9 0 1 0 0 0 1 0 0 0 1 -14.10062 -16.6201 12.88259 1.5 3 0.5
9 0 1 0 0 0 1 0 0 0 1 15.39938 -25.6201 7.882587 2 2 0.5
9 0 1 0 0 0 1 0 0 0 1 -2.600624 -24.6201 16.88259 4 1 0.5
9 0 1 0 0 0 1 0 0 0 1 -4.600624 -11.1201 16.38259 4 0.5 1
9 0 1 0 0 0 1 0 0 0 1 -8.600624 -10.6201 13.38259 2 1 1
9 0 1 0 0 0 1 0 0 0 1 -11.60062 -25.6201 -13.11741 1 4 0.5
9 0 1 0 0 0 1 0 0 0 1 -15.60062 -11.6201 8.382587 1 1 2
9 0 1 0 0 0 1 0 0 0 1 -15.60062 -17.6201 11.88259 1 4 0.5
9 0 1 0 0 0 1 0 0 0 1 -18.10062 -22.6201 -3.617413 0.5 4 1
9 0 1 0 0 0 1 0 0 0 1 9.899376 -12.1201 13.88259 1.5 2.5 0.5
9 0 1 0 0 0 1 0 0 0 1 -20.10062 -23.1201 -1.117413 0.5 2.5 1.5
9 0 1 0 0 0 1 0 0 0 1 17.89938 -15.1201 8.382587 0.5 3.5 1
9 0 1 0 0 0 1 0 0 0 1 15.39938 -29.1201 -2.117413 1 0.5 3.5
9 0 1 0 0 0 1 0 0 0 1 8.399376 -25.1201 -15.11741 1 3.5 0.5
9 0 1 0 0 0 1 0 0 0 1 -10.60062 -25.1201 -14.11741 1 3.5 0.5
9 0 1 0 0 0 1 0 0 0 1 -21.10062 -22.1201 3.382587 0.5 3.5 1
9 0 1 0 0 0 1 0 0 0 1 -3.100624 -27.1201 15.88259 6.5 0.5 0.5
9 0 1 0 0 0 1 0 0 0 1 -10.10062 -20.1201 15.88259 0.5 6.5 0.5
9 0 1 0 0 0 1 0 0 0 1 18.89938 -17.1201 0.3825874 0.5 1.5 2
9 0 1 0 0 0 1 0 0 0 1 15.89938 -20.6201 11.38259 0.5 3 1
9 0 1 0 0 0 1 0 0 0 1 15.39938 -7.120098 3.382587 1 1.5 1
9 0 1 0 0 0 1 0 0 0 1 15.89938 -14.6201 -1.617413 1.5 1 1
9 0 1 0 0 0 1 0 0 0 1 15.89938 -13.6201 -0.1174126 1.5 2 0.5
9 0 1 0 0 0 1 0 0 0 1 15.39938 -17.1201 -4.617413 1 1.5 1
9 0 1 0 0 0 1 0 0 0 1 15.39938 -27.1201 -6.617413 1 1.5 1
9 0 1 0 0 0 1 0 0 0 1 13.89938 -17.6201 13.38259 0.5 3 1
9 0 1 0 0 0 1 0 0 0 1 14.89938 -21.6201 -8.617413 1.5 1 1
9 0 1 0 0 0 1 0 0 0 1 12.89938 -23.6201 5.882587 0.5 6 0.5
9 0 1 0 0 0 1 0 0 0 1 9.899376 -18.6201 15.88259 1.5 2 0.5
9 0 1 0 0 0 1 0 0 0 1 5.899376 -34.1201 2.382587 1.5 0.5 2
9 0 1 0 0 0 1 0 0 0 1 5.399376 -24.6201 -17.11741 3 1 0.5
9 0 1 0 0 0 1 0 0 0 1 2.399376 -35.1201 -8.617413 3 0.5 1
9 0 1 0 0 0 1 0 0 0 1 -0.6006241 -29.1201 13.88259 2 0.5 1.5
9 0 1 0 0 0 1 0 0 0 1 -0.6006241 -32.1201 6.882587 2 0.5 1.5
9 0 1 0 0 0 1 0 0 0 1 -6.100624 -19.6201 17.88259 1.5 2 0.5
9 0 1 0 0 0 1 0 0 0 1 -12.60062 -25.6201 -12.11741 1 3 0.5
9 0 1 0 0 0 1 0 0 0 1 -15.60062 -17.6201 -4.117413 1 1 1.5
9 0 1 0 0 0 1 0 0 0 1 -17.10062 -17.6201 10.38259 0.5 3 1
9 0 1 0 0 0 1 0 0 0 1 20.89938 -21.1201 0.3825874 0.5 2.5 1
9 0 1 0 0 0 1 0 0 0 1 18.89938 -22.6201 -3.117413 0.5 5 0.5
9 0 1 0 0 0 1 0 0 0 1 16.89938 -9.120098 4.382587 0.5 2.5 1
9 0 1 0 0 0 1 0 0 0 1 6.899376 -10.6201 14.88259 2.5 1 0.5
9 0 1 0 0 0 1 0 0 0 1 2.899376 -28.6201 -17.11741 2.5 1 0.5
9 0 1 0 0 0 1 0 0 0 1 0.8993759 -28.1201 15.38259 2.5 0.5 1
9 0 1 0 0 0 1 0 0 0 1 1.399376 -6.120098 13.88259 5 0.5 0.5
9 0 1 0 0 0 1 0 0 0 1 -15.10062 -26.1201 -9.617413 0.5 2.5 1
9 0 1 0 0 0 1 0 0 0 1 -17.10062 -29.1201 4.382587 2.5 0.5 1
9 0 1 0 0 0 1 0 0 0 1 13.89938 -26.1201 9.882587 0.5 1.5 1.5
9 0 1 0 0 0 1 0 0 0 1 13.89938 -26.1201 3.882587 0.5 4.5 0.5
9 0 1 0 0 0 1 0 0 0 1 10.89938 -26.1201 13.88259 1.5 1.5 0.5
9 0 1 0 0 0 1 0 0 0 1 1.899376 -27.1201 -18.11741 1.5 1.5 0.5
9 0 1 0 0 0 1 0 0 0 1 -15.10062 -12.1201 0.8825874 0.5 1.5 1.5
9 0 1 0 0 0 1 0 0 0 1 -18.10062 -10.1201 4.882587 1.5 0.5 1.5
9 0 1 0 0 0 1 0 0 0 1 19.39938 -27.1201 0.3825874 1 0.5 2
9 0 1 0 0 0 1 0 0 0 1 14.89938 -30.6201 -3.617413 0.5 1 2
9 0 1 0 0 0 1 0 0 0 1 14.39938 -22.6201 12.88259 1 2 0.5
9 0 1 0 0 0 1 0 0 0 1 12.89938 -17.6201 13.88259 0.5 4 0.5
9 0 1 0 0 0 1 0 0 0 1 13.39938 -20.6201 -10.11741 1 2 0.5
9 0 1 0 0 0 1 0 0 0 1 12.39938 -25.6201 -12.11741 1 2 0.5
9 0 1 0 0 0 1 0 0 0 1 8.399376 -18.6201 16.88259 1 2 0.5
9 0 1 0 0 0 1 0 0 0 1 7.899376 -33.1201 1.382587 0.5 0.5 4
9 0 1 0 0 0 1 0 0 0 1 -8.600624 -5.620098 10.88259 1 2 0.5
9 0 1 0 0 0 1 0 0 0 1 -13.10062 -23.6201 12.88259 0.5 4 0.5
9 0 1 0 0 0 1 0 0 0 1 -13.60062 -8.620098 8.882587 1 2 0.5
9 0 1 0 0 0 1 0 0 0 1 -13.60062 -16.6201 13.88259 1 2 0.5
9 0 1 0 0 0 1 0 0 0 1 -15.10062 -6.620098 4.382587 0.5 1 2
9 0 1 0 0 0 1 0 0 0 1 -15.10062 -8.620098 7.382587 0.5 2 1
9 0 1 0 0 0 1 0 0 0 1 -15.10062 -27.6201 8.382587 0.5 1 2
9 0 1 0 0 0 1 0 0 0 1 -17.10062 -24.6201 -7.117413 0.5 4 0.5
9 0 1 0 0 0 1 0 0 0 1 -20.10062 -21.6201 5.882587 0.5 4 0.5
9 0 1 0 0 0 1 0 0 0 1 13.89938 -15.1201 3.882587 0.5 3.5 0.5
9 0 1 0 0 0 1 0 0 0 1 9.899376 -24.1201 -14.11741 0.5 3.5 0.5
9 0 1 0 0 0 1 0 0 0 1 -4.100624 -10.1201 15.88259 3.5 0.5 0.5
9 0 1 0 0 0 1 0 0 0 1 -8.100624 -15.1201 16.88259 0.5 3.5 0.5
9 0 1 0 0 0 1 0 0 0 1 -7.100624 -28.1201 12.88259 3.5 0.5 0.5
9 0 1 0 0 0 1 0 0 0 1 -19.10062 -24.1201 -3.117413 0.5 3.5 0.5
9 0 1 0 0 0 1 0 0 0 1 19.89938 -19.6201 5.882587 0.5 3 0.5
9 0 1 0 0 0 1 0 0 0 1 17.89938 -21.6201 7.882587 0.5 3 0.5
9 0 1 0 0 0 1 0 0 0 1 17.89938 -24.6201 -6.117413 0.5 1 1.5
9 0 1 0 0 0 1 0 0 0 1 17.89938 -28.1201 1.382587 1.5 0.5 1
9 0 1 0 0 0 1 0 0 0 1 14.89938 -6.120098 5.382587 1.5 0.5 1
9 0 1 0 0 0 1 0 0 0 1 14.89938 -10.1201 8.382587 1.5 0.5 1
9 0 1 0 0 0 1 0 0 0 1 14.89938 -12.6201 10.88259 1.5 1 0.5
9 0 1 0 0 0 1 0 0 0 1 13.89938 -19.1201 -8.617413 0.5 1.5 1
9 0 1 0 0 0 1 0 0 0 1 10.89938 -23.6201 -13.11741 0.5 3 0.5
9 0 1 0 0 0 1 0 0 0 1 -1.600624 -6.120098 14.88259 1 1.5 0.5
9 0 1 0 0 0 1 0 0 0 1 -1.100624 -30.1201 13.38259 1.5 0.5 1
9 0 1 0 0 0 1 0 0 0 1 -1.100624 -31.1201 12.38259 1.5 0.5 1
9 0 1 0 0 0 1 0 0 0 1 0.3993759 -33.1201 -11.11741 3 0.5 0.5
9 0 1 0 0 0 1 0 0 0 1 -6.600624 -21.1201 -16.11741 1 1.5 0.5
9 0 1 0 0 0 1 0 0 0 1 -8.600624 -32.1201 -2.117413 1 0.5 1.5
9 0 1 0 0 0 1 0 0 0 1 -11.10062 -20.6201 15.88259 0.5 3 0.5
9 0 1 0 0 0 1 0 0 0 1 -10.10062 -32.1201 4.382587 1.5 0.5 1
9 0 1 0 0 0 1 0 0 0 1 -11.60062 -9.120098 11.88259 1 1.5 0.5
9 0 1 0 0 0 1 0 0 0 1 -12.10062 -20.6201 14.88259 0.5 3 0.5
9 0 1 0 0 0 1 0 0 0 1 -15.10062 -29.1201 -5.617413 0.5 0.5 3
9 0 1 0 0 0 1 0 0 0 1 -16.10062 -15.6201 -3.117413 1.5 1 0.5
9 0 1 0 0 0 1 0 0 0 1 -17.60062 -12.1201 6.882587 1 1.5 0.5
9 0 1 0 0 0 1 0 0 0 1 -20.60062 -15.1201 2.882587 1 0.5 1.5
9 0 1 0 0 0 1 0 0 0 1 -21.10062 -22.1201 1.382587 0.5 1.5 1
9 0 1 0 0 0 1 0 0 0 1 5.899376 -11.1201 15.88259 2.5 0.5 0.5
9 0 1 0 0 0 1 0 0 0 1 3.899376 -25.1201 -18.11741 0.5 2.5 0.5
9 0 1 0 0 0 1 0 0 0 1 -1.100624 -32.1201 10.88259 0.5 0.5 2.5
9 0 1 0 0 0 1 0 0 0 1 -2.100624 -33.1201 -8.117413 0.5 0.5 2.5
9 0 1 0 0 0 1 0 0 0 1 -2.100624 -18.1201 17.88259 2.5 0.5 0.5
9 0 1 0 0 0 1 0 0 0 1 -9.100624 -9.120098 12.88259 2.5 0.5 0.5
9 0 1 0 0 0 1 0 0 0 1 -15.10062 -24.1201 11.88259 0.5 2.5 0.5
9 0 1 0 0 0 1 0 0 0 1 -18.10062 -16.1201 7.882587 0.5 2.5 0.5
9 0 1 0 0 0 1 0 0 0 1 19.89938 -18.1201 0.3825874 0.5 0.5 2
9 0 1 0 0 0 1 0 0 0 1 18.89938 -13.6201 1.882587 0.5 2 0.5
9 0 1 0 0 0 1 0 0 0 1 18.89938 -24.6201 -4.617413 0.5 1 1
9 0 1 0 0 0 1 0 0 0 1 18.89938 -24.6201 3.382587 0.5 1 1
9 0 1 0 0 0 1 0 0 0 1 18.39938 -11.1201 4.382587 1 0.5 1
9 0 1 0 0 0 1 0 0 0 1 17.39938 -11.1201 2.382587 1 0.5 1
9 0 1 0 0 0 1 0 0 0 1 17.39938 -11.1201 6.382587 1 0.5 1
9 0 1 0 0 0 1 0 0 0 1 16.89938 -19.6201 -5.117413 0.5 2 0.5
9 0 1 0 0 0 1 0 0 0 1 17.39938 -26.1201 -5.617413 1 0.5 1
9 0 1 0 0 0 1 0 0 0 1 14.89938 -12.6201 -1.617413 0.5 1 1
9 0 1 0 0 0 1 0 0 0 1 14.89938 -14.6201 -3.617413 0.5 1 1
9 0 1 0 0 0 1 0 0 0 1 15.39938 -24.6201 8.882587 1 1 0.5
9 0 1 0 0 0 1 0 0 0 1 14.89938 -29.1201 3.382587 0.5 0.5 2
9 0 1 0 0 0 1 0 0 0 1 13.89938 -7.620098 7.882587 0.5 2 0.5
9 0 1 0 0 0 1 0 0 0 1 10.39938 -6.620098 9.882587 1 1 0.5
9 0 1 0 0 0 1 0 0 0 1 9.899376 -8.620098 13.38259 0.5 1 1
9 0 1 0 0 0 1 0 0 0 1 8.899376 -13.6201 15.38259 0.5 1 1
9 0 1 0 0 0 1 0 0 0 1 8.899376 -25.6201 14.38259 0.5 1 1
9 0 1 0 0 0 1 0 0 0 1 8.899376 -25.6201 -16.11741 0.5 2 0.5
9 0 1 0 0 0 1 0 0 0 1 9.399376 -33.1201 -1.617413 1 0.5 1
9 0 1 0 0 0 1 0 0 0 1 8.399376 -34.1201 -1.617413 1 0.5 1
9 0 1 0 0 0 1 0 0 0 1 7.399376 -7.120098 11.88259 2 0.5 0.5
9 0 1 0 0 0 1 0 0 0 1 6.399376 -24.6201 16.88259 1 1 0.5
9 0 1 0 0 0 1 0 0 0 1 4.399376 -34.6201 -10.11741 1 1 0.5
9 0 1 0 0 0 1 0 0 0 1 0.3993759 -35.1201 -6.617413 1 0.5 1
9 0 1 0 0 0 1 0 0 0 1 -0.6006241 -26.6201 16.88259 1 1 0.5
9 0 1 0 0 0 1 0 0 0 1 -1.100624 -34.1201 3.382587 0.5 0.5 2
9 0 1 0 0 0 1 0 0 0 1 -1.600624 -8.620098 15.88259 1 1 0.5
9 0 1 0 0 0 1 0 0 0 1 -2.100624 -33.1201 3.382587 0.5 0.5 2
9 0 1 0 0 0 1 0 0 0 1 -1.600624 -16.1201 18.88259 2 0.5 0.5
9 0 1 0 0 0 1 0 0 0 1 -3.100624 -20.6201 -17.11741 0.5 2 0.5
9 0 1 0 0 0 1 0 0 0 1 -2.600624 -11.1201 17.88259 2 0.5 0.5
9 0 1 0 0 0 1 0 0 0 1 -7.600624 -10.6201 14.88259 1 1 0.5
9 0 1 0 0 0 1 0 0 0 1 -6.600624 -17.1201 17.88259 2 0.5 0.5
9 0 1 0 0 0 1 0 0 0 1 -8.600624 -30.1201 11.38259 1 0.5 1
9 0 1 0 0 0 1 0 0 0 1 -11.10062 -5.620098 9.382587 0.5 1 1
9 0 1 0 0 0 1 0 0 0 1 -11.10062 -29.6201 9.382587 0.5 1 1
9 0 1 0 0 0 1 0 0 0 1 -11.60062 -10.6201 12.88259 1 1 0.5
9 0 1 0 0 0 1 0 0 0 1 -13.60062 -9.620098 9.882587 1 1 0.5
9 0 1 0 0 0 1 0 0 0 1 -14.10062 -24.6201 -12.11741 0.5 2 0.5
9 0 1 0 0 0 1 0 0 0 1 -13.60062 -30.1201 -9.617413 1 0.5 1
9 0 1 0 0 0 1 0 0 0 1 -15.10062 -19.6201 -7.617413 0.5 1 1
9 0 1 0 0 0 1 0 0 0 1 -16.10062 -6.620098 3.382587 0.5 1 1
9 0 1 0 0 0 1 0 0 0 1 -16.10062 -26.6201 -9.117413 0.5 2 0.5
9 0 1 0 0 0 1 0 0 0 1 -15.60062 -29.1201 2.382587 1 0.5 1
9 0 1 0 0 0 1 0 0 0 1 -15.60062 -30.1201 3.382587 1 0.5 1
9 0 1 0 0 0 1 0 0 0 1 -17.10062 -8.620098 3.382587 0.5 1 1
9 0 1 0 0 0 1 0 0 0 1 -16.60062 -13.1201 1.382587 1 0.5 1
9 0 1 0 0 0 1 0 0 0 1 -17.60062 -18.1201 -3.617413 1 0.5 1
9 0 1 0 0 0 1 0 0 0 1 -18.10062 -23.6201 7.882587 0.5 2 0.5
9 0 1 0 0 0 1 0 0 0 1 -18.10062 -25.6201 -5.617413 0.5 1 1
9 0 1 0 0 0 1 0 0 0 1 -19.10062 -14.6201 1.382587 0.5 1 1
9 0 1 0 0 0 1 0 0 0 1 -20.10062 -27.1201 3.382587 0.5 0.5 2
9 0 1 0 0 0 1 0 0 0 1 21.89938 -20.1201 1.882587 0.5 1.5 0.5
9 0 1 0 0 0 1 0 0 0 1 17.89938 -15.1201 -1.117413 0.5 0.5 1.5
9 0 1 0 0 0 1 0 0 0 1 17.89938 -16.1201 9.882587 0.5 1.5 0.5
9 0 1 0 0 0 1 0 0 0 1 15.89938 -30.1201 -3.117413 0.5 0.5 1.5
9 0 1 0 0 0 1 0 0 0 1 15.89938 -18.1201 -6.117413 1.5 0.5 0.5
9 0 1 0 0 0 1 0 0 0 1 14.89938 -22.1201 -10.11741 0.5 1.5 0.5
9 0 1 0 0 0 1 0 0 0 1 13.89938 -5.120098 3.882587 0.5 1.5 0.5
9 0 1 0 0 0 1 0 0 0 1 13.89938 -25.1201 12.88259 0.5 0.5 1.5
9 0 1 0 0 0 1 0 0 0 1 13.89938 -6.120098 6.882587 1.5 0.5 0.5
9 0 1 0 0 0 1 0 0 0 1 12.89938 -9.120098 10.88259 0.5 0.5 1.5
9 0 1 0 0 0 1 0 0 0 1 12.89938 -21.1201 -11.11741 0.5 1.5 0.5
9 0 1 0 0 0 1 0 0 0 1 11.89938 -29.1201 8.882587 0.5 0.5 1.5
9 0 1 0 0 0 1 0 0 0 1 8.899376 -22.1201 15.88259 0.5 1.5 0.5
9 0 1 0 0 0 1 0 0 0 1 7.899376 -28.1201 14.88259 1.5 0.5 0.5
9 0 1 0 0 0 1 0 0 0 1 6.899376 -23.1201 -16.11741 1.5 0.5 0.5
9 0 1 0 0 0 1 0 0 0 1 5.899376 -23.1201 17.88259 0.5 1.5 0.5
9 0 1 0 0 0 1 0 0 0 1 6.899376 -29.1201 12.88259 1.5 0.5 0.5
9 0 1 0 0 0 1 0 0 0 1 6.899376 -30.1201 11.88259 1.5 0.5 0.5
9 0 1 0 0 0 1 0 0 0 1 4.899376 -34.1201 4.882587 1.5 0.5 0.5
9 0 1 0 0 0 1 0 0 0 1 -0.1006241 -34.1201 5.882587 0.5 0.5 1.5
9 0 1 0 0 0 1 0 0 0 1 -1.100624 -33.1201 8.882587 0.5 0.5 1.5
9 0 1 0 0 0 1 0 0 0 1 -1.100624 -4.120098 12.88259 1.5 0.5 0.5
9 0 1 0 0 0 1 0 0 0 1 -1.100624 -5.120098 13.88259 1.5 0.5 0.5
9 0 1 0 0 0 1 0 0 0 1 -6.100624 -5.120098 11.88259 0.5 1.5 0.5
9 0 1 0 0 0 1 0 0 0 1 -9.100624 -16.1201 16.88259 0.5 1.5 0.5
9 0 1 0 0 0 1 0 0 0 1 -8.100624 -24.1201 16.88259 1.5 0.5 0.5
9 0 1 0 0 0 1 0 0 0 1 -10.10062 -26.1201 -16.11741 0.5 1.5 0.5
9 0 1 0 0 0 1 0 0 0 1 -10.10062 -31.1201 8.882587 1.5 0.5 0.5
9 0 1 0 0 0 1 0 0 0 1 -12.10062 -23.1201 -14.11741 0.5 1.5 0.5
9 0 1 0 0 0 1 0 0 0 1 -13.10062 -12.1201 12.88259 0.5 1.5 0.5
9 0 1 0 0 0 1 0 0 0 1 -15.10062 -25.1201 -11.11741 0.5 1.5 0.5
9 0 1 0 0 0 1 0 0 0 1 -15.10062 -30.1201 -4.117413 0.5 0.5 1.5
9 0 1 0 0 0 1 0 0 0 1 -16.10062 -29.1201 -6.117413 0.5 0.5 1.5
9 0 1 0 0 0 1 0 0 0 1 -17.10062 -19.1201 11.88259 0.5 1.5 0.5
9 0 1 0 0 0 1 0 0 0 1 -18.10062 -20.1201 -5.117413 0.5 1.5 0.5
9 0 1 0 0 0 1 0 0 0 1 -21.10062 -17.1201 2.882587 0.5 1.5 0.5
