9 0 1 0 0 0 1 0 0 0 1 0.07645035 -20.36623 14.0202 4.5 6.5 0.5
9 0 1 0 0 0 1 0 0 0 1 0.07645035 -31.36623 1.520199 2.5 0.5 5
9 0 1 0 0 0 1 0 0 0 1 8.07645 -21.86623 12.0202 0.5 6 0.5
9 0 1 0 0 0 1 0 0 0 1 6.07645 -21.86623 13.0202 0.5 6 0.5
9 0 1 0 0 0 1 0 0 0 1 0.07645035 -16.86623 15.0202 1.5 2 0.5
9 0 1 0 0 0 1 0 0 0 1 -3.42355 -31.36623 2.520199 1 0.5 3
9 0 1 0 0 0 1 0 0 0 1 12.07645 -18.86623 8.020199 0.5 5 0.5
9 0 1 0 0 0 1 0 0 0 1 -5.92355 -17.86623 13.0202 0.5 5 0.5
9 0 1 0 0 0 1 0 0 0 1 0.07645035 -12.36623 14.0202 1.5 1.5 0.5
9 0 1 0 0 0 1 0 0 0 1 3.57645 -31.36623 3.520199 1 0.5 2
9 0 1 0 0 0 1 0 0 0 1 -12.92355 -19.86623 7.020199 0.5 4 0.5
9 0 1 0 0 0 1 0 0 0 1 0.07645035 -27.36623 14.0202 3.5 0.5 0.5
9 0 1 0 0 0 1 0 0 0 1 -7.92355 -24.36623 12.0202 0.5 3.5 0.5
9 0 1 0 0 0 1 0 0 0 1 0.07645035 -25.86623 15.0202 1.5 1 0.5
9 0 1 0 0 0 1 0 0 0 1 -8.42355 -16.36623 12.0202 1 1.5 0.5
9 0 1 0 0 0 1 0 0 0 1 -6.92355 -17.36623 13.0202 0.5 2.5 0.5
9 0 1 0 0 0 1 0 0 0 1 -11.92355 -21.36623 8.020199 0.5 2.5 0.5
9 0 1 0 0 0 1 0 0 0 1 13.07645 -21.86623 7.020199 0.5 2 0.5
9 0 1 0 0 0 1 0 0 0 1 11.57645 -22.86623 9.020199 1 1 0.5
9 0 1 0 0 0 1 0 0 0 1 9.57645 -23.86623 11.0202 1 1 0.5
9 0 1 0 0 0 1 0 0 0 1 9.07645 -24.86623 12.0202 0.5 2 0.5
9 0 1 0 0 0 1 0 0 0 1 7.07645 -17.86623 13.0202 0.5 2 0.5
9 0 1 0 0 0 1 0 0 0 1 7.07645 -24.86623 13.0202 0.5 2 0.5
9 0 1 0 0 0 1 0 0 0 1 5.07645 -16.86623 14.0202 0.5 2 0.5
9 0 1 0 0 0 1 0 0 0 1 -4.92355 -16.86623 14.0202 0.5 2 0.5
9 0 1 0 0 0 1 0 0 0 1 -6.92355 -24.86623 13.0202 0.5 2 0.5
9 0 1 0 0 0 1 0 0 0 1 -8.92355 -23.86623 11.5202 0.5 1 1
9 0 1 0 0 0 1 0 0 0 1 11.07645 -16.36623 10.0202 0.5 1.5 0.5
9 0 1 0 0 0 1 0 0 0 1 9.07645 -17.36623 12.0202 0.5 1.5 0.5
9 0 1 0 0 0 1 0 0 0 1 8.07645 -14.36623 12.0202 0.5 1.5 0.5
9 0 1 0 0 0 1 0 0 0 1 6.07645 -14.36623 13.0202 0.5 1.5 0.5
9 0 1 0 0 0 1 0 0 0 1 3.07645 -31.36623 0.02019882 0.5 0.5 1.5
9 0 1 0 0 0 1 0 0 0 1 -1.92355 -17.36623 15.0202 0.5 1.5 0.5
9 0 1 0 0 0 1 0 0 0 1 -4.92355 -31.36623 4.020199 0.5 0.5 1.5
9 0 1 0 0 0 1 0 0 0 1 -9.92355 -16.36623 11.0202 0.5 1.5 0.5
9 0 1 0 0 0 1 0 0 0 1 -9.92355 -23.36623 11.0202 0.5 1.5 0.5
9 0 1 0 0 0 1 0 0 0 1 -10.92355 -22.36623 10.0202 0.5 1.5 0.5
