9 0 1 0 0 0 1 0 0 0 1 30 -6.625 9.999999 39.25 0.6249993 19.25
9 0 1 0 0 0 1 0 0 0 1 -7.500003 -4 9.999999 0.4999966 3.25 18
9 0 1 0 0 0 1 0 0 0 1 67.5 -4 9.999999 0.4999958 3.25 18
9 0 1 0 0 0 1 0 0 0 1 30 -4 27.5 38 3.25 0.500001
9 0 1 0 0 0 1 0 0 0 1 30 -4 -7.5 38 3.25 0.5000001
9 0 1 0 0 0 1 0 0 0 1 -8.750006 -4.643755 9.999999 0.4999966 2.606244 19.25
9 0 1 0 0 0 1 0 0 0 1 68.75 -4.643755 9.999999 0.4999958 2.606244 19.25
9 0 1 0 0 0 1 0 0 0 1 30 -4.643755 28.74999 39.25 2.606244 0.5000026
9 0 1 0 0 0 1 0 0 0 1 30 -4.643755 -8.750001 39.25 2.606244 0.5000001
