9 0 1 0 0 0 1 0 0 0 1 2.5 -8 0.06724977 16 2.5 0.5
9 0 1 0 0 0 1 0 0 0 1 21 -8 -0.9327502 16.5 1.5 0.5
9 0 1 0 0 0 1 0 0 0 1 31.5 -8 0.06724977 6 2.5 0.5
9 0 1 0 0 0 1 0 0 0 1 -29.5 -8 0.06724977 8 1.5 0.5
9 0 1 0 0 0 1 0 0 0 1 30 -4.5 0.06724977 3.5 1 0.5
9 0 1 0 0 0 1 0 0 0 1 30 -11.5 0.06724977 3.5 1 0.5
9 0 1 0 0 0 1 0 0 0 1 32 -8 1.06725 6.5 0.5 0.5
9 0 1 0 0 0 1 0 0 0 1 17 -8 1.06725 1.5 1.5 0.5
9 0 1 0 0 0 1 0 0 0 1 -25 -6 0.06724977 4.5 0.5 0.5
9 0 1 0 0 0 1 0 0 0 1 22 -8 -1.93275 3.5 0.5 0.5
9 0 1 0 0 0 1 0 0 0 1 -27.5 -10 0.06724977 3 0.5 0.5
9 0 1 0 0 0 1 0 0 0 1 28.5 -3 0.06724977 2 0.5 0.5
9 0 1 0 0 0 1 0 0 0 1 28.5 -13 0.06724977 2 0.5 0.5
