9 0 1 0 0 0 1 0 0 0 1 -30.2 -10 -112 3.35 0.5 3.35
9 0 1 0 0 0 1 0 0 0 1 -10.2 -10 -112 3.35 0.5 3.35
9 0 1 0 0 0 -1.192093E-07 -1 0 1 -1.192093E-07 9.800003 -231.6 117.72 3.35 0.4999999 3.349999
9 0 1 0 0 0 -1.192093E-07 -1 0 1 -1.192093E-07 29.8 -231.6 117.72 3.35 0.4999999 3.349999
9 0 1 0 0 0 1 0 0 0 1 -19.0831 -20.00002 -64.28001 25.5 1.5 1.5
9 0 1 0 0 0 1 0 0 0 1 5.916897 -182 97.71999 21.5 1.5 1.5
9 0 1 0 0 0 1 0 0 0 1 0.4168968 -127 75.21999 26 1.5 1
9 0 1 0 0 0 1 0 0 0 1 -14.5831 -42.50002 -9.280006 26 1 1.5
9 0 1 0 0 0 1 0 0 0 1 4.416897 -16.00002 -88.78001 2 1.5 11
9 0 1 0 0 0 1 0 0 0 1 -2.583103 -78.50002 38.71999 20 1 1.5
9 0 1 0 0 0 1 0 0 0 1 -43.5831 -16.00002 -89.28001 2 1.5 8.5
9 0 1 0 0 0 1 0 0 0 1 19.9169 -222 113.72 19.5 0.5 2.5
9 0 1 0 0 0 1 0 0 0 1 -20.5831 -4.000015 -104.28 19 2.5 0.5
9 0 1 0 0 0 1 0 0 0 1 -45.5831 -11.00002 -111.28 1 2.5 8.5
9 0 1 0 0 0 1 0 0 0 1 39.4169 -214 103.22 2 3.5 3
9 0 1 0 0 0 1 0 0 0 1 4.916897 -10.00002 -108.78 0.5 3.5 12
9 0 1 0 0 0 1 0 0 0 1 9.916897 -22.50002 -108.78 1.5 1 12
9 0 1 0 0 0 1 0 0 0 1 -43.0831 -18.50002 -74.78001 1.5 2 6
9 0 1 0 0 0 1 0 0 0 1 -50.0831 -22.50002 -109.78 1.5 1 11
9 0 1 0 0 0 1 0 0 0 1 5.916897 -13.50002 -110.28 0.5 3 10.5
9 0 1 0 0 0 1 0 0 0 1 36.9169 -198.5 100.72 1.5 4 2.5
9 0 1 0 0 0 1 0 0 0 1 -43.5831 -11.50002 -97.28001 2 3 2.5
9 0 1 0 0 0 1 0 0 0 1 4.916897 -19.00002 -72.28001 1.5 1.5 6.5
9 0 1 0 0 0 1 0 0 0 1 -13.0831 -190 98.71999 1.5 6.5 1.5
9 0 1 0 0 0 1 0 0 0 1 6.916897 -19.00002 -99.78001 0.5 1.5 19
9 0 1 0 0 0 1 0 0 0 1 6.416897 -27.50002 -43.28001 2 2 3.5
9 0 1 0 0 0 1 0 0 0 1 5.416897 -23.00002 -57.28001 2 1.5 4.5
9 0 1 0 0 0 1 0 0 0 1 -7.583103 -80.00002 39.21999 26 0.5 1
9 0 1 0 0 0 1 0 0 0 1 -9.583103 -212.5 102.72 1 5 2.5
9 0 1 0 0 0 1 0 0 0 1 -16.0831 -172 93.71999 1.5 5.5 1.5
9 0 1 0 0 0 1 0 0 0 1 -42.0831 -23.00002 -56.28001 1.5 1.5 5.5
9 0 1 0 0 0 1 0 0 0 1 37.9169 -206.5 102.22 1.5 4 2
9 0 1 0 0 0 1 0 0 0 1 7.416897 -32.00002 -31.78001 2 1.5 4
9 0 1 0 0 0 1 0 0 0 1 -20.5831 -146.5 84.21999 2 3 2
9 0 1 0 0 0 1 0 0 0 1 9.916897 -24.50002 -89.28001 1.5 1 7.5
9 0 1 0 0 0 1 0 0 0 1 -13.5831 -220 94.71999 1 7.5 1.5
9 0 1 0 0 0 1 0 0 0 1 -19.0831 -157.5 88.71999 1.5 5 1.5
9 0 1 0 0 0 1 0 0 0 1 34.9169 -187 98.21999 1.5 3.5 2
9 0 1 0 0 0 1 0 0 0 1 3.416897 -11.00002 -97.78001 1 3.5 3
9 0 1 0 0 0 1 0 0 0 1 -40.5831 -33.00002 -30.28001 2 1.5 3.5
9 0 1 0 0 0 1 0 0 0 1 -41.5831 -27.00002 -44.28001 2 1.5 3.5
9 0 1 0 0 0 1 0 0 0 1 -46.0831 -15.00002 -107.28 0.5 1.5 13.5
9 0 1 0 0 0 1 0 0 0 1 1.916897 -230.5 113.72 0.5 8 2.5
9 0 1 0 0 0 1 0 0 0 1 -2.083103 -4.000015 -112.78 0.5 2.5 8
9 0 1 0 0 0 1 0 0 0 1 -11.5831 -200.5 100.72 1 4 2.5
9 0 1 0 0 0 1 0 0 0 1 -21.5831 -140.5 81.21999 2 5 1
9 0 1 0 0 0 1 0 0 0 1 -38.0831 -4.000015 -112.78 0.5 2.5 8
9 0 1 0 0 0 1 0 0 0 1 -47.0831 -17.50002 -110.78 0.5 2 10
9 0 1 0 0 0 1 0 0 0 1 -11.5831 -232 95.71999 1 6.5 1.5
9 0 1 0 0 0 1 0 0 0 1 -16.0831 -205 93.21999 1.5 6.5 1
9 0 1 0 0 0 1 0 0 0 1 8.416897 -37.00002 -21.78001 2 1.5 3
9 0 1 0 0 0 1 0 0 0 1 -41.0831 -29.50002 -37.78001 1.5 2 3
9 0 1 0 0 0 1 0 0 0 1 7.916897 -22.50002 -96.78001 0.5 1 17
9 0 1 0 0 0 1 0 0 0 1 -49.5831 -24.50002 -92.28001 1 1 8.5
9 0 1 0 0 0 1 0 0 0 1 38.4169 -230.5 115.22 1 8 1
9 0 1 0 0 0 1 0 0 0 1 -27.5831 -105.5 60.21999 2 2 2
9 0 1 0 0 0 1 0 0 0 1 -35.5831 -60.50002 16.21999 2 2 2
9 0 1 0 0 0 1 0 0 0 1 -36.5831 -54.50002 8.219994 2 2 2
9 0 1 0 0 0 1 0 0 0 1 -37.5831 -49.50002 1.219994 2 2 2
9 0 1 0 0 0 1 0 0 0 1 -39.5831 -38.50002 -18.78001 2 2 2
9 0 1 0 0 0 1 0 0 0 1 27.9169 -145 83.71999 1.5 3.5 1.5
9 0 1 0 0 0 1 0 0 0 1 10.9169 -49.00002 -0.2800064 1.5 1.5 3.5
9 0 1 0 0 0 1 0 0 0 1 -23.0831 -133 77.71999 1.5 3.5 1.5
9 0 1 0 0 0 1 0 0 0 1 -19.0831 -19.50002 -66.28001 15.5 1 0.5
9 0 1 0 0 0 1 0 0 0 1 35.9169 -192.5 99.71999 1.5 2 2.5
9 0 1 0 0 0 1 0 0 0 1 32.4169 -170.5 93.71999 1 5 1.5
9 0 1 0 0 0 1 0 0 0 1 25.9169 -134 78.21999 1.5 2.5 2
9 0 1 0 0 0 1 0 0 0 1 23.9169 -122 71.21999 1.5 2.5 2
9 0 1 0 0 0 1 0 0 0 1 22.9169 -117 68.21999 1.5 2.5 2
9 0 1 0 0 0 1 0 0 0 1 7.916897 -34.50002 -26.78001 1.5 1 5
9 0 1 0 0 0 1 0 0 0 1 5.916897 -24.50002 -50.28001 1.5 2 2.5
9 0 1 0 0 0 1 0 0 0 1 -17.0831 -165.5 91.21999 1.5 5 1
9 0 1 0 0 0 1 0 0 0 1 -25.5831 -118 68.71999 2 2.5 1.5
9 0 1 0 0 0 1 0 0 0 1 -26.5831 -112 64.71999 2 2.5 1.5
9 0 1 0 0 0 1 0 0 0 1 -29.5831 -95.00002 51.71999 2 2.5 1.5
9 0 1 0 0 0 1 0 0 0 1 -40.0831 -35.50002 -24.28001 1.5 2 2.5
9 0 1 0 0 0 1 0 0 0 1 -15.0831 -179 95.71999 1.5 9.5 0.5
9 0 1 0 0 0 1 0 0 0 1 30.4169 -158 89.21999 1 3.5 2
9 0 1 0 0 0 1 0 0 0 1 11.4169 -52.50002 4.719994 2 1 3.5
9 0 1 0 0 0 1 0 0 0 1 -24.5831 -123 72.21999 2 3.5 1
9 0 1 0 0 0 1 0 0 0 1 -49.5831 -21.00002 -113.78 2 0.5 7
9 0 1 0 0 0 1 0 0 0 1 12.9169 -59.00002 14.21999 1.5 1.5 3
9 0 1 0 0 0 1 0 0 0 1 11.9169 -56.00002 10.21999 1.5 1.5 3
9 0 1 0 0 0 1 0 0 0 1 9.916897 -46.00002 -4.780006 1.5 1.5 3
9 0 1 0 0 0 1 0 0 0 1 8.916897 -21.00002 -111.78 1.5 0.5 9
9 0 1 0 0 0 1 0 0 0 1 8.916897 -40.00002 -15.78001 1.5 1.5 3
9 0 1 0 0 0 1 0 0 0 1 2.416897 -44.00002 -9.280006 9 0.5 1.5
9 0 1 0 0 0 1 0 0 0 1 -19.0831 -186 89.21999 1.5 4.5 1
9 0 1 0 0 0 1 0 0 0 1 -16.5831 -127 73.71999 9 1.5 0.5
9 0 1 0 0 0 1 0 0 0 1 -38.0831 -46.00002 -4.780006 1.5 1.5 3
9 0 1 0 0 0 1 0 0 0 1 -39.0831 -41.00002 -13.78001 1.5 1.5 3
9 0 1 0 0 0 1 0 0 0 1 0.4168968 -125 74.71999 26 0.5 0.5
9 0 1 0 0 0 1 0 0 0 1 -14.5831 -43.00002 -7.280006 26 0.5 0.5
9 0 1 0 0 0 1 0 0 0 1 -32.0831 -44.00002 -9.280006 8.5 0.5 1.5
9 0 1 0 0 0 1 0 0 0 1 32.4169 -238 113.72 5 0.5 2.5
9 0 1 0 0 0 1 0 0 0 1 7.416897 -238 113.72 5 0.5 2.5
9 0 1 0 0 0 1 0 0 0 1 -7.583103 -4.000015 -120.28 5 2.5 0.5
9 0 1 0 0 0 1 0 0 0 1 -32.5831 -4.000015 -120.28 5 2.5 0.5
9 0 1 0 0 0 1 0 0 0 1 39.9169 -215.5 108.22 1.5 2 2
9 0 1 0 0 0 1 0 0 0 1 33.9169 -179.5 95.21999 1.5 4 1
9 0 1 0 0 0 1 0 0 0 1 31.4169 -182 97.21999 4 1.5 1
9 0 1 0 0 0 1 0 0 0 1 26.9169 -139.5 81.21999 1.5 2 2
9 0 1 0 0 0 1 0 0 0 1 21.9169 -111.5 64.21999 1.5 2 2
9 0 1 0 0 0 1 0 0 0 1 20.9169 -104.5 59.21999 1.5 2 2
9 0 1 0 0 0 1 0 0 0 1 18.9169 -94.50002 51.21999 1.5 2 2
9 0 1 0 0 0 1 0 0 0 1 17.9169 -89.50002 47.21999 1.5 2 2
9 0 1 0 0 0 1 0 0 0 1 14.9169 -70.50002 28.21999 1.5 2 2
9 0 1 0 0 0 1 0 0 0 1 15.4169 -76.00002 34.21999 2 1.5 2
9 0 1 0 0 0 1 0 0 0 1 13.9169 -64.50002 21.21999 1.5 2 2
9 0 1 0 0 0 1 0 0 0 1 10.9169 -28.50002 -68.78001 1.5 1 4
9 0 1 0 0 0 1 0 0 0 1 9.916897 -26.50002 -75.78001 1.5 1 4
9 0 1 0 0 0 1 0 0 0 1 6.916897 -29.50002 -37.78001 1.5 2 2
9 0 1 0 0 0 1 0 0 0 1 4.416897 -18.00002 -84.78001 2 0.5 6
9 0 1 0 0 0 1 0 0 0 1 -19.5831 -152.5 85.71999 2 2 1.5
9 0 1 0 0 0 1 0 0 0 1 -20.5831 -178.5 87.21999 2 3 1
9 0 1 0 0 0 1 0 0 0 1 -28.0831 -101.5 57.21999 1.5 2 2
9 0 1 0 0 0 1 0 0 0 1 -30.0831 -89.50002 47.21999 1.5 2 2
9 0 1 0 0 0 1 0 0 0 1 -31.0831 -85.50002 43.21999 1.5 2 2
9 0 1 0 0 0 1 0 0 0 1 -29.5831 -78.50002 38.71999 4 1 1.5
9 0 1 0 0 0 1 0 0 0 1 -34.0831 -67.50002 25.21999 1.5 2 2
9 0 1 0 0 0 1 0 0 0 1 -33.5831 -71.50002 29.71999 2 2 1.5
9 0 1 0 0 0 1 0 0 0 1 -35.0831 -63.50002 20.21999 1.5 2 2
9 0 1 0 0 0 1 0 0 0 1 -36.0831 -57.50002 12.21999 1.5 2 2
9 0 1 0 0 0 1 0 0 0 1 19.9169 -100 55.71999 1.5 2.5 1.5
9 0 1 0 0 0 1 0 0 0 1 10.9169 -184 97.71999 22.5 0.5 0.5
9 0 1 0 0 0 1 0 0 0 1 -37.0831 -52.00002 4.719994 1.5 2.5 1.5
9 0 1 0 0 0 1 0 0 0 1 -42.0831 -25.00002 -50.28001 1.5 0.5 7.5
9 0 1 0 0 0 1 0 0 0 1 -43.5831 -18.00002 -86.28001 2 0.5 5.5
9 0 1 0 0 0 1 0 0 0 1 47.4169 -225 94.71999 1 3.5 1.5
9 0 1 0 0 0 1 0 0 0 1 3.916897 -13.50002 -91.28001 1.5 1 3.5
9 0 1 0 0 0 1 0 0 0 1 -25.0831 -139 75.21999 0.5 10.5 1
9 0 1 0 0 0 1 0 0 0 1 -43.0831 -13.50002 -91.28001 1.5 1 3.5
9 0 1 0 0 0 1 0 0 0 1 -49.0831 -26.50002 -78.28001 1.5 1 3.5
9 0 1 0 0 0 1 0 0 0 1 -20.0831 -41.00002 -9.280006 20.5 0.5 0.5
9 0 1 0 0 0 1 0 0 0 1 45.4169 -214.5 94.21999 1 5 1
9 0 1 0 0 0 1 0 0 0 1 29.4169 -151 86.21999 1 2.5 2
9 0 1 0 0 0 1 0 0 0 1 6.916897 -20.50002 -70.78001 0.5 1 10
9 0 1 0 0 0 1 0 0 0 1 3.916897 -7.500015 -110.78 0.5 1 10
9 0 1 0 0 0 1 0 0 0 1 -8.083103 -218.5 108.22 0.5 5 2
9 0 1 0 0 0 1 0 0 0 1 -22.5831 -137.5 79.71999 2 5 0.5
9 0 1 0 0 0 1 0 0 0 1 -24.0831 -146.5 78.21999 0.5 10 1
9 0 1 0 0 0 1 0 0 0 1 -44.5831 -7.000015 -110.78 1 0.5 10
9 0 1 0 0 0 1 0 0 0 1 -43.5831 -21.50002 -68.28001 2 1 2.5
9 0 1 0 0 0 1 0 0 0 1 -48.0831 -22.50002 -99.78001 0.5 1 10
9 0 1 0 0 0 1 0 0 0 1 7.916897 -24.00002 -77.28001 0.5 0.5 19.5
9 0 1 0 0 0 1 0 0 0 1 -17.0831 -198 91.71999 1.5 6.5 0.5
9 0 1 0 0 0 1 0 0 0 1 -27.0831 -127 68.71999 0.5 6.5 1.5
9 0 1 0 0 0 1 0 0 0 1 48.4169 -233.5 95.71999 1 3 1.5
9 0 1 0 0 0 1 0 0 0 1 43.4169 -199.5 91.71999 1 3 1.5
9 0 1 0 0 0 1 0 0 0 1 43.9169 -205.5 93.21999 1.5 3 1
9 0 1 0 0 0 1 0 0 0 1 31.9169 -166.5 91.21999 1.5 3 1
9 0 1 0 0 0 1 0 0 0 1 24.9169 -130 76.21999 1.5 1.5 2
9 0 1 0 0 0 1 0 0 0 1 24.4169 -126 72.71999 2 1.5 1.5
9 0 1 0 0 0 1 0 0 0 1 15.9169 -127 73.71999 6.5 1.5 0.5
9 0 1 0 0 0 1 0 0 0 1 16.9169 -82.00002 40.21999 1.5 1.5 2
9 0 1 0 0 0 1 0 0 0 1 13.9169 -67.00002 25.21999 1.5 1.5 2
9 0 1 0 0 0 1 0 0 0 1 12.9169 -61.50002 17.21999 1.5 1 3
9 0 1 0 0 0 1 0 0 0 1 11.9169 -34.50002 -48.78001 1.5 1 3
9 0 1 0 0 0 1 0 0 0 1 9.416897 -43.00002 -12.28001 2 1.5 1.5
9 0 1 0 0 0 1 0 0 0 1 -1.583103 -22.00002 -64.78001 9 0.5 1
9 0 1 0 0 0 1 0 0 0 1 -11.0831 -209 101.22 0.5 4.5 2
9 0 1 0 0 0 1 0 0 0 1 -22.0831 -169.5 84.21999 1.5 3 1
9 0 1 0 0 0 1 0 0 0 1 -26.0831 -134.5 71.71999 0.5 6 1.5
9 0 1 0 0 0 1 0 0 0 1 -29.0831 -115.5 61.71999 0.5 6 1.5
9 0 1 0 0 0 1 0 0 0 1 -29.0831 -97.50002 54.71999 1.5 2 1.5
9 0 1 0 0 0 1 0 0 0 1 -32.0831 -82.00002 40.21999 1.5 1.5 2
9 0 1 0 0 0 1 0 0 0 1 -33.0831 -74.50002 32.71999 1.5 2 1.5
9 0 1 0 0 0 1 0 0 0 1 -32.5831 -77.00002 35.71999 2 1.5 1.5
9 0 1 0 0 0 1 0 0 0 1 -36.5831 -22.00002 -64.78001 9 0.5 1
9 0 1 0 0 0 1 0 0 0 1 -48.5831 -28.50002 -69.28001 1 1 4.5
9 0 1 0 0 0 1 0 0 0 1 -48.0831 -32.50002 -55.78001 1.5 1 3
9 0 1 0 0 0 1 0 0 0 1 9.416897 -24.00002 -105.28 1 0.5 8.5
9 0 1 0 0 0 1 0 0 0 1 6.916897 -16.50002 -102.28 0.5 1 8.5
9 0 1 0 0 0 1 0 0 0 1 -8.583103 -127 76.71999 17 0.5 0.5
9 0 1 0 0 0 1 0 0 0 1 -21.0831 -174 85.71999 1.5 5.5 0.5
9 0 1 0 0 0 1 0 0 0 1 -28.0831 -123 65.71999 0.5 5.5 1.5
9 0 1 0 0 0 1 0 0 0 1 7.916897 -25.50002 -54.78001 0.5 1 8
9 0 1 0 0 0 1 0 0 0 1 -22.5831 -163.5 82.21999 1 4 1
9 0 1 0 0 0 1 0 0 0 1 -30.0831 -107.5 57.21999 0.5 8 1
9 0 1 0 0 0 1 0 0 0 1 -42.5831 -26.50002 -49.78001 2 1 2
9 0 1 0 0 0 1 0 0 0 1 42.4169 -194 90.71999 1 2.5 1.5
9 0 1 0 0 0 1 0 0 0 1 40.9169 -187 89.21999 1.5 2.5 1
9 0 1 0 0 0 1 0 0 0 1 29.9169 -229.5 119.72 2.5 3 0.5
9 0 1 0 0 0 1 0 0 0 1 17.9169 -86.50002 44.71999 1.5 1 2.5
9 0 1 0 0 0 1 0 0 0 1 16.9169 -84.50002 42.71999 1.5 1 2.5
9 0 1 0 0 0 1 0 0 0 1 14.9169 -73.00002 31.21999 1.5 2.5 1
9 0 1 0 0 0 1 0 0 0 1 12.9169 -38.50002 -38.28001 1.5 1 2.5
9 0 1 0 0 0 1 0 0 0 1 11.4169 -31.00002 -60.28001 1 1.5 2.5
9 0 1 0 0 0 1 0 0 0 1 11.9169 -32.50002 -54.28001 1.5 1 2.5
9 0 1 0 0 0 1 0 0 0 1 8.916897 -29.50002 -49.28001 0.5 1 7.5
9 0 1 0 0 0 1 0 0 0 1 9.916897 -229.5 119.72 2.5 3 0.5
9 0 1 0 0 0 1 0 0 0 1 4.916897 -16.50002 -75.28001 1.5 1 2.5
9 0 1 0 0 0 1 0 0 0 1 -10.0831 -204.5 101.72 0.5 3 2.5
9 0 1 0 0 0 1 0 0 0 1 -6.083103 -182.5 95.71999 7.5 1 0.5
9 0 1 0 0 0 1 0 0 0 1 -24.0831 -158 80.21999 1.5 2.5 1
9 0 1 0 0 0 1 0 0 0 1 -27.0831 -108.5 62.71999 1.5 1 2.5
9 0 1 0 0 0 1 0 0 0 1 -46.0831 -17.50002 -95.28001 0.5 1 7.5
9 0 1 0 0 0 1 0 0 0 1 -47.0831 -37.50002 -41.28001 1.5 1 2.5
9 0 1 0 0 0 1 0 0 0 1 -48.0831 -30.50002 -61.28001 1.5 1 2.5
9 0 1 0 0 0 1 0 0 0 1 -15.0831 -210 94.71999 0.5 14.5 0.5
9 0 1 0 0 0 1 0 0 0 1 -47.0831 -19.50002 -97.28001 0.5 2 3.5
9 0 1 0 0 0 1 0 0 0 1 21.9169 -108 61.71999 1.5 1.5 1.5
9 0 1 0 0 0 1 0 0 0 1 10.9169 -51.00002 2.719994 1.5 0.5 4.5
9 0 1 0 0 0 1 0 0 0 1 9.916897 -23.00002 -92.28001 1.5 0.5 4.5
9 0 1 0 0 0 1 0 0 0 1 -14.0831 -188 96.71999 1.5 4.5 0.5
9 0 1 0 0 0 1 0 0 0 1 -19.0831 -191 90.71999 1.5 4.5 0.5
9 0 1 0 0 0 1 0 0 0 1 -25.0831 -121 70.71999 1.5 4.5 0.5
9 0 1 0 0 0 1 0 0 0 1 -26.0831 -115 66.71999 1.5 4.5 0.5
9 0 1 0 0 0 1 0 0 0 1 -44.0831 -12.00002 -100.28 1.5 4.5 0.5
9 0 1 0 0 0 1 0 0 0 1 -50.0831 -24.00002 -105.28 1.5 0.5 4.5
9 0 1 0 0 0 1 0 0 0 1 25.9169 -182.5 95.71999 6.5 1 0.5
9 0 1 0 0 0 1 0 0 0 1 -9.083103 -220 104.72 0.5 2.5 2.5
9 0 1 0 0 0 1 0 0 0 1 -44.0831 -19.00002 -83.28001 2.5 0.5 2.5
9 0 1 0 0 0 1 0 0 0 1 46.9169 -217.5 93.71999 0.5 4 1.5
9 0 1 0 0 0 1 0 0 0 1 43.9169 -235.5 109.22 0.5 3 2
9 0 1 0 0 0 1 0 0 0 1 40.4169 -181.5 87.21999 1 3 1
9 0 1 0 0 0 1 0 0 0 1 38.9169 -175.5 86.21999 1.5 2 1
9 0 1 0 0 0 1 0 0 0 1 38.9169 -206.5 99.71999 1.5 4 0.5
9 0 1 0 0 0 1 0 0 0 1 39.4169 -237.5 112.72 2 1 1.5
9 0 1 0 0 0 1 0 0 0 1 36.9169 -162.5 81.21999 1.5 2 1
9 0 1 0 0 0 1 0 0 0 1 33.9169 -147.5 75.21999 1.5 2 1
9 0 1 0 0 0 1 0 0 0 1 16.9169 -57.50002 -2.780006 1.5 1 2
9 0 1 0 0 0 1 0 0 0 1 15.9169 -53.50002 -8.780006 1.5 1 2
9 0 1 0 0 0 1 0 0 0 1 14.9169 -48.50002 -17.78001 1.5 1 2
9 0 1 0 0 0 1 0 0 0 1 15.4169 -78.50002 35.71999 2 1 1.5
9 0 1 0 0 0 1 0 0 0 1 13.9169 -44.50002 -24.78001 1.5 1 2
9 0 1 0 0 0 1 0 0 0 1 12.4169 -36.00002 -44.78001 2 0.5 3
9 0 1 0 0 0 1 0 0 0 1 11.9169 -54.00002 7.219994 1.5 0.5 4
9 0 1 0 0 0 1 0 0 0 1 4.916897 -21.00002 -69.78001 1.5 0.5 4
9 0 1 0 0 0 1 0 0 0 1 5.416897 -25.00002 -55.78001 2 0.5 3
9 0 1 0 0 0 1 0 0 0 1 -0.5831032 -237 113.22 2 1.5 1
9 0 1 0 0 0 1 0 0 0 1 -12.0831 -221.5 95.71999 0.5 4 1.5
9 0 1 0 0 0 1 0 0 0 1 -14.0831 -208.5 94.71999 0.5 4 1.5
9 0 1 0 0 0 1 0 0 0 1 -15.5831 -179 94.21999 2 1.5 1
9 0 1 0 0 0 1 0 0 0 1 -17.0831 -164.5 93.21999 1.5 2 1
9 0 1 0 0 0 1 0 0 0 1 -21.0831 -141.5 83.21999 1.5 2 1
9 0 1 0 0 0 1 0 0 0 1 -23.0831 -130.5 75.21999 1.5 2 1
9 0 1 0 0 0 1 0 0 0 1 -27.5831 -139.5 71.21999 1 3 1
9 0 1 0 0 0 1 0 0 0 1 -29.0831 -131.5 67.21999 1.5 2 1
9 0 1 0 0 0 1 0 0 0 1 -31.0831 -104.5 53.21999 0.5 6 1
9 0 1 0 0 0 1 0 0 0 1 -34.5831 -66.50002 21.71999 2 1 1.5
9 0 1 0 0 0 1 0 0 0 1 -38.0831 -48.50002 -2.780006 1.5 1 2
9 0 1 0 0 0 1 0 0 0 1 -40.5831 -30.50002 -32.28001 2 1 1.5
9 0 1 0 0 0 1 0 0 0 1 -41.5831 -29.50002 -42.28001 2 1 1.5
9 0 1 0 0 0 1 0 0 0 1 -43.0831 -15.50002 -78.78001 1.5 1 2
9 0 1 0 0 0 1 0 0 0 1 -45.0831 -18.50002 -77.78001 0.5 2 3
9 0 1 0 0 0 1 0 0 0 1 -45.0831 -47.50002 -19.78001 1.5 1 2
9 0 1 0 0 0 1 0 0 0 1 -46.0831 -42.50002 -29.78001 1.5 1 2
9 0 1 0 0 0 1 0 0 0 1 -47.5831 -34.50002 -49.78001 1 1 3
9 0 1 0 0 0 1 0 0 0 1 -49.5831 -23.00002 -93.28001 1 0.5 5.5
9 0 1 0 0 0 1 0 0 0 1 45.9169 -224 95.71999 0.5 3.5 1.5
9 0 1 0 0 0 1 0 0 0 1 42.9169 -230 109.72 0.5 3.5 1.5
9 0 1 0 0 0 1 0 0 0 1 9.916897 -26.00002 -83.28001 1.5 0.5 3.5
9 0 1 0 0 0 1 0 0 0 1 -7.083103 -227 108.72 0.5 3.5 1.5
9 0 1 0 0 0 1 0 0 0 1 -17.0831 -159 88.71999 0.5 3.5 1.5
9 0 1 0 0 0 1 0 0 0 1 -44.0831 -23.00002 -58.28001 0.5 1.5 3.5
9 0 1 0 0 0 1 0 0 0 1 41.9169 -215 102.22 0.5 2.5 2
9 0 1 0 0 0 1 0 0 0 1 38.4169 -171 84.21999 1 2.5 1
9 0 1 0 0 0 1 0 0 0 1 35.4169 -155 78.21999 1 2.5 1
9 0 1 0 0 0 1 0 0 0 1 33.9169 -173 94.21999 0.5 2.5 2
9 0 1 0 0 0 1 0 0 0 1 31.9169 -161 90.21999 0.5 2.5 2
9 0 1 0 0 0 1 0 0 0 1 13.4169 -41.50002 -32.28001 1 1 2.5
9 0 1 0 0 0 1 0 0 0 1 9.916897 -33.50002 -43.78001 0.5 1 5
9 0 1 0 0 0 1 0 0 0 1 6.416897 -27.00002 -49.28001 2 0.5 2.5
9 0 1 0 0 0 1 0 0 0 1 4.416897 -19.00002 -81.28001 2 0.5 2.5
9 0 1 0 0 0 1 0 0 0 1 0.9168968 -233.5 115.22 0.5 5 1
9 0 1 0 0 0 1 0 0 0 1 -6.083103 -230.5 110.22 0.5 5 1
9 0 1 0 0 0 1 0 0 0 1 -9.083103 -215 107.22 0.5 2.5 2
9 0 1 0 0 0 1 0 0 0 1 -12.5831 -194 101.22 1 2.5 1
9 0 1 0 0 0 1 0 0 0 1 -17.5831 -165 89.71999 2 2.5 0.5
9 0 1 0 0 0 1 0 0 0 1 -19.5831 -150 87.71999 2 2.5 0.5
9 0 1 0 0 0 1 0 0 0 1 -19.5831 -157 86.71999 2 2.5 0.5
9 0 1 0 0 0 1 0 0 0 1 -25.5831 -152 77.21999 1 2.5 1
9 0 1 0 0 0 1 0 0 0 1 -26.5831 -143 73.21999 1 2.5 1
9 0 1 0 0 0 1 0 0 0 1 -29.5831 -127 64.21999 1 2.5 1
9 0 1 0 0 0 1 0 0 0 1 -40.5831 -35.00002 -29.28001 2 0.5 2.5
9 0 1 0 0 0 1 0 0 0 1 -45.0831 -8.000015 -110.78 0.5 0.5 10
9 0 1 0 0 0 1 0 0 0 1 -45.5831 -45.50002 -24.28001 1 1 2.5
9 0 1 0 0 0 1 0 0 0 1 -48.0831 -24.50002 -84.78001 0.5 1 5
9 0 1 0 0 0 1 0 0 0 1 -49.5831 -26.00002 -86.78001 1 0.5 5
9 0 1 0 0 0 1 0 0 0 1 8.916897 -80.00002 37.71999 9.5 0.5 0.5
9 0 1 0 0 0 1 0 0 0 1 -25.0831 -79.00002 36.71999 9.5 0.5 0.5
9 0 1 0 0 0 1 0 0 0 1 -25.0831 -80.00002 37.71999 9.5 0.5 0.5
9 0 1 0 0 0 1 0 0 0 1 49.9169 -235.5 94.71999 0.5 3 1.5
9 0 1 0 0 0 1 0 0 0 1 36.9169 -166 83.21999 1.5 1.5 1
9 0 1 0 0 0 1 0 0 0 1 35.9169 -159 80.21999 1.5 1.5 1
9 0 1 0 0 0 1 0 0 0 1 34.9169 -151 76.21999 1.5 1.5 1
9 0 1 0 0 0 1 0 0 0 1 32.9169 -140 71.21999 1.5 1.5 1
9 0 1 0 0 0 1 0 0 0 1 32.9169 -143 73.21999 1.5 1.5 1
9 0 1 0 0 0 1 0 0 0 1 31.9169 -137 70.21999 1.5 1.5 1
9 0 1 0 0 0 1 0 0 0 1 30.4169 -128 64.71999 1 1.5 1.5
9 0 1 0 0 0 1 0 0 0 1 29.9169 -124 62.21999 1.5 1.5 1
9 0 1 0 0 0 1 0 0 0 1 27.9169 -143 81.21999 1.5 1.5 1
9 0 1 0 0 0 1 0 0 0 1 26.9169 -109 52.21999 1.5 1.5 1
9 0 1 0 0 0 1 0 0 0 1 25.9169 -103 47.21999 1.5 1.5 1
9 0 1 0 0 0 1 0 0 0 1 22.9169 -88.50002 34.71999 1.5 1 1.5
9 0 1 0 0 0 1 0 0 0 1 22.9169 -114 66.21999 1.5 0.5 3
9 0 1 0 0 0 1 0 0 0 1 20.9169 -77.50002 23.71999 1.5 1 1.5
9 0 1 0 0 0 1 0 0 0 1 19.9169 -72.50002 17.71999 1.5 1 1.5
9 0 1 0 0 0 1 0 0 0 1 19.9169 -97.00002 53.21999 1.5 0.5 3
9 0 1 0 0 0 1 0 0 0 1 18.9169 -68.50002 12.71999 1.5 1 1.5
9 0 1 0 0 0 1 0 0 0 1 18.9169 -92.00002 49.21999 1.5 0.5 3
9 0 1 0 0 0 1 0 0 0 1 17.9169 -62.50002 4.719994 1.5 1 1.5
9 0 1 0 0 0 1 0 0 0 1 17.9169 -64.50002 7.719994 1.5 1 1.5
9 0 1 0 0 0 1 0 0 0 1 16.9169 -59.50002 0.7199936 1.5 1 1.5
9 0 1 0 0 0 1 0 0 0 1 14.9169 -50.50002 -13.28001 1.5 1 1.5
9 0 1 0 0 0 1 0 0 0 1 13.9169 -46.00002 -21.78001 1.5 0.5 3
9 0 1 0 0 0 1 0 0 0 1 12.9169 -37.00002 -41.78001 1.5 0.5 3
9 0 1 0 0 0 1 0 0 0 1 12.9169 -40.00002 -34.78001 1.5 0.5 3
9 0 1 0 0 0 1 0 0 0 1 10.9169 -30.00002 -65.78001 1.5 0.5 3
9 0 1 0 0 0 1 0 0 0 1 8.916897 -37.50002 -17.28001 1.5 1 1.5
9 0 1 0 0 0 1 0 0 0 1 6.916897 -29.50002 -34.28001 1.5 1 1.5
9 0 1 0 0 0 1 0 0 0 1 3.416897 -45.00002 -9.280006 9 0.5 0.5
9 0 1 0 0 0 1 0 0 0 1 -10.0831 -234 96.21999 0.5 4.5 1
9 0 1 0 0 0 1 0 0 0 1 -13.0831 -232 95.21999 0.5 4.5 1
9 0 1 0 0 0 1 0 0 0 1 -16.0831 -194 93.21999 0.5 4.5 1
9 0 1 0 0 0 1 0 0 0 1 -18.0831 -157.5 90.71999 1.5 3 0.5
9 0 1 0 0 0 1 0 0 0 1 -22.0831 -154 83.21999 0.5 4.5 1
9 0 1 0 0 0 1 0 0 0 1 -23.0831 -151 80.21999 0.5 4.5 1
9 0 1 0 0 0 1 0 0 0 1 -17.5831 -127 72.71999 9 0.5 0.5
9 0 1 0 0 0 1 0 0 0 1 -28.0831 -135 69.21999 1.5 1.5 1
9 0 1 0 0 0 1 0 0 0 1 -30.0831 -91.00002 50.21999 1.5 1.5 1
9 0 1 0 0 0 1 0 0 0 1 -30.5831 -123 61.71999 1 1.5 1.5
9 0 1 0 0 0 1 0 0 0 1 -31.0831 -120 60.21999 1.5 1.5 1
9 0 1 0 0 0 1 0 0 0 1 -32.0831 -116 57.21999 1.5 1.5 1
9 0 1 0 0 0 1 0 0 0 1 -33.0831 -112 54.21999 1.5 1.5 1
9 0 1 0 0 0 1 0 0 0 1 -34.0831 -70.50002 26.71999 1.5 1 1.5
9 0 1 0 0 0 1 0 0 0 1 -34.0831 -104 48.21999 1.5 1.5 1
9 0 1 0 0 0 1 0 0 0 1 -34.0831 -108 51.21999 1.5 1.5 1
9 0 1 0 0 0 1 0 0 0 1 -35.0831 -99.00002 44.21999 1.5 1.5 1
9 0 1 0 0 0 1 0 0 0 1 -36.0831 -92.00002 38.21999 1.5 1.5 1
9 0 1 0 0 0 1 0 0 0 1 -37.0831 -88.00002 34.21999 1.5 1.5 1
9 0 1 0 0 0 1 0 0 0 1 -38.0831 -83.50002 29.71999 1.5 1 1.5
9 0 1 0 0 0 1 0 0 0 1 -31.5831 -43.00002 -11.28001 9 0.5 0.5
9 0 1 0 0 0 1 0 0 0 1 -42.0831 -23.50002 -49.28001 1.5 1 1.5
9 0 1 0 0 0 1 0 0 0 1 -42.0831 -63.50002 5.719994 1.5 1 1.5
9 0 1 0 0 0 1 0 0 0 1 -43.0831 -18.50002 -67.28001 1.5 1 1.5
9 0 1 0 0 0 1 0 0 0 1 -44.0831 -52.50002 -11.28001 1.5 1 1.5
9 0 1 0 0 0 1 0 0 0 1 -46.0831 -20.50002 -81.28001 0.5 1 4.5
9 0 1 0 0 0 1 0 0 0 1 -47.5831 -20.00002 -108.28 1 0.5 4.5
9 0 1 0 0 0 1 0 0 0 1 -48.0831 -27.00002 -71.78001 1.5 0.5 3
9 0 1 0 0 0 1 0 0 0 1 0.9168968 -126 73.71999 8.5 0.5 0.5
9 0 1 0 0 0 1 0 0 0 1 -15.0831 -44.00002 -8.280006 8.5 0.5 0.5
9 0 1 0 0 0 1 0 0 0 1 -32.0831 -45.00002 -9.280006 8.5 0.5 0.5
9 0 1 0 0 0 1 0 0 0 1 42.9169 -224.5 106.22 0.5 2 2
9 0 1 0 0 0 1 0 0 0 1 39.9169 -208.5 102.22 0.5 2 2
9 0 1 0 0 0 1 0 0 0 1 35.4169 -185.5 95.71999 2 2 0.5
9 0 1 0 0 0 1 0 0 0 1 31.4169 -132.5 67.21999 1 2 1
9 0 1 0 0 0 1 0 0 0 1 28.9169 -155.5 88.21999 0.5 2 2
9 0 1 0 0 0 1 0 0 0 1 28.4169 -116.5 57.21999 1 2 1
9 0 1 0 0 0 1 0 0 0 1 27.9169 -149.5 86.21999 0.5 4 1
9 0 1 0 0 0 1 0 0 0 1 31.4169 -182.5 98.71999 4 1 0.5
9 0 1 0 0 0 1 0 0 0 1 25.4169 -100.5 45.21999 1 2 1
9 0 1 0 0 0 1 0 0 0 1 23.4169 -115.5 65.21999 2 1 1
9 0 1 0 0 0 1 0 0 0 1 16.4169 -55.00002 -6.780006 2 0.5 2
9 0 1 0 0 0 1 0 0 0 1 15.4169 -73.50002 29.21999 2 1 1
9 0 1 0 0 0 1 0 0 0 1 14.4169 -47.00002 -19.78001 2 0.5 2
9 0 1 0 0 0 1 0 0 0 1 14.4169 -69.50002 25.21999 2 1 1
9 0 1 0 0 0 1 0 0 0 1 13.4169 -63.50002 18.21999 2 1 1
9 0 1 0 0 0 1 0 0 0 1 8.916897 -28.00002 -63.78001 0.5 0.5 8
9 0 1 0 0 0 1 0 0 0 1 10.4169 -29.00002 -62.78001 2 0.5 2
9 0 1 0 0 0 1 0 0 0 1 8.416897 -36.00002 -26.78001 2 0.5 2
9 0 1 0 0 0 1 0 0 0 1 8.416897 -39.00002 -20.78001 2 0.5 2
9 0 1 0 0 0 1 0 0 0 1 6.416897 -30.00002 -41.78001 2 0.5 2
9 0 1 0 0 0 1 0 0 0 1 5.416897 -22.50002 -62.78001 2 1 1
9 0 1 0 0 0 1 0 0 0 1 -8.083103 -216.5 104.22 0.5 2 2
9 0 1 0 0 0 1 0 0 0 1 -8.083103 -226.5 105.22 0.5 4 1
9 0 1 0 0 0 1 0 0 0 1 -13.0831 -198.5 100.22 0.5 2 2
9 0 1 0 0 0 1 0 0 0 1 -26.5831 -147.5 75.21999 1 2 1
9 0 1 0 0 0 1 0 0 0 1 -26.5831 -111.5 62.71999 2 2 0.5
9 0 1 0 0 0 1 0 0 0 1 -29.5831 -93.50002 49.21999 2 1 1
9 0 1 0 0 0 1 0 0 0 1 -32.0831 -95.50002 48.21999 0.5 4 1
9 0 1 0 0 0 1 0 0 0 1 -33.0831 -94.50002 44.21999 0.5 4 1
9 0 1 0 0 0 1 0 0 0 1 -34.5831 -64.50002 23.21999 2 1 1
9 0 1 0 0 0 1 0 0 0 1 -35.5831 -94.50002 40.21999 1 2 1
9 0 1 0 0 0 1 0 0 0 1 -40.5831 -38.00002 -22.78001 2 0.5 2
9 0 1 0 0 0 1 0 0 0 1 -41.5831 -32.00002 -35.78001 2 0.5 2
9 0 1 0 0 0 1 0 0 0 1 -42.5831 -57.50002 -2.780006 1 1 2
9 0 1 0 0 0 1 0 0 0 1 -42.5831 -59.50002 0.2199936 1 1 2
9 0 1 0 0 0 1 0 0 0 1 -43.5831 -54.50002 -7.780006 1 1 2
9 0 1 0 0 0 1 0 0 0 1 -43.5831 -8.000015 -97.78001 2 0.5 2
9 0 1 0 0 0 1 0 0 0 1 -43.5831 -11.50002 -93.78001 2 1 1
9 0 1 0 0 0 1 0 0 0 1 -43.5831 -15.50002 -98.78001 2 1 1
9 0 1 0 0 0 1 0 0 0 1 -43.5831 -21.00002 -72.78001 2 0.5 2
9 0 1 0 0 0 1 0 0 0 1 -43.5831 -23.00002 -63.78001 2 0.5 2
9 0 1 0 0 0 1 0 0 0 1 -44.5831 -50.50002 -14.78001 1 1 2
9 0 1 0 0 0 1 0 0 0 1 -47.0831 -21.50002 -89.78001 0.5 1 4
9 0 1 0 0 0 1 0 0 0 1 -46.5831 -39.50002 -36.78001 1 1 2
9 0 1 0 0 0 1 0 0 0 1 -47.5831 -36.00002 -45.78001 1 0.5 4
9 0 1 0 0 0 1 0 0 0 1 -51.0831 -24.50002 -92.78001 0.5 1 4
9 0 1 0 0 0 1 0 0 0 1 45.9169 -212 92.71999 0.5 7.5 0.5
9 0 1 0 0 0 1 0 0 0 1 44.9169 -216 95.71999 1.5 2.5 0.5
9 0 1 0 0 0 1 0 0 0 1 40.9169 -189 90.71999 1.5 2.5 0.5
9 0 1 0 0 0 1 0 0 0 1 38.9169 -200 99.71999 0.5 2.5 1.5
9 0 1 0 0 0 1 0 0 0 1 26.9169 -137 79.71999 1.5 0.5 2.5
9 0 1 0 0 0 1 0 0 0 1 25.9169 -184 96.71999 7.5 0.5 0.5
9 0 1 0 0 0 1 0 0 0 1 9.916897 -25.00002 -79.28001 1.5 0.5 2.5
9 0 1 0 0 0 1 0 0 0 1 5.916897 -13.00002 -97.28001 0.5 1.5 2.5
9 0 1 0 0 0 1 0 0 0 1 5.916897 -25.00002 -45.28001 1.5 0.5 2.5
9 0 1 0 0 0 1 0 0 0 1 3.916897 -14.00002 -85.28001 1.5 0.5 2.5
9 0 1 0 0 0 1 0 0 0 1 7.916897 -81.00002 38.71999 7.5 0.5 0.5
9 0 1 0 0 0 1 0 0 0 1 -4.083103 -21.00002 -66.28001 7.5 0.5 0.5
9 0 1 0 0 0 1 0 0 0 1 -5.083103 -184 96.71999 7.5 0.5 0.5
9 0 1 0 0 0 1 0 0 0 1 -14.0831 -175 93.71999 0.5 2.5 1.5
9 0 1 0 0 0 1 0 0 0 1 -18.0831 -193 89.71999 1.5 2.5 0.5
9 0 1 0 0 0 1 0 0 0 1 -17.0831 -195 90.71999 0.5 8.5 0.5
9 0 1 0 0 0 1 0 0 0 1 -20.0831 -148 86.71999 1.5 2.5 0.5
9 0 1 0 0 0 1 0 0 0 1 -20.0831 -184 87.71999 1.5 2.5 0.5
9 0 1 0 0 0 1 0 0 0 1 -34.0831 -21.00002 -66.28001 7.5 0.5 0.5
9 0 1 0 0 0 1 0 0 0 1 -43.0831 -14.00002 -85.28001 1.5 0.5 2.5
9 0 1 0 0 0 1 0 0 0 1 -46.0831 -41.00002 -32.28001 1.5 0.5 2.5
9 0 1 0 0 0 1 0 0 0 1 48.9169 -227 94.21999 0.5 3.5 1
9 0 1 0 0 0 1 0 0 0 1 39.9169 -231.5 114.72 0.5 7 0.5
9 0 1 0 0 0 1 0 0 0 1 10.9169 -39.50002 -24.28001 0.5 1 3.5
9 0 1 0 0 0 1 0 0 0 1 10.4169 -28.00002 -76.28001 1 0.5 3.5
9 0 1 0 0 0 1 0 0 0 1 9.916897 -30.50002 -59.28001 0.5 1 3.5
9 0 1 0 0 0 1 0 0 0 1 9.916897 -34.50002 -35.28001 0.5 1 3.5
9 0 1 0 0 0 1 0 0 0 1 16.4169 -129 74.71999 7 0.5 0.5
9 0 1 0 0 0 1 0 0 0 1 6.916897 -21.00002 -87.78001 0.5 0.5 7
9 0 1 0 0 0 1 0 0 0 1 6.416897 -79.00002 36.71999 7 0.5 0.5
9 0 1 0 0 0 1 0 0 0 1 0.4168968 -43.00002 -11.28001 7 0.5 0.5
9 0 1 0 0 0 1 0 0 0 1 -14.5831 -215 92.71999 1 3.5 0.5
9 0 1 0 0 0 1 0 0 0 1 -15.5831 -215 93.71999 1 3.5 0.5
9 0 1 0 0 0 1 0 0 0 1 -14.5831 -129 74.71999 7 0.5 0.5
9 0 1 0 0 0 1 0 0 0 1 -25.0831 -134.5 76.71999 0.5 7 0.5
9 0 1 0 0 0 1 0 0 0 1 -23.5831 -81.00002 38.71999 7 0.5 0.5
9 0 1 0 0 0 1 0 0 0 1 -30.0831 -112.5 58.71999 0.5 7 0.5
9 0 1 0 0 0 1 0 0 0 1 -35.0831 -77.00002 32.21999 0.5 3.5 1
9 0 1 0 0 0 1 0 0 0 1 -46.0831 -22.50002 -75.28001 0.5 1 3.5
9 0 1 0 0 0 1 0 0 0 1 -47.0831 -23.50002 -82.28001 0.5 1 3.5
9 0 1 0 0 0 1 0 0 0 1 -48.5831 -21.00002 -103.28 1 0.5 3.5
9 0 1 0 0 0 1 0 0 0 1 -48.5831 -30.00002 -67.28001 1 0.5 3.5
9 0 1 0 0 0 1 0 0 0 1 44.9169 -205 91.71999 0.5 6.5 0.5
9 0 1 0 0 0 1 0 0 0 1 15.9169 -127 72.71999 6.5 0.5 0.5
9 0 1 0 0 0 1 0 0 0 1 7.916897 -20.00002 -114.28 0.5 0.5 6.5
9 0 1 0 0 0 1 0 0 0 1 7.916897 -25.00002 -69.28001 0.5 0.5 6.5
9 0 1 0 0 0 1 0 0 0 1 -18.0831 -200 92.71999 0.5 6.5 0.5
9 0 1 0 0 0 1 0 0 0 1 47.4169 -229.5 95.71999 1 1 1.5
9 0 1 0 0 0 1 0 0 0 1 44.9169 -236.5 105.72 0.5 2 1.5
9 0 1 0 0 0 1 0 0 0 1 43.9169 -210.5 93.71999 0.5 2 1.5
9 0 1 0 0 0 1 0 0 0 1 43.9169 -226.5 103.72 0.5 2 1.5
9 0 1 0 0 0 1 0 0 0 1 41.9169 -199.5 92.21999 0.5 3 1
9 0 1 0 0 0 1 0 0 0 1 38.9169 -180.5 87.71999 0.5 2 1.5
9 0 1 0 0 0 1 0 0 0 1 38.9169 -209.5 105.22 1.5 1 1
9 0 1 0 0 0 1 0 0 0 1 38.9169 -212.5 107.22 1.5 1 1
9 0 1 0 0 0 1 0 0 0 1 36.9169 -188.5 97.71999 0.5 2 1.5
9 0 1 0 0 0 1 0 0 0 1 36.4169 -196 97.71999 2 1.5 0.5
9 0 1 0 0 0 1 0 0 0 1 33.9169 -177.5 93.71999 1.5 2 0.5
9 0 1 0 0 0 1 0 0 0 1 32.4169 -171.5 95.71999 1 3 0.5
9 0 1 0 0 0 1 0 0 0 1 30.9169 -153.5 86.21999 0.5 3 1
9 0 1 0 0 0 1 0 0 0 1 31.4169 -164 93.21999 1 1.5 1
9 0 1 0 0 0 1 0 0 0 1 30.4169 -162.5 89.71999 1 1 1.5
9 0 1 0 0 0 1 0 0 0 1 29.4169 -121 60.21999 1 1.5 1
9 0 1 0 0 0 1 0 0 0 1 27.9169 -113.5 55.21999 1.5 1 1
9 0 1 0 0 0 1 0 0 0 1 26.4169 -105 49.21999 1 1.5 1
9 0 1 0 0 0 1 0 0 0 1 26.9169 -111.5 54.21999 1.5 1 1
9 0 1 0 0 0 1 0 0 0 1 25.4169 -98.00002 43.21999 1 1.5 1
9 0 1 0 0 0 1 0 0 0 1 25.4169 -129 73.71999 2 1.5 0.5
9 0 1 0 0 0 1 0 0 0 1 23.4169 -90.50002 36.71999 1 1 1.5
9 0 1 0 0 0 1 0 0 0 1 23.9169 -92.50002 38.21999 1.5 1 1
9 0 1 0 0 0 1 0 0 0 1 23.9169 -94.50002 40.21999 1.5 1 1
9 0 1 0 0 0 1 0 0 0 1 22.4169 -83.00002 29.21999 1 1.5 1
9 0 1 0 0 0 1 0 0 0 1 21.4169 -79.50002 25.71999 1 1 1.5
9 0 1 0 0 0 1 0 0 0 1 21.9169 -84.50002 31.21999 1.5 1 1
9 0 1 0 0 0 1 0 0 0 1 21.9169 -86.50002 33.21999 1.5 1 1
9 0 1 0 0 0 1 0 0 0 1 20.4169 -101 58.21999 1 1.5 1
9 0 1 0 0 0 1 0 0 0 1 19.9169 -74.50002 20.21999 1.5 1 1
9 0 1 0 0 0 1 0 0 0 1 19.9169 -98.50002 53.21999 1.5 1 1
9 0 1 0 0 0 1 0 0 0 1 18.9169 -66.00002 9.219994 1.5 0.5 2
9 0 1 0 0 0 1 0 0 0 1 17.4169 -61.00002 2.719994 2 0.5 1.5
9 0 1 0 0 0 1 0 0 0 1 15.9169 -52.00002 -11.78001 1.5 0.5 2
9 0 1 0 0 0 1 0 0 0 1 20.4169 -127 76.71999 6 0.5 0.5
9 0 1 0 0 0 1 0 0 0 1 14.4169 -43.00002 -28.78001 1 1.5 1
9 0 1 0 0 0 1 0 0 0 1 14.9169 -73.50002 33.21999 1.5 1 1
9 0 1 0 0 0 1 0 0 0 1 15.4169 -77.00002 37.71999 2 0.5 1.5
9 0 1 0 0 0 1 0 0 0 1 14.4169 -67.00002 21.71999 2 0.5 1.5
9 0 1 0 0 0 1 0 0 0 1 11.9169 -43.50002 -20.78001 0.5 1 3
9 0 1 0 0 0 1 0 0 0 1 11.9169 -46.50002 -5.780006 0.5 1 3
9 0 1 0 0 0 1 0 0 0 1 11.4169 -33.00002 -50.28001 2 0.5 1.5
9 0 1 0 0 0 1 0 0 0 1 11.4169 -55.00002 5.719994 2 0.5 1.5
9 0 1 0 0 0 1 0 0 0 1 9.916897 -27.00002 -69.78001 1.5 0.5 2
9 0 1 0 0 0 1 0 0 0 1 8.916897 -30.50002 -38.78001 0.5 1 3
9 0 1 0 0 0 1 0 0 0 1 10.4169 -47.00002 -0.2800064 2 0.5 1.5
9 0 1 0 0 0 1 0 0 0 1 10.4169 -48.00002 -5.280006 2 0.5 1.5
9 0 1 0 0 0 1 0 0 0 1 7.916897 -23.00002 -73.78001 0.5 0.5 6
9 0 1 0 0 0 1 0 0 0 1 8.916897 -40.50002 -11.78001 1.5 1 1
9 0 1 0 0 0 1 0 0 0 1 9.416897 -42.00002 -15.28001 2 0.5 1.5
9 0 1 0 0 0 1 0 0 0 1 7.916897 -32.50002 -26.78001 1.5 1 1
9 0 1 0 0 0 1 0 0 0 1 4.916897 -11.50002 -95.78001 0.5 3 1
9 0 1 0 0 0 1 0 0 0 1 5.916897 -22.00002 -67.78001 1.5 0.5 2
9 0 1 0 0 0 1 0 0 0 1 4.916897 -17.00002 -70.78001 1.5 0.5 2
9 0 1 0 0 0 1 0 0 0 1 3.916897 -11.50002 -93.78001 1.5 1 1
9 0 1 0 0 0 1 0 0 0 1 -1.583103 -237.5 111.72 3 1 0.5
9 0 1 0 0 0 1 0 0 0 1 -5.083103 -234.5 111.22 0.5 3 1
9 0 1 0 0 0 1 0 0 0 1 -6.083103 -234.5 108.22 0.5 3 1
9 0 1 0 0 0 1 0 0 0 1 -10.0831 -219 102.22 0.5 1.5 2
9 0 1 0 0 0 1 0 0 0 1 -12.0831 -206.5 100.72 0.5 2 1.5
9 0 1 0 0 0 1 0 0 0 1 -12.0831 -229.5 93.71999 0.5 6 0.5
9 0 1 0 0 0 1 0 0 0 1 -15.0831 -186.5 98.21999 0.5 3 1
9 0 1 0 0 0 1 0 0 0 1 -16.5831 -172 91.71999 2 1.5 0.5
9 0 1 0 0 0 1 0 0 0 1 -19.0831 -163.5 91.21999 0.5 3 1
9 0 1 0 0 0 1 0 0 0 1 -19.0831 -175.5 88.71999 0.5 6 0.5
9 0 1 0 0 0 1 0 0 0 1 -22.0831 -137.5 78.21999 1.5 1 1
9 0 1 0 0 0 1 0 0 0 1 -22.0831 -164.5 83.71999 1.5 2 0.5
9 0 1 0 0 0 1 0 0 0 1 -24.0831 -78.50002 38.21999 1.5 1 1
9 0 1 0 0 0 1 0 0 0 1 -24.5831 -162 81.21999 1 1.5 1
9 0 1 0 0 0 1 0 0 0 1 -25.0831 -121.5 69.21999 1.5 1 1
9 0 1 0 0 0 1 0 0 0 1 -25.5831 -154.5 78.71999 1 3 0.5
9 0 1 0 0 0 1 0 0 0 1 -26.0831 -113.5 67.71999 1.5 2 0.5
9 0 1 0 0 0 1 0 0 0 1 -26.5831 -116 65.71999 2 1.5 0.5
9 0 1 0 0 0 1 0 0 0 1 -28.5831 -101 54.71999 2 1.5 0.5
9 0 1 0 0 0 1 0 0 0 1 -29.5831 -129.5 65.71999 1 3 0.5
9 0 1 0 0 0 1 0 0 0 1 -31.0831 -86.50002 46.21999 1.5 1 1
9 0 1 0 0 0 1 0 0 0 1 -31.0831 -88.50002 44.21999 1.5 1 1
9 0 1 0 0 0 1 0 0 0 1 -33.0831 -86.50002 42.21999 0.5 3 1
9 0 1 0 0 0 1 0 0 0 1 -32.0831 -113.5 55.71999 1.5 2 0.5
9 0 1 0 0 0 1 0 0 0 1 -34.0831 -91.50002 40.21999 0.5 3 1
9 0 1 0 0 0 1 0 0 0 1 -33.0831 -105.5 50.21999 1.5 1 1
9 0 1 0 0 0 1 0 0 0 1 -33.0831 -109.5 52.71999 1.5 2 0.5
9 0 1 0 0 0 1 0 0 0 1 -34.0831 -68.50002 28.21999 1.5 1 1
9 0 1 0 0 0 1 0 0 0 1 -34.5831 -102 46.21999 1 1.5 1
9 0 1 0 0 0 1 0 0 0 1 -36.0831 -70.50002 26.21999 0.5 3 1
9 0 1 0 0 0 1 0 0 0 1 -36.0831 -79.50002 29.21999 0.5 3 1
9 0 1 0 0 0 1 0 0 0 1 -35.5831 -97.00002 42.21999 1 1.5 1
9 0 1 0 0 0 1 0 0 0 1 -36.0831 -57.50002 15.21999 1.5 1 1
9 0 1 0 0 0 1 0 0 0 1 -35.5831 -63.00002 16.71999 2 0.5 1.5
9 0 1 0 0 0 1 0 0 0 1 -37.0831 -66.50002 20.21999 0.5 3 1
9 0 1 0 0 0 1 0 0 0 1 -37.0831 -70.50002 22.21999 0.5 3 1
9 0 1 0 0 0 1 0 0 0 1 -36.5831 -85.00002 32.21999 1 1.5 1
9 0 1 0 0 0 1 0 0 0 1 -36.0831 -89.50002 36.21999 1.5 1 1
9 0 1 0 0 0 1 0 0 0 1 -36.5831 -57.00002 8.719994 2 0.5 1.5
9 0 1 0 0 0 1 0 0 0 1 -38.0831 -58.50002 11.71999 0.5 2 1.5
9 0 1 0 0 0 1 0 0 0 1 -37.5831 -52.00002 1.719994 2 0.5 1.5
9 0 1 0 0 0 1 0 0 0 1 -39.0831 -53.50002 4.219994 0.5 3 1
9 0 1 0 0 0 1 0 0 0 1 -38.5831 -74.50002 20.71999 1 1 1.5
9 0 1 0 0 0 1 0 0 0 1 -38.5831 -77.00002 23.21999 1 1.5 1
9 0 1 0 0 0 1 0 0 0 1 -38.0831 -78.50002 25.21999 1.5 1 1
9 0 1 0 0 0 1 0 0 0 1 -38.0831 -81.50002 28.21999 1.5 1 1
9 0 1 0 0 0 1 0 0 0 1 -39.0831 -38.50002 -15.78001 1.5 1 1
9 0 1 0 0 0 1 0 0 0 1 -39.5831 -71.50002 16.71999 1 1 1.5
9 0 1 0 0 0 1 0 0 0 1 -39.0831 -80.50002 26.21999 1.5 1 1
9 0 1 0 0 0 1 0 0 0 1 -40.0831 -35.50002 -20.78001 1.5 1 1
9 0 1 0 0 0 1 0 0 0 1 -39.5831 -43.00002 -13.28001 2 0.5 1.5
9 0 1 0 0 0 1 0 0 0 1 -40.5831 -67.50002 11.71999 1 1 1.5
9 0 1 0 0 0 1 0 0 0 1 -40.0831 -69.50002 14.21999 1.5 1 1
9 0 1 0 0 0 1 0 0 0 1 -40.0831 -73.50002 18.21999 1.5 1 1
9 0 1 0 0 0 1 0 0 0 1 -40.5831 -5.000015 -120.28 2 1.5 0.5
9 0 1 0 0 0 1 0 0 0 1 -41.0831 -65.50002 9.219994 1.5 1 1
9 0 1 0 0 0 1 0 0 0 1 -43.0831 -30.00002 -38.78001 0.5 1.5 2
9 0 1 0 0 0 1 0 0 0 1 -42.0831 -61.50002 3.219994 1.5 1 1
9 0 1 0 0 0 1 0 0 0 1 -43.0831 -16.00002 -74.78001 1.5 0.5 2
9 0 1 0 0 0 1 0 0 0 1 -42.5831 -26.00002 -53.28001 2 0.5 1.5
9 0 1 0 0 0 1 0 0 0 1 -42.5831 -29.00002 -45.28001 2 0.5 1.5
9 0 1 0 0 0 1 0 0 0 1 -43.5831 -48.50002 -16.28001 1 1 1.5
9 0 1 0 0 0 1 0 0 0 1 -43.0831 -56.00002 -4.780006 1.5 0.5 2
9 0 1 0 0 0 1 0 0 0 1 -45.0831 -26.00002 -58.78001 0.5 1.5 2
9 0 1 0 0 0 1 0 0 0 1 -44.5831 -43.50002 -26.28001 1 1 1.5
9 0 1 0 0 0 1 0 0 0 1 -45.5831 -12.00002 -101.78 1 1.5 1
9 0 1 0 0 0 1 0 0 0 1 -47.0831 -25.50002 -76.78001 0.5 1 3
9 0 1 0 0 0 1 0 0 0 1 -47.0831 -28.50002 -65.78001 0.5 1 3
9 0 1 0 0 0 1 0 0 0 1 -47.0831 -31.00002 -56.78001 1.5 0.5 2
9 0 1 0 0 0 1 0 0 0 1 -48.5831 -20.00002 -117.78 1 0.5 3
9 0 1 0 0 0 1 0 0 0 1 -49.0831 -28.00002 -75.78001 1.5 0.5 2
9 0 1 0 0 0 1 0 0 0 1 -50.0831 -28.50002 -70.78001 0.5 1 3
9 0 1 0 0 0 1 0 0 0 1 11.9169 -27.00002 -75.28001 0.5 0.5 5.5
9 0 1 0 0 0 1 0 0 0 1 -11.0831 -206 103.72 0.5 5.5 0.5
9 0 1 0 0 0 1 0 0 0 1 -19.0831 -195 91.71999 0.5 5.5 0.5
9 0 1 0 0 0 1 0 0 0 1 -20.0831 -170 86.71999 0.5 5.5 0.5
9 0 1 0 0 0 1 0 0 0 1 -31.0831 -108 54.71999 0.5 5.5 0.5
9 0 1 0 0 0 1 0 0 0 1 -48.0831 -22.00002 -115.28 0.5 0.5 5.5
9 0 1 0 0 0 1 0 0 0 1 -50.0831 -24.00002 -115.28 0.5 0.5 5.5
9 0 1 0 0 0 1 0 0 0 1 46.9169 -234 97.21999 0.5 2.5 1
9 0 1 0 0 0 1 0 0 0 1 44.9169 -231 102.22 0.5 2.5 1
9 0 1 0 0 0 1 0 0 0 1 43.9169 -231 106.22 0.5 2.5 1
9 0 1 0 0 0 1 0 0 0 1 40.9169 -194 91.21999 0.5 2.5 1
9 0 1 0 0 0 1 0 0 0 1 35.9169 -191.5 96.71999 2.5 1 0.5
9 0 1 0 0 0 1 0 0 0 1 30.4169 -160 91.71999 1 2.5 0.5
9 0 1 0 0 0 1 0 0 0 1 13.9169 -56.50002 7.719994 0.5 1 2.5
9 0 1 0 0 0 1 0 0 0 1 11.9169 -24.00002 -93.78001 0.5 0.5 5
9 0 1 0 0 0 1 0 0 0 1 11.9169 -26.00002 -80.78001 0.5 0.5 5
9 0 1 0 0 0 1 0 0 0 1 10.9169 -38.00002 -34.78001 0.5 0.5 5
9 0 1 0 0 0 1 0 0 0 1 10.9169 -40.50002 -18.28001 0.5 1 2.5
9 0 1 0 0 0 1 0 0 0 1 10.9169 -58.50002 12.71999 0.5 1 2.5
9 0 1 0 0 0 1 0 0 0 1 9.416897 -22.00002 -94.28001 1 0.5 2.5
9 0 1 0 0 0 1 0 0 0 1 6.916897 -19.00002 -75.78001 0.5 0.5 5
9 0 1 0 0 0 1 0 0 0 1 5.916897 -17.00002 -104.78 0.5 0.5 5
9 0 1 0 0 0 1 0 0 0 1 9.416897 -184 98.71999 5 0.5 0.5
9 0 1 0 0 0 1 0 0 0 1 -0.08310318 -233.5 114.72 0.5 5 0.5
9 0 1 0 0 0 1 0 0 0 1 0.9168968 -5.500015 -120.28 2.5 1 0.5
9 0 1 0 0 0 1 0 0 0 1 0.9168968 -5.500015 -104.28 2.5 1 0.5
9 0 1 0 0 0 1 0 0 0 1 -2.083103 -222 112.22 2.5 0.5 1
9 0 1 0 0 0 1 0 0 0 1 -7.083103 -232 106.22 0.5 2.5 1
9 0 1 0 0 0 1 0 0 0 1 -10.0831 -213 106.22 0.5 2.5 1
9 0 1 0 0 0 1 0 0 0 1 -11.0831 -217 99.21999 0.5 2.5 1
9 0 1 0 0 0 1 0 0 0 1 -12.0831 -212 98.21999 0.5 2.5 1
9 0 1 0 0 0 1 0 0 0 1 -13.0831 -205 98.21999 0.5 2.5 1
9 0 1 0 0 0 1 0 0 0 1 -13.0831 -210 96.21999 0.5 2.5 1
9 0 1 0 0 0 1 0 0 0 1 -16.0831 -185.5 94.71999 0.5 5 0.5
9 0 1 0 0 0 1 0 0 0 1 -15.5831 -208 91.71999 1 2.5 0.5
9 0 1 0 0 0 1 0 0 0 1 -16.0831 -209.5 94.71999 0.5 5 0.5
9 0 1 0 0 0 1 0 0 0 1 -18.0831 -169 93.21999 0.5 2.5 1
9 0 1 0 0 0 1 0 0 0 1 -18.0831 -163.5 88.71999 2.5 1 0.5
9 0 1 0 0 0 1 0 0 0 1 -21.0831 -161 85.21999 0.5 2.5 1
9 0 1 0 0 0 1 0 0 0 1 -21.0831 -183.5 88.71999 0.5 5 0.5
9 0 1 0 0 0 1 0 0 0 1 -21.0831 -146.5 81.71999 2.5 1 0.5
9 0 1 0 0 0 1 0 0 0 1 -32.0831 -102 49.21999 0.5 2.5 1
9 0 1 0 0 0 1 0 0 0 1 -31.5831 -118 58.71999 1 2.5 0.5
9 0 1 0 0 0 1 0 0 0 1 -31.0831 -79.50002 40.71999 2.5 1 0.5
9 0 1 0 0 0 1 0 0 0 1 -34.0831 -85.00002 38.21999 0.5 2.5 1
9 0 1 0 0 0 1 0 0 0 1 -35.0831 -83.00002 34.21999 0.5 2.5 1
9 0 1 0 0 0 1 0 0 0 1 -36.0831 -60.50002 13.71999 2.5 1 0.5
9 0 1 0 0 0 1 0 0 0 1 -39.0831 -58.00002 7.219994 0.5 2.5 1
9 0 1 0 0 0 1 0 0 0 1 -39.0831 -63.00002 10.21999 0.5 2.5 1
9 0 1 0 0 0 1 0 0 0 1 -40.0831 -50.00002 -2.780006 0.5 2.5 1
9 0 1 0 0 0 1 0 0 0 1 -40.0831 -39.00002 -21.78001 2.5 0.5 1
9 0 1 0 0 0 1 0 0 0 1 -41.0831 -33.00002 -34.78001 2.5 0.5 1
9 0 1 0 0 0 1 0 0 0 1 -45.0831 -13.50002 -92.28001 0.5 1 2.5
9 0 1 0 0 0 1 0 0 0 1 -45.0831 -19.50002 -72.28001 0.5 1 2.5
9 0 1 0 0 0 1 0 0 0 1 -45.0831 -28.50002 -53.28001 0.5 1 2.5
9 0 1 0 0 0 1 0 0 0 1 -46.0831 -19.00002 -90.78001 0.5 0.5 5
9 0 1 0 0 0 1 0 0 0 1 -46.0831 -24.50002 -70.28001 0.5 1 2.5
9 0 1 0 0 0 1 0 0 0 1 -46.0831 -26.50002 -65.28001 0.5 1 2.5
9 0 1 0 0 0 1 0 0 0 1 -46.0831 -29.50002 -59.28001 0.5 1 2.5
9 0 1 0 0 0 1 0 0 0 1 -46.0831 -32.50002 -52.28001 0.5 1 2.5
9 0 1 0 0 0 1 0 0 0 1 -46.0831 -34.50002 -47.28001 0.5 1 2.5
9 0 1 0 0 0 1 0 0 0 1 -45.5831 -36.00002 -42.28001 1 0.5 2.5
9 0 1 0 0 0 1 0 0 0 1 -49.5831 -22.00002 -96.28001 1 0.5 2.5
9 0 1 0 0 0 1 0 0 0 1 -49.5831 -25.00002 -81.28001 1 0.5 2.5
9 0 1 0 0 0 1 0 0 0 1 42.9169 -218 100.72 0.5 1.5 1.5
9 0 1 0 0 0 1 0 0 0 1 42.9169 -221 103.72 0.5 1.5 1.5
9 0 1 0 0 0 1 0 0 0 1 37.9169 -193 98.71999 0.5 1.5 1.5
9 0 1 0 0 0 1 0 0 0 1 36.9169 -170 84.71999 0.5 1.5 1.5
9 0 1 0 0 0 1 0 0 0 1 37.9169 -207 104.72 1.5 1.5 0.5
9 0 1 0 0 0 1 0 0 0 1 35.9169 -182 95.71999 0.5 1.5 1.5
9 0 1 0 0 0 1 0 0 0 1 35.9169 -163 82.71999 1.5 1.5 0.5
9 0 1 0 0 0 1 0 0 0 1 34.9169 -156 79.71999 1.5 1.5 0.5
9 0 1 0 0 0 1 0 0 0 1 33.9169 -169 91.71999 0.5 1.5 1.5
9 0 1 0 0 0 1 0 0 0 1 34.9169 -188 100.72 1.5 1.5 0.5
9 0 1 0 0 0 1 0 0 0 1 33.9169 -146 73.71999 1.5 1.5 0.5
9 0 1 0 0 0 1 0 0 0 1 33.9169 -151 77.71999 1.5 1.5 0.5
9 0 1 0 0 0 1 0 0 0 1 32.9169 -173 96.71999 1.5 1.5 0.5
9 0 1 0 0 0 1 0 0 0 1 31.9169 -135 68.71999 1.5 0.5 1.5
9 0 1 0 0 0 1 0 0 0 1 31.9169 -165 89.71999 1.5 1.5 0.5
9 0 1 0 0 0 1 0 0 0 1 30.9169 -130 65.71999 1.5 0.5 1.5
9 0 1 0 0 0 1 0 0 0 1 29.9169 -147 83.71999 0.5 1.5 1.5
9 0 1 0 0 0 1 0 0 0 1 29.9169 -150 83.71999 1.5 1.5 0.5
9 0 1 0 0 0 1 0 0 0 1 28.9169 -118 58.71999 1.5 1.5 0.5
9 0 1 0 0 0 1 0 0 0 1 27.9169 -139 78.71999 1.5 1.5 0.5
9 0 1 0 0 0 1 0 0 0 1 26.9169 -107 50.71999 1.5 0.5 1.5
9 0 1 0 0 0 1 0 0 0 1 25.9169 -133 75.71999 1.5 1.5 0.5
9 0 1 0 0 0 1 0 0 0 1 25.9169 -135 80.71999 1.5 1.5 0.5
9 0 1 0 0 0 1 0 0 0 1 24.9169 -96.00002 41.71999 1.5 0.5 1.5
9 0 1 0 0 0 1 0 0 0 1 23.9169 -121 68.71999 1.5 1.5 0.5
9 0 1 0 0 0 1 0 0 0 1 20.9169 -76.00002 21.71999 1.5 0.5 1.5
9 0 1 0 0 0 1 0 0 0 1 20.9169 -81.00002 27.71999 1.5 0.5 1.5
9 0 1 0 0 0 1 0 0 0 1 20.9169 -105 61.71999 1.5 1.5 0.5
9 0 1 0 0 0 1 0 0 0 1 19.9169 -71.00002 15.71999 1.5 0.5 1.5
9 0 1 0 0 0 1 0 0 0 1 18.9169 -67.00002 10.71999 1.5 0.5 1.5
9 0 1 0 0 0 1 0 0 0 1 18.9169 -70.00002 14.71999 1.5 0.5 1.5
9 0 1 0 0 0 1 0 0 0 1 18.9169 -95.00002 53.71999 1.5 1.5 0.5
9 0 1 0 0 0 1 0 0 0 1 16.9169 -56.00002 -5.280006 1.5 0.5 1.5
9 0 1 0 0 0 1 0 0 0 1 12.9169 -50.00002 -5.280006 0.5 0.5 4.5
9 0 1 0 0 0 1 0 0 0 1 12.9169 -51.00002 -0.2800064 0.5 0.5 4.5
9 0 1 0 0 0 1 0 0 0 1 12.9169 -70.00002 27.71999 0.5 1.5 1.5
9 0 1 0 0 0 1 0 0 0 1 11.9169 -25.00002 -86.28001 0.5 0.5 4.5
9 0 1 0 0 0 1 0 0 0 1 12.9169 -43.00002 -26.28001 1.5 0.5 1.5
9 0 1 0 0 0 1 0 0 0 1 11.9169 -64.00002 20.71999 0.5 1.5 1.5
9 0 1 0 0 0 1 0 0 0 1 11.9169 -35.00002 -44.28001 1.5 0.5 1.5
9 0 1 0 0 0 1 0 0 0 1 11.9169 -57.00002 14.71999 1.5 0.5 1.5
9 0 1 0 0 0 1 0 0 0 1 10.9169 -50.00002 4.719994 1.5 0.5 1.5
9 0 1 0 0 0 1 0 0 0 1 -9.083103 -224 103.72 0.5 1.5 1.5
9 0 1 0 0 0 1 0 0 0 1 -13.0831 -190 100.72 1.5 1.5 0.5
9 0 1 0 0 0 1 0 0 0 1 -15.0831 -193 95.71999 0.5 4.5 0.5
9 0 1 0 0 0 1 0 0 0 1 -15.0831 -173 96.71999 1.5 1.5 0.5
9 0 1 0 0 0 1 0 0 0 1 -17.0831 -182 92.71999 0.5 4.5 0.5
9 0 1 0 0 0 1 0 0 0 1 -17.0831 -187 91.71999 0.5 4.5 0.5
9 0 1 0 0 0 1 0 0 0 1 -18.0831 -182 90.71999 0.5 4.5 0.5
9 0 1 0 0 0 1 0 0 0 1 -18.0831 -159 91.71999 1.5 1.5 0.5
9 0 1 0 0 0 1 0 0 0 1 -20.0831 -150 84.71999 1.5 0.5 1.5
9 0 1 0 0 0 1 0 0 0 1 -25.0831 -140 73.71999 0.5 4.5 0.5
9 0 1 0 0 0 1 0 0 0 1 -25.0831 -148 76.71999 1.5 1.5 0.5
9 0 1 0 0 0 1 0 0 0 1 -27.0831 -106 62.71999 1.5 1.5 0.5
9 0 1 0 0 0 1 0 0 0 1 -28.0831 -102 59.71999 1.5 1.5 0.5
9 0 1 0 0 0 1 0 0 0 1 -28.0831 -105 57.71999 1.5 1.5 0.5
9 0 1 0 0 0 1 0 0 0 1 -28.0831 -138 69.71999 1.5 1.5 0.5
9 0 1 0 0 0 1 0 0 0 1 -30.0831 -92.00002 47.71999 1.5 0.5 1.5
9 0 1 0 0 0 1 0 0 0 1 -32.0831 -90.00002 46.71999 0.5 1.5 1.5
9 0 1 0 0 0 1 0 0 0 1 -32.0831 -85.00002 40.71999 1.5 1.5 0.5
9 0 1 0 0 0 1 0 0 0 1 -35.0831 -61.00002 19.71999 1.5 0.5 1.5
9 0 1 0 0 0 1 0 0 0 1 -36.0831 -55.00002 11.71999 1.5 0.5 1.5
9 0 1 0 0 0 1 0 0 0 1 -38.0831 -64.00002 14.71999 0.5 1.5 1.5
9 0 1 0 0 0 1 0 0 0 1 -38.0831 -47.00002 -0.2800064 1.5 0.5 1.5
9 0 1 0 0 0 1 0 0 0 1 -40.0831 -46.00002 -6.280006 0.5 1.5 1.5
9 0 1 0 0 0 1 0 0 0 1 -40.0831 -53.00002 -0.2800064 0.5 1.5 1.5
9 0 1 0 0 0 1 0 0 0 1 -40.0831 -31.00002 -29.28001 1.5 0.5 1.5
9 0 1 0 0 0 1 0 0 0 1 -40.0831 -33.00002 -25.28001 1.5 0.5 1.5
9 0 1 0 0 0 1 0 0 0 1 -40.0831 -44.00002 -12.28001 1.5 0.5 1.5
9 0 1 0 0 0 1 0 0 0 1 -41.0831 -5.000015 -104.28 1.5 1.5 0.5
9 0 1 0 0 0 1 0 0 0 1 -41.0831 -27.00002 -39.28001 1.5 0.5 1.5
9 0 1 0 0 0 1 0 0 0 1 -41.0831 -30.00002 -34.28001 1.5 1.5 0.5
9 0 1 0 0 0 1 0 0 0 1 -42.0831 -36.00002 -25.28001 0.5 1.5 1.5
9 0 1 0 0 0 1 0 0 0 1 -44.0831 -8.000015 -116.28 0.5 0.5 4.5
9 0 1 0 0 0 1 0 0 0 1 -43.0831 -20.00002 -67.28001 1.5 0.5 1.5
9 0 1 0 0 0 1 0 0 0 1 -43.0831 -21.00002 -62.28001 1.5 1.5 0.5
9 0 1 0 0 0 1 0 0 0 1 -44.0831 -24.00002 -53.28001 0.5 1.5 1.5
9 0 1 0 0 0 1 0 0 0 1 -44.0831 -33.00002 -40.28001 0.5 1.5 1.5
9 0 1 0 0 0 1 0 0 0 1 -45.0831 -32.00002 -48.28001 0.5 1.5 1.5
9 0 1 0 0 0 1 0 0 0 1 -47.0831 -15.00002 -108.28 0.5 0.5 4.5
9 0 1 0 0 0 1 0 0 0 1 -48.0831 -24.00002 -94.28001 0.5 0.5 4.5
9 0 1 0 0 0 1 0 0 0 1 48.4169 -237.5 96.21999 1 1 1
9 0 1 0 0 0 1 0 0 0 1 44.9169 -220.5 96.21999 0.5 2 1
9 0 1 0 0 0 1 0 0 0 1 44.9169 -227.5 100.22 0.5 2 1
9 0 1 0 0 0 1 0 0 0 1 43.9169 -223.5 101.22 0.5 2 1
9 0 1 0 0 0 1 0 0 0 1 42.9169 -189.5 89.21999 0.5 2 1
9 0 1 0 0 0 1 0 0 0 1 42.9169 -234.5 111.72 0.5 4 0.5
9 0 1 0 0 0 1 0 0 0 1 41.9169 -211.5 99.21999 0.5 2 1
9 0 1 0 0 0 1 0 0 0 1 40.4169 -182.5 88.71999 1 2 0.5
9 0 1 0 0 0 1 0 0 0 1 39.4169 -235.5 113.72 2 1 0.5
9 0 1 0 0 0 1 0 0 0 1 34.9169 -195.5 100.22 0.5 1 2
9 0 1 0 0 0 1 0 0 0 1 31.9169 -157.5 88.21999 0.5 1 2
9 0 1 0 0 0 1 0 0 0 1 33.4169 -171.5 91.71999 2 1 0.5
9 0 1 0 0 0 1 0 0 0 1 27.9169 -135.5 78.21999 0.5 1 2
9 0 1 0 0 0 1 0 0 0 1 26.9169 -130.5 76.21999 0.5 1 2
9 0 1 0 0 0 1 0 0 0 1 28.4169 -145.5 81.71999 2 1 0.5
9 0 1 0 0 0 1 0 0 0 1 24.9169 -118.5 68.21999 0.5 1 2
9 0 1 0 0 0 1 0 0 0 1 23.9169 -112.5 64.21999 0.5 1 2
9 0 1 0 0 0 1 0 0 0 1 21.9169 -101.5 56.21999 0.5 1 2
9 0 1 0 0 0 1 0 0 0 1 22.4169 -112.5 67.21999 1 1 1
9 0 1 0 0 0 1 0 0 0 1 20.9169 -95.50002 51.21999 0.5 1 2
9 0 1 0 0 0 1 0 0 0 1 21.4169 -108.5 64.21999 1 1 1
9 0 1 0 0 0 1 0 0 0 1 22.4169 -110 61.21999 2 0.5 1
9 0 1 0 0 0 1 0 0 0 1 19.9169 -90.50002 47.21999 0.5 1 2
9 0 1 0 0 0 1 0 0 0 1 21.4169 -107 59.21999 2 0.5 1
9 0 1 0 0 0 1 0 0 0 1 20.4169 -103 56.21999 2 0.5 1
9 0 1 0 0 0 1 0 0 0 1 18.4169 -88.50002 44.21999 1 1 1
9 0 1 0 0 0 1 0 0 0 1 18.4169 -90.50002 50.21999 1 1 1
9 0 1 0 0 0 1 0 0 0 1 19.4169 -93.00002 48.21999 2 0.5 1
9 0 1 0 0 0 1 0 0 0 1 15.4169 -50.50002 -15.78001 1 1 1
9 0 1 0 0 0 1 0 0 0 1 16.4169 -80.00002 36.21999 2 0.5 1
9 0 1 0 0 0 1 0 0 0 1 16.4169 -81.00002 37.21999 2 0.5 1
9 0 1 0 0 0 1 0 0 0 1 12.9169 -48.50002 -12.78001 0.5 1 2
9 0 1 0 0 0 1 0 0 0 1 11.9169 -41.50002 -29.78001 0.5 1 2
9 0 1 0 0 0 1 0 0 0 1 11.9169 -44.50002 -15.78001 0.5 1 2
9 0 1 0 0 0 1 0 0 0 1 11.9169 -45.50002 -11.78001 0.5 1 2
9 0 1 0 0 0 1 0 0 0 1 10.9169 -24.00002 -100.78 0.5 0.5 4
9 0 1 0 0 0 1 0 0 0 1 11.4169 -31.00002 -55.78001 1 0.5 2
9 0 1 0 0 0 1 0 0 0 1 11.4169 -34.00002 -53.78001 1 0.5 2
9 0 1 0 0 0 1 0 0 0 1 10.4169 -27.00002 -81.78001 1 0.5 2
9 0 1 0 0 0 1 0 0 0 1 8.916897 -48.50002 -1.780006 0.5 1 2
9 0 1 0 0 0 1 0 0 0 1 6.916897 -17.00002 -114.78 0.5 0.5 4
9 0 1 0 0 0 1 0 0 0 1 8.416897 -37.00002 -25.78001 2 0.5 1
9 0 1 0 0 0 1 0 0 0 1 8.416897 -40.00002 -19.78001 2 0.5 1
9 0 1 0 0 0 1 0 0 0 1 7.416897 -32.00002 -36.78001 2 0.5 1
9 0 1 0 0 0 1 0 0 0 1 7.416897 -34.00002 -32.78001 2 0.5 1
9 0 1 0 0 0 1 0 0 0 1 5.916897 -34.50002 -29.78001 0.5 1 2
9 0 1 0 0 0 1 0 0 0 1 6.416897 -28.00002 -47.78001 2 0.5 1
9 0 1 0 0 0 1 0 0 0 1 5.416897 -21.00002 -55.78001 2 0.5 1
9 0 1 0 0 0 1 0 0 0 1 5.416897 -26.00002 -53.78001 2 0.5 1
9 0 1 0 0 0 1 0 0 0 1 3.416897 -7.000015 -98.78001 1 0.5 2
9 0 1 0 0 0 1 0 0 0 1 -7.083103 -235.5 104.22 0.5 2 1
9 0 1 0 0 0 1 0 0 0 1 -8.083103 -230.5 103.22 0.5 2 1
9 0 1 0 0 0 1 0 0 0 1 -9.083103 -227.5 101.22 0.5 2 1
9 0 1 0 0 0 1 0 0 0 1 -9.083103 -236.5 97.21999 0.5 2 1
9 0 1 0 0 0 1 0 0 0 1 -10.0831 -222.5 100.22 0.5 2 1
9 0 1 0 0 0 1 0 0 0 1 -12.5831 -197.5 97.71999 2 1 0.5
9 0 1 0 0 0 1 0 0 0 1 -15.0831 -168.5 91.21999 0.5 2 1
9 0 1 0 0 0 1 0 0 0 1 -14.5831 -179.5 96.71999 2 1 0.5
9 0 1 0 0 0 1 0 0 0 1 -12.5831 -180 97.71999 4 0.5 0.5
9 0 1 0 0 0 1 0 0 0 1 -17.0831 -172.5 95.71999 0.5 4 0.5
9 0 1 0 0 0 1 0 0 0 1 -17.5831 -161.5 92.71999 2 1 0.5
9 0 1 0 0 0 1 0 0 0 1 -19.5831 -151.5 88.71999 2 1 0.5
9 0 1 0 0 0 1 0 0 0 1 -19.5831 -155.5 85.71999 2 1 0.5
9 0 1 0 0 0 1 0 0 0 1 -20.5831 -142.5 84.71999 2 1 0.5
9 0 1 0 0 0 1 0 0 0 1 -21.5831 -174.5 84.71999 1 2 0.5
9 0 1 0 0 0 1 0 0 0 1 -22.5831 -128.5 77.21999 1 1 1
9 0 1 0 0 0 1 0 0 0 1 -21.5831 -138.5 82.71999 2 1 0.5
9 0 1 0 0 0 1 0 0 0 1 -23.0831 -173.5 85.71999 0.5 4 0.5
9 0 1 0 0 0 1 0 0 0 1 -24.0831 -166.5 83.21999 0.5 2 1
9 0 1 0 0 0 1 0 0 0 1 -23.5831 -129.5 73.71999 2 1 0.5
9 0 1 0 0 0 1 0 0 0 1 -24.5831 -124.5 73.71999 2 1 0.5
9 0 1 0 0 0 1 0 0 0 1 -25.5831 -114.5 68.71999 2 1 0.5
9 0 1 0 0 0 1 0 0 0 1 -28.5831 -98.50002 56.71999 2 1 0.5
9 0 1 0 0 0 1 0 0 0 1 -29.5831 -91.50002 51.71999 2 1 0.5
9 0 1 0 0 0 1 0 0 0 1 -29.5831 -98.00002 52.21999 2 0.5 1
9 0 1 0 0 0 1 0 0 0 1 -30.5831 -125.5 62.71999 2 1 0.5
9 0 1 0 0 0 1 0 0 0 1 -31.5831 -77.00002 38.21999 2 0.5 1
9 0 1 0 0 0 1 0 0 0 1 -33.0831 -97.50002 45.71999 0.5 4 0.5
9 0 1 0 0 0 1 0 0 0 1 -32.5831 -77.50002 33.71999 2 1 0.5
9 0 1 0 0 0 1 0 0 0 1 -32.5831 -79.00002 35.21999 2 0.5 1
9 0 1 0 0 0 1 0 0 0 1 -32.5831 -80.00002 36.21999 2 0.5 1
9 0 1 0 0 0 1 0 0 0 1 -32.5831 -81.00002 37.21999 2 0.5 1
9 0 1 0 0 0 1 0 0 0 1 -33.5831 -72.00002 27.21999 2 0.5 1
9 0 1 0 0 0 1 0 0 0 1 -36.0831 -75.00002 27.71999 0.5 4.5 0.5
9 0 1 0 0 0 1 0 0 0 1 -33.5831 -74.00002 30.21999 2 0.5 1
9 0 1 0 0 0 1 0 0 0 1 -36.0831 -67.50002 24.21999 0.5 2 1
9 0 1 0 0 0 1 0 0 0 1 -37.0831 -75.50002 24.21999 0.5 2 1
9 0 1 0 0 0 1 0 0 0 1 -38.0831 -68.50002 17.21999 0.5 2 1
9 0 1 0 0 0 1 0 0 0 1 -38.5831 -85.50002 31.21999 1 1 1
9 0 1 0 0 0 1 0 0 0 1 -38.5831 -44.00002 -6.780006 2 0.5 1
9 0 1 0 0 0 1 0 0 0 1 -38.5831 -45.50002 -8.280006 2 1 0.5
9 0 1 0 0 0 1 0 0 0 1 -38.5831 -50.50002 -1.280006 2 1 0.5
9 0 1 0 0 0 1 0 0 0 1 -39.5831 -76.50002 21.21999 1 1 1
9 0 1 0 0 0 1 0 0 0 1 -39.5831 -19.50002 -66.28001 2 1 0.5
9 0 1 0 0 0 1 0 0 0 1 -39.5831 -36.00002 -18.78001 2 0.5 1
9 0 1 0 0 0 1 0 0 0 1 -39.5831 -41.00002 -17.78001 2 0.5 1
9 0 1 0 0 0 1 0 0 0 1 -41.0831 -41.50002 -14.78001 0.5 1 2
9 0 1 0 0 0 1 0 0 0 1 -41.0831 -49.50002 -7.780006 0.5 2 1
9 0 1 0 0 0 1 0 0 0 1 -40.5831 -36.00002 -27.78001 2 0.5 1
9 0 1 0 0 0 1 0 0 0 1 -41.5831 -24.00002 -46.78001 2 0.5 1
9 0 1 0 0 0 1 0 0 0 1 -44.0831 -30.50002 -43.78001 0.5 1 2
9 0 1 0 0 0 1 0 0 0 1 -44.0831 -45.50002 -22.78001 0.5 1 2
9 0 1 0 0 0 1 0 0 0 1 -45.0831 -38.50002 -36.78001 0.5 1 2
9 0 1 0 0 0 1 0 0 0 1 -45.5831 -11.50002 -120.28 1 2 0.5
9 0 1 0 0 0 1 0 0 0 1 -46.0831 -12.50002 -98.78001 0.5 1 2
9 0 1 0 0 0 1 0 0 0 1 -45.5831 -49.00002 -17.78001 1 0.5 2
9 0 1 0 0 0 1 0 0 0 1 -46.5831 -44.00002 -27.78001 1 0.5 2
9 0 1 0 0 0 1 0 0 0 1 -47.5831 -23.00002 -87.78001 1 0.5 2
9 0 1 0 0 0 1 0 0 0 1 -48.5831 -32.00002 -60.78001 1 0.5 2
9 0 1 0 0 0 1 0 0 0 1 44.9169 -212 92.71999 0.5 3.5 0.5
9 0 1 0 0 0 1 0 0 0 1 14.9169 -62.00002 15.71999 0.5 0.5 3.5
9 0 1 0 0 0 1 0 0 0 1 13.9169 -53.00002 -7.280006 0.5 0.5 3.5
9 0 1 0 0 0 1 0 0 0 1 13.9169 -55.00002 1.719994 0.5 0.5 3.5
9 0 1 0 0 0 1 0 0 0 1 9.916897 -24.00002 -117.28 0.5 0.5 3.5
9 0 1 0 0 0 1 0 0 0 1 9.916897 -35.00002 -28.28001 0.5 0.5 3.5
9 0 1 0 0 0 1 0 0 0 1 7.916897 -22.00002 -117.28 0.5 0.5 3.5
9 0 1 0 0 0 1 0 0 0 1 6.916897 -41.00002 -9.280006 3.5 0.5 0.5
9 0 1 0 0 0 1 0 0 0 1 -0.08310318 -20.00002 -66.28001 3.5 0.5 0.5
9 0 1 0 0 0 1 0 0 0 1 -7.083103 -225 110.72 0.5 3.5 0.5
9 0 1 0 0 0 1 0 0 0 1 -11.0831 -235 93.71999 0.5 3.5 0.5
9 0 1 0 0 0 1 0 0 0 1 -12.0831 -183 99.71999 3.5 0.5 0.5
9 0 1 0 0 0 1 0 0 0 1 -37.0831 -63.00002 18.71999 0.5 3.5 0.5
9 0 1 0 0 0 1 0 0 0 1 -41.0831 -18.00002 -65.28001 3.5 0.5 0.5
9 0 1 0 0 0 1 0 0 0 1 -45.0831 -24.00002 -62.28001 0.5 0.5 3.5
9 0 1 0 0 0 1 0 0 0 1 -51.0831 -26.00002 -83.28001 0.5 0.5 3.5
9 0 1 0 0 0 1 0 0 0 1 50.9169 -237 95.21999 0.5 1.5 1
9 0 1 0 0 0 1 0 0 0 1 48.9169 -233.5 93.71999 0.5 3 0.5
9 0 1 0 0 0 1 0 0 0 1 47.9169 -220 94.21999 0.5 1.5 1
9 0 1 0 0 0 1 0 0 0 1 45.9169 -229 97.21999 0.5 1.5 1
9 0 1 0 0 0 1 0 0 0 1 45.9169 -231.5 98.71999 0.5 1 1.5
9 0 1 0 0 0 1 0 0 0 1 45.9169 -234 100.22 0.5 1.5 1
9 0 1 0 0 0 1 0 0 0 1 44.9169 -233.5 103.72 0.5 3 0.5
9 0 1 0 0 0 1 0 0 0 1 43.9169 -221 99.21999 0.5 1.5 1
9 0 1 0 0 0 1 0 0 0 1 43.4169 -204 91.71999 1 1.5 0.5
9 0 1 0 0 0 1 0 0 0 1 43.9169 -207.5 94.71999 1.5 1 0.5
9 0 1 0 0 0 1 0 0 0 1 42.9169 -210 95.21999 0.5 1.5 1
9 0 1 0 0 0 1 0 0 0 1 42.9169 -215 98.21999 0.5 1.5 1
9 0 1 0 0 0 1 0 0 0 1 42.9169 -228 107.22 0.5 1.5 1
9 0 1 0 0 0 1 0 0 0 1 41.9169 -184.5 87.71999 0.5 3 0.5
9 0 1 0 0 0 1 0 0 0 1 42.9169 -201.5 93.71999 1.5 1 0.5
9 0 1 0 0 0 1 0 0 0 1 42.4169 -205 94.71999 1 1.5 0.5
9 0 1 0 0 0 1 0 0 0 1 41.9169 -216.5 105.72 0.5 1 1.5
9 0 1 0 0 0 1 0 0 0 1 41.9169 -237 112.22 0.5 1.5 1
9 0 1 0 0 0 1 0 0 0 1 40.9169 -198 93.21999 0.5 1.5 1
9 0 1 0 0 0 1 0 0 0 1 40.9169 -207 99.21999 0.5 1.5 1
9 0 1 0 0 0 1 0 0 0 1 40.9169 -209.5 100.72 0.5 1 1.5
9 0 1 0 0 0 1 0 0 0 1 39.9169 -173.5 84.71999 0.5 3 0.5
9 0 1 0 0 0 1 0 0 0 1 40.9169 -190.5 89.71999 1.5 1 0.5
9 0 1 0 0 0 1 0 0 0 1 39.9169 -202.5 98.71999 0.5 3 0.5
9 0 1 0 0 0 1 0 0 0 1 39.9169 -205 101.22 0.5 1.5 1
9 0 1 0 0 0 1 0 0 0 1 39.9169 -178 86.21999 1.5 0.5 1
9 0 1 0 0 0 1 0 0 0 1 38.9169 -184 89.21999 0.5 1.5 1
9 0 1 0 0 0 1 0 0 0 1 38.9169 -196 98.21999 0.5 1.5 1
9 0 1 0 0 0 1 0 0 0 1 38.4169 -169 82.71999 1 1.5 0.5
9 0 1 0 0 0 1 0 0 0 1 38.4169 -172 85.71999 1 1.5 0.5
9 0 1 0 0 0 1 0 0 0 1 38.9169 -177.5 87.71999 1.5 1 0.5
9 0 1 0 0 0 1 0 0 0 1 37.9169 -165.5 81.71999 1.5 1 0.5
9 0 1 0 0 0 1 0 0 0 1 36.9169 -173 86.21999 0.5 1.5 1
9 0 1 0 0 0 1 0 0 0 1 36.9169 -205.5 99.71999 0.5 3 0.5
9 0 1 0 0 0 1 0 0 0 1 36.9169 -167.5 84.71999 1.5 1 0.5
9 0 1 0 0 0 1 0 0 0 1 35.9169 -179 94.21999 0.5 1.5 1
9 0 1 0 0 0 1 0 0 0 1 34.9169 -174 93.21999 0.5 1.5 1
9 0 1 0 0 0 1 0 0 0 1 34.9169 -179 97.21999 0.5 1.5 1
9 0 1 0 0 0 1 0 0 0 1 33.9169 -148.5 76.71999 1.5 1 0.5
9 0 1 0 0 0 1 0 0 0 1 32.9169 -159.5 86.71999 0.5 1 1.5
9 0 1 0 0 0 1 0 0 0 1 32.9169 -161.5 88.71999 0.5 1 1.5
9 0 1 0 0 0 1 0 0 0 1 32.9169 -144.5 74.71999 1.5 1 0.5
9 0 1 0 0 0 1 0 0 0 1 31.9169 -140.5 72.71999 1.5 1 0.5
9 0 1 0 0 0 1 0 0 0 1 30.9169 -166.5 93.71999 0.5 1 1.5
9 0 1 0 0 0 1 0 0 0 1 29.9169 -131.5 67.71999 0.5 1 1.5
9 0 1 0 0 0 1 0 0 0 1 30.9169 -133.5 68.71999 1.5 1 0.5
9 0 1 0 0 0 1 0 0 0 1 29.9169 -140.5 76.71999 0.5 1 1.5
9 0 1 0 0 0 1 0 0 0 1 30.4169 -154 88.71999 1 0.5 1.5
9 0 1 0 0 0 1 0 0 0 1 29.9169 -125.5 63.71999 1.5 1 0.5
9 0 1 0 0 0 1 0 0 0 1 28.9169 -127 65.21999 0.5 1.5 1
9 0 1 0 0 0 1 0 0 0 1 28.9169 -140.5 80.71999 0.5 1 1.5
9 0 1 0 0 0 1 0 0 0 1 28.9169 -147 86.21999 0.5 1.5 1
9 0 1 0 0 0 1 0 0 0 1 29.4169 -152 88.71999 1 1.5 0.5
9 0 1 0 0 0 1 0 0 0 1 27.9169 -120 60.21999 0.5 1.5 1
9 0 1 0 0 0 1 0 0 0 1 28.9169 -121.5 61.71999 1.5 1 0.5
9 0 1 0 0 0 1 0 0 0 1 27.9169 -127.5 67.71999 0.5 1 1.5
9 0 1 0 0 0 1 0 0 0 1 27.9169 -144.5 85.71999 1.5 1 0.5
9 0 1 0 0 0 1 0 0 0 1 26.9169 -113.5 56.71999 1.5 1 0.5
9 0 1 0 0 0 1 0 0 0 1 25.9169 -120.5 66.71999 0.5 1 1.5
9 0 1 0 0 0 1 0 0 0 1 25.9169 -122 69.21999 0.5 1.5 1
9 0 1 0 0 0 1 0 0 0 1 26.9169 -140.5 83.71999 1.5 1 0.5
9 0 1 0 0 0 1 0 0 0 1 25.9169 -109.5 53.71999 1.5 1 0.5
9 0 1 0 0 0 1 0 0 0 1 24.9169 -114.5 62.71999 0.5 1 1.5
9 0 1 0 0 0 1 0 0 0 1 23.9169 -97.50002 42.71999 0.5 1 1.5
9 0 1 0 0 0 1 0 0 0 1 23.9169 -106.5 54.71999 0.5 1 1.5
9 0 1 0 0 0 1 0 0 0 1 22.9169 -104.5 56.71999 0.5 1 1.5
9 0 1 0 0 0 1 0 0 0 1 23.4169 -118 70.71999 1 1.5 0.5
9 0 1 0 0 0 1 0 0 0 1 22.9169 -93.00002 40.21999 1.5 0.5 1
9 0 1 0 0 0 1 0 0 0 1 21.9169 -97.50002 49.71999 0.5 1 1.5
9 0 1 0 0 0 1 0 0 0 1 21.9169 -99.50002 53.71999 0.5 1 1.5
9 0 1 0 0 0 1 0 0 0 1 20.9169 -82.50002 28.71999 0.5 1 1.5
9 0 1 0 0 0 1 0 0 0 1 20.9169 -92.50002 45.71999 0.5 1 1.5
9 0 1 0 0 0 1 0 0 0 1 18.9169 -84.50002 40.71999 0.5 1 1.5
9 0 1 0 0 0 1 0 0 0 1 17.9169 -78.50002 34.71999 0.5 1 1.5
9 0 1 0 0 0 1 0 0 0 1 16.9169 -72.00002 26.21999 0.5 0.5 3
9 0 1 0 0 0 1 0 0 0 1 16.9169 -75.00002 31.21999 0.5 1.5 1
9 0 1 0 0 0 1 0 0 0 1 16.9169 -59.00002 -1.780006 1.5 0.5 1
9 0 1 0 0 0 1 0 0 0 1 16.9169 -63.00002 7.219994 1.5 0.5 1
9 0 1 0 0 0 1 0 0 0 1 15.9169 -68.00002 24.21999 0.5 0.5 3
9 0 1 0 0 0 1 0 0 0 1 16.9169 -82.50002 42.71999 1.5 1 0.5
9 0 1 0 0 0 1 0 0 0 1 14.9169 -41.00002 -32.78001 0.5 0.5 3
9 0 1 0 0 0 1 0 0 0 1 15.9169 -58.00002 0.2199936 1.5 0.5 1
9 0 1 0 0 0 1 0 0 0 1 14.9169 -58.50002 2.719994 0.5 1 1.5
9 0 1 0 0 0 1 0 0 0 1 14.9169 -60.00002 9.219994 0.5 0.5 3
9 0 1 0 0 0 1 0 0 0 1 14.9169 -61.00002 12.21999 0.5 0.5 3
9 0 1 0 0 0 1 0 0 0 1 14.9169 -49.00002 -14.78001 1.5 0.5 1
9 0 1 0 0 0 1 0 0 0 1 14.9169 -75.50002 36.71999 1.5 1 0.5
9 0 1 0 0 0 1 0 0 0 1 12.9169 -31.00002 -59.78001 0.5 0.5 3
9 0 1 0 0 0 1 0 0 0 1 13.4169 -43.00002 -31.28001 1 0.5 1.5
9 0 1 0 0 0 1 0 0 0 1 13.9169 -64.50002 23.71999 1.5 1 0.5
9 0 1 0 0 0 1 0 0 0 1 13.9169 -67.50002 27.71999 1.5 1 0.5
9 0 1 0 0 0 1 0 0 0 1 12.9169 -38.00002 -41.78001 1.5 0.5 1
9 0 1 0 0 0 1 0 0 0 1 12.9169 -39.00002 -34.78001 1.5 0.5 1
9 0 1 0 0 0 1 0 0 0 1 12.9169 -58.00002 10.21999 1.5 0.5 1
9 0 1 0 0 0 1 0 0 0 1 12.9169 -59.50002 17.71999 1.5 1 0.5
9 0 1 0 0 0 1 0 0 0 1 12.9169 -62.00002 21.21999 1.5 0.5 1
9 0 1 0 0 0 1 0 0 0 1 10.9169 -36.50002 -40.28001 0.5 1 1.5
9 0 1 0 0 0 1 0 0 0 1 10.9169 -39.00002 -30.78001 0.5 0.5 3
9 0 1 0 0 0 1 0 0 0 1 11.9169 -53.00002 9.219994 1.5 0.5 1
9 0 1 0 0 0 1 0 0 0 1 10.4169 -26.00002 -88.28001 1 0.5 1.5
9 0 1 0 0 0 1 0 0 0 1 9.916897 -31.50002 -54.28001 0.5 1 1.5
9 0 1 0 0 0 1 0 0 0 1 9.916897 -44.00002 -6.780006 1.5 0.5 1
9 0 1 0 0 0 1 0 0 0 1 9.916897 -45.00002 -10.78001 1.5 0.5 1
9 0 1 0 0 0 1 0 0 0 1 9.916897 -45.50002 -8.280006 1.5 1 0.5
9 0 1 0 0 0 1 0 0 0 1 8.416897 -21.00002 -101.28 1 0.5 1.5
9 0 1 0 0 0 1 0 0 0 1 6.916897 -19.00002 -119.78 0.5 1.5 1
9 0 1 0 0 0 1 0 0 0 1 7.916897 -33.00002 -24.78001 1.5 0.5 1
9 0 1 0 0 0 1 0 0 0 1 7.916897 -35.00002 -20.78001 1.5 0.5 1
9 0 1 0 0 0 1 0 0 0 1 5.916897 -18.00002 -93.78001 0.5 0.5 3
9 0 1 0 0 0 1 0 0 0 1 6.916897 -27.00002 -38.78001 1.5 0.5 1
9 0 1 0 0 0 1 0 0 0 1 6.916897 -30.00002 -31.78001 1.5 0.5 1
9 0 1 0 0 0 1 0 0 0 1 5.916897 -22.00002 -51.78001 1.5 0.5 1
9 0 1 0 0 0 1 0 0 0 1 5.916897 -24.00002 -46.78001 1.5 0.5 1
9 0 1 0 0 0 1 0 0 0 1 4.416897 -16.00002 -100.28 1 1.5 0.5
9 0 1 0 0 0 1 0 0 0 1 3.416897 -18.00002 -65.28001 3 0.5 0.5
9 0 1 0 0 0 1 0 0 0 1 0.9168968 -225.5 115.72 0.5 3 0.5
9 0 1 0 0 0 1 0 0 0 1 -5.083103 -237 109.22 0.5 1.5 1
9 0 1 0 0 0 1 0 0 0 1 -6.083103 -237 106.22 0.5 1.5 1
9 0 1 0 0 0 1 0 0 0 1 -8.083103 -212.5 106.72 0.5 1 1.5
9 0 1 0 0 0 1 0 0 0 1 -8.083103 -225 107.22 0.5 1.5 1
9 0 1 0 0 0 1 0 0 0 1 -9.083103 -206.5 103.72 0.5 1 1.5
9 0 1 0 0 0 1 0 0 0 1 -9.583103 -210 99.71999 1 1.5 0.5
9 0 1 0 0 0 1 0 0 0 1 -11.0831 -195 101.22 0.5 1.5 1
9 0 1 0 0 0 1 0 0 0 1 -11.0831 -221 97.21999 0.5 1.5 1
9 0 1 0 0 0 1 0 0 0 1 -11.0831 -224 96.21999 0.5 1.5 1
9 0 1 0 0 0 1 0 0 0 1 -12.0831 -216 96.21999 0.5 1.5 1
9 0 1 0 0 0 1 0 0 0 1 -14.0831 -200 97.21999 0.5 1.5 1
9 0 1 0 0 0 1 0 0 0 1 -14.0831 -181.5 94.71999 1.5 1 0.5
9 0 1 0 0 0 1 0 0 0 1 -17.0831 -195.5 92.71999 0.5 3 0.5
9 0 1 0 0 0 1 0 0 0 1 -21.0831 -135.5 77.71999 0.5 1 1.5
9 0 1 0 0 0 1 0 0 0 1 -21.0831 -186.5 89.71999 0.5 3 0.5
9 0 1 0 0 0 1 0 0 0 1 -21.5831 -174 86.71999 1 1.5 0.5
9 0 1 0 0 0 1 0 0 0 1 -22.0831 -134.5 80.71999 1.5 1 0.5
9 0 1 0 0 0 1 0 0 0 1 -22.0831 -139.5 78.71999 1.5 1 0.5
9 0 1 0 0 0 1 0 0 0 1 -23.0831 -142.5 82.71999 0.5 3 0.5
9 0 1 0 0 0 1 0 0 0 1 -22.5831 -169 82.71999 1 1.5 0.5
9 0 1 0 0 0 1 0 0 0 1 -23.0831 -133.5 75.71999 1.5 1 0.5
9 0 1 0 0 0 1 0 0 0 1 -26.0831 -132.5 73.71999 0.5 3 0.5
9 0 1 0 0 0 1 0 0 0 1 -25.5831 -151 75.71999 1 1.5 0.5
9 0 1 0 0 0 1 0 0 0 1 -26.5831 -144 74.71999 1 1.5 0.5
9 0 1 0 0 0 1 0 0 0 1 -27.0831 -150.5 76.71999 0.5 3 0.5
9 0 1 0 0 0 1 0 0 0 1 -27.0831 -110 61.21999 1.5 0.5 1
9 0 1 0 0 0 1 0 0 0 1 -28.0831 -116 64.21999 0.5 1.5 1
9 0 1 0 0 0 1 0 0 0 1 -28.0831 -143 73.21999 0.5 1.5 1
9 0 1 0 0 0 1 0 0 0 1 -29.0831 -108.5 60.71999 0.5 1 1.5
9 0 1 0 0 0 1 0 0 0 1 -28.5831 -135 67.71999 1 1.5 0.5
9 0 1 0 0 0 1 0 0 0 1 -29.0831 -139 71.21999 0.5 1.5 1
9 0 1 0 0 0 1 0 0 0 1 -29.0831 -94.50002 53.71999 1.5 1 0.5
9 0 1 0 0 0 1 0 0 0 1 -30.0831 -102.5 55.71999 0.5 3 0.5
9 0 1 0 0 0 1 0 0 0 1 -31.0831 -127 64.21999 0.5 1.5 1
9 0 1 0 0 0 1 0 0 0 1 -33.0831 -71.50002 31.71999 1.5 1 0.5
9 0 1 0 0 0 1 0 0 0 1 -33.0831 -74.50002 34.71999 1.5 1 0.5
9 0 1 0 0 0 1 0 0 0 1 -35.0831 -87.00002 35.21999 0.5 1.5 1
9 0 1 0 0 0 1 0 0 0 1 -35.0831 -68.00002 22.21999 1.5 0.5 1
9 0 1 0 0 0 1 0 0 0 1 -36.0831 -60.00002 12.21999 1.5 0.5 1
9 0 1 0 0 0 1 0 0 0 1 -37.0831 -51.50002 6.719994 1.5 1 0.5
9 0 1 0 0 0 1 0 0 0 1 -38.0831 -72.00002 19.21999 0.5 1.5 1
9 0 1 0 0 0 1 0 0 0 1 -37.0831 -91.00002 36.21999 1.5 0.5 1
9 0 1 0 0 0 1 0 0 0 1 -39.0831 -60.50002 8.719994 0.5 3 0.5
9 0 1 0 0 0 1 0 0 0 1 -39.0831 -66.00002 12.21999 0.5 1.5 1
9 0 1 0 0 0 1 0 0 0 1 -39.0831 -39.00002 -13.78001 1.5 0.5 1
9 0 1 0 0 0 1 0 0 0 1 -39.0831 -48.00002 -5.780006 1.5 0.5 1
9 0 1 0 0 0 1 0 0 0 1 -40.0831 -56.00002 1.219994 0.5 1.5 1
9 0 1 0 0 0 1 0 0 0 1 -40.0831 -59.00002 3.219994 0.5 1.5 1
9 0 1 0 0 0 1 0 0 0 1 -40.0831 -45.00002 -10.78001 1.5 0.5 1
9 0 1 0 0 0 1 0 0 0 1 -41.0831 -46.50002 -10.28001 0.5 1 1.5
9 0 1 0 0 0 1 0 0 0 1 -41.0831 -52.00002 -5.780006 0.5 1.5 1
9 0 1 0 0 0 1 0 0 0 1 -41.0831 -54.50002 -4.280006 0.5 1 1.5
9 0 1 0 0 0 1 0 0 0 1 -40.5831 -64.00002 7.719994 1 1.5 0.5
9 0 1 0 0 0 1 0 0 0 1 -41.0831 -71.50002 15.71999 0.5 1 1.5
9 0 1 0 0 0 1 0 0 0 1 -42.0831 -42.00002 -19.78001 0.5 1.5 1
9 0 1 0 0 0 1 0 0 0 1 -42.0831 -44.00002 -17.78001 0.5 1.5 1
9 0 1 0 0 0 1 0 0 0 1 -42.0831 -47.00002 -14.78001 0.5 1.5 1
9 0 1 0 0 0 1 0 0 0 1 -42.0831 -49.50002 -12.28001 0.5 1 1.5
9 0 1 0 0 0 1 0 0 0 1 -42.0831 -52.50002 -9.280006 0.5 1 1.5
9 0 1 0 0 0 1 0 0 0 1 -42.0831 -54.50002 -6.280006 0.5 1 1.5
9 0 1 0 0 0 1 0 0 0 1 -41.0831 -62.00002 5.219994 1.5 0.5 1
9 0 1 0 0 0 1 0 0 0 1 -42.0831 -67.50002 10.71999 0.5 1 1.5
9 0 1 0 0 0 1 0 0 0 1 -41.0831 -69.00002 12.21999 1.5 0.5 1
9 0 1 0 0 0 1 0 0 0 1 -42.0831 -21.00002 -55.78001 1.5 0.5 1
9 0 1 0 0 0 1 0 0 0 1 -43.0831 -34.50002 -32.28001 0.5 1 1.5
9 0 1 0 0 0 1 0 0 0 1 -43.0831 -36.50002 -30.28001 0.5 1 1.5
9 0 1 0 0 0 1 0 0 0 1 -43.0831 -38.50002 -28.28001 0.5 1 1.5
9 0 1 0 0 0 1 0 0 0 1 -43.0831 -41.50002 -24.28001 0.5 1 1.5
9 0 1 0 0 0 1 0 0 0 1 -43.0831 -50.00002 -13.78001 0.5 1.5 1
9 0 1 0 0 0 1 0 0 0 1 -42.5831 -51.00002 -11.28001 1 0.5 1.5
9 0 1 0 0 0 1 0 0 0 1 -44.0831 -20.50002 -60.28001 0.5 1 1.5
9 0 1 0 0 0 1 0 0 0 1 -44.0831 -36.00002 -36.78001 0.5 1.5 1
9 0 1 0 0 0 1 0 0 0 1 -44.0831 -40.50002 -31.28001 0.5 1 1.5
9 0 1 0 0 0 1 0 0 0 1 -43.0831 -61.00002 1.219994 1.5 0.5 1
9 0 1 0 0 0 1 0 0 0 1 -46.0831 -28.00002 -62.78001 0.5 0.5 3
9 0 1 0 0 0 1 0 0 0 1 -46.0831 -40.00002 -33.78001 1.5 0.5 1
9 0 1 0 0 0 1 0 0 0 1 -46.5831 -42.00002 -33.28001 1 0.5 1.5
9 0 1 0 0 0 1 0 0 0 1 -47.5831 -33.00002 -51.28001 1 0.5 1.5
9 0 1 0 0 0 1 0 0 0 1 -47.0831 -37.00002 -44.78001 1.5 0.5 1
9 0 1 0 0 0 1 0 0 0 1 -47.0831 -39.00002 -39.78001 1.5 0.5 1
9 0 1 0 0 0 1 0 0 0 1 -48.5831 -29.00002 -63.28001 1 0.5 1.5
9 0 1 0 0 0 1 0 0 0 1 -48.0831 -34.00002 -53.78001 1.5 0.5 1
9 0 1 0 0 0 1 0 0 0 1 -49.0831 -34.50002 -50.28001 0.5 1 1.5
9 0 1 0 0 0 1 0 0 0 1 -49.5831 -27.00002 -83.28001 1 0.5 1.5
9 0 1 0 0 0 1 0 0 0 1 -50.0831 -29.50002 -66.28001 0.5 1 1.5
9 0 1 0 0 0 1 0 0 0 1 -51.0831 -23.00002 -95.78001 0.5 0.5 3
9 0 1 0 0 0 1 0 0 0 1 -51.0831 -27.00002 -78.78001 0.5 0.5 3
9 0 1 0 0 0 1 0 0 0 1 39.9169 -192 91.71999 0.5 2.5 0.5
9 0 1 0 0 0 1 0 0 0 1 36.9169 -157 78.71999 0.5 2.5 0.5
9 0 1 0 0 0 1 0 0 0 1 34.9169 -161 81.71999 0.5 2.5 0.5
9 0 1 0 0 0 1 0 0 0 1 29.9169 -156 86.71999 0.5 2.5 0.5
9 0 1 0 0 0 1 0 0 0 1 27.9169 -150 87.71999 0.5 2.5 0.5
9 0 1 0 0 0 1 0 0 0 1 27.9169 -151 84.71999 0.5 2.5 0.5
9 0 1 0 0 0 1 0 0 0 1 26.9169 -230 119.72 0.5 2.5 0.5
9 0 1 0 0 0 1 0 0 0 1 25.9169 -132 74.71999 2.5 0.5 0.5
9 0 1 0 0 0 1 0 0 0 1 24.9169 -128 72.71999 2.5 0.5 0.5
9 0 1 0 0 0 1 0 0 0 1 22.9169 -184 98.71999 2.5 0.5 0.5
9 0 1 0 0 0 1 0 0 0 1 19.9169 -89.00002 44.71999 0.5 0.5 2.5
9 0 1 0 0 0 1 0 0 0 1 18.9169 -80.00002 30.71999 0.5 0.5 2.5
9 0 1 0 0 0 1 0 0 0 1 17.9169 -75.00002 25.71999 0.5 0.5 2.5
9 0 1 0 0 0 1 0 0 0 1 19.9169 -98.00002 51.71999 2.5 0.5 0.5
9 0 1 0 0 0 1 0 0 0 1 16.9169 -70.00002 20.71999 0.5 0.5 2.5
9 0 1 0 0 0 1 0 0 0 1 15.9169 -64.00002 11.71999 0.5 0.5 2.5
9 0 1 0 0 0 1 0 0 0 1 15.9169 -66.00002 17.71999 0.5 0.5 2.5
9 0 1 0 0 0 1 0 0 0 1 13.9169 -54.00002 -2.280006 0.5 0.5 2.5
9 0 1 0 0 0 1 0 0 0 1 12.9169 -29.00002 -68.28001 0.5 0.5 2.5
9 0 1 0 0 0 1 0 0 0 1 12.9169 -30.00002 -63.28001 0.5 0.5 2.5
9 0 1 0 0 0 1 0 0 0 1 14.9169 -73.00002 27.71999 2.5 0.5 0.5
9 0 1 0 0 0 1 0 0 0 1 10.9169 -21.00002 -118.28 0.5 0.5 2.5
9 0 1 0 0 0 1 0 0 0 1 10.9169 -41.00002 -13.28001 0.5 0.5 2.5
9 0 1 0 0 0 1 0 0 0 1 9.916897 -46.00002 -9.280006 2.5 0.5 0.5
9 0 1 0 0 0 1 0 0 0 1 6.916897 -230 119.72 0.5 2.5 0.5
9 0 1 0 0 0 1 0 0 0 1 -8.083103 -233 101.72 0.5 2.5 0.5
9 0 1 0 0 0 1 0 0 0 1 -10.0831 -225 98.71999 0.5 2.5 0.5
9 0 1 0 0 0 1 0 0 0 1 -12.0831 -190 96.71999 0.5 2.5 0.5
9 0 1 0 0 0 1 0 0 0 1 -13.0831 -186 95.71999 0.5 2.5 0.5
9 0 1 0 0 0 1 0 0 0 1 -15.0831 -221 93.71999 0.5 2.5 0.5
9 0 1 0 0 0 1 0 0 0 1 -16.0831 -183 96.71999 0.5 2.5 0.5
9 0 1 0 0 0 1 0 0 0 1 -18.0831 -176 91.71999 0.5 2.5 0.5
9 0 1 0 0 0 1 0 0 0 1 -18.0831 -198 90.71999 0.5 2.5 0.5
9 0 1 0 0 0 1 0 0 0 1 -19.0831 -170 89.71999 0.5 2.5 0.5
9 0 1 0 0 0 1 0 0 0 1 -22.0831 -152 84.71999 0.5 2.5 0.5
9 0 1 0 0 0 1 0 0 0 1 -23.0831 -155 78.71999 0.5 2.5 0.5
9 0 1 0 0 0 1 0 0 0 1 -23.0831 -163 80.71999 0.5 2.5 0.5
9 0 1 0 0 0 1 0 0 0 1 -24.0831 -128 72.71999 2.5 0.5 0.5
9 0 1 0 0 0 1 0 0 0 1 -26.0831 -157 79.71999 0.5 2.5 0.5
9 0 1 0 0 0 1 0 0 0 1 -28.0831 -146 74.71999 0.5 2.5 0.5
9 0 1 0 0 0 1 0 0 0 1 -32.0831 -107 51.71999 0.5 2.5 0.5
9 0 1 0 0 0 1 0 0 0 1 -33.0831 -101 46.71999 0.5 2.5 0.5
9 0 1 0 0 0 1 0 0 0 1 -34.0831 -94.00002 41.71999 0.5 2.5 0.5
9 0 1 0 0 0 1 0 0 0 1 -36.0831 -83.00002 30.71999 0.5 2.5 0.5
9 0 1 0 0 0 1 0 0 0 1 -37.0831 -55.00002 5.719994 2.5 0.5 0.5
9 0 1 0 0 0 1 0 0 0 1 -40.0831 -25.00002 -45.28001 0.5 0.5 2.5
9 0 1 0 0 0 1 0 0 0 1 -40.0831 -48.00002 -4.280006 0.5 2.5 0.5
9 0 1 0 0 0 1 0 0 0 1 -42.0831 -28.00002 -48.28001 2.5 0.5 0.5
9 0 1 0 0 0 1 0 0 0 1 -44.0831 -57.00002 -4.280006 0.5 0.5 2.5
9 0 1 0 0 0 1 0 0 0 1 -45.0831 -30.00002 -51.28001 0.5 0.5 2.5
9 0 1 0 0 0 1 0 0 0 1 -45.0831 -37.00002 -40.28001 0.5 0.5 2.5
9 0 1 0 0 0 1 0 0 0 1 -51.0831 -25.00002 -86.28001 0.5 0.5 2.5
9 0 1 0 0 0 1 0 0 0 1 49.9169 -230.5 94.71999 0.5 2 0.5
9 0 1 0 0 0 1 0 0 0 1 49.9169 -236.5 96.71999 0.5 2 0.5
9 0 1 0 0 0 1 0 0 0 1 48.9169 -228.5 95.71999 0.5 2 0.5
9 0 1 0 0 0 1 0 0 0 1 47.9169 -230.5 93.71999 0.5 2 0.5
9 0 1 0 0 0 1 0 0 0 1 46.9169 -219.5 95.71999 0.5 2 0.5
9 0 1 0 0 0 1 0 0 0 1 46.9169 -226.5 96.71999 0.5 2 0.5
9 0 1 0 0 0 1 0 0 0 1 46.9169 -232.5 95.71999 0.5 2 0.5
9 0 1 0 0 0 1 0 0 0 1 47.4169 -237.5 97.71999 1 1 0.5
9 0 1 0 0 0 1 0 0 0 1 45.9169 -221.5 93.71999 0.5 2 0.5
9 0 1 0 0 0 1 0 0 0 1 45.9169 -236.5 101.22 0.5 1 1
9 0 1 0 0 0 1 0 0 0 1 44.9169 -223.5 97.21999 0.5 1 1
9 0 1 0 0 0 1 0 0 0 1 44.9169 -225.5 98.21999 0.5 1 1
9 0 1 0 0 0 1 0 0 0 1 44.9169 -237.5 108.22 0.5 1 1
9 0 1 0 0 0 1 0 0 0 1 43.9169 -213.5 94.21999 0.5 1 1
9 0 1 0 0 0 1 0 0 0 1 43.9169 -217.5 96.71999 0.5 2 0.5
9 0 1 0 0 0 1 0 0 0 1 43.9169 -229.5 104.22 0.5 1 1
9 0 1 0 0 0 1 0 0 0 1 43.9169 -231.5 108.22 0.5 1 1
9 0 1 0 0 0 1 0 0 0 1 43.4169 -212.5 95.71999 1 1 0.5
9 0 1 0 0 0 1 0 0 0 1 41.9169 -191.5 88.71999 0.5 2 0.5
9 0 1 0 0 0 1 0 0 0 1 40.9169 -186.5 87.71999 0.5 2 0.5
9 0 1 0 0 0 1 0 0 0 1 41.4169 -195.5 92.71999 1 1 0.5
9 0 1 0 0 0 1 0 0 0 1 39.9169 -199.5 97.21999 0.5 1 1
9 0 1 0 0 0 1 0 0 0 1 38.9169 -175.5 84.71999 0.5 2 0.5
9 0 1 0 0 0 1 0 0 0 1 38.9169 -186.5 90.21999 0.5 1 1
9 0 1 0 0 0 1 0 0 0 1 38.9169 -191.5 94.21999 0.5 1 1
9 0 1 0 0 0 1 0 0 0 1 38.9169 -193.5 96.21999 0.5 1 1
9 0 1 0 0 0 1 0 0 0 1 38.9169 -201.5 102.22 0.5 1 1
9 0 1 0 0 0 1 0 0 0 1 39.4169 -213 109.22 1 0.5 1
9 0 1 0 0 0 1 0 0 0 1 37.9169 -179.5 88.21999 0.5 1 1
9 0 1 0 0 0 1 0 0 0 1 37.9169 -214 108.22 0.5 0.5 2
9 0 1 0 0 0 1 0 0 0 1 39.4169 -236 112.72 2 0.5 0.5
9 0 1 0 0 0 1 0 0 0 1 37.4169 -175.5 87.71999 1 1 0.5
9 0 1 0 0 0 1 0 0 0 1 37.4169 -201.5 103.72 1 1 0.5
9 0 1 0 0 0 1 0 0 0 1 36.4169 -161.5 79.71999 1 1 0.5
9 0 1 0 0 0 1 0 0 0 1 37.4169 -168 83.71999 2 0.5 0.5
9 0 1 0 0 0 1 0 0 0 1 35.9169 -170.5 86.21999 0.5 1 1
9 0 1 0 0 0 1 0 0 0 1 35.9169 -173.5 89.21999 0.5 1 1
9 0 1 0 0 0 1 0 0 0 1 35.9169 -175.5 91.21999 0.5 1 1
9 0 1 0 0 0 1 0 0 0 1 35.4169 -153.5 76.71999 1 1 0.5
9 0 1 0 0 0 1 0 0 0 1 34.9169 -164.5 84.21999 0.5 1 1
9 0 1 0 0 0 1 0 0 0 1 34.9169 -167.5 87.21999 0.5 1 1
9 0 1 0 0 0 1 0 0 0 1 34.9169 -170.5 90.21999 0.5 1 1
9 0 1 0 0 0 1 0 0 0 1 36.4169 -188 95.71999 2 0.5 0.5
9 0 1 0 0 0 1 0 0 0 1 33.9169 -153.5 78.21999 0.5 1 1
9 0 1 0 0 0 1 0 0 0 1 34.4169 -156.5 80.71999 1 1 0.5
9 0 1 0 0 0 1 0 0 0 1 33.9169 -158.5 81.21999 0.5 1 1
9 0 1 0 0 0 1 0 0 0 1 33.9169 -163.5 87.21999 0.5 1 1
9 0 1 0 0 0 1 0 0 0 1 33.9169 -165.5 89.21999 0.5 1 1
9 0 1 0 0 0 1 0 0 0 1 33.4169 -142.5 71.71999 1 1 0.5
9 0 1 0 0 0 1 0 0 0 1 32.9169 -154.5 81.21999 0.5 1 1
9 0 1 0 0 0 1 0 0 0 1 32.9169 -156.5 83.21999 0.5 1 1
9 0 1 0 0 0 1 0 0 0 1 33.4169 -179.5 96.71999 1 1 0.5
9 0 1 0 0 0 1 0 0 0 1 33.4169 -229.5 119.72 1 1 0.5
9 0 1 0 0 0 1 0 0 0 1 32.4169 -136.5 68.71999 1 1 0.5
9 0 1 0 0 0 1 0 0 0 1 31.9169 -146.5 75.71999 0.5 2 0.5
9 0 1 0 0 0 1 0 0 0 1 31.9169 -149.5 79.21999 0.5 1 1
9 0 1 0 0 0 1 0 0 0 1 31.9169 -151.5 81.21999 0.5 1 1
9 0 1 0 0 0 1 0 0 0 1 31.9169 -152.5 83.21999 0.5 1 1
9 0 1 0 0 0 1 0 0 0 1 31.9169 -154.5 85.21999 0.5 1 1
9 0 1 0 0 0 1 0 0 0 1 33.4169 -181 98.71999 2 0.5 0.5
9 0 1 0 0 0 1 0 0 0 1 30.9169 -144.5 77.21999 0.5 1 1
9 0 1 0 0 0 1 0 0 0 1 30.9169 -147.5 81.21999 0.5 1 1
9 0 1 0 0 0 1 0 0 0 1 30.9169 -151.5 84.71999 0.5 2 0.5
9 0 1 0 0 0 1 0 0 0 1 31.4169 -161.5 92.71999 1 1 0.5
9 0 1 0 0 0 1 0 0 0 1 32.4169 -164 88.71999 2 0.5 0.5
9 0 1 0 0 0 1 0 0 0 1 30.4169 -126.5 62.71999 1 1 0.5
9 0 1 0 0 0 1 0 0 0 1 29.9169 -135.5 70.21999 0.5 1 1
9 0 1 0 0 0 1 0 0 0 1 29.9169 -138.5 74.21999 0.5 1 1
9 0 1 0 0 0 1 0 0 0 1 29.9169 -142.5 79.21999 0.5 1 1
9 0 1 0 0 0 1 0 0 0 1 31.4169 -184 95.71999 2 0.5 0.5
9 0 1 0 0 0 1 0 0 0 1 30.4169 -129 66.71999 2 0.5 0.5
9 0 1 0 0 0 1 0 0 0 1 28.9169 -131.5 69.21999 0.5 1 1
9 0 1 0 0 0 1 0 0 0 1 28.9169 -135.5 74.21999 0.5 1 1
9 0 1 0 0 0 1 0 0 0 1 28.9169 -137.5 77.21999 0.5 1 1
9 0 1 0 0 0 1 0 0 0 1 29.4169 -154.5 85.71999 1 1 0.5
9 0 1 0 0 0 1 0 0 0 1 28.4169 -115.5 55.71999 1 1 0.5
9 0 1 0 0 0 1 0 0 0 1 27.9169 -123.5 63.21999 0.5 1 1
9 0 1 0 0 0 1 0 0 0 1 27.9169 -130.5 72.21999 0.5 1 1
9 0 1 0 0 0 1 0 0 0 1 27.9169 -133.5 75.21999 0.5 1 1
9 0 1 0 0 0 1 0 0 0 1 29.4169 -233 119.72 2 0.5 0.5
9 0 1 0 0 0 1 0 0 0 1 27.4169 -111.5 52.71999 1 1 0.5
9 0 1 0 0 0 1 0 0 0 1 26.9169 -115.5 57.21999 0.5 1 1
9 0 1 0 0 0 1 0 0 0 1 27.4169 -117.5 59.71999 1 1 0.5
9 0 1 0 0 0 1 0 0 0 1 26.9169 -120.5 62.21999 0.5 1 1
9 0 1 0 0 0 1 0 0 0 1 26.9169 -122.5 65.21999 0.5 1 1
9 0 1 0 0 0 1 0 0 0 1 26.9169 -123.5 67.21999 0.5 1 1
9 0 1 0 0 0 1 0 0 0 1 26.9169 -125.5 69.21999 0.5 1 1
9 0 1 0 0 0 1 0 0 0 1 26.4169 -108 50.21999 1 0.5 1
9 0 1 0 0 0 1 0 0 0 1 25.9169 -117.5 62.21999 0.5 1 1
9 0 1 0 0 0 1 0 0 0 1 25.9169 -123.5 71.21999 0.5 1 1
9 0 1 0 0 0 1 0 0 0 1 25.9169 -142.5 81.21999 0.5 1 1
9 0 1 0 0 0 1 0 0 0 1 24.9169 -104.5 49.21999 0.5 1 1
9 0 1 0 0 0 1 0 0 0 1 26.4169 -106 50.71999 2 0.5 0.5
9 0 1 0 0 0 1 0 0 0 1 24.9169 -107.5 52.21999 0.5 1 1
9 0 1 0 0 0 1 0 0 0 1 24.9169 -110.5 56.21999 0.5 1 1
9 0 1 0 0 0 1 0 0 0 1 24.9169 -112.5 59.21999 0.5 1 1
9 0 1 0 0 0 1 0 0 0 1 24.9169 -117 66.21999 0.5 0.5 2
9 0 1 0 0 0 1 0 0 0 1 23.9169 -99.50002 45.21999 0.5 1 1
9 0 1 0 0 0 1 0 0 0 1 24.4169 -100.5 46.71999 1 1 0.5
9 0 1 0 0 0 1 0 0 0 1 25.4169 -103 48.71999 2 0.5 0.5
9 0 1 0 0 0 1 0 0 0 1 23.9169 -108.5 58.21999 0.5 1 1
9 0 1 0 0 0 1 0 0 0 1 23.9169 -111 62.21999 0.5 0.5 2
9 0 1 0 0 0 1 0 0 0 1 24.4169 -123.5 73.71999 1 1 0.5
9 0 1 0 0 0 1 0 0 0 1 24.4169 -128 77.21999 1 0.5 1
9 0 1 0 0 0 1 0 0 0 1 25.4169 -131 78.71999 2 0.5 0.5
9 0 1 0 0 0 1 0 0 0 1 23.4169 -94.50002 41.71999 1 1 0.5
9 0 1 0 0 0 1 0 0 0 1 22.9169 -96.50002 43.21999 0.5 1 1
9 0 1 0 0 0 1 0 0 0 1 24.4169 -98.00002 44.71999 2 0.5 0.5
9 0 1 0 0 0 1 0 0 0 1 22.9169 -99.00002 46.21999 0.5 0.5 2
9 0 1 0 0 0 1 0 0 0 1 22.9169 -100 48.21999 0.5 0.5 2
9 0 1 0 0 0 1 0 0 0 1 22.9169 -101 50.21999 0.5 0.5 2
9 0 1 0 0 0 1 0 0 0 1 22.9169 -102 52.21999 0.5 0.5 2
9 0 1 0 0 0 1 0 0 0 1 22.9169 -103 54.21999 0.5 0.5 2
9 0 1 0 0 0 1 0 0 0 1 24.4169 -125 70.71999 2 0.5 0.5
9 0 1 0 0 0 1 0 0 0 1 22.4169 -86.00002 31.21999 1 0.5 1
9 0 1 0 0 0 1 0 0 0 1 21.9169 -90.50002 37.21999 0.5 1 1
9 0 1 0 0 0 1 0 0 0 1 21.9169 -94.50002 43.21999 0.5 1 1
9 0 1 0 0 0 1 0 0 0 1 21.9169 -95.50002 45.21999 0.5 1 1
9 0 1 0 0 0 1 0 0 0 1 21.9169 -96.50002 47.21999 0.5 1 1
9 0 1 0 0 0 1 0 0 0 1 22.4169 -108.5 59.71999 1 1 0.5
9 0 1 0 0 0 1 0 0 0 1 23.4169 -120 67.71999 2 0.5 0.5
9 0 1 0 0 0 1 0 0 0 1 22.4169 -89.00002 36.71999 2 0.5 0.5
9 0 1 0 0 0 1 0 0 0 1 20.9169 -90.00002 40.21999 0.5 0.5 2
9 0 1 0 0 0 1 0 0 0 1 20.9169 -91.50002 43.21999 0.5 1 1
9 0 1 0 0 0 1 0 0 0 1 20.9169 -94.00002 49.21999 0.5 0.5 2
9 0 1 0 0 0 1 0 0 0 1 21.4169 -105.5 62.71999 1 1 0.5
9 0 1 0 0 0 1 0 0 0 1 20.4169 -74.00002 18.21999 1 0.5 1
9 0 1 0 0 0 1 0 0 0 1 20.4169 -77.00002 21.21999 1 0.5 1
9 0 1 0 0 0 1 0 0 0 1 19.9169 -79.00002 25.21999 0.5 0.5 2
9 0 1 0 0 0 1 0 0 0 1 21.4169 -83.00002 30.71999 2 0.5 0.5
9 0 1 0 0 0 1 0 0 0 1 19.9169 -88.00002 42.21999 0.5 0.5 2
9 0 1 0 0 0 1 0 0 0 1 20.4169 -101.5 59.71999 1 1 0.5
9 0 1 0 0 0 1 0 0 0 1 19.4169 -72.00002 15.21999 1 0.5 1
9 0 1 0 0 0 1 0 0 0 1 19.4169 -74.50002 21.71999 1 1 0.5
9 0 1 0 0 0 1 0 0 0 1 18.9169 -76.50002 23.21999 0.5 1 1
9 0 1 0 0 0 1 0 0 0 1 20.4169 -78.00002 25.71999 2 0.5 0.5
9 0 1 0 0 0 1 0 0 0 1 18.9169 -79.00002 28.21999 0.5 0.5 2
9 0 1 0 0 0 1 0 0 0 1 18.9169 -82.00002 35.21999 0.5 0.5 2
9 0 1 0 0 0 1 0 0 0 1 19.4169 -95.50002 54.71999 1 1 0.5
9 0 1 0 0 0 1 0 0 0 1 18.4169 -64.00002 5.219994 1 0.5 1
9 0 1 0 0 0 1 0 0 0 1 18.4169 -68.00002 10.21999 1 0.5 1
9 0 1 0 0 0 1 0 0 0 1 19.4169 -73.00002 19.71999 2 0.5 0.5
9 0 1 0 0 0 1 0 0 0 1 17.9169 -76.00002 28.21999 0.5 0.5 2
9 0 1 0 0 0 1 0 0 0 1 17.9169 -77.00002 30.21999 0.5 0.5 2
9 0 1 0 0 0 1 0 0 0 1 16.9169 -50.50002 -14.78001 0.5 1 1
9 0 1 0 0 0 1 0 0 0 1 17.4169 -62.00002 2.219994 1 0.5 1
9 0 1 0 0 0 1 0 0 0 1 16.9169 -65.50002 10.21999 0.5 1 1
9 0 1 0 0 0 1 0 0 0 1 16.9169 -67.50002 13.21999 0.5 1 1
9 0 1 0 0 0 1 0 0 0 1 16.9169 -69.00002 17.21999 0.5 0.5 2
9 0 1 0 0 0 1 0 0 0 1 16.9169 -71.00002 23.21999 0.5 0.5 2
9 0 1 0 0 0 1 0 0 0 1 15.9169 -45.50002 -23.78001 0.5 1 1
9 0 1 0 0 0 1 0 0 0 1 16.4169 -57.00002 -5.780006 1 0.5 1
9 0 1 0 0 0 1 0 0 0 1 16.4169 -60.00002 3.219994 1 0.5 1
9 0 1 0 0 0 1 0 0 0 1 15.9169 -61.50002 5.219994 0.5 1 1
9 0 1 0 0 0 1 0 0 0 1 15.9169 -65.00002 14.21999 0.5 0.5 2
9 0 1 0 0 0 1 0 0 0 1 17.4169 -86.00002 41.71999 2 0.5 0.5
9 0 1 0 0 0 1 0 0 0 1 15.9169 -86.50002 43.21999 0.5 1 1
9 0 1 0 0 0 1 0 0 0 1 15.4169 -53.00002 -11.78001 1 0.5 1
9 0 1 0 0 0 1 0 0 0 1 15.4169 -56.00002 -2.780006 1 0.5 1
9 0 1 0 0 0 1 0 0 0 1 14.9169 -57.00002 -1.780006 0.5 0.5 2
9 0 1 0 0 0 1 0 0 0 1 15.4169 -74.00002 35.21999 1 0.5 1
9 0 1 0 0 0 1 0 0 0 1 16.4169 -80.00002 40.71999 2 0.5 0.5
9 0 1 0 0 0 1 0 0 0 1 16.4169 -82.00002 37.71999 2 0.5 0.5
9 0 1 0 0 0 1 0 0 0 1 14.4169 -47.00002 -22.78001 1 0.5 1
9 0 1 0 0 0 1 0 0 0 1 14.4169 -48.00002 -20.78001 1 0.5 1
9 0 1 0 0 0 1 0 0 0 1 14.4169 -51.00002 -10.78001 1 0.5 1
9 0 1 0 0 0 1 0 0 0 1 13.9169 -57.00002 12.21999 0.5 0.5 2
9 0 1 0 0 0 1 0 0 0 1 15.4169 -78.00002 33.71999 2 0.5 0.5
9 0 1 0 0 0 1 0 0 0 1 13.4169 -41.00002 -35.78001 1 0.5 1
9 0 1 0 0 0 1 0 0 0 1 12.9169 -42.50002 -28.78001 0.5 1 1
9 0 1 0 0 0 1 0 0 0 1 14.4169 -44.00002 -27.28001 2 0.5 0.5
9 0 1 0 0 0 1 0 0 0 1 13.4169 -45.00002 -21.78001 1 0.5 1
9 0 1 0 0 0 1 0 0 0 1 12.9169 -49.00002 -8.780006 0.5 0.5 2
9 0 1 0 0 0 1 0 0 0 1 14.4169 -69.00002 23.71999 2 0.5 0.5
9 0 1 0 0 0 1 0 0 0 1 14.4169 -71.00002 25.71999 2 0.5 0.5
9 0 1 0 0 0 1 0 0 0 1 13.4169 -229.5 119.72 1 1 0.5
9 0 1 0 0 0 1 0 0 0 1 11.9169 -28.00002 -74.78001 0.5 0.5 2
9 0 1 0 0 0 1 0 0 0 1 12.4169 -37.00002 -45.78001 1 0.5 1
9 0 1 0 0 0 1 0 0 0 1 13.4169 -63.00002 16.71999 2 0.5 0.5
9 0 1 0 0 0 1 0 0 0 1 13.4169 -65.00002 18.71999 2 0.5 0.5
9 0 1 0 0 0 1 0 0 0 1 11.4169 -31.00002 -63.78001 1 0.5 1
9 0 1 0 0 0 1 0 0 0 1 11.4169 -33.00002 -57.78001 1 0.5 1
9 0 1 0 0 0 1 0 0 0 1 12.4169 -61.00002 13.71999 2 0.5 0.5
9 0 1 0 0 0 1 0 0 0 1 9.916897 -25.00002 -98.78001 0.5 0.5 2
9 0 1 0 0 0 1 0 0 0 1 10.4169 -29.00002 -73.78001 1 0.5 1
9 0 1 0 0 0 1 0 0 0 1 11.4169 -32.00002 -57.28001 2 0.5 0.5
9 0 1 0 0 0 1 0 0 0 1 11.4169 -52.00002 0.7199936 2 0.5 0.5
9 0 1 0 0 0 1 0 0 0 1 9.916897 -54.00002 5.219994 0.5 0.5 2
9 0 1 0 0 0 1 0 0 0 1 9.416897 -23.00002 -86.78001 1 0.5 1
9 0 1 0 0 0 1 0 0 0 1 9.416897 -24.00002 -80.78001 1 0.5 1
9 0 1 0 0 0 1 0 0 0 1 9.416897 -29.00002 -59.78001 1 0.5 1
9 0 1 0 0 0 1 0 0 0 1 9.416897 -46.00002 -0.7800064 1 0.5 1
9 0 1 0 0 0 1 0 0 0 1 10.4169 -49.00002 -4.280006 2 0.5 0.5
9 0 1 0 0 0 1 0 0 0 1 8.416897 -40.50002 -10.28001 1 1 0.5
9 0 1 0 0 0 1 0 0 0 1 9.416897 -43.00002 -14.28001 2 0.5 0.5
9 0 1 0 0 0 1 0 0 0 1 9.416897 -233 119.72 2 0.5 0.5
9 0 1 0 0 0 1 0 0 0 1 6.916897 -21.00002 -58.78001 0.5 0.5 2
9 0 1 0 0 0 1 0 0 0 1 6.916897 -22.00002 -71.78001 0.5 0.5 2
9 0 1 0 0 0 1 0 0 0 1 6.916897 -37.50002 -18.28001 0.5 2 0.5
9 0 1 0 0 0 1 0 0 0 1 5.916897 -13.50002 -93.78001 0.5 1 1
9 0 1 0 0 0 1 0 0 0 1 6.416897 -23.00002 -64.78001 1 0.5 1
9 0 1 0 0 0 1 0 0 0 1 4.916897 -14.00002 -98.78001 0.5 0.5 2
9 0 1 0 0 0 1 0 0 0 1 5.416897 -19.00002 -84.78001 1 0.5 1
9 0 1 0 0 0 1 0 0 0 1 5.416897 -20.50002 -62.28001 1 1 0.5
9 0 1 0 0 0 1 0 0 0 1 6.416897 -31.00002 -40.28001 2 0.5 0.5
9 0 1 0 0 0 1 0 0 0 1 -0.5831032 -3.500015 -120.28 1 1 0.5
9 0 1 0 0 0 1 0 0 0 1 -0.5831032 -3.500015 -104.28 1 1 0.5
9 0 1 0 0 0 1 0 0 0 1 -0.5831032 -222 114.22 1 0.5 1
9 0 1 0 0 0 1 0 0 0 1 -0.5831032 -235 113.72 2 0.5 0.5
9 0 1 0 0 0 1 0 0 0 1 -6.083103 -223.5 111.72 0.5 2 0.5
9 0 1 0 0 0 1 0 0 0 1 -7.083103 -217.5 109.22 0.5 1 1
9 0 1 0 0 0 1 0 0 0 1 -7.583103 -227.5 106.72 1 1 0.5
9 0 1 0 0 0 1 0 0 0 1 -9.083103 -210.5 105.72 0.5 2 0.5
9 0 1 0 0 0 1 0 0 0 1 -9.083103 -215.5 109.72 0.5 2 0.5
9 0 1 0 0 0 1 0 0 0 1 -9.083103 -229.5 99.71999 0.5 2 0.5
9 0 1 0 0 0 1 0 0 0 1 -10.0831 -236.5 94.71999 0.5 2 0.5
9 0 1 0 0 0 1 0 0 0 1 -10.5831 -206.5 104.72 1 1 0.5
9 0 1 0 0 0 1 0 0 0 1 -11.0831 -214.5 101.22 0.5 1 1
9 0 1 0 0 0 1 0 0 0 1 -12.0831 -209.5 100.22 0.5 1 1
9 0 1 0 0 0 1 0 0 0 1 -13.0831 -201.5 99.21999 0.5 1 1
9 0 1 0 0 0 1 0 0 0 1 -13.0831 -227.5 96.71999 0.5 2 0.5
9 0 1 0 0 0 1 0 0 0 1 -14.0831 -202.5 96.21999 0.5 1 1
9 0 1 0 0 0 1 0 0 0 1 -16.5831 -166 94.71999 2 0.5 0.5
9 0 1 0 0 0 1 0 0 0 1 -18.0831 -173.5 92.71999 0.5 2 0.5
9 0 1 0 0 0 1 0 0 0 1 -18.0831 -179.5 89.71999 0.5 2 0.5
9 0 1 0 0 0 1 0 0 0 1 -18.5831 -191.5 88.71999 1 1 0.5
9 0 1 0 0 0 1 0 0 0 1 -20.0831 -140.5 79.71999 0.5 2 0.5
9 0 1 0 0 0 1 0 0 0 1 -20.0831 -156.5 90.71999 0.5 2 0.5
9 0 1 0 0 0 1 0 0 0 1 -20.0831 -164.5 87.71999 0.5 2 0.5
9 0 1 0 0 0 1 0 0 0 1 -19.5831 -174.5 87.71999 1 1 0.5
9 0 1 0 0 0 1 0 0 0 1 -20.0831 -179.5 88.71999 0.5 2 0.5
9 0 1 0 0 0 1 0 0 0 1 -20.0831 -183.5 86.71999 0.5 2 0.5
9 0 1 0 0 0 1 0 0 0 1 -23.0831 -123.5 70.71999 0.5 2 0.5
9 0 1 0 0 0 1 0 0 0 1 -22.5831 -158.5 81.71999 1 1 0.5
9 0 1 0 0 0 1 0 0 0 1 -24.0831 -117.5 66.71999 0.5 2 0.5
9 0 1 0 0 0 1 0 0 0 1 -24.0831 -158.5 78.71999 0.5 2 0.5
9 0 1 0 0 0 1 0 0 0 1 -24.0831 -169.5 84.21999 0.5 1 1
9 0 1 0 0 0 1 0 0 0 1 -25.0831 -108.5 64.21999 0.5 1 1
9 0 1 0 0 0 1 0 0 0 1 -24.5831 -154.5 79.71999 1 1 0.5
9 0 1 0 0 0 1 0 0 0 1 -24.5831 -159.5 81.71999 1 1 0.5
9 0 1 0 0 0 1 0 0 0 1 -24.5831 -163.5 82.71999 1 1 0.5
9 0 1 0 0 0 1 0 0 0 1 -24.5831 -164.5 81.71999 1 1 0.5
9 0 1 0 0 0 1 0 0 0 1 -24.5831 -123 69.71999 2 0.5 0.5
9 0 1 0 0 0 1 0 0 0 1 -25.5831 -155.5 77.71999 1 1 0.5
9 0 1 0 0 0 1 0 0 0 1 -27.0831 -97.50002 55.71999 0.5 2 0.5
9 0 1 0 0 0 1 0 0 0 1 -25.5831 -115 69.71999 2 0.5 0.5
9 0 1 0 0 0 1 0 0 0 1 -26.5831 -146.5 73.71999 1 1 0.5
9 0 1 0 0 0 1 0 0 0 1 -27.0831 -152.5 77.71999 0.5 2 0.5
9 0 1 0 0 0 1 0 0 0 1 -26.5831 -111 61.71999 2 0.5 0.5
9 0 1 0 0 0 1 0 0 0 1 -27.5831 -135.5 70.71999 1 1 0.5
9 0 1 0 0 0 1 0 0 0 1 -27.5831 -103 60.71999 2 0.5 0.5
9 0 1 0 0 0 1 0 0 0 1 -29.0831 -122.5 62.21999 0.5 1 1
9 0 1 0 0 0 1 0 0 0 1 -28.5831 -132.5 68.71999 1 1 0.5
9 0 1 0 0 0 1 0 0 0 1 -30.0831 -82.50002 39.21999 0.5 1 1
9 0 1 0 0 0 1 0 0 0 1 -28.5831 -100 53.71999 2 0.5 0.5
9 0 1 0 0 0 1 0 0 0 1 -30.0831 -116.5 59.71999 0.5 2 0.5
9 0 1 0 0 0 1 0 0 0 1 -29.5831 -123.5 63.71999 1 1 0.5
9 0 1 0 0 0 1 0 0 0 1 -30.0831 -134.5 68.21999 0.5 1 1
9 0 1 0 0 0 1 0 0 0 1 -29.5831 -95.00002 49.71999 2 0.5 0.5
9 0 1 0 0 0 1 0 0 0 1 -31.0831 -129.5 65.71999 0.5 2 0.5
9 0 1 0 0 0 1 0 0 0 1 -31.5831 -82.50002 42.71999 1 1 0.5
9 0 1 0 0 0 1 0 0 0 1 -30.5831 -90.00002 44.71999 2 0.5 0.5
9 0 1 0 0 0 1 0 0 0 1 -31.5831 -113.5 56.71999 1 1 0.5
9 0 1 0 0 0 1 0 0 0 1 -31.5831 -118.5 57.71999 1 1 0.5
9 0 1 0 0 0 1 0 0 0 1 -32.0831 -122.5 61.21999 0.5 1 1
9 0 1 0 0 0 1 0 0 0 1 -31.5831 -84.00002 39.71999 2 0.5 0.5
9 0 1 0 0 0 1 0 0 0 1 -33.0831 -88.50002 43.71999 0.5 2 0.5
9 0 1 0 0 0 1 0 0 0 1 -32.5831 -109.5 53.71999 1 1 0.5
9 0 1 0 0 0 1 0 0 0 1 -32.5831 -75.00002 35.71999 2 0.5 0.5
9 0 1 0 0 0 1 0 0 0 1 -32.5831 -82.00002 37.71999 2 0.5 0.5
9 0 1 0 0 0 1 0 0 0 1 -34.0831 -96.50002 43.21999 0.5 1 1
9 0 1 0 0 0 1 0 0 0 1 -33.5831 -101.5 47.71999 1 1 0.5
9 0 1 0 0 0 1 0 0 0 1 -33.5831 -107.5 49.71999 1 1 0.5
9 0 1 0 0 0 1 0 0 0 1 -33.5831 -69.00002 29.71999 2 0.5 0.5
9 0 1 0 0 0 1 0 0 0 1 -33.5831 -75.00002 30.71999 2 0.5 0.5
9 0 1 0 0 0 1 0 0 0 1 -34.5831 -99.50002 45.71999 1 1 0.5
9 0 1 0 0 0 1 0 0 0 1 -34.5831 -101.5 44.71999 1 1 0.5
9 0 1 0 0 0 1 0 0 0 1 -34.5831 -63.00002 22.71999 2 0.5 0.5
9 0 1 0 0 0 1 0 0 0 1 -34.5831 -65.00002 24.71999 2 0.5 0.5
9 0 1 0 0 0 1 0 0 0 1 -34.5831 -66.00002 19.71999 2 0.5 0.5
9 0 1 0 0 0 1 0 0 0 1 -34.5831 -70.00002 24.71999 2 0.5 0.5
9 0 1 0 0 0 1 0 0 0 1 -36.0831 -101.5 46.21999 0.5 1 1
9 0 1 0 0 0 1 0 0 0 1 -35.5831 -58.00002 16.71999 2 0.5 0.5
9 0 1 0 0 0 1 0 0 0 1 -35.5831 -64.00002 17.71999 2 0.5 0.5
9 0 1 0 0 0 1 0 0 0 1 -37.0831 -94.50002 40.21999 0.5 1 1
9 0 1 0 0 0 1 0 0 0 1 -36.5831 -54.00002 10.71999 2 0.5 0.5
9 0 1 0 0 0 1 0 0 0 1 -36.5831 -58.00002 9.719994 2 0.5 0.5
9 0 1 0 0 0 1 0 0 0 1 -37.5831 -87.00002 32.21999 1 0.5 1
9 0 1 0 0 0 1 0 0 0 1 -37.5831 -49.00002 3.719994 2 0.5 0.5
9 0 1 0 0 0 1 0 0 0 1 -37.5831 -53.00002 2.719994 2 0.5 0.5
9 0 1 0 0 0 1 0 0 0 1 -38.5831 -41.00002 -10.28001 2 0.5 0.5
9 0 1 0 0 0 1 0 0 0 1 -40.0831 -74.50002 20.21999 0.5 1 1
9 0 1 0 0 0 1 0 0 0 1 -40.0831 -77.50002 23.21999 0.5 1 1
9 0 1 0 0 0 1 0 0 0 1 -41.0831 -22.50002 -62.78001 0.5 1 1
9 0 1 0 0 0 1 0 0 0 1 -39.5831 -37.00002 -21.28001 2 0.5 0.5
9 0 1 0 0 0 1 0 0 0 1 -41.0831 -56.50002 -2.780006 0.5 1 1
9 0 1 0 0 0 1 0 0 0 1 -41.0831 -57.50002 -0.7800064 0.5 1 1
9 0 1 0 0 0 1 0 0 0 1 -41.0831 -59.50002 1.219994 0.5 1 1
9 0 1 0 0 0 1 0 0 0 1 -40.5831 -73.00002 16.21999 1 0.5 1
9 0 1 0 0 0 1 0 0 0 1 -40.5831 -29.00002 -33.28001 2 0.5 0.5
9 0 1 0 0 0 1 0 0 0 1 -41.5831 -65.00002 6.219994 1 0.5 1
9 0 1 0 0 0 1 0 0 0 1 -40.5831 -66.00002 10.71999 2 0.5 0.5
9 0 1 0 0 0 1 0 0 0 1 -43.0831 -27.50002 -39.78001 0.5 1 1
9 0 1 0 0 0 1 0 0 0 1 -43.0831 -40.00002 -26.78001 0.5 0.5 2
9 0 1 0 0 0 1 0 0 0 1 -43.0831 -43.50002 -22.78001 0.5 1 1
9 0 1 0 0 0 1 0 0 0 1 -43.0831 -45.50002 -20.78001 0.5 1 1
9 0 1 0 0 0 1 0 0 0 1 -42.5831 -65.50002 7.719994 1 1 0.5
9 0 1 0 0 0 1 0 0 0 1 -44.0831 -25.00002 -56.78001 0.5 0.5 2
9 0 1 0 0 0 1 0 0 0 1 -44.0831 -28.50002 -47.28001 0.5 2 0.5
9 0 1 0 0 0 1 0 0 0 1 -44.0831 -37.50002 -34.78001 0.5 1 1
9 0 1 0 0 0 1 0 0 0 1 -44.0831 -41.50002 -28.78001 0.5 1 1
9 0 1 0 0 0 1 0 0 0 1 -43.5831 -52.50002 -9.280006 1 1 0.5
9 0 1 0 0 0 1 0 0 0 1 -44.0831 -58.50002 -1.780006 0.5 1 1
9 0 1 0 0 0 1 0 0 0 1 -45.0831 -9.500015 -101.78 0.5 1 1
9 0 1 0 0 0 1 0 0 0 1 -43.5831 -10.00002 -94.28001 2 0.5 0.5
9 0 1 0 0 0 1 0 0 0 1 -43.5831 -12.00002 -92.28001 2 0.5 0.5
9 0 1 0 0 0 1 0 0 0 1 -45.0831 -14.00002 -87.78001 0.5 0.5 2
9 0 1 0 0 0 1 0 0 0 1 -45.0831 -16.00002 -78.78001 0.5 0.5 2
9 0 1 0 0 0 1 0 0 0 1 -44.5831 -17.00002 -98.78001 1 0.5 1
9 0 1 0 0 0 1 0 0 0 1 -45.0831 -26.50002 -55.78001 0.5 1 1
9 0 1 0 0 0 1 0 0 0 1 -45.0831 -33.50002 -45.78001 0.5 1 1
9 0 1 0 0 0 1 0 0 0 1 -44.5831 -39.00002 -33.78001 1 0.5 1
9 0 1 0 0 0 1 0 0 0 1 -44.5831 -44.00002 -23.78001 1 0.5 1
9 0 1 0 0 0 1 0 0 0 1 -44.5831 -50.00002 -17.78001 1 0.5 1
9 0 1 0 0 0 1 0 0 0 1 -44.5831 -52.00002 -13.78001 1 0.5 1
9 0 1 0 0 0 1 0 0 0 1 -46.0831 -15.50002 -92.78001 0.5 1 1
9 0 1 0 0 0 1 0 0 0 1 -46.0831 -17.00002 -104.78 0.5 0.5 2
9 0 1 0 0 0 1 0 0 0 1 -46.0831 -18.00002 -85.78001 0.5 0.5 2
9 0 1 0 0 0 1 0 0 0 1 -44.5831 -21.00002 -75.28001 2 0.5 0.5
9 0 1 0 0 0 1 0 0 0 1 -46.0831 -22.00002 -80.78001 0.5 0.5 2
9 0 1 0 0 0 1 0 0 0 1 -45.5831 -35.00002 -43.78001 1 0.5 1
9 0 1 0 0 0 1 0 0 0 1 -45.5831 -45.00002 -27.78001 1 0.5 1
9 0 1 0 0 0 1 0 0 0 1 -45.5831 -46.00002 -20.78001 1 0.5 1
9 0 1 0 0 0 1 0 0 0 1 -45.5831 -47.00002 -22.78001 1 0.5 1
9 0 1 0 0 0 1 0 0 0 1 -47.0831 -19.50002 -92.78001 0.5 1 1
9 0 1 0 0 0 1 0 0 0 1 -47.0831 -22.00002 -95.78001 0.5 0.5 2
9 0 1 0 0 0 1 0 0 0 1 -47.0831 -26.00002 -71.78001 0.5 0.5 2
9 0 1 0 0 0 1 0 0 0 1 -46.5831 -38.00002 -37.78001 1 0.5 1
9 0 1 0 0 0 1 0 0 0 1 -46.5831 -41.00002 -35.78001 1 0.5 1
9 0 1 0 0 0 1 0 0 0 1 -48.0831 -25.00002 -77.78001 0.5 0.5 2
9 0 1 0 0 0 1 0 0 0 1 -48.0831 -26.00002 -83.78001 0.5 0.5 2
9 0 1 0 0 0 1 0 0 0 1 -47.5831 -35.00002 -45.78001 1 0.5 1
9 0 1 0 0 0 1 0 0 0 1 -48.0831 -39.50002 -36.78001 0.5 1 1
9 0 1 0 0 0 1 0 0 0 1 -48.5831 -26.00002 -73.78001 1 0.5 1
9 0 1 0 0 0 1 0 0 0 1 -48.5831 -31.00002 -64.78001 1 0.5 1
9 0 1 0 0 0 1 0 0 0 1 -49.0831 -35.50002 -47.78001 0.5 1 1
9 0 1 0 0 0 1 0 0 0 1 -50.0831 -21.00002 -104.78 0.5 0.5 2
9 0 1 0 0 0 1 0 0 0 1 -50.0831 -27.00002 -72.78001 0.5 0.5 2
9 0 1 0 0 0 1 0 0 0 1 -49.5831 -28.00002 -78.78001 1 0.5 1
9 0 1 0 0 0 1 0 0 0 1 -50.0831 -31.00002 -61.78001 0.5 0.5 2
9 0 1 0 0 0 1 0 0 0 1 -51.0831 -24.00002 -98.78001 0.5 0.5 2
9 0 1 0 0 0 1 0 0 0 1 46.9169 -223 92.71999 0.5 1.5 0.5
9 0 1 0 0 0 1 0 0 0 1 45.9169 -208 93.71999 0.5 1.5 0.5
9 0 1 0 0 0 1 0 0 0 1 43.9169 -195 90.71999 0.5 1.5 0.5
9 0 1 0 0 0 1 0 0 0 1 43.9169 -219 97.71999 0.5 1.5 0.5
9 0 1 0 0 0 1 0 0 0 1 42.9169 -213 96.71999 0.5 1.5 0.5
9 0 1 0 0 0 1 0 0 0 1 42.9169 -235 110.72 0.5 1.5 0.5
9 0 1 0 0 0 1 0 0 0 1 41.9169 -198 90.71999 0.5 1.5 0.5
9 0 1 0 0 0 1 0 0 0 1 41.9169 -203 93.71999 0.5 0.5 1.5
9 0 1 0 0 0 1 0 0 0 1 41.9169 -207 95.71999 0.5 1.5 0.5
9 0 1 0 0 0 1 0 0 0 1 41.9169 -209 97.71999 0.5 0.5 1.5
9 0 1 0 0 0 1 0 0 0 1 41.9169 -200 93.71999 1.5 0.5 0.5
9 0 1 0 0 0 1 0 0 0 1 40.9169 -205 97.71999 0.5 1.5 0.5
9 0 1 0 0 0 1 0 0 0 1 39.9169 -222 112.72 0.5 0.5 1.5
9 0 1 0 0 0 1 0 0 0 1 39.9169 -179 85.71999 1.5 0.5 0.5
9 0 1 0 0 0 1 0 0 0 1 39.9169 -211 99.71999 1.5 0.5 0.5
9 0 1 0 0 0 1 0 0 0 1 37.9169 -160 79.71999 0.5 1.5 0.5
9 0 1 0 0 0 1 0 0 0 1 38.9169 -211 106.72 1.5 0.5 0.5
9 0 1 0 0 0 1 0 0 0 1 38.9169 -223 113.72 1.5 0.5 0.5
9 0 1 0 0 0 1 0 0 0 1 36.9169 -177 88.71999 0.5 0.5 1.5
9 0 1 0 0 0 1 0 0 0 1 36.9169 -189 99.71999 0.5 1.5 0.5
9 0 1 0 0 0 1 0 0 0 1 37.9169 -198 97.71999 1.5 0.5 0.5
9 0 1 0 0 0 1 0 0 0 1 37.9169 -203 98.71999 1.5 0.5 0.5
9 0 1 0 0 0 1 0 0 0 1 35.9169 -159 78.71999 0.5 1.5 0.5
9 0 1 0 0 0 1 0 0 0 1 35.9169 -172 87.71999 0.5 1.5 0.5
9 0 1 0 0 0 1 0 0 0 1 35.9169 -177 92.71999 0.5 1.5 0.5
9 0 1 0 0 0 1 0 0 0 1 35.9169 -190 100.72 1.5 0.5 0.5
9 0 1 0 0 0 1 0 0 0 1 33.9169 -152 78.71999 1.5 0.5 0.5
9 0 1 0 0 0 1 0 0 0 1 33.9169 -154 79.71999 1.5 0.5 0.5
9 0 1 0 0 0 1 0 0 0 1 32.9169 -163 89.71999 0.5 0.5 1.5
9 0 1 0 0 0 1 0 0 0 1 31.9169 -128 64.71999 0.5 1.5 0.5
9 0 1 0 0 0 1 0 0 0 1 31.9169 -160 87.71999 0.5 1.5 0.5
9 0 1 0 0 0 1 0 0 0 1 31.9169 -138 71.71999 1.5 0.5 0.5
9 0 1 0 0 0 1 0 0 0 1 30.9169 -139 71.71999 0.5 0.5 1.5
9 0 1 0 0 0 1 0 0 0 1 31.9169 -143 74.71999 1.5 0.5 0.5
9 0 1 0 0 0 1 0 0 0 1 30.9169 -149 82.71999 0.5 1.5 0.5
9 0 1 0 0 0 1 0 0 0 1 31.9169 -170 91.71999 1.5 0.5 0.5
9 0 1 0 0 0 1 0 0 0 1 30.9169 -131 65.71999 1.5 0.5 0.5
9 0 1 0 0 0 1 0 0 0 1 30.9169 -134 69.71999 1.5 0.5 0.5
9 0 1 0 0 0 1 0 0 0 1 29.9169 -144 81.71999 0.5 0.5 1.5
9 0 1 0 0 0 1 0 0 0 1 29.9169 -148 86.71999 0.5 0.5 1.5
9 0 1 0 0 0 1 0 0 0 1 29.9169 -130 67.71999 1.5 0.5 0.5
9 0 1 0 0 0 1 0 0 0 1 28.9169 -158 87.71999 0.5 0.5 1.5
9 0 1 0 0 0 1 0 0 0 1 29.9169 -226 119.72 1.5 0.5 0.5
9 0 1 0 0 0 1 0 0 0 1 27.9169 -126 65.71999 0.5 0.5 1.5
9 0 1 0 0 0 1 0 0 0 1 27.9169 -132 73.71999 0.5 1.5 0.5
9 0 1 0 0 0 1 0 0 0 1 26.9169 -117 58.71999 0.5 1.5 0.5
9 0 1 0 0 0 1 0 0 0 1 26.9169 -119 60.71999 0.5 1.5 0.5
9 0 1 0 0 0 1 0 0 0 1 27.9169 -122 62.71999 1.5 0.5 0.5
9 0 1 0 0 0 1 0 0 0 1 26.9169 -127 71.71999 0.5 0.5 1.5
9 0 1 0 0 0 1 0 0 0 1 26.9169 -112 55.71999 1.5 0.5 0.5
9 0 1 0 0 0 1 0 0 0 1 25.9169 -115 58.71999 0.5 0.5 1.5
9 0 1 0 0 0 1 0 0 0 1 25.9169 -119 64.71999 0.5 0.5 1.5
9 0 1 0 0 0 1 0 0 0 1 26.9169 -138 77.71999 1.5 0.5 0.5
9 0 1 0 0 0 1 0 0 0 1 24.9169 -137 78.71999 0.5 0.5 1.5
9 0 1 0 0 0 1 0 0 0 1 23.9169 -87.00002 32.71999 0.5 1.5 0.5
9 0 1 0 0 0 1 0 0 0 1 23.9169 -102 47.71999 0.5 1.5 0.5
9 0 1 0 0 0 1 0 0 0 1 24.9169 -105 50.71999 1.5 0.5 0.5
9 0 1 0 0 0 1 0 0 0 1 23.9169 -92.00002 36.71999 1.5 0.5 0.5
9 0 1 0 0 0 1 0 0 0 1 23.9169 -94.00002 38.71999 1.5 0.5 0.5
9 0 1 0 0 0 1 0 0 0 1 22.9169 -106 59.71999 0.5 0.5 1.5
9 0 1 0 0 0 1 0 0 0 1 21.9169 -82.00002 26.71999 0.5 0.5 1.5
9 0 1 0 0 0 1 0 0 0 1 22.9169 -91.00002 38.71999 1.5 0.5 0.5
9 0 1 0 0 0 1 0 0 0 1 21.9169 -92.00002 38.71999 0.5 0.5 1.5
9 0 1 0 0 0 1 0 0 0 1 22.9169 -117 65.71999 1.5 0.5 0.5
9 0 1 0 0 0 1 0 0 0 1 21.9169 -85.00002 32.71999 1.5 0.5 0.5
9 0 1 0 0 0 1 0 0 0 1 21.9169 -87.00002 34.71999 1.5 0.5 0.5
9 0 1 0 0 0 1 0 0 0 1 21.9169 -111 61.71999 1.5 0.5 0.5
9 0 1 0 0 0 1 0 0 0 1 21.9169 -111 66.71999 1.5 0.5 0.5
9 0 1 0 0 0 1 0 0 0 1 20.9169 -114 64.71999 0.5 0.5 1.5
9 0 1 0 0 0 1 0 0 0 1 19.9169 -65.00002 7.719994 0.5 0.5 1.5
9 0 1 0 0 0 1 0 0 0 1 20.9169 -80.00002 27.71999 1.5 0.5 0.5
9 0 1 0 0 0 1 0 0 0 1 19.9169 -82.00002 29.71999 0.5 1.5 0.5
9 0 1 0 0 0 1 0 0 0 1 19.9169 -85.00002 35.71999 0.5 0.5 1.5
9 0 1 0 0 0 1 0 0 0 1 19.9169 -87.00002 39.71999 0.5 0.5 1.5
9 0 1 0 0 0 1 0 0 0 1 20.9169 -104 56.71999 1.5 0.5 0.5
9 0 1 0 0 0 1 0 0 0 1 18.9169 -81.00002 32.71999 0.5 0.5 1.5
9 0 1 0 0 0 1 0 0 0 1 18.9169 -83.00002 37.71999 0.5 0.5 1.5
9 0 1 0 0 0 1 0 0 0 1 18.9169 -85.00002 43.71999 0.5 0.5 1.5
9 0 1 0 0 0 1 0 0 0 1 19.9169 -99.00002 57.71999 1.5 0.5 0.5
9 0 1 0 0 0 1 0 0 0 1 19.9169 -100 53.71999 1.5 0.5 0.5
9 0 1 0 0 0 1 0 0 0 1 17.9169 -54.00002 -8.280006 0.5 0.5 1.5
9 0 1 0 0 0 1 0 0 0 1 18.9169 -69.00002 14.71999 1.5 0.5 0.5
9 0 1 0 0 0 1 0 0 0 1 18.9169 -71.00002 17.71999 1.5 0.5 0.5
9 0 1 0 0 0 1 0 0 0 1 17.9169 -72.00002 18.71999 0.5 0.5 1.5
9 0 1 0 0 0 1 0 0 0 1 17.9169 -74.00002 22.71999 0.5 0.5 1.5
9 0 1 0 0 0 1 0 0 0 1 18.9169 -90.00002 44.71999 1.5 0.5 0.5
9 0 1 0 0 0 1 0 0 0 1 18.9169 -94.00002 48.71999 1.5 0.5 0.5
9 0 1 0 0 0 1 0 0 0 1 17.9169 -97.00002 51.71999 0.5 0.5 1.5
9 0 1 0 0 0 1 0 0 0 1 16.9169 -49.00002 -17.28001 0.5 0.5 1.5
9 0 1 0 0 0 1 0 0 0 1 17.9169 -66.00002 11.71999 1.5 0.5 0.5
9 0 1 0 0 0 1 0 0 0 1 17.9169 -87.00002 47.71999 1.5 0.5 0.5
9 0 1 0 0 0 1 0 0 0 1 17.9169 -89.00002 49.71999 1.5 0.5 0.5
9 0 1 0 0 0 1 0 0 0 1 15.9169 -63.00002 9.719994 0.5 0.5 1.5
9 0 1 0 0 0 1 0 0 0 1 16.9169 -83.00002 43.71999 1.5 0.5 0.5
9 0 1 0 0 0 1 0 0 0 1 16.9169 -84.00002 39.71999 1.5 0.5 0.5
9 0 1 0 0 0 1 0 0 0 1 16.9169 -85.00002 45.71999 1.5 0.5 0.5
9 0 1 0 0 0 1 0 0 0 1 14.9169 -40.00002 -35.28001 0.5 0.5 1.5
9 0 1 0 0 0 1 0 0 0 1 14.9169 -42.00002 -31.28001 0.5 0.5 1.5
9 0 1 0 0 0 1 0 0 0 1 15.9169 -54.00002 -6.280006 1.5 0.5 0.5
9 0 1 0 0 0 1 0 0 0 1 15.9169 -55.00002 -4.280006 1.5 0.5 0.5
9 0 1 0 0 0 1 0 0 0 1 14.9169 -59.00002 5.719994 0.5 0.5 1.5
9 0 1 0 0 0 1 0 0 0 1 15.9169 -75.00002 29.71999 1.5 0.5 0.5
9 0 1 0 0 0 1 0 0 0 1 13.9169 -34.00002 -51.28001 0.5 0.5 1.5
9 0 1 0 0 0 1 0 0 0 1 13.9169 -35.00002 -48.28001 0.5 0.5 1.5
9 0 1 0 0 0 1 0 0 0 1 14.9169 -52.00002 -9.280006 1.5 0.5 0.5
9 0 1 0 0 0 1 0 0 0 1 13.9169 -56.00002 3.719994 0.5 0.5 1.5
9 0 1 0 0 0 1 0 0 0 1 14.9169 -70.00002 30.71999 1.5 0.5 0.5
9 0 1 0 0 0 1 0 0 0 1 14.9169 -72.00002 32.71999 1.5 0.5 0.5
9 0 1 0 0 0 1 0 0 0 1 14.9169 -76.00002 31.71999 1.5 0.5 0.5
9 0 1 0 0 0 1 0 0 0 1 13.9169 -48.00002 -15.28001 1.5 0.5 0.5
9 0 1 0 0 0 1 0 0 0 1 13.9169 -65.00002 24.71999 1.5 0.5 0.5
9 0 1 0 0 0 1 0 0 0 1 13.9169 -68.00002 22.71999 1.5 0.5 0.5
9 0 1 0 0 0 1 0 0 0 1 13.9169 -68.00002 28.71999 1.5 0.5 0.5
9 0 1 0 0 0 1 0 0 0 1 11.9169 -41.00002 -33.28001 0.5 0.5 1.5
9 0 1 0 0 0 1 0 0 0 1 12.9169 -42.00002 -27.28001 1.5 0.5 0.5
9 0 1 0 0 0 1 0 0 0 1 12.9169 -59.00002 10.71999 1.5 0.5 0.5
9 0 1 0 0 0 1 0 0 0 1 12.9169 -60.00002 18.71999 1.5 0.5 0.5
9 0 1 0 0 0 1 0 0 0 1 11.9169 -37.00002 -38.28001 1.5 0.5 0.5
9 0 1 0 0 0 1 0 0 0 1 11.9169 -56.00002 6.719994 1.5 0.5 0.5
9 0 1 0 0 0 1 0 0 0 1 11.9169 -56.00002 13.71999 1.5 0.5 0.5
9 0 1 0 0 0 1 0 0 0 1 10.9169 -60.00002 12.71999 0.5 0.5 1.5
9 0 1 0 0 0 1 0 0 0 1 11.9169 -77.00002 38.71999 1.5 0.5 0.5
9 0 1 0 0 0 1 0 0 0 1 9.916897 -26.00002 -91.28001 0.5 0.5 1.5
9 0 1 0 0 0 1 0 0 0 1 9.916897 -36.00002 -30.28001 0.5 0.5 1.5
9 0 1 0 0 0 1 0 0 0 1 10.9169 -49.00002 3.719994 1.5 0.5 0.5
9 0 1 0 0 0 1 0 0 0 1 8.916897 -25.00002 -75.28001 0.5 0.5 1.5
9 0 1 0 0 0 1 0 0 0 1 8.916897 -31.00002 -43.28001 0.5 0.5 1.5
9 0 1 0 0 0 1 0 0 0 1 9.916897 -226 119.72 1.5 0.5 0.5
9 0 1 0 0 0 1 0 0 0 1 8.916897 -38.00002 -15.28001 1.5 0.5 0.5
9 0 1 0 0 0 1 0 0 0 1 5.916897 -10.00002 -101.28 0.5 0.5 1.5
9 0 1 0 0 0 1 0 0 0 1 5.916897 -11.00002 -98.28001 0.5 0.5 1.5
9 0 1 0 0 0 1 0 0 0 1 6.916897 -28.00002 -35.28001 1.5 0.5 0.5
9 0 1 0 0 0 1 0 0 0 1 5.916897 -26.00002 -47.28001 1.5 0.5 0.5
9 0 1 0 0 0 1 0 0 0 1 4.916897 -15.00002 -77.28001 1.5 0.5 0.5
9 0 1 0 0 0 1 0 0 0 1 3.916897 -22.00002 -67.28001 0.5 0.5 1.5
9 0 1 0 0 0 1 0 0 0 1 3.916897 -10.00002 -94.28001 1.5 0.5 0.5
9 0 1 0 0 0 1 0 0 0 1 3.916897 -12.00002 -92.28001 1.5 0.5 0.5
9 0 1 0 0 0 1 0 0 0 1 -3.083103 -237 112.72 0.5 1.5 0.5
9 0 1 0 0 0 1 0 0 0 1 -5.083103 -230 111.72 0.5 1.5 0.5
9 0 1 0 0 0 1 0 0 0 1 -7.083103 -232 107.72 0.5 1.5 0.5
9 0 1 0 0 0 1 0 0 0 1 -7.083103 -237 102.72 0.5 1.5 0.5
9 0 1 0 0 0 1 0 0 0 1 -8.083103 -217 101.72 0.5 1.5 0.5
9 0 1 0 0 0 1 0 0 0 1 -8.083103 -227 103.72 0.5 1.5 0.5
9 0 1 0 0 0 1 0 0 0 1 -8.083103 -235 100.72 0.5 1.5 0.5
9 0 1 0 0 0 1 0 0 0 1 -10.0831 -213 107.72 0.5 1.5 0.5
9 0 1 0 0 0 1 0 0 0 1 -10.0831 -227 97.71999 0.5 1.5 0.5
9 0 1 0 0 0 1 0 0 0 1 -12.0831 -202 103.72 0.5 1.5 0.5
9 0 1 0 0 0 1 0 0 0 1 -12.0831 -196 102.72 1.5 0.5 0.5
9 0 1 0 0 0 1 0 0 0 1 -13.0831 -206 96.71999 0.5 1.5 0.5
9 0 1 0 0 0 1 0 0 0 1 -13.0831 -211 94.71999 0.5 1.5 0.5
9 0 1 0 0 0 1 0 0 0 1 -13.0831 -229 93.71999 0.5 1.5 0.5
9 0 1 0 0 0 1 0 0 0 1 -14.0831 -193 100.72 0.5 1.5 0.5
9 0 1 0 0 0 1 0 0 0 1 -14.0831 -198 98.71999 0.5 1.5 0.5
9 0 1 0 0 0 1 0 0 0 1 -14.0831 -220 92.71999 0.5 1.5 0.5
9 0 1 0 0 0 1 0 0 0 1 -14.0831 -229 94.71999 0.5 1.5 0.5
9 0 1 0 0 0 1 0 0 0 1 -15.0831 -191 97.71999 0.5 1.5 0.5
9 0 1 0 0 0 1 0 0 0 1 -15.0831 -194 96.71999 0.5 1.5 0.5
9 0 1 0 0 0 1 0 0 0 1 -15.0831 -197 93.71999 0.5 1.5 0.5
9 0 1 0 0 0 1 0 0 0 1 -15.0831 -212 91.71999 0.5 1.5 0.5
9 0 1 0 0 0 1 0 0 0 1 -16.0831 -188 93.71999 0.5 1.5 0.5
9 0 1 0 0 0 1 0 0 0 1 -16.0831 -213 92.71999 0.5 1.5 0.5
9 0 1 0 0 0 1 0 0 0 1 -17.0831 -158 86.71999 0.5 1.5 0.5
9 0 1 0 0 0 1 0 0 0 1 -17.0831 -182 93.71999 0.5 1.5 0.5
9 0 1 0 0 0 1 0 0 0 1 -17.0831 -206 91.71999 0.5 1.5 0.5
9 0 1 0 0 0 1 0 0 0 1 -18.0831 -168 94.71999 0.5 1.5 0.5
9 0 1 0 0 0 1 0 0 0 1 -18.0831 -190 91.71999 0.5 1.5 0.5
9 0 1 0 0 0 1 0 0 0 1 -19.0831 -168 90.71999 0.5 1.5 0.5
9 0 1 0 0 0 1 0 0 0 1 -19.0831 -188 87.71999 0.5 1.5 0.5
9 0 1 0 0 0 1 0 0 0 1 -19.0831 -197 92.71999 0.5 1.5 0.5
9 0 1 0 0 0 1 0 0 0 1 -20.0831 -172 84.71999 0.5 1.5 0.5
9 0 1 0 0 0 1 0 0 0 1 -20.0831 -192 89.71999 0.5 1.5 0.5
9 0 1 0 0 0 1 0 0 0 1 -20.0831 -128 76.71999 1.5 0.5 0.5
9 0 1 0 0 0 1 0 0 0 1 -20.0831 -151 83.71999 1.5 0.5 0.5
9 0 1 0 0 0 1 0 0 0 1 -21.0831 -154 87.71999 0.5 1.5 0.5
9 0 1 0 0 0 1 0 0 0 1 -21.0831 -165 84.71999 0.5 1.5 0.5
9 0 1 0 0 0 1 0 0 0 1 -21.0831 -166 82.71999 0.5 1.5 0.5
9 0 1 0 0 0 1 0 0 0 1 -23.0831 -149 81.71999 0.5 1.5 0.5
9 0 1 0 0 0 1 0 0 0 1 -23.0831 -132 79.71999 1.5 0.5 0.5
9 0 1 0 0 0 1 0 0 0 1 -24.0831 -151 76.71999 0.5 1.5 0.5
9 0 1 0 0 0 1 0 0 0 1 -24.0831 -79.00002 39.71999 1.5 0.5 0.5
9 0 1 0 0 0 1 0 0 0 1 -25.0831 -119 71.71999 1.5 0.5 0.5
9 0 1 0 0 0 1 0 0 0 1 -26.0831 -115 64.71999 1.5 0.5 0.5
9 0 1 0 0 0 1 0 0 0 1 -27.0831 -79.00002 40.71999 1.5 0.5 0.5
9 0 1 0 0 0 1 0 0 0 1 -27.0831 -107 63.71999 1.5 0.5 0.5
9 0 1 0 0 0 1 0 0 0 1 -27.0831 -108 59.71999 1.5 0.5 0.5
9 0 1 0 0 0 1 0 0 0 1 -28.0831 -129 66.71999 0.5 0.5 1.5
9 0 1 0 0 0 1 0 0 0 1 -28.0831 -148 75.71999 0.5 1.5 0.5
9 0 1 0 0 0 1 0 0 0 1 -28.0831 -77.00002 38.71999 1.5 0.5 0.5
9 0 1 0 0 0 1 0 0 0 1 -28.0831 -99.00002 57.71999 1.5 0.5 0.5
9 0 1 0 0 0 1 0 0 0 1 -28.0831 -104 56.71999 1.5 0.5 0.5
9 0 1 0 0 0 1 0 0 0 1 -29.0831 -95.00002 54.71999 1.5 0.5 0.5
9 0 1 0 0 0 1 0 0 0 1 -29.0831 -99.00002 52.71999 1.5 0.5 0.5
9 0 1 0 0 0 1 0 0 0 1 -30.0831 -120 61.71999 0.5 1.5 0.5
9 0 1 0 0 0 1 0 0 0 1 -30.0831 -87.00002 47.71999 1.5 0.5 0.5
9 0 1 0 0 0 1 0 0 0 1 -30.0831 -89.00002 49.71999 1.5 0.5 0.5
9 0 1 0 0 0 1 0 0 0 1 -30.0831 -93.00002 47.71999 1.5 0.5 0.5
9 0 1 0 0 0 1 0 0 0 1 -31.0831 -100 51.71999 0.5 1.5 0.5
9 0 1 0 0 0 1 0 0 0 1 -31.0831 -85.00002 45.71999 1.5 0.5 0.5
9 0 1 0 0 0 1 0 0 0 1 -31.0831 -88.00002 42.71999 1.5 0.5 0.5
9 0 1 0 0 0 1 0 0 0 1 -32.0831 -98.00002 49.71999 0.5 1.5 0.5
9 0 1 0 0 0 1 0 0 0 1 -32.0831 -103 50.71999 0.5 1.5 0.5
9 0 1 0 0 0 1 0 0 0 1 -32.0831 -80.00002 41.71999 1.5 0.5 0.5
9 0 1 0 0 0 1 0 0 0 1 -33.0831 -91.00002 42.71999 0.5 1.5 0.5
9 0 1 0 0 0 1 0 0 0 1 -33.0831 -118 58.71999 0.5 1.5 0.5
9 0 1 0 0 0 1 0 0 0 1 -33.0831 -72.00002 32.71999 1.5 0.5 0.5
9 0 1 0 0 0 1 0 0 0 1 -33.0831 -77.00002 32.71999 1.5 0.5 0.5
9 0 1 0 0 0 1 0 0 0 1 -34.0831 -83.00002 36.71999 0.5 1.5 0.5
9 0 1 0 0 0 1 0 0 0 1 -34.0831 -87.00002 39.71999 0.5 1.5 0.5
9 0 1 0 0 0 1 0 0 0 1 -34.0831 -89.00002 38.71999 0.5 1.5 0.5
9 0 1 0 0 0 1 0 0 0 1 -33.0831 -114 54.71999 1.5 0.5 0.5
9 0 1 0 0 0 1 0 0 0 1 -34.0831 -114 55.71999 0.5 1.5 0.5
9 0 1 0 0 0 1 0 0 0 1 -34.0831 -67.00002 27.71999 1.5 0.5 0.5
9 0 1 0 0 0 1 0 0 0 1 -35.0831 -82.00002 32.71999 0.5 1.5 0.5
9 0 1 0 0 0 1 0 0 0 1 -34.0831 -106 48.71999 1.5 0.5 0.5
9 0 1 0 0 0 1 0 0 0 1 -35.0831 -106 49.71999 0.5 1.5 0.5
9 0 1 0 0 0 1 0 0 0 1 -34.0831 -110 51.71999 1.5 0.5 0.5
9 0 1 0 0 0 1 0 0 0 1 -35.0831 -60.00002 18.71999 1.5 0.5 0.5
9 0 1 0 0 0 1 0 0 0 1 -36.0831 -75.00002 26.71999 0.5 1.5 0.5
9 0 1 0 0 0 1 0 0 0 1 -36.0831 -20.00002 -66.28001 1.5 0.5 0.5
9 0 1 0 0 0 1 0 0 0 1 -37.0831 -72.00002 23.71999 0.5 1.5 0.5
9 0 1 0 0 0 1 0 0 0 1 -37.0831 -80.00002 26.71999 0.5 1.5 0.5
9 0 1 0 0 0 1 0 0 0 1 -36.0831 -94.00002 38.71999 1.5 0.5 0.5
9 0 1 0 0 0 1 0 0 0 1 -36.0831 -95.00002 41.71999 1.5 0.5 0.5
9 0 1 0 0 0 1 0 0 0 1 -37.0831 -52.00002 7.719994 1.5 0.5 0.5
9 0 1 0 0 0 1 0 0 0 1 -38.0831 -62.00002 13.71999 0.5 0.5 1.5
9 0 1 0 0 0 1 0 0 0 1 -38.0831 -66.00002 15.71999 0.5 0.5 1.5
9 0 1 0 0 0 1 0 0 0 1 -37.0831 -86.00002 33.71999 1.5 0.5 0.5
9 0 1 0 0 0 1 0 0 0 1 -37.0831 -88.00002 35.71999 1.5 0.5 0.5
9 0 1 0 0 0 1 0 0 0 1 -37.0831 -90.00002 34.71999 1.5 0.5 0.5
9 0 1 0 0 0 1 0 0 0 1 -37.0831 -92.00002 36.71999 1.5 0.5 0.5
9 0 1 0 0 0 1 0 0 0 1 -38.0831 -46.00002 -1.280006 1.5 0.5 0.5
9 0 1 0 0 0 1 0 0 0 1 -38.0831 -50.00002 -2.280006 1.5 0.5 0.5
9 0 1 0 0 0 1 0 0 0 1 -39.0831 -57.00002 5.719994 0.5 1.5 0.5
9 0 1 0 0 0 1 0 0 0 1 -38.0831 -75.00002 22.71999 1.5 0.5 0.5
9 0 1 0 0 0 1 0 0 0 1 -38.0831 -85.00002 29.71999 1.5 0.5 0.5
9 0 1 0 0 0 1 0 0 0 1 -39.0831 -46.00002 -9.280006 1.5 0.5 0.5
9 0 1 0 0 0 1 0 0 0 1 -40.0831 -60.00002 4.719994 0.5 1.5 0.5
9 0 1 0 0 0 1 0 0 0 1 -40.0831 -63.00002 6.719994 0.5 1.5 0.5
9 0 1 0 0 0 1 0 0 0 1 -39.0831 -79.00002 23.71999 1.5 0.5 0.5
9 0 1 0 0 0 1 0 0 0 1 -39.0831 -80.00002 24.71999 1.5 0.5 0.5
9 0 1 0 0 0 1 0 0 0 1 -39.0831 -82.00002 26.71999 1.5 0.5 0.5
9 0 1 0 0 0 1 0 0 0 1 -40.0831 -18.00002 -64.28001 1.5 0.5 0.5
9 0 1 0 0 0 1 0 0 0 1 -40.0831 -32.00002 -26.28001 1.5 0.5 0.5
9 0 1 0 0 0 1 0 0 0 1 -41.0831 -39.00002 -16.28001 0.5 1.5 0.5
9 0 1 0 0 0 1 0 0 0 1 -40.0831 -43.00002 -15.28001 1.5 0.5 0.5
9 0 1 0 0 0 1 0 0 0 1 -40.0831 -68.00002 13.71999 1.5 0.5 0.5
9 0 1 0 0 0 1 0 0 0 1 -40.0831 -70.00002 15.71999 1.5 0.5 0.5
9 0 1 0 0 0 1 0 0 0 1 -40.0831 -75.00002 18.71999 1.5 0.5 0.5
9 0 1 0 0 0 1 0 0 0 1 -41.0831 -26.00002 -40.28001 1.5 0.5 0.5
9 0 1 0 0 0 1 0 0 0 1 -42.0831 -40.00002 -21.28001 0.5 0.5 1.5
9 0 1 0 0 0 1 0 0 0 1 -42.0831 -45.00002 -16.28001 0.5 1.5 0.5
9 0 1 0 0 0 1 0 0 0 1 -41.0831 -70.00002 12.71999 1.5 0.5 0.5
9 0 1 0 0 0 1 0 0 0 1 -43.0831 -47.00002 -18.28001 0.5 0.5 1.5
9 0 1 0 0 0 1 0 0 0 1 -42.0831 -60.00002 2.719994 1.5 0.5 0.5
9 0 1 0 0 0 1 0 0 0 1 -42.0831 -63.00002 3.719994 1.5 0.5 0.5
9 0 1 0 0 0 1 0 0 0 1 -43.0831 -22.00002 -63.28001 1.5 0.5 0.5
9 0 1 0 0 0 1 0 0 0 1 -44.0831 -34.00002 -38.28001 0.5 1.5 0.5
9 0 1 0 0 0 1 0 0 0 1 -45.0831 -14.00002 -105.28 0.5 0.5 1.5
9 0 1 0 0 0 1 0 0 0 1 -44.0831 -18.00002 -92.28001 1.5 0.5 0.5
9 0 1 0 0 0 1 0 0 0 1 -45.0831 -20.00002 -68.28001 0.5 0.5 1.5
9 0 1 0 0 0 1 0 0 0 1 -45.0831 -23.00002 -67.28001 0.5 0.5 1.5
9 0 1 0 0 0 1 0 0 0 1 -45.0831 -25.00002 -62.28001 0.5 0.5 1.5
9 0 1 0 0 0 1 0 0 0 1 -44.0831 -54.00002 -10.28001 1.5 0.5 0.5
9 0 1 0 0 0 1 0 0 0 1 -46.0831 -20.00002 -87.28001 0.5 0.5 1.5
9 0 1 0 0 0 1 0 0 0 1 -46.0831 -24.00002 -74.28001 0.5 0.5 1.5
9 0 1 0 0 0 1 0 0 0 1 -46.0831 -26.00002 -69.28001 0.5 0.5 1.5
9 0 1 0 0 0 1 0 0 0 1 -46.0831 -32.00002 -56.28001 0.5 0.5 1.5
9 0 1 0 0 0 1 0 0 0 1 -46.0831 -36.00002 -46.28001 0.5 0.5 1.5
9 0 1 0 0 0 1 0 0 0 1 -47.0831 -17.00002 -99.28001 0.5 0.5 1.5
9 0 1 0 0 0 1 0 0 0 1 -47.0831 -20.00002 -102.28 0.5 0.5 1.5
9 0 1 0 0 0 1 0 0 0 1 -47.0831 -22.00002 -84.28001 0.5 0.5 1.5
9 0 1 0 0 0 1 0 0 0 1 -47.0831 -25.00002 -81.28001 0.5 0.5 1.5
9 0 1 0 0 0 1 0 0 0 1 -47.0831 -28.00002 -70.28001 0.5 0.5 1.5
9 0 1 0 0 0 1 0 0 0 1 -47.0831 -29.00002 -61.28001 0.5 0.5 1.5
9 0 1 0 0 0 1 0 0 0 1 -47.0831 -45.00002 -25.28001 0.5 0.5 1.5
9 0 1 0 0 0 1 0 0 0 1 -48.0831 -41.00002 -34.28001 0.5 0.5 1.5
9 0 1 0 0 0 1 0 0 0 1 -49.0831 -31.00002 -57.28001 0.5 0.5 1.5
