9 0 1 0 0 0 1 0 0 0 1 10.0055 -28 -2.980232E-06 1.125001 4.378426 5.476574
9 0 1 0 0 0 1 0 0 0 1 10.0055 -28 0 6.250001 1.318288 1.318288
9 0 1 0 0 0 1 0 0 0 1 10.0055 -38.3875 -7.450581E-07 16.75001 0.8624991 9.250001
9 0 1 0 0 0 1 0 0 0 1 0.5577184 -45.25 3.72529E-07 4.572784 4.5 1.683505
9 0 1 0 0 0 1 0 0 0 1 20.0055 -45.25 -0.01250142 1.683506 4.5 5.1125
9 0 1 0 0 0 1 0 0 0 1 19.45329 -45.25 3.72529E-07 4.572785 4.5 1.683505
9 0 1 0 0 0 1 0 0 0 1 0.005500899 -45.25 -7.450581E-07 1.683506 4.5 5.125001
9 0 1 0 0 0 1 0 0 0 1 0.0212468 -4 -9.357754 8.116254 3.250001 1.107756
9 0 1 0 0 0 1 0 0 0 1 0.5118847 -35.25539 0.09490384 6.875614 0.09999967 2.905839
9 0 1 0 0 0 1 0 0 0 1 0.3545776 -28.20693 -5.125773 7.032921 4.582868 0.9102665
9 0 1 0 0 0 1 0 0 0 1 7.562499 -9.562502 1.886515 0.5750015 8.8125 6.147978
9 0 1 0 0 0 1 0 0 0 1 -7.1823 -9.5625 1.886515 0.1948 8.8125 6.147977
9 0 1 0 0 0 1 0 0 0 1 -0.07352831 -2 7.454745 8.211028 1.250001 0.5797474
9 0 1 0 0 0 1 0 0 0 1 1.896642E-06 -13.5625 -4.090509 5.487502 4.8125 0.3749989
9 0 1 0 0 0 1 0 0 0 1 0.5288564 -20.07752 8.198354 7.583645 2.901752 0.09999967
8192 0 -2.384186E-07 -8.940697E-08 -1 -0.9985296 -0.05421162 8.940697E-08 -0.05421153 0.9985296 -2.384186E-07 -7.239849 -23.92882 1.927614 4.353858 0.1 8.385568
8192 0 -2.384186E-07 8.940697E-08 -1 0.9985296 -0.05421162 -8.940697E-08 -0.05421153 -0.9985296 -2.384186E-07 27.09077 -23.92072 1.868722 4.353858 0.1 8.385568
9 0 1 0 0 0 1 0 0 0 1 19.47114 -20.07752 8.139462 7.583647 2.901752 0.09999967
9 0 1 0 0 0 1 0 0 0 1 20 -13.5625 -4.047377 5.512499 4.8125 0.2729781
9 0 1 0 0 0 1 0 0 0 1 20.06249 -1.911884 7.421527 8.174994 1.161886 0.5540721
9 0 1 0 0 0 1 0 0 0 1 27.2073 -9.5625 1.827623 0.1948 8.8125 6.147978
9 0 1 0 0 0 1 0 0 0 1 12.4625 -9.5625 1.827624 0.5750015 8.8125 6.147976
9 0 1 0 0 0 1 0 0 0 1 19.67042 -28.20693 -5.184667 7.032921 4.582868 0.9102665
9 0 1 0 0 0 1 0 0 0 1 19.51799 -35.13693 -0.07817283 6.880492 0.1000008 3.346254
9 0 1 0 0 0 1 0 0 0 1 20.00375 -4 -9.382465 8.116253 3.250001 1.141938
