8192 0 -2.384186E-07 8.940697E-08 -1 0.9985296 -0.05421162 -8.940697E-08 -0.05421153 -0.9985296 -2.384186E-07 7.09077 -23.92072 1.868722 4.353858 0.1 8.385568
9 0 1 0 0 0 1 0 0 0 1 -0.5288564 -20.07752 8.139462 7.583647 2.901752 0.09999967
9 0 1 0 0 0 1 0 0 0 1 1.110223E-14 -13.5625 -4.047377 5.512499 4.8125 0.2729781
9 0 1 0 0 0 1 0 0 0 1 0.06249025 -1.911884 7.421527 8.174994 1.161886 0.5540721
9 0 1 0 0 0 1 0 0 0 1 7.207296 -9.5625 1.827623 0.1948 8.8125 6.147978
9 0 1 0 0 0 1 0 0 0 1 -7.537501 -9.5625 1.827624 0.5750015 8.8125 6.147976
9 0 1 0 0 0 1 0 0 0 1 -0.3295809 -28.20693 -5.184667 7.032921 4.582868 0.9102665
9 0 1 0 0 0 1 0 0 0 1 -0.4820123 -35.13693 -0.07817283 6.880492 0.1000008 3.346254
9 0 1 0 0 0 1 0 0 0 1 0.003749877 -4 -9.382465 8.116253 3.250001 1.141938
