9 0 1 0 0 0 1 0 0 0 1 10.05983 -7.976269 9.075001 15.7205 7.226269 0.175
9 0 1 0 0 0 1 0 0 0 1 10.05983 -7.976268 -9.075002 15.7205 7.22627 0.175
9 0 1 0 0 0 1 0 0 0 1 9.737082 -22.93533 -9.221052 12.14789 6.440989 0.1
9 0 1 0 0 0 1 0 0 0 1 9.999999 -36.47068 3.032458E-10 3.364477 3.929323 3.364477
8192 0 0.9835128 0.1808383 0 0 0 -1 -0.1808383 0.9835129 0 -6.452621 -8.655563 -0.01310817 0.4936934 8.865993 7.831627
9 0 1 0 0 0 1 0 0 0 1 9.539328 -31.02851 -0.0266672 11.42732 0.1000014 8.161048
9 0 1 0 0 0 1 0 0 0 1 9.737082 -22.93533 9.221052 12.14789 6.440989 0.1
8192 0 0.9835128 0.1808383 0 0 0 -1 -0.1808383 0.9835129 0 -2.807882 -28.47795 -0.01310817 0.4936934 8.865993 0.1
8192 0 0.9835128 0.1808383 0 0 0 -1 -0.1808383 0.9835129 0 -3.89331 -22.57471 7.700466 0.4936934 1.152419 5.934123
8192 0 0.9835128 0.1808383 0 0 0 -1 -0.1808383 0.9835129 0 -3.790694 -23.1328 -7.492777 0.4936934 1.386324 5.366678
8192 0 -0.9835129 0.1808384 -7.450581E-08 -7.450581E-08 0 1 0.1808384 0.9835129 0 23.89331 -22.57471 -7.700466 0.4936934 1.152419 5.934123
8192 0 -0.9835129 0.1808384 -7.450581E-08 -7.450581E-08 0 1 0.1808384 0.9835129 0 22.80788 -28.47795 0.01310817 0.4936934 8.865993 0.1
8192 0 -0.9835129 0.1808384 -7.450581E-08 -7.450581E-08 0 1 0.1808384 0.9835129 0 23.7907 -23.1328 7.492777 0.4936934 1.386324 5.366678
8192 0 -0.9835129 0.1808384 -7.450581E-08 -7.450581E-08 0 1 0.1808384 0.9835129 0 26.45262 -8.655563 0.01310817 0.4936934 8.865993 7.831627
8192 0 0.9854952 0.1697037 4.693866E-07 -0.1300002 0.754933 -0.6427877 -0.1090838 0.6334641 0.7660444 -8.363356 -21.62976 -1.606969 1 3 3.5
8192 0 0.9854952 0.1697037 4.693866E-07 -0.1300002 0.754933 -0.6427877 -0.1090838 0.6334641 0.7660444 -10.52935 -20.83677 -2.571151 1 1.5 2.5
8192 0 0.9854952 0.1697037 4.693866E-07 -0.1300002 0.754933 -0.6427877 -0.1090838 0.6334641 0.7660444 -7.350607 -24.56465 0.9641823 0.5 1 3.5
8192 0 0.9854952 0.1697037 4.693866E-07 -0.1300002 0.754933 -0.6427877 -0.1090838 0.6334641 0.7660444 -9.711597 -22.63925 -0.9641817 0.5 1 2.5
8192 0 0.9854952 0.1697037 4.693866E-07 -0.1300002 0.754933 -0.6427877 -0.1090838 0.6334641 0.7660444 -8.929691 -18.34098 0.8144212 1 2 0.5
8192 0 0.9854952 0.1697037 4.693866E-07 -0.1300002 0.754933 -0.6427877 -0.1090838 0.6334641 0.7660444 -10.25064 -16.56261 -1.496965 1 1 1
8192 0 0.9854952 0.1697037 4.693866E-07 -0.1300002 0.754933 -0.6427877 -0.1090838 0.6334641 0.7660444 -8.336102 -24.73435 0.9641818 0.5 1 1.5
8192 0 0.9854952 0.1697037 4.693866E-07 -0.1300002 0.754933 -0.6427877 -0.1090838 0.6334641 0.7660444 -10.51477 -17.97513 -2.324638 2.5 0.5 0.5
8192 0 0.9854952 0.1697037 4.693866E-07 -0.1300002 0.754933 -0.6427877 -0.1090838 0.6334641 0.7660444 -7.304272 -24.8337 -4.028358 0.5 2 0.5
8192 0 0.9854952 0.1697037 4.693866E-07 -0.1300002 0.754933 -0.6427877 -0.1090838 0.6334641 0.7660444 -8.549768 -23.49354 -5.313934 0.5 2 0.5
8192 0 0.9854952 0.1697037 4.693866E-07 -0.1300002 0.754933 -0.6427877 -0.1090838 0.6334641 0.7660444 -10.29885 -19.22899 0.04837613 0.5 2 0.5
8192 0 0.9854952 0.1697037 4.693866E-07 -0.1300002 0.754933 -0.6427877 -0.1090838 0.6334641 0.7660444 -9.644346 -23.02978 -4.54789 0.5 2 0.5
8192 0 0.9854952 0.1697037 4.693866E-07 -0.1300002 0.754933 -0.6427877 -0.1090838 0.6334641 0.7660444 -7.155606 -25.69704 1.928364 0.5 0.5 1.5
8192 0 0.9854952 0.1697037 4.693866E-07 -0.1300002 0.754933 -0.6427877 -0.1090838 0.6334641 0.7660444 -9.516598 -23.77165 -1.653042E-07 0.5 0.5 1.5
8192 0 0.9854952 0.1697037 4.693866E-07 -0.1300002 0.754933 -0.6427877 -0.1090838 0.6334641 0.7660444 -11.60935 -17.51137 -1.558594 0.5 1.5 0.5
8192 0 0.9854952 0.1697037 4.693866E-07 -0.1300002 0.754933 -0.6427877 -0.1090838 0.6334641 0.7660444 -10.76209 -22.43149 -1.285576 0.5 0.5 1.5
8192 0 0.9854952 0.1697037 4.693866E-07 -0.1300002 0.754933 -0.6427877 -0.1090838 0.6334641 0.7660444 -12.13759 -20.3364 -3.21394 0.5 0.5 1.5
8192 0 0.985328 -0.1706712 -1.676381E-07 0.1307424 0.7548096 -0.6427821 0.1097045 0.6333512 0.7660491 28.88537 -20.9945 -2.249738 1.5 2 3.5
8192 0 0.985328 -0.1706712 -1.676381E-07 0.1307424 0.7548096 -0.6427821 0.1097045 0.6333512 0.7660491 27.93511 -23.55099 -4.369311E-07 1 1.5 2.5
8192 0 0.985328 -0.1706712 -1.676381E-07 0.1307424 0.7548096 -0.6427821 0.1097045 0.6333512 0.7660491 30.9214 -20.95844 -2.571129 0.5 1.5 2.5
8192 0 0.985328 -0.1706712 -1.676381E-07 0.1307424 0.7548096 -0.6427821 0.1097045 0.6333512 0.7660491 30.15423 -16.59867 -1.496912 1 1 1
8192 0 0.985328 -0.1706712 -1.676381E-07 0.1307424 0.7548096 -0.6427821 0.1097045 0.6333512 0.7660491 28.83152 -18.37576 0.8144586 1 2 0.5
8192 0 0.985328 -0.1706712 -1.676381E-07 0.1307424 0.7548096 -0.6427821 0.1097045 0.6333512 0.7660491 29.47847 -23.4296 -0.3213917 0.5 1 1.5
8192 0 0.985328 -0.1706712 -1.676381E-07 0.1307424 0.7548096 -0.6427821 0.1097045 0.6333512 0.7660491 27.67362 -25.06061 1.285564 1 0.5 1.5
8192 0 0.985328 -0.1706712 -1.676381E-07 0.1307424 0.7548096 -0.6427821 0.1097045 0.6333512 0.7660491 30.41696 -18.01144 -2.324595 2.5 0.5 0.5
8192 0 0.985328 -0.1706712 -1.676381E-07 0.1307424 0.7548096 -0.6427821 0.1097045 0.6333512 0.7660491 28.44655 -23.5279 -5.313934 0.5 2 0.5
8192 0 0.985328 -0.1706712 -1.676381E-07 0.1307424 0.7548096 -0.6427821 0.1097045 0.6333512 0.7660491 28.32959 -21.27354 1.976756 1 1 0.5
8192 0 0.985328 -0.1706712 -1.676381E-07 0.1307424 0.7548096 -0.6427821 0.1097045 0.6333512 0.7660491 27.67137 -25.07364 -2.619539 1 1 0.5
8192 0 0.985328 -0.1706712 -1.676381E-07 0.1307424 0.7548096 -0.6427821 0.1097045 0.6333512 0.7660491 27.19974 -24.86685 -4.02837 0.5 2 0.5
8192 0 0.985328 -0.1706712 -1.676381E-07 0.1307424 0.7548096 -0.6427821 0.1097045 0.6333512 0.7660491 32.03747 -20.3743 -3.213912 0.5 0.5 1.5
8192 0 0.985328 -0.1706712 -1.676381E-07 0.1307424 0.7548096 -0.6427821 0.1097045 0.6333512 0.7660491 31.512 -17.54876 -1.558546 0.5 1.5 0.5
8192 0 0.985328 -0.1706712 -1.676381E-07 0.1307424 0.7548096 -0.6427821 0.1097045 0.6333512 0.7660491 30.65991 -22.46805 -1.285565 0.5 0.5 1.5
8192 0 0.985328 -0.1706712 -1.676381E-07 0.1307424 0.7548096 -0.6427821 0.1097045 0.6333512 0.7660491 27.05022 -25.73009 1.928346 0.5 0.5 1.5
8192 0 0.9832548 0.182236 0 -0.182236 0.9832548 0 0 0 1 -11.60557 -15.87248 -14.25 0.5 0.5 6.5
8192 0 0.9832548 -0.182236 0 0.182236 0.9832548 0 0 0 1 31.60557 -15.87248 -14.25 0.5 0.5 6.5
