9 0 1 0 0 0 -1.192093E-07 1 0 -1 -1.192093E-07 -30 8 -10 3.35 0.5 3.35
9 0 1 0 0 0 -1.192093E-07 1 0 -1 -1.192093E-07 -10 8 -10 3.35 0.5 3.35
9 0 1 0 0 0 -1.192093E-07 1 0 -1 -1.192093E-07 -30 -12 -10 3.35 0.5 3.35
9 0 1 0 0 0 -1.192093E-07 1 0 -1 -1.192093E-07 -10 -12 -10 3.35 0.5 3.35
9 0 1 0 0 0 -1.192093E-07 1 0 -1 -1.192093E-07 10 8 -10 3.35 0.5 3.35
9 0 1 0 0 0 -1.192093E-07 1 0 -1 -1.192093E-07 30 8 -10 3.35 0.5 3.35
9 0 1 0 0 0 -1.192093E-07 1 0 -1 -1.192093E-07 10 -12 -10 3.35 0.5 3.35
9 0 1 0 0 0 -1.192093E-07 1 0 -1 -1.192093E-07 30 -12 -10 3.35 0.5 3.35
9 0 1 0 0 0 -1.192093E-07 1 0 -1 -1.192093E-07 -10 -32 -10 3.35 0.5 3.35
9 0 1 0 0 0 -1.192093E-07 1 0 -1 -1.192093E-07 10 -32 -10 3.35 0.5 3.35
9 0 1 0 0 0 -1.192093E-07 1 0 -1 -1.192093E-07 -10 28 -10 3.35 0.5 3.35
9 0 1 0 0 0 -1.192093E-07 1 0 -1 -1.192093E-07 10 28 -10 3.35 0.5 3.35
9 0 1 0 0 0 1 0 0 0 1 17.5 0 1 8 0.5 6.5
9 0 1 0 0 0 1 0 0 0 1 0 17.5 1 0.5 8 6.5
9 0 1 0 0 0 1 0 0 0 1 0 -17.5 1 0.5 8 6.5
9 0 1 0 0 0 1 0 0 0 1 -17.5 0 1 8 0.5 6.5
9 0 1 0 0 0 1 0 0 0 1 39 0 0 0.5 4.5 8.5
9 0 1 0 0 0 1 0 0 0 1 0 39 0 4.5 0.5 8.5
9 0 1 0 0 0 1 0 0 0 1 0 -39 0 4.5 0.5 8.5
9 0 1 0 0 0 1 0 0 0 1 -39 0 0 0.5 4.5 8.5
9 0 1 0 0 0 1 0 0 0 1 33.5 0 1 2 0.5 6.5
9 0 1 0 0 0 1 0 0 0 1 0 33.5 1 0.5 2 6.5
9 0 1 0 0 0 1 0 0 0 1 0 -33.5 1 0.5 2 6.5
9 0 1 0 0 0 1 0 0 0 1 -33.5 0 1 2 0.5 6.5
9 0 1 0 0 0 1 0 0 0 1 6 0 2.5 0.5 1.5 8
9 0 1 0 0 0 1 0 0 0 1 0 6 2.5 1.5 0.5 8
9 0 1 0 0 0 1 0 0 0 1 0 -6 2.5 1.5 0.5 8
9 0 1 0 0 0 1 0 0 0 1 -6 0 2.5 0.5 1.5 8
9 0 1 0 0 0 1 0 0 0 1 30 10 -12 3.5 2.5 0.5
9 0 1 0 0 0 1 0 0 0 1 30 -10 -12 3.5 2.5 0.5
9 0 1 0 0 0 1 0 0 0 1 10 30 -12 3.5 2.5 0.5
9 0 1 0 0 0 1 0 0 0 1 10 10 -12 3.5 2.5 0.5
9 0 1 0 0 0 1 0 0 0 1 10 -10 -12 3.5 2.5 0.5
9 0 1 0 0 0 1 0 0 0 1 10 -30 -12 3.5 2.5 0.5
9 0 1 0 0 0 1 0 0 0 1 -10 30 -12 3.5 2.5 0.5
9 0 1 0 0 0 1 0 0 0 1 -10 10 -12 3.5 2.5 0.5
9 0 1 0 0 0 1 0 0 0 1 -10 -10 -12 3.5 2.5 0.5
9 0 1 0 0 0 1 0 0 0 1 -10 -30 -12 3.5 2.5 0.5
9 0 1 0 0 0 1 0 0 0 1 -30 10 -12 3.5 2.5 0.5
9 0 1 0 0 0 1 0 0 0 1 -30 -10 -12 3.5 2.5 0.5
9 0 1 0 0 0 1 0 0 0 1 38 8.5 0 0.5 1 8.5
9 0 1 0 0 0 1 0 0 0 1 38 -8.5 0 0.5 1 8.5
9 0 1 0 0 0 1 0 0 0 1 8.5 38 0 1 0.5 8.5
9 0 1 0 0 0 1 0 0 0 1 8.5 -38 0 1 0.5 8.5
9 0 1 0 0 0 1 0 0 0 1 -8.5 38 0 1 0.5 8.5
9 0 1 0 0 0 1 0 0 0 1 -8.5 -38 0 1 0.5 8.5
9 0 1 0 0 0 1 0 0 0 1 -38 8.5 0 0.5 1 8.5
9 0 1 0 0 0 1 0 0 0 1 -38 -8.5 0 0.5 1 8.5
9 0 1 0 0 0 1 0 0 0 1 37 12 0 0.5 0.5 8.5
9 0 1 0 0 0 1 0 0 0 1 37 -12 0 0.5 0.5 8.5
9 0 1 0 0 0 1 0 0 0 1 12 37 0 0.5 0.5 8.5
9 0 1 0 0 0 1 0 0 0 1 12 -37 0 0.5 0.5 8.5
9 0 1 0 0 0 1 0 0 0 1 -12 37 0 0.5 0.5 8.5
9 0 1 0 0 0 1 0 0 0 1 -12 -37 0 0.5 0.5 8.5
9 0 1 0 0 0 1 0 0 0 1 -37 12 0 0.5 0.5 8.5
9 0 1 0 0 0 1 0 0 0 1 -37 -12 0 0.5 0.5 8.5
9 0 1 0 0 0 1 0 0 0 1 35 -17 0 0.5 0.5 5.5
9 0 1 0 0 0 1 0 0 0 1 17 35 0 0.5 0.5 5.5
9 0 1 0 0 0 1 0 0 0 1 -17 -35 0 0.5 0.5 5.5
9 0 1 0 0 0 1 0 0 0 1 -35 17 0 0.5 0.5 5.5
9 0 1 0 0 0 1 0 0 0 1 35 17 3.5 0.5 0.5 5
9 0 1 0 0 0 1 0 0 0 1 17 -35 3.5 0.5 0.5 5
9 0 1 0 0 0 1 0 0 0 1 -17 35 3.5 0.5 0.5 5
9 0 1 0 0 0 1 0 0 0 1 -35 -17 3.5 0.5 0.5 5
9 0 1 0 0 0 1 0 0 0 1 30 13 -12 2.5 0.5 0.5
9 0 1 0 0 0 1 0 0 0 1 30 7 -12 2.5 0.5 0.5
9 0 1 0 0 0 1 0 0 0 1 30 -7 -12 2.5 0.5 0.5
9 0 1 0 0 0 1 0 0 0 1 30 -13 -12 2.5 0.5 0.5
9 0 1 0 0 0 1 0 0 0 1 10 33 -12 2.5 0.5 0.5
9 0 1 0 0 0 1 0 0 0 1 10 27 -12 2.5 0.5 0.5
9 0 1 0 0 0 1 0 0 0 1 10 13 -12 2.5 0.5 0.5
9 0 1 0 0 0 1 0 0 0 1 10 7 -12 2.5 0.5 0.5
9 0 1 0 0 0 1 0 0 0 1 10 -7 -12 2.5 0.5 0.5
9 0 1 0 0 0 1 0 0 0 1 10 -13 -12 2.5 0.5 0.5
9 0 1 0 0 0 1 0 0 0 1 10 -27 -12 2.5 0.5 0.5
9 0 1 0 0 0 1 0 0 0 1 10 -33 -12 2.5 0.5 0.5
9 0 1 0 0 0 1 0 0 0 1 -10 33 -12 2.5 0.5 0.5
9 0 1 0 0 0 1 0 0 0 1 -10 27 -12 2.5 0.5 0.5
9 0 1 0 0 0 1 0 0 0 1 -10 13 -12 2.5 0.5 0.5
9 0 1 0 0 0 1 0 0 0 1 -10 7 -12 2.5 0.5 0.5
9 0 1 0 0 0 1 0 0 0 1 -10 -7 -12 2.5 0.5 0.5
9 0 1 0 0 0 1 0 0 0 1 -10 -13 -12 2.5 0.5 0.5
9 0 1 0 0 0 1 0 0 0 1 -10 -27 -12 2.5 0.5 0.5
9 0 1 0 0 0 1 0 0 0 1 -10 -33 -12 2.5 0.5 0.5
9 0 1 0 0 0 1 0 0 0 1 -30 13 -12 2.5 0.5 0.5
9 0 1 0 0 0 1 0 0 0 1 -30 7 -12 2.5 0.5 0.5
9 0 1 0 0 0 1 0 0 0 1 -30 -7 -12 2.5 0.5 0.5
9 0 1 0 0 0 1 0 0 0 1 -30 -13 -12 2.5 0.5 0.5
9 0 1 0 0 0 1 0 0 0 1 36 15 -2.5 0.5 0.5 2
9 0 1 0 0 0 1 0 0 0 1 36 -15 2.5 0.5 0.5 2
9 0 1 0 0 0 1 0 0 0 1 15 36 2.5 0.5 0.5 2
9 0 1 0 0 0 1 0 0 0 1 15 -36 -2.5 0.5 0.5 2
9 0 1 0 0 0 1 0 0 0 1 -15 36 -2.5 0.5 0.5 2
9 0 1 0 0 0 1 0 0 0 1 -15 -36 2.5 0.5 0.5 2
9 0 1 0 0 0 1 0 0 0 1 -36 15 2.5 0.5 0.5 2
9 0 1 0 0 0 1 0 0 0 1 -36 -15 -2.5 0.5 0.5 2
9 0 1 0 0 0 1 0 0 0 1 36 15 4 0.5 0.5 1.5
9 0 1 0 0 0 1 0 0 0 1 36 -15 -4 0.5 0.5 1.5
9 0 1 0 0 0 1 0 0 0 1 15 36 -4 0.5 0.5 1.5
9 0 1 0 0 0 1 0 0 0 1 15 -36 4 0.5 0.5 1.5
9 0 1 0 0 0 1 0 0 0 1 -15 36 4 0.5 0.5 1.5
9 0 1 0 0 0 1 0 0 0 1 -15 -36 -4 0.5 0.5 1.5
9 0 1 0 0 0 1 0 0 0 1 -36 15 -4 0.5 0.5 1.5
9 0 1 0 0 0 1 0 0 0 1 -36 -15 4 0.5 0.5 1.5
