9 0 1 0 0 0 1 0 0 0 1 0.3360004 1.1 6.054999 1.5 5 1
9 0 1 0 0 0 1 0 0 0 1 -0.1639996 1.1 4.554999 1 6 0.5
9 0 1 0 0 0 1 0 0 0 1 -0.1639996 -4.9 -1.945001 1 1 3
9 0 1 0 0 0 1 0 0 0 1 -0.1639996 -0.3999996 -4.945001 1 2.5 1
9 0 1 0 0 0 1 0 0 0 1 0.3360004 5.1 0.5549994 0.5 1 3.5
9 0 1 0 0 0 1 0 0 0 1 -0.1639996 -4.4 2.554999 1 0.5 1.5
9 0 1 0 0 0 1 0 0 0 1 1.336 -0.3999996 -5.445001 0.5 2.5 0.5
9 0 1 0 0 0 1 0 0 0 1 1.336 -5.4 -2.445001 0.5 0.5 2.5
9 0 1 0 0 0 1 0 0 0 1 0.3360004 6.6 2.054999 0.5 0.5 2
9 0 1 0 0 0 1 0 0 0 1 -0.1639996 3.6 -3.945001 1 0.5 1
9 0 1 0 0 0 1 0 0 0 1 -0.1639996 -3.4 -3.945001 1 0.5 1
9 0 1 0 0 0 1 0 0 0 1 -0.1639996 -4.9 5.554999 1 1 0.5
9 0 1 0 0 0 1 0 0 0 1 1.336 -3.4 4.554999 0.5 1.5 0.5
9 0 1 0 0 0 1 0 0 0 1 0.3360004 6.6 5.554999 1.5 0.5 0.5
